# vtk DataFile Version 3.0
# Dislocation lines converted from MoDELib file
ASCII
DATASET UNSTRUCTURED_GRID
POINTS 2855 double
-1.429999999999877e+00  3.863858941524650e+02 -2.918975276816622e+03
-1.429999999999897e+00 -3.863858941524674e+02 -2.918975276816622e+03
-1.429999999999897e+00  0.000000000000000e+00 -2.918975276816622e+03
-1.430000000000221e+00  0.000000000000000e+00  2.918975276816619e+03
-1.430000000000221e+00 -3.863858941524674e+02  2.918975276816619e+03
-1.430000000000201e+00  3.863858941524653e+02  2.918975276816619e+03
-1.148401673623224e+03  1.106043631834853e+00 -2.918975276816622e+03
-1.148371321860739e+03 -1.077648739626684e+00 -2.918975276816622e+03
-1.148385303665583e+03 -1.751533683413368e+00 -2.918975276816622e+03
-1.148381994565789e+03 -4.162811741031686e+00 -2.918975276816622e+03
-1.148348728346280e+03 -5.164816326817098e+00 -2.918975276816622e+03
-1.148043491802880e+03 -7.135499709453017e+00 -2.918975276816622e+03
-1.148305982270727e+03 -8.985538724973042e+00 -2.918975276816622e+03
-1.148319742589171e+03 -1.294806286245669e+01 -2.918975276816622e+03
-1.148272187261305e+03 -1.367798329822052e+01 -2.918975276816622e+03
-1.148306102335139e+03 -1.660436992650013e+01 -2.918975276816622e+03
-1.148222950548705e+03 -2.009480504266260e+01 -2.918975276816622e+03
-1.148257026958066e+03 -2.290277529884096e+01 -2.918975276816622e+03
-1.148188855908193e+03 -2.691535010479064e+01 -2.918975276816622e+03
-1.148213961223701e+03 -2.804157434266870e+01 -2.918975276816622e+03
-1.148167442035437e+03 -3.455382002363523e+01 -2.918975276816622e+03
-1.148150854780937e+03 -3.540590116186716e+01 -2.918975276816622e+03
-1.148133744849646e+03 -3.851456049196930e+01 -2.918975276816622e+03
-1.148100483518534e+03 -4.346578505615186e+01 -2.918975276816622e+03
-1.148084642836377e+03 -4.491812021242005e+01 -2.918975276816622e+03
-1.148039542188339e+03 -5.005713062049037e+01 -2.918975276816622e+03
-1.147988842428536e+03 -5.593732126448212e+01 -2.918975276816622e+03
-1.147995822560964e+03 -5.839222730988227e+01 -2.918975276816622e+03
-1.147934508313208e+03 -6.004142336097766e+01 -2.918975276816622e+03
-1.147980309049611e+03 -6.116638945461970e+01 -2.918975276816622e+03
-1.147889550154808e+03 -6.327839347096845e+01 -2.918975276816622e+03
-1.147964221626564e+03 -6.426600106575292e+01 -2.918975276816622e+03
-1.147849991956295e+03 -6.640611997372267e+01 -2.918975276816622e+03
-1.147944020099056e+03 -6.742478578308422e+01 -2.918975276816622e+03
-1.147811630776002e+03 -6.996137183176150e+01 -2.918975276816622e+03
-1.147913732584323e+03 -7.067173438341688e+01 -2.918975276816622e+03
-1.147773008123390e+03 -7.212569691085061e+01 -2.918975276816622e+03
-1.147886171215582e+03 -7.418281526389946e+01 -2.918975276816622e+03
-1.147747135300003e+03 -7.530232070100325e+01 -2.918975276816622e+03
-1.147870229434156e+03 -7.637546034245310e+01 -2.918975276816622e+03
-1.147718808171931e+03 -7.836729699089602e+01 -2.918975276816622e+03
-1.147843131345116e+03 -8.038738285387385e+01 -2.918975276816622e+03
-1.147710312589678e+03 -8.148784783193096e+01 -2.918975276816622e+03
-1.147845480444297e+03 -8.371711355513716e+01 -2.918975276816622e+03
-1.147713158335953e+03 -8.553978303387285e+01 -2.918975276816622e+03
-1.147787924025911e+03 -8.726413429761914e+01 -2.918975276816622e+03
-1.147638383926436e+03 -8.938895635199223e+01 -2.918975276816622e+03
-1.147807310686732e+03 -9.037814271254557e+01 -2.918975276816622e+03
-1.147691277709775e+03 -9.204013728575846e+01 -2.918975276816622e+03
-1.147760467358660e+03 -9.483531065297555e+01 -2.918975276816622e+03
-1.147648180686417e+03 -9.554551435847301e+01 -2.918975276816622e+03
-1.147763491941244e+03 -9.843558768263078e+01 -2.918975276816622e+03
-1.147640669804483e+03 -1.003596924773215e+02 -2.918975276816622e+03
-1.147720919554658e+03 -1.013924427791490e+02 -2.918975276816622e+03
-1.147612221848191e+03 -1.032421592424371e+02 -2.918975276816622e+03
-1.147707834480410e+03 -1.042501291079151e+02 -2.918975276816622e+03
-1.147599985336028e+03 -1.062163619165260e+02 -2.918975276816622e+03
-1.147675327799395e+03 -1.072758803406671e+02 -2.918975276816622e+03
-1.147583598073341e+03 -1.096913008404212e+02 -2.918975276816622e+03
-1.147651437841651e+03 -1.105493651004747e+02 -2.918975276816622e+03
-1.147523532340432e+03 -1.122723480412415e+02 -2.918975276816622e+03
-1.147551354700680e+03 -1.140916667156324e+02 -2.918975276816622e+03
-1.147714017120260e+03 -1.141025626976250e+02 -2.918975276816622e+03
-1.147668731790719e+03 -1.157201010666032e+02 -2.918975276816622e+03
-1.147589728672197e+03 -1.183231175732419e+02 -2.918975276816622e+03
-1.147617396760118e+03 -1.201151126869389e+02 -2.918975276816622e+03
-1.147598506149087e+03 -1.213429450592747e+02 -2.918975276816622e+03
-1.147617589550895e+03 -1.236062700926156e+02 -2.918975276816622e+03
-1.147617223704912e+03 -1.248546738740013e+02 -2.918975276816622e+03
-1.147641892107109e+03 -1.294797809836442e+02 -2.918975276816622e+03
-1.147615311958825e+03 -1.296891176407377e+02 -2.918975276816622e+03
-1.147638927667507e+03 -1.319524551252105e+02 -2.918975276816622e+03
-1.147669675281239e+03 -1.340682769315810e+02 -2.918975276816622e+03
-1.147639144982917e+03 -1.343602278817532e+02 -2.918975276816622e+03
-1.147640085146817e+03 -1.357579537981790e+02 -2.918975276816622e+03
-1.147672397933319e+03 -1.384086040064784e+02 -2.918975276816622e+03
-1.147686573446596e+03 -1.400530544973922e+02 -2.918975276816622e+03
-1.147682816999470e+03 -1.412542070038906e+02 -2.918975276816622e+03
-1.147693228705735e+03 -1.431653801820016e+02 -2.918975276816622e+03
-1.147698870537671e+03 -1.441658349763493e+02 -2.918975276816622e+03
-1.147721195378446e+03 -1.461335636771414e+02 -2.918975276816622e+03
-1.147720969888466e+03 -1.471540235305602e+02 -2.918975276816622e+03
-1.147735908174295e+03 -1.496621081771977e+02 -2.918975276816622e+03
-1.147736989347854e+03 -1.503642276933816e+02 -2.918975276816622e+03
-1.147756610543859e+03 -1.520543416684551e+02 -2.918975276816622e+03
-1.147759693578617e+03 -1.540308575699276e+02 -2.918975276816622e+03
-1.147800343083775e+03 -1.601504185954015e+02 -2.918975276816622e+03
-1.147802414621867e+03 -1.612038558177814e+02 -2.918975276816622e+03
-1.147817337325761e+03 -1.632600846234317e+02 -2.918975276816622e+03
-1.147821503541708e+03 -1.647768100065552e+02 -2.918975276816622e+03
-1.147856522399034e+03 -1.723253667187963e+02 -2.918975276816622e+03
-1.147868926033118e+03 -1.756684639402684e+02 -2.918975276816622e+03
-1.147884477045665e+03 -1.783099077421370e+02 -2.918975276816622e+03
-1.147890471040330e+03 -1.802146263616825e+02 -2.918975276816622e+03
-1.147881470807603e+03 -1.812768639336918e+02 -2.918975276816622e+03
-1.147896473609837e+03 -1.831505820683651e+02 -2.918975276816622e+03
-1.147909765694041e+03 -1.847133386958089e+02 -2.918975276816622e+03
-1.147923208647490e+03 -1.894708729260824e+02 -2.918975276816622e+03
-1.147886725301536e+03 -1.900162854321582e+02 -2.918975276816622e+03
-1.147907747804629e+03 -1.919467951131505e+02 -2.918975276816622e+03
-1.147896997359539e+03 -1.939011163007536e+02 -2.918975276816622e+03
-1.147926760956885e+03 -1.942956356932836e+02 -2.918975276816622e+03
-1.147880218457462e+03 -1.960519204754607e+02 -2.918975276816622e+03
-1.147901842445896e+03 -2.000945470307607e+02 -2.918975276816622e+03
-1.147848888865222e+03 -2.010848800424667e+02 -2.918975276816622e+03
-1.147901188430901e+03 -2.031445766210650e+02 -2.918975276816622e+03
-1.147833958917281e+03 -2.041352239719215e+02 -2.918975276816622e+03
-1.147882499420808e+03 -2.060058024880022e+02 -2.918975276816622e+03
-1.147809208224029e+03 -2.071012025014776e+02 -2.918975276816622e+03
-1.147841775083398e+03 -2.096399663182038e+02 -2.918975276816622e+03
-1.147779957641934e+03 -2.104361012088729e+02 -2.918975276816622e+03
-1.147820223312052e+03 -2.123795130003541e+02 -2.918975276816622e+03
-1.147710109043447e+03 -2.155932250768719e+02 -2.918975276816622e+03
-1.147711324051516e+03 -2.182332356487459e+02 -2.918975276816622e+03
-1.147651093412778e+03 -2.200641977295827e+02 -2.918975276816622e+03
-1.147677446034862e+03 -2.212014410736099e+02 -2.918975276816622e+03
-1.147604229939668e+03 -2.231643615228565e+02 -2.918975276816622e+03
-1.147598903841720e+03 -2.246358985228077e+02 -2.918975276816622e+03
-1.147476782378277e+03 -2.294524000374545e+02 -2.918975276816622e+03
-1.147458269554181e+03 -2.301842366112101e+02 -2.918975276816622e+03
-1.147363152266957e+03 -2.320103662752901e+02 -2.918975276816622e+03
-1.147215255927598e+03 -2.338334081915384e+02 -2.918975276816622e+03
-1.147336456223941e+03 -2.338652451425561e+02 -2.918975276816622e+03
-1.147470737824521e+03 -2.355293093696273e+02 -2.918975276816622e+03
-1.147494833177091e+03 -2.381363903468078e+02 -2.918975276816622e+03
-1.147618073039687e+03 -2.400709710314133e+02 -2.918975276816622e+03
-1.147604942957438e+03 -2.411830263505358e+02 -2.918975276816622e+03
-1.147731956603250e+03 -2.431707685995517e+02 -2.918975276816622e+03
-1.147678807584580e+03 -2.444853300011928e+02 -2.918975276816622e+03
-1.147825473339915e+03 -2.470409072905537e+02 -2.918975276816622e+03
-1.147896132429549e+03 -2.470552002312083e+02 -2.918975276816622e+03
-1.147850971029513e+03 -2.497672383932220e+02 -2.918975276816622e+03
-1.147798061731539e+03 -2.508512466881976e+02 -2.918975276816622e+03
-1.147798474858362e+03 -2.516886096750941e+02 -2.918975276816622e+03
-1.147814808980215e+03 -2.538526461470259e+02 -2.918975276816622e+03
-1.147792047772121e+03 -2.552310064477327e+02 -2.918975276816622e+03
-1.147785090903206e+03 -2.574830776116644e+02 -2.918975276816622e+03
-1.147815391235741e+03 -2.577262679225923e+02 -2.918975276816622e+03
-1.147820719554032e+03 -2.601526183502601e+02 -2.918975276816622e+03
-1.147807797477723e+03 -2.609430228736417e+02 -2.918975276816622e+03
-1.147810985712910e+03 -2.634031141178227e+02 -2.918975276816622e+03
-1.147827246706604e+03 -2.661362831971881e+02 -2.918975276816622e+03
-1.147839724329819e+03 -2.710889380632548e+02 -2.918975276816622e+03
-1.147843457365474e+03 -2.738733997111034e+02 -2.918975276816622e+03
-1.147841146611046e+03 -2.755635201764406e+02 -2.918975276816622e+03
-1.147847505635409e+03 -2.773808303022487e+02 -2.918975276816622e+03
-1.147850646433472e+03 -2.802892127442086e+02 -2.918975276816622e+03
-1.147848625056733e+03 -2.843310395400551e+02 -2.918975276816622e+03
-1.147839178308299e+03 -2.859578037100410e+02 -2.918975276816622e+03
-1.147841096171215e+03 -2.878058777316857e+02 -2.918975276816622e+03
-1.147825313864336e+03 -2.950800850606246e+02 -2.918975276816622e+03
-1.147808453797325e+03 -2.986127540442420e+02 -2.918975276816622e+03
-1.147804634279826e+03 -3.003118997405773e+02 -2.918975276816622e+03
-1.147785202412553e+03 -3.036500751004881e+02 -2.918975276816622e+03
-1.147780972444208e+03 -3.042757912946655e+02 -2.918975276816622e+03
-1.147750050425674e+03 -3.073837850644552e+02 -2.918975276816622e+03
-1.147732279583678e+03 -3.106700703240080e+02 -2.918975276816622e+03
-1.147700897290465e+03 -3.139483021191989e+02 -2.918975276816622e+03
-1.147659902553741e+03 -3.181069872082952e+02 -2.918975276816622e+03
-1.147569058970134e+03 -3.231547745200872e+02 -2.918975276816622e+03
-1.147457319325006e+03 -3.266301232942611e+02 -2.918975276816622e+03
-1.147453651493232e+03 -3.266288471036949e+02 -2.918975276816622e+03
-1.147622426337154e+03 -3.304557787640358e+02 -2.918975276816622e+03
-1.147587014361154e+03 -3.338595389474877e+02 -2.918975276816622e+03
-1.147635626406600e+03 -3.347112459804777e+02 -2.918975276816622e+03
-1.147639670872124e+03 -3.386945219936003e+02 -2.918975276816622e+03
-1.147675894751386e+03 -3.432352894959866e+02 -2.918975276816622e+03
-1.147701649294010e+03 -3.472916314134444e+02 -2.918975276816622e+03
-1.147707357261761e+03 -3.479688821111632e+02 -2.918975276816622e+03
-1.147739157577647e+03 -3.528710403604632e+02 -2.918975276816622e+03
-1.147749244526297e+03 -3.543911860999547e+02 -2.918975276816622e+03
-1.147778502965043e+03 -3.583823225286596e+02 -2.918975276816622e+03
-1.147803198885396e+03 -3.621407520243816e+02 -2.918975276816622e+03
-1.147858349504917e+03 -3.696668925715611e+02 -2.918975276816622e+03
-1.147877555045157e+03 -3.717654471724265e+02 -2.918975276816622e+03
-1.147901216602320e+03 -3.740901775858859e+02 -2.918975276816622e+03
-1.147882242472595e+03 -3.743920949107087e+02 -2.918975276816622e+03
-1.147893070664564e+03 -3.763751641599885e+02 -2.918975276816622e+03
-1.147908467117070e+03 -3.775366597755458e+02 -2.918975276816622e+03
-1.147913335402981e+03 -3.796500976938687e+02 -2.918975276816622e+03
-1.147905755002488e+03 -3.799824014310816e+02 -2.918975276816622e+03
-1.147912202648463e+03 -3.823258412262181e+02 -2.918975276816622e+03
-1.147922809892110e+03 -3.860588659299606e+02 -2.918975276816622e+03
-1.147937598784960e+03  3.832668773950201e+02 -2.918975276816622e+03
-1.147961169850299e+03  3.785025209184848e+02 -2.918975276816622e+03
-1.148023600676560e+03  3.771119248811251e+02 -2.918975276816622e+03
-1.147922041961751e+03  3.764020239681568e+02 -2.918975276816622e+03
-1.147840047643481e+03  3.737419785837944e+02 -2.918975276816622e+03
-1.147917450842993e+03  3.685188559583486e+02 -2.918975276816622e+03
-1.147900627734593e+03  3.602110739574038e+02 -2.918975276816622e+03
-1.147891764759023e+03  3.590952876866944e+02 -2.918975276816622e+03
-1.147888469588865e+03  3.548446609509939e+02 -2.918975276816622e+03
-1.147860582024095e+03  3.527604180674861e+02 -2.918975276816622e+03
-1.147885474340535e+03  3.509972357278189e+02 -2.918975276816622e+03
-1.147875047650530e+03  3.485404743911018e+02 -2.918975276816622e+03
-1.147871366401491e+03  3.459065153325839e+02 -2.918975276816622e+03
-1.147815809541595e+03  3.443508162412904e+02 -2.918975276816622e+03
-1.147841145583954e+03  3.413962703079863e+02 -2.918975276816622e+03
-1.147832019753611e+03  3.404569653227237e+02 -2.918975276816622e+03
-1.147824030835908e+03  3.383541878725806e+02 -2.918975276816622e+03
-1.147761531883340e+03  3.296879131831940e+02 -2.918975276816622e+03
-1.147733305976023e+03  3.276917348499018e+02 -2.918975276816622e+03
-1.147697219488572e+03  3.260376082473113e+02 -2.918975276816622e+03
-1.147627693517459e+03  3.234534511610888e+02 -2.918975276816622e+03
-1.147719719613468e+03  3.234411434274589e+02 -2.918975276816622e+03
-1.147758169723004e+03  3.209170542170104e+02 -2.918975276816622e+03
-1.147715058363211e+03  3.200596216373304e+02 -2.918975276816622e+03
-1.147766853623513e+03  3.172125921732688e+02 -2.918975276816622e+03
-1.147776879439692e+03  3.132550495389269e+02 -2.918975276816622e+03
-1.147803453401601e+03  3.098345851375958e+02 -2.918975276816622e+03
-1.147795564176082e+03  3.073266431955955e+02 -2.918975276816622e+03
-1.147817550732665e+03  3.053455406522363e+02 -2.918975276816622e+03
-1.147819431633499e+03  3.033546775917978e+02 -2.918975276816622e+03
-1.147829726515418e+03  3.012132951397390e+02 -2.918975276816622e+03
-1.147858248648768e+03  2.936922717310959e+02 -2.918975276816622e+03
-1.147873914300498e+03  2.890621412954492e+02 -2.918975276816622e+03
-1.147873215895426e+03  2.885948302768566e+02 -2.918975276816622e+03
-1.147892874453995e+03  2.862415719331951e+02 -2.918975276816622e+03
-1.147892835954586e+03  2.831810557945726e+02 -2.918975276816622e+03
-1.147905572286593e+03  2.820391155374512e+02 -2.918975276816622e+03
-1.147901005307281e+03  2.800990911052160e+02 -2.918975276816622e+03
-1.147920938548015e+03  2.779724613190718e+02 -2.918975276816622e+03
-1.147932984315097e+03  2.762954182057185e+02 -2.918975276816622e+03
-1.147920503274426e+03  2.758641096384922e+02 -2.918975276816622e+03
-1.147919425708500e+03  2.741922691963332e+02 -2.918975276816622e+03
-1.147930310335228e+03  2.715703233561261e+02 -2.918975276816622e+03
-1.147938946279596e+03  2.709591645615197e+02 -2.918975276816622e+03
-1.147940334505695e+03  2.693713634557863e+02 -2.918975276816622e+03
-1.147943214802264e+03  2.667059349140779e+02 -2.918975276816622e+03
-1.147934581139864e+03  2.655223337077795e+02 -2.918975276816622e+03
-1.147953193615075e+03  2.630880406391030e+02 -2.918975276816622e+03
-1.147937637644486e+03  2.611257586570168e+02 -2.918975276816622e+03
-1.147942232336106e+03  2.599412178180343e+02 -2.918975276816622e+03
-1.147935107136811e+03  2.578495351328962e+02 -2.918975276816622e+03
-1.147936988522270e+03  2.565973456531460e+02 -2.918975276816622e+03
-1.147936048932793e+03  2.514112258366847e+02 -2.918975276816622e+03
-1.147899932946182e+03  2.501598084869211e+02 -2.918975276816622e+03
-1.147937459402006e+03  2.493763290454173e+02 -2.918975276816622e+03
-1.147869447018904e+03  2.471260008721395e+02 -2.918975276816622e+03
-1.147960311182749e+03  2.457443279888051e+02 -2.918975276816622e+03
-1.147862199997634e+03  2.434676636209516e+02 -2.918975276816622e+03
-1.147909944925556e+03  2.431991066785595e+02 -2.918975276816622e+03
-1.147791140193337e+03  2.406483112122476e+02 -2.918975276816622e+03
-1.147792400441038e+03  2.400940438291655e+02 -2.918975276816622e+03
-1.147728199304067e+03  2.383026379430372e+02 -2.918975276816622e+03
-1.147818249802965e+03  2.363177356273680e+02 -2.918975276816622e+03
-1.147640365823703e+03  2.353449214966356e+02 -2.918975276816622e+03
-1.147715440518741e+03  2.329255711563804e+02 -2.918975276816622e+03
-1.147846509002326e+03  2.298480358126050e+02 -2.918975276816622e+03
-1.147551491750795e+03  2.245755066855176e+02 -2.918975276816622e+03
-1.147583144960879e+03  2.230656673686292e+02 -2.918975276816622e+03
-1.147440365850209e+03  2.200910725125928e+02 -2.918975276816622e+03
-1.147464568678984e+03  2.170733327493612e+02 -2.918975276816622e+03
-1.147396257213182e+03  2.164909732332465e+02 -2.918975276816622e+03
-1.147462903401410e+03  2.144081750060850e+02 -2.918975276816622e+03
-1.147350677436241e+03  2.137854027454798e+02 -2.918975276816622e+03
-1.147397540320113e+03  2.121416368540137e+02 -2.918975276816622e+03
-1.147304692710198e+03  2.100735903100880e+02 -2.918975276816622e+03
-1.147336320401507e+03  2.092990773024516e+02 -2.918975276816622e+03
-1.147266808909062e+03  2.071654491404215e+02 -2.918975276816622e+03
-1.147261589316269e+03  2.046179311006261e+02 -2.918975276816622e+03
-1.147203490848630e+03  1.986357590496800e+02 -2.918975276816622e+03
-1.147201870698347e+03  1.962849872905153e+02 -2.918975276816622e+03
-1.147153966663714e+03  1.922710368130506e+02 -2.918975276816622e+03
-1.147149046915594e+03  1.900603669264029e+02 -2.918975276816622e+03
-1.147206903680911e+03  1.889039275441944e+02 -2.918975276816622e+03
-1.147129291304294e+03  1.871618366838796e+02 -2.918975276816622e+03
-1.147107165185833e+03  1.860888165147520e+02 -2.918975276816622e+03
-1.147125706618537e+03  1.845193689026947e+02 -2.918975276816622e+03
-1.147153718880458e+03  1.832131635526509e+02 -2.918975276816622e+03
-1.147128104504307e+03  1.806216292375336e+02 -2.918975276816622e+03
-1.147146876910156e+03  1.789481298036947e+02 -2.918975276816622e+03
-1.147132074065679e+03  1.782389884098414e+02 -2.918975276816622e+03
-1.147146013725892e+03  1.760053428115876e+02 -2.918975276816622e+03
-1.147147951978227e+03  1.735401497520931e+02 -2.918975276816622e+03
-1.147152438617966e+03  1.718394586293485e+02 -2.918975276816622e+03
-1.147156978348664e+03  1.701325926720028e+02 -2.918975276816622e+03
-1.147147267585312e+03  1.689462136714780e+02 -2.918975276816622e+03
-1.147156547093273e+03  1.675008926117297e+02 -2.918975276816622e+03
-1.147168448059920e+03  1.662538224432831e+02 -2.918975276816622e+03
-1.147173109103515e+03  1.639721192960163e+02 -2.918975276816622e+03
-1.147163163457815e+03  1.634965168793240e+02 -2.918975276816622e+03
-1.147171216280575e+03  1.610063279072980e+02 -2.918975276816622e+03
-1.147182867192106e+03  1.602926699831031e+02 -2.918975276816622e+03
-1.147184524228542e+03  1.582522663653026e+02 -2.918975276816622e+03
-1.147192968774030e+03  1.532288298574723e+02 -2.918975276816622e+03
-1.147189776795256e+03  1.516591846248565e+02 -2.918975276816622e+03
-1.147200501193620e+03  1.500557399607443e+02 -2.918975276816622e+03
-1.147217332466908e+03  1.492068283122326e+02 -2.918975276816622e+03
-1.147214494319998e+03  1.474621828744862e+02 -2.918975276816622e+03
-1.147213916037904e+03  1.463119424717923e+02 -2.918975276816622e+03
-1.147219258487626e+03  1.444009645607506e+02 -2.918975276816622e+03
-1.147270445974461e+03  1.433431556990796e+02 -2.918975276816622e+03
-1.147275015636107e+03  1.410175693886582e+02 -2.918975276816622e+03
-1.147240255371221e+03  1.408013469766073e+02 -2.918975276816622e+03
-1.147244499799900e+03  1.386088620578055e+02 -2.918975276816622e+03
-1.147299062018389e+03  1.370970366901154e+02 -2.918975276816622e+03
-1.147293338408270e+03  1.365813482577401e+02 -2.918975276816622e+03
-1.147314235950985e+03  1.340602656763473e+02 -2.918975276816622e+03
-1.147319327785193e+03  1.330559841641046e+02 -2.918975276816622e+03
-1.147352384404979e+03  1.304502478116240e+02 -2.918975276816622e+03
-1.147362257298884e+03  1.291590820581845e+02 -2.918975276816622e+03
-1.147384810768752e+03  1.273595476138520e+02 -2.918975276816622e+03
-1.147400843575148e+03  1.256910293771750e+02 -2.918975276816622e+03
-1.147452751868964e+03  1.211361467104022e+02 -2.918975276816622e+03
-1.147447786121149e+03  1.201347673699069e+02 -2.918975276816622e+03
-1.147507886059190e+03  1.178168470028194e+02 -2.918975276816622e+03
-1.147481224931626e+03  1.148568872920854e+02 -2.918975276816622e+03
-1.147566391443670e+03  1.127453783023499e+02 -2.918975276816622e+03
-1.147504049986255e+03  1.117600944403206e+02 -2.918975276816622e+03
-1.147598153113957e+03  1.103707242625283e+02 -2.918975276816622e+03
-1.147522792866137e+03  1.094000275540525e+02 -2.918975276816622e+03
-1.147643017423311e+03  1.070086739843298e+02 -2.918975276816622e+03
-1.147571756184649e+03  1.060539079843942e+02 -2.918975276816622e+03
-1.147664619051987e+03  1.047948623917428e+02 -2.918975276816622e+03
-1.147561805893399e+03  1.034440745776685e+02 -2.918975276816622e+03
-1.147689261268216e+03  1.010801295834677e+02 -2.918975276816622e+03
-1.147635591025508e+03  1.000658721955152e+02 -2.918975276816622e+03
-1.147720466366108e+03  9.868185104481263e+01 -2.918975276816622e+03
-1.147642426063817e+03  9.710383710267152e+01 -2.918975276816622e+03
-1.147735755002015e+03  9.519596667986158e+01 -2.918975276816622e+03
-1.147699023974491e+03  9.150568609853892e+01 -2.918975276816622e+03
-1.147772568131594e+03  8.882901087249903e+01 -2.918975276816622e+03
-1.147809243922470e+03  8.565596964411687e+01 -2.918975276816622e+03
-1.147807838385087e+03  8.227165826451014e+01 -2.918975276816622e+03
-1.147736328729341e+03  7.912436233640011e+01 -2.918975276816622e+03
-1.148102578904771e+03  7.939850291650654e+01 -2.918975276816622e+03
-1.147887498972323e+03  7.631656247183045e+01 -2.918975276816622e+03
-1.147843277136832e+03  7.380960702698208e+01 -2.918975276816622e+03
-1.147840042855431e+03  7.200293992753269e+01 -2.918975276816622e+03
-1.147897484358321e+03  7.045479959084872e+01 -2.918975276816622e+03
-1.147874554475697e+03  6.819046074638123e+01 -2.918975276816622e+03
-1.147907153567212e+03  6.755149061472031e+01 -2.918975276816622e+03
-1.147894898141975e+03  6.562514240129333e+01 -2.918975276816622e+03
-1.147949197049658e+03  6.198140999809127e+01 -2.918975276816622e+03
-1.148032929388326e+03  5.511732089953427e+01 -2.918975276816622e+03
-1.148043336207561e+03  5.296339397197151e+01 -2.918975276816622e+03
-1.147988961340998e+03  5.122969729250742e+01 -2.918975276816622e+03
-1.148106727977013e+03  4.987850107596004e+01 -2.918975276816622e+03
-1.148113415081871e+03  4.744840109085817e+01 -2.918975276816622e+03
-1.148145176117194e+03  4.450435207650789e+01 -2.918975276816622e+03
-1.148167330541618e+03  4.130509800920363e+01 -2.918975276816622e+03
-1.148194727832990e+03  3.965306416122142e+01 -2.918975276816622e+03
-1.148194609029775e+03  3.840981472720278e+01 -2.918975276816622e+03
-1.148235149201807e+03  3.544921596033409e+01 -2.918975276816622e+03
-1.148269832964391e+03  3.163674791196051e+01 -2.918975276816622e+03
-1.148285779953381e+03  2.907546375793002e+01 -2.918975276816622e+03
-1.148341560756547e+03  2.329826416177755e+01 -2.918975276816622e+03
-1.148333477363606e+03  2.292611586476771e+01 -2.918975276816622e+03
-1.148382869028074e+03  2.117284781050391e+01 -2.918975276816622e+03
-1.148361462253803e+03  2.017947723056438e+01 -2.918975276816622e+03
-1.148371811243902e+03  1.790224734708411e+01 -2.918975276816622e+03
-1.148368373497447e+03  1.600844792924047e+01 -2.918975276816622e+03
-1.148384445254300e+03  1.388646940166391e+01 -2.918975276816622e+03
-1.148389716443157e+03  7.649119872095905e+00 -2.918975276816622e+03
-1.148395005369117e+03  6.108921412130143e+00 -2.918975276816622e+03
-1.148384108034828e+03  5.166437664315882e+00 -2.918975276816622e+03
1.145762025595707e+03 5.235608233268954e-01 2.918975276816622e+03
1.145739366146751e+03 1.393296310679443e-01 2.918975276816622e+03
 1.145743370080736e+03 -8.736580208412694e-01  2.918975276816622e+03
 1.145683229128522e+03 -3.506271088981950e+00  2.918975276816622e+03
 1.145688351878645e+03 -4.462496277751583e+00  2.918975276816622e+03
 1.145604981099070e+03 -8.719939422910375e+00  2.918975276816622e+03
 1.145564882454726e+03 -9.661747036919772e+00  2.918975276816622e+03
 1.145550588796747e+03 -1.176560231343969e+01  2.918975276816622e+03
 1.145536428050537e+03 -1.342945303053629e+01  2.918975276816622e+03
 1.145464027668055e+03 -1.701816761153524e+01  2.918975276816622e+03
 1.145385883074893e+03 -2.154179878599360e+01  2.918975276816622e+03
 1.145345215712792e+03 -2.386143128209762e+01  2.918975276816622e+03
 1.145314215907570e+03 -2.615498693906978e+01  2.918975276816622e+03
 1.145275137853241e+03 -2.781055417643129e+01  2.918975276816622e+03
 1.145245471028428e+03 -2.976168551378992e+01  2.918975276816622e+03
 1.145257609852428e+03 -3.016393896101377e+01  2.918975276816622e+03
 1.145234627067287e+03 -3.192226682570251e+01  2.918975276816622e+03
 1.145209653027765e+03 -3.332644050262441e+01  2.918975276816622e+03
 1.145160293682510e+03 -3.799861874601901e+01  2.918975276816622e+03
 1.145158294320375e+03 -3.936895018653437e+01  2.918975276816622e+03
 1.145113140545270e+03 -4.207456069349625e+01  2.918975276816622e+03
 1.145106132501972e+03 -4.470719662606183e+01  2.918975276816622e+03
 1.145065624091328e+03 -4.555562122826102e+01  2.918975276816622e+03
 1.145077922596869e+03 -4.768553315260340e+01  2.918975276816622e+03
 1.145034322190226e+03 -5.063708356286674e+01  2.918975276816622e+03
 1.145028544509776e+03 -5.434180505949544e+01  2.918975276816622e+03
 1.144969335104644e+03 -5.634212243231755e+01  2.918975276816622e+03
 1.144994713675667e+03 -5.865142701217843e+01  2.918975276816622e+03
 1.144939137954510e+03 -6.037657306937396e+01  2.918975276816622e+03
 1.144967391991035e+03 -6.237990566973755e+01  2.918975276816622e+03
 1.144907357486438e+03 -6.371324482974909e+01  2.918975276816622e+03
 1.144944547809112e+03 -6.475420250628812e+01  2.918975276816622e+03
 1.144940140945768e+03 -6.538743317041272e+01  2.918975276816622e+03
 1.144943677625577e+03 -6.693118247235616e+01  2.918975276816622e+03
 1.144918823275902e+03 -6.868725740374916e+01  2.918975276816622e+03
 1.144928557905454e+03 -7.027819231480062e+01  2.918975276816622e+03
 1.144923711343582e+03 -7.501874665700144e+01  2.918975276816622e+03
 1.144922276470419e+03 -7.872408418081238e+01  2.918975276816622e+03
 1.144917813479185e+03 -8.070518155696719e+01  2.918975276816622e+03
 1.144920630606620e+03 -8.229588579184983e+01  2.918975276816622e+03
 1.144923401190842e+03 -8.401446773628307e+01  2.918975276816622e+03
 1.144918049219502e+03 -8.512315807923589e+01  2.918975276816622e+03
 1.144905047854560e+03 -8.612992699469959e+01  2.918975276816622e+03
 1.144917848459651e+03 -8.726839356084812e+01  2.918975276816622e+03
 1.144917315493333e+03 -8.891234205096060e+01  2.918975276816622e+03
 1.144913443852397e+03 -9.020877032666709e+01  2.918975276816622e+03
 1.144904427830722e+03 -9.472671595816247e+01  2.918975276816622e+03
 1.144899076455828e+03 -9.800607500157128e+01  2.918975276816622e+03
 1.144898346600159e+03 -9.938533784219368e+01  2.918975276816622e+03
 1.144891728673477e+03 -1.017302484876019e+02  2.918975276816622e+03
 1.144979743627712e+03 -1.028227367607263e+02  2.918975276816622e+03
 1.145026092597450e+03 -1.041650265935025e+02  2.918975276816622e+03
 1.144790983876167e+03 -1.041655356139533e+02  2.918975276816622e+03
 1.144789562026888e+03 -1.055162609980139e+02  2.918975276816622e+03
 1.144880559912450e+03 -1.063590541670354e+02  2.918975276816622e+03
 1.144907637948204e+03 -1.075197362329548e+02  2.918975276816622e+03
 1.144893466993141e+03 -1.100845148644534e+02  2.918975276816622e+03
 1.144809013080252e+03 -1.102146308290210e+02  2.918975276816622e+03
 1.144842706136322e+03 -1.145917944687170e+02  2.918975276816622e+03
 1.144837259988108e+03 -1.194499551957685e+02  2.918975276816622e+03
 1.144832438527483e+03 -1.217883128566878e+02  2.918975276816622e+03
 1.144822836665200e+03 -1.264692636384135e+02  2.918975276816622e+03
 1.144819674362868e+03 -1.287231240851215e+02  2.918975276816622e+03
 1.144817199045707e+03 -1.301968730868088e+02  2.918975276816622e+03
 1.144814589539302e+03 -1.347658814097225e+02  2.918975276816622e+03
 1.144810225650467e+03 -1.379728951725847e+02  2.918975276816622e+03
 1.144811576157587e+03 -1.392926474897484e+02  2.918975276816622e+03
 1.144809377853435e+03 -1.430047393201649e+02  2.918975276816622e+03
 1.144810866415612e+03 -1.447992466190439e+02  2.918975276816622e+03
 1.144810395445945e+03 -1.468240823899426e+02  2.918975276816622e+03
 1.144811177342231e+03 -1.488067764774592e+02  2.918975276816622e+03
 1.144812024375203e+03 -1.502555012603020e+02  2.918975276816622e+03
 1.144814023939334e+03 -1.549909565742084e+02  2.918975276816622e+03
 1.144817535420550e+03 -1.586807047644726e+02  2.918975276816622e+03
 1.144818441763494e+03 -1.604404033864580e+02  2.918975276816622e+03
 1.144824269108215e+03 -1.621531418860152e+02  2.918975276816622e+03
 1.144800624208604e+03 -1.639305729647664e+02  2.918975276816622e+03
 1.144807493803790e+03 -1.651825632117832e+02  2.918975276816622e+03
 1.144854463832195e+03 -1.656346790113818e+02  2.918975276816622e+03
 1.144832820069533e+03 -1.671651621087201e+02  2.918975276816622e+03
 1.144805976353701e+03 -1.686716700021543e+02  2.918975276816622e+03
 1.144821963232920e+03 -1.701574135796588e+02  2.918975276816622e+03
 1.144816645514266e+03 -1.750467867993436e+02  2.918975276816622e+03
 1.144833416740664e+03 -1.785345905365644e+02  2.918975276816622e+03
 1.144827558232395e+03 -1.802629871090566e+02  2.918975276816622e+03
 1.144869018093239e+03 -1.815637830306591e+02  2.918975276816622e+03
 1.144756214656783e+03 -1.858546883091505e+02  2.918975276816622e+03
 1.144432056471884e+03 -1.875811681876512e+02  2.918975276816622e+03
 1.145698410781897e+03 -1.880633031490253e+02  2.918975276816622e+03
 1.144821139057621e+03 -1.902463498922841e+02  2.918975276816622e+03
 1.144770380339372e+03 -1.949871812672008e+02  2.918975276816622e+03
 1.144813309038535e+03 -1.987014317982066e+02  2.918975276816622e+03
 1.144856677072630e+03 -2.028929800025514e+02  2.918975276816622e+03
 1.144852108333268e+03 -2.067721664411055e+02  2.918975276816622e+03
 1.144862707893253e+03 -2.085053996605717e+02  2.918975276816622e+03
 1.144875980622707e+03 -2.101844310678764e+02  2.918975276816622e+03
 1.144877594869862e+03 -2.148098793155395e+02  2.918975276816622e+03
 1.144882982227133e+03 -2.169552203004101e+02  2.918975276816622e+03
 1.144887825528416e+03 -2.186538988070779e+02  2.918975276816622e+03
 1.144911782054913e+03 -2.236528150997246e+02  2.918975276816622e+03
 1.144903109410628e+03 -2.251166921949363e+02  2.918975276816622e+03
 1.144913536269597e+03 -2.287683412296415e+02  2.918975276816622e+03
 1.144925983238491e+03 -2.300163306365448e+02  2.918975276816622e+03
 1.144941080946122e+03 -2.328788146151140e+02  2.918975276816622e+03
 1.144944920061406e+03 -2.341761538621825e+02  2.918975276816622e+03
 1.144946030339614e+03 -2.368087594717861e+02  2.918975276816622e+03
 1.144956067707918e+03 -2.389162669265398e+02  2.918975276816622e+03
 1.144960849661197e+03 -2.414179175102099e+02  2.918975276816622e+03
 1.144975349600013e+03 -2.449567925012372e+02  2.918975276816622e+03
 1.144984550164505e+03 -2.480068647498036e+02  2.918975276816622e+03
 1.144986950561870e+03 -2.489274043047074e+02  2.918975276816622e+03
 1.144968636641335e+03 -2.536441526747411e+02  2.918975276816622e+03
 1.144968832437711e+03 -2.606977339673542e+02  2.918975276816622e+03
 1.145399917981614e+03 -2.658377114319301e+02  2.918975276816622e+03
 1.145062510609131e+03 -2.690371285123019e+02  2.918975276816622e+03
 1.145023507710606e+03 -2.700224930301321e+02  2.918975276816622e+03
 1.145063937186087e+03 -2.727908717775072e+02  2.918975276816622e+03
 1.145045653915778e+03 -2.734280734894905e+02  2.918975276816622e+03
 1.145041811944531e+03 -2.758469752609932e+02  2.918975276816622e+03
 1.145060655485345e+03 -2.785847728626765e+02  2.918975276816622e+03
 1.145164006950397e+03 -2.834682897001315e+02  2.918975276816622e+03
 1.145106678220910e+03 -2.866365514773740e+02  2.918975276816622e+03
 1.144924898669880e+03 -2.880321030860650e+02  2.918975276816622e+03
 1.145091058563952e+03 -2.907829742560382e+02  2.918975276816622e+03
 1.145102006864919e+03 -2.931318551769448e+02  2.918975276816622e+03
 1.145087072636587e+03 -2.950546864947376e+02  2.918975276816622e+03
 1.145072651893872e+03 -2.987548976400042e+02  2.918975276816622e+03
 1.145077624000669e+03 -2.990039815958303e+02  2.918975276816622e+03
 1.145067944516930e+03 -3.026535961495292e+02  2.918975276816622e+03
 1.145067168795855e+03 -3.036823410094291e+02  2.918975276816622e+03
 1.145052112848437e+03 -3.082451498237877e+02  2.918975276816622e+03
 1.145058709522200e+03 -3.100753233137514e+02  2.918975276816622e+03
 1.145028180346917e+03 -3.123661099542401e+02  2.918975276816622e+03
 1.145052762183409e+03 -3.137173599213194e+02  2.918975276816622e+03
 1.145013583925577e+03 -3.149372865623116e+02  2.918975276816622e+03
 1.145047153932654e+03 -3.179857816584237e+02  2.918975276816622e+03
 1.144988839075274e+03 -3.190924975769837e+02  2.918975276816622e+03
 1.145048287365518e+03 -3.215725213792804e+02  2.918975276816622e+03
 1.144956699668470e+03 -3.234388224253961e+02  2.918975276816622e+03
 1.145028039449420e+03 -3.261239162142336e+02  2.918975276816622e+03
 1.144972203046997e+03 -3.264797460091567e+02  2.918975276816622e+03
 1.145058209969218e+03 -3.290420790721656e+02  2.918975276816622e+03
 1.144936644608764e+03 -3.316831888929782e+02  2.918975276816622e+03
 1.145043749275426e+03 -3.344782575964481e+02  2.918975276816622e+03
 1.144920838256652e+03 -3.376113237332788e+02  2.918975276816622e+03
 1.145005355466789e+03 -3.382534182118445e+02  2.918975276816622e+03
 1.144874646947877e+03 -3.406140089729477e+02  2.918975276816622e+03
 1.144998558335633e+03 -3.431426319667085e+02  2.918975276816622e+03
 1.144877095692141e+03 -3.450400856247405e+02  2.918975276816622e+03
 1.144997713150843e+03 -3.487735421778888e+02  2.918975276816622e+03
 1.144884587841175e+03 -3.521650529828977e+02  2.918975276816622e+03
 1.144963692484873e+03 -3.531004609903633e+02  2.918975276816622e+03
 1.144865569315517e+03 -3.570150332011878e+02  2.918975276816622e+03
 1.144924792421383e+03 -3.594903691444771e+02  2.918975276816622e+03
 1.144917590838067e+03 -3.597508459274687e+02  2.918975276816622e+03
 1.144947197798802e+03 -3.617691924465365e+02  2.918975276816622e+03
 1.144944269880731e+03 -3.668981473605331e+02  2.918975276816622e+03
 1.144960841962104e+03 -3.685860884189147e+02  2.918975276816622e+03
 1.144957083875348e+03 -3.714303389869956e+02  2.918975276816622e+03
 1.144961206989501e+03 -3.717533068566535e+02  2.918975276816622e+03
 1.144969831183947e+03 -3.752582856499580e+02  2.918975276816622e+03
 1.144990725921858e+03 -3.778678462643979e+02  2.918975276816622e+03
 1.145022008546081e+03 -3.828941117497173e+02  2.918975276816622e+03
 1.145025569511074e+03 -3.834797334976757e+02  2.918975276816622e+03
1.145057621930574e+03 3.848348858037701e+02 2.918975276816622e+03
1.145094953298970e+03 3.813437913573966e+02 2.918975276816622e+03
1.145099516464968e+03 3.788114401121098e+02 2.918975276816622e+03
1.145126319196540e+03 3.778696389412150e+02 2.918975276816622e+03
1.145114459185651e+03 3.763971406833094e+02 2.918975276816622e+03
1.145164117888443e+03 3.736803255025563e+02 2.918975276816622e+03
1.145148767530716e+03 3.728436034104945e+02 2.918975276816622e+03
1.145193424488216e+03 3.712394997015776e+02 2.918975276816622e+03
1.145201923851277e+03 3.671954971483190e+02 2.918975276816622e+03
1.145259897247428e+03 3.653212889139293e+02 2.918975276816622e+03
1.145246306535690e+03 3.627850892280720e+02 2.918975276816622e+03
1.145319730209725e+03 3.599533345177884e+02 2.918975276816622e+03
1.145299545029981e+03 3.581749194121787e+02 2.918975276816622e+03
1.145349037237104e+03 3.571237138017815e+02 2.918975276816622e+03
1.145327296984267e+03 3.554370932717928e+02 2.918975276816622e+03
1.145391145210938e+03 3.537419949461578e+02 2.918975276816622e+03
1.145375590573092e+03 3.517004378150701e+02 2.918975276816622e+03
1.145426293304696e+03 3.504203237575452e+02 2.918975276816622e+03
1.145421497711749e+03 3.480858964163161e+02 2.918975276816622e+03
1.145457427458463e+03 3.467894921355830e+02 2.918975276816622e+03
1.145470835485152e+03 3.446241203533691e+02 2.918975276816622e+03
1.145496526129099e+03 3.435623956000711e+02 2.918975276816622e+03
1.145514734229890e+03 3.415313944544428e+02 2.918975276816622e+03
1.145525232096106e+03 3.399370030474656e+02 2.918975276816622e+03
1.145552496074133e+03 3.382249013821360e+02 2.918975276816622e+03
1.145565530831757e+03 3.346179674737631e+02 2.918975276816622e+03
1.145638906729134e+03 3.315338742755900e+02 2.918975276816622e+03
1.145645122265610e+03 3.261066333541211e+02 2.918975276816622e+03
1.145683981987940e+03 3.235079389817441e+02 2.918975276816622e+03
1.145628878791680e+03 3.214474505081076e+02 2.918975276816622e+03
1.145708479102351e+03 3.193575809587753e+02 2.918975276816622e+03
1.145653012895219e+03 3.186383585173014e+02 2.918975276816622e+03
1.145728345251977e+03 3.161442693737440e+02 2.918975276816622e+03
1.145638605696154e+03 3.135064176169114e+02 2.918975276816622e+03
1.145671015106288e+03 3.118286732427550e+02 2.918975276816622e+03
1.145746337401276e+03 3.117031116884530e+02 2.918975276816622e+03
1.145712533870388e+03 3.097489500240287e+02 2.918975276816622e+03
1.145638704266652e+03 3.078314400052769e+02 2.918975276816622e+03
1.145629700483220e+03 3.065178791495169e+02 2.918975276816622e+03
1.145562912243991e+03 3.021214232999720e+02 2.918975276816622e+03
1.145569739424716e+03 3.018628198377612e+02 2.918975276816622e+03
1.145536217551441e+03 2.989092996411333e+02 2.918975276816622e+03
1.145514042440669e+03 2.975055565658760e+02 2.918975276816622e+03
1.145489213480750e+03 2.952851623339752e+02 2.918975276816622e+03
1.145468579291467e+03 2.937550667936496e+02 2.918975276816622e+03
1.145450151871897e+03 2.919795530811165e+02 2.918975276816622e+03
1.145395760822036e+03 2.871028445889652e+02 2.918975276816622e+03
1.145365330260561e+03 2.849348047997044e+02 2.918975276816622e+03
1.145340222367641e+03 2.827449862864210e+02 2.918975276816622e+03
1.145326144924651e+03 2.812105068574875e+02 2.918975276816622e+03
1.145286504798672e+03 2.773781997095629e+02 2.918975276816622e+03
1.145260200326916e+03 2.752967114260653e+02 2.918975276816622e+03
1.145220931776278e+03 2.711881780837331e+02 2.918975276816622e+03
1.145171970604127e+03 2.665716143326666e+02 2.918975276816622e+03
1.145165407907203e+03 2.652758239365678e+02 2.918975276816622e+03
1.145127304642265e+03 2.623945131603830e+02 2.918975276816622e+03
1.145105357735714e+03 2.584075966045497e+02 2.918975276816622e+03
1.145095943583317e+03 2.579563590230802e+02 2.918975276816622e+03
1.145066224538447e+03 2.533056882500532e+02 2.918975276816622e+03
1.145034880776464e+03 2.512763946444269e+02 2.918975276816622e+03
1.145046311628874e+03 2.502971488089096e+02 2.918975276816622e+03
1.145029513624295e+03 2.485648599136043e+02 2.918975276816622e+03
1.145041531136537e+03 2.470880412779110e+02 2.918975276816622e+03
1.145013035353117e+03 2.458338618764505e+02 2.918975276816622e+03
1.145021719808460e+03 2.445548334156876e+02 2.918975276816622e+03
1.145007584038336e+03 2.428352615037170e+02 2.918975276816622e+03
1.145006313786976e+03 2.355130762543118e+02 2.918975276816622e+03
1.144979748952413e+03 2.338995650536556e+02 2.918975276816622e+03
1.145070351587333e+03 2.313454720884041e+02 2.918975276816622e+03
1.145037960652197e+03 2.285329436178998e+02 2.918975276816622e+03
1.145099951084185e+03 2.273108719101521e+02 2.918975276816622e+03
1.145078087104813e+03 2.263970955013847e+02 2.918975276816622e+03
1.145073481108950e+03 2.236086594881096e+02 2.918975276816622e+03
1.145031986478163e+03 2.216945654296485e+02 2.918975276816622e+03
1.145047403013464e+03 2.202614043920311e+02 2.918975276816622e+03
1.145030556315730e+03 2.157461806743237e+02 2.918975276816622e+03
1.145011215396945e+03 2.128703642733281e+02 2.918975276816622e+03
1.144998307545559e+03 2.112760182361530e+02 2.918975276816622e+03
1.145011747194379e+03 2.086880720222226e+02 2.918975276816622e+03
1.144969834547049e+03 2.076353486248454e+02 2.918975276816622e+03
1.144947494592192e+03 2.062023842781961e+02 2.918975276816622e+03
1.145061223708897e+03 2.060781612858510e+02 2.918975276816622e+03
1.145044345036100e+03 2.046281134604413e+02 2.918975276816622e+03
1.144978824159277e+03 2.039701002364695e+02 2.918975276816622e+03
1.144996910646540e+03 2.024681168210129e+02 2.918975276816622e+03
1.144991764735486e+03 2.010131976144062e+02 2.918975276816622e+03
1.144983582709820e+03 2.002551164601854e+02 2.918975276816622e+03
1.144964483386080e+03 1.953922749697270e+02 2.918975276816622e+03
1.144954983543935e+03 1.922381101126332e+02 2.918975276816622e+03
1.144926082099875e+03 1.879250296985979e+02 2.918975276816622e+03
1.144957453538515e+03 1.863087699863987e+02 2.918975276816622e+03
1.145189766696154e+03 1.836167617984432e+02 2.918975276816622e+03
1.144990812470888e+03 1.814417739566218e+02 2.918975276816622e+03
1.144918316870468e+03 1.803668063208976e+02 2.918975276816622e+03
1.144954248384365e+03 1.755868785148820e+02 2.918975276816622e+03
1.144985330465469e+03 1.726145275200189e+02 2.918975276816622e+03
1.144985491508428e+03 1.709931918804361e+02 2.918975276816622e+03
1.145020371568963e+03 1.689334218036016e+02 2.918975276816622e+03
1.144999784634113e+03 1.678345421752846e+02 2.918975276816622e+03
1.145012533030821e+03 1.662517949586390e+02 2.918975276816622e+03
1.145133581445542e+03 1.570106412186899e+02 2.918975276816622e+03
1.145179928049002e+03 1.545540591609302e+02 2.918975276816622e+03
1.145242870159217e+03 1.511168373700102e+02 2.918975276816622e+03
1.145328590912494e+03 1.475271617494697e+02 2.918975276816622e+03
1.145378988207040e+03 1.460223544001846e+02 2.918975276816622e+03
1.145354636848290e+03 1.439149579442965e+02 2.918975276816622e+03
1.145343566112327e+03 1.418335462063254e+02 2.918975276816622e+03
1.145315748892157e+03 1.403983935758767e+02 2.918975276816622e+03
1.145200891151227e+03 1.360028934139611e+02 2.918975276816622e+03
1.145162496213351e+03 1.328958790643336e+02 2.918975276816622e+03
1.145133378698343e+03 1.312617203671193e+02 2.918975276816622e+03
1.145129695439950e+03 1.289123470808595e+02 2.918975276816622e+03
1.145112569995665e+03 1.277626217533945e+02 2.918975276816622e+03
1.145090685274196e+03 1.264836890986218e+02 2.918975276816622e+03
1.145242001641093e+03 1.263436292582778e+02 2.918975276816622e+03
1.145238051354568e+03 1.250124285390783e+02 2.918975276816622e+03
1.145128025984601e+03 1.250876749380268e+02 2.918975276816622e+03
1.145111840734755e+03 1.236939171830266e+02 2.918975276816622e+03
1.145157739785018e+03 1.218757556285191e+02 2.918975276816622e+03
1.145121487267235e+03 1.205313347123365e+02 2.918975276816622e+03
1.145093837522251e+03 1.159701420909155e+02 2.918975276816622e+03
1.145081214747179e+03 1.124118281354480e+02 2.918975276816622e+03
1.145097464518208e+03 1.104951533663992e+02 2.918975276816622e+03
1.145104972993683e+03 1.093202608201778e+02 2.918975276816622e+03
1.145122296528551e+03 1.068510662778079e+02 2.918975276816622e+03
1.145144599889259e+03 1.051175815558760e+02 2.918975276816622e+03
1.145191363545497e+03 1.019662004083879e+02 2.918975276816622e+03
1.145209180989674e+03 1.005531101963440e+02 2.918975276816622e+03
1.145297048852444e+03 9.560385513156223e+01 2.918975276816622e+03
1.145325335638998e+03 9.376231947574500e+01 2.918975276816622e+03
1.145507113049186e+03 8.353650535575393e+01 2.918975276816622e+03
1.145561198896074e+03 8.038707957256585e+01 2.918975276816622e+03
1.145652776839917e+03 7.595922360366897e+01 2.918975276816622e+03
1.145782997295752e+03 7.042252372268368e+01 2.918975276816622e+03
1.145531150537010e+03 6.458760597714742e+01 2.918975276816622e+03
1.145872948236647e+03 6.279710821705495e+01 2.918975276816622e+03
1.145940085439786e+03 5.770485580481559e+01 2.918975276816622e+03
1.145949985071331e+03 5.761158625229942e+01 2.918975276816622e+03
1.145993603572801e+03 5.506844067898192e+01 2.918975276816622e+03
1.145978398780009e+03 5.311294305060427e+01 2.918975276816622e+03
1.146010401988550e+03 5.066278075242498e+01 2.918975276816622e+03
1.146016656983262e+03 4.937236619442954e+01 2.918975276816622e+03
1.146001030386402e+03 4.776576752800695e+01 2.918975276816622e+03
1.146047561303966e+03 4.704729016200942e+01 2.918975276816622e+03
1.146043949762974e+03 4.415952803718468e+01 2.918975276816622e+03
1.146054692319867e+03 4.251479578178338e+01 2.918975276816622e+03
1.146049196105692e+03 4.205197958282799e+01 2.918975276816622e+03
1.146067668651433e+03 4.032116761741108e+01 2.918975276816622e+03
1.145913872625166e+03 3.824296784894943e+01 2.918975276816622e+03
1.146031034461331e+03 3.609802070180015e+01 2.918975276816622e+03
1.146029901606741e+03 3.385944558108452e+01 2.918975276816622e+03
1.146035524320543e+03 2.915418086366637e+01 2.918975276816622e+03
1.145938128153341e+03 2.722703884154024e+01 2.918975276816622e+03
1.145499372028829e+03 2.364517063350420e+01 2.918975276816622e+03
1.145948049076784e+03 2.075365502145972e+01 2.918975276816622e+03
1.145978204199977e+03 1.751820178361951e+01 2.918975276816622e+03
1.145887877263562e+03 1.294019288470993e+01 2.918975276816622e+03
1.145874308691969e+03 1.074463333943505e+01 2.918975276816622e+03
1.145854698879060e+03 9.672892255651984e+00 2.918975276816622e+03
1.145859201243688e+03 7.907557672510425e+00 2.918975276816622e+03
1.145792248199838e+03 4.496977321942402e+00 2.918975276816622e+03
1.145801471887390e+03 2.833929472310586e+00 2.918975276816622e+03
-1.157135990889725e+03  1.140015086926328e+00 -2.918975276816622e+03
-1.157048129800677e+03 -5.823524607464297e+00 -2.918975276816622e+03
-1.156963105314471e+03 -1.024073375661152e+01 -2.918975276816622e+03
-1.156912512308279e+03 -1.033606261059290e+01 -2.918975276816622e+03
-1.157010723670948e+03 -1.378263418111985e+01 -2.918975276816622e+03
-1.156998343684882e+03 -1.654096329825229e+01 -2.918975276816622e+03
-1.157025182716544e+03 -2.132877944671765e+01 -2.918975276816622e+03
-1.157019323206363e+03 -2.193707066641261e+01 -2.918975276816622e+03
-1.157021725643743e+03 -2.573336183715929e+01 -2.918975276816622e+03
-1.157028537085771e+03 -2.845235944197717e+01 -2.918975276816622e+03
-1.157005562030505e+03 -3.288464672856986e+01 -2.918975276816622e+03
-1.157015418740359e+03 -3.443826434038053e+01 -2.918975276816622e+03
-1.156976611899749e+03 -3.602842135402596e+01 -2.918975276816622e+03
-1.157007284384510e+03 -3.720061632632694e+01 -2.918975276816622e+03
-1.156934091370385e+03 -4.056529859774163e+01 -2.918975276816622e+03
-1.156982593155660e+03 -4.143630618151475e+01 -2.918975276816622e+03
-1.156884357479613e+03 -4.357299020479848e+01 -2.918975276816622e+03
-1.156935675008182e+03 -4.527406818502213e+01 -2.918975276816622e+03
-1.156912498126330e+03 -4.564968475104872e+01 -2.918975276816622e+03
-1.156972010285295e+03 -4.740775250731294e+01 -2.918975276816622e+03
-1.156853656048532e+03 -4.974447999899005e+01 -2.918975276816622e+03
-1.156915322299092e+03 -5.040136380448315e+01 -2.918975276816622e+03
-1.156816833126852e+03 -5.206527500214892e+01 -2.918975276816622e+03
-1.156870482099498e+03 -5.509516019182541e+01 -2.918975276816622e+03
-1.156784949611090e+03 -5.617242191894228e+01 -2.918975276816622e+03
-1.156835265078426e+03 -5.863482691953793e+01 -2.918975276816622e+03
-1.156752402223059e+03 -6.048973265722771e+01 -2.918975276816622e+03
-1.156840155184899e+03 -6.138052727995142e+01 -2.918975276816622e+03
-1.156739198867208e+03 -6.349289431496302e+01 -2.918975276816622e+03
-1.156759025839164e+03 -6.491613242702539e+01 -2.918975276816622e+03
-1.156667048533480e+03 -6.578323863541578e+01 -2.918975276816622e+03
-1.156741591190427e+03 -6.743055570574005e+01 -2.918975276816622e+03
-1.156607295852506e+03 -6.984440595808960e+01 -2.918975276816622e+03
-1.156718869696793e+03 -7.049351391749204e+01 -2.918975276816622e+03
-1.156757723275496e+03 -7.204638194614216e+01 -2.918975276816622e+03
-1.156652974100030e+03 -7.319116593472057e+01 -2.918975276816622e+03
-1.156566329805642e+03 -7.530996380769554e+01 -2.918975276816622e+03
-1.156647912102207e+03 -7.622169928462085e+01 -2.918975276816622e+03
-1.156611304240313e+03 -7.685275209417792e+01 -2.918975276816622e+03
-1.156618719470936e+03 -7.863906375108881e+01 -2.918975276816622e+03
-1.156615039330382e+03 -8.040582356444781e+01 -2.918975276816622e+03
-1.156620622017699e+03 -8.128261907677749e+01 -2.918975276816622e+03
-1.156603599095466e+03 -8.344623676241901e+01 -2.918975276816622e+03
-1.156603477309744e+03 -8.482292128481907e+01 -2.918975276816622e+03
-1.156587853351893e+03 -8.595741677080947e+01 -2.918975276816622e+03
-1.156593998615139e+03 -8.737797689459495e+01 -2.918975276816622e+03
-1.156540740504325e+03 -8.976785124242072e+01 -2.918975276816622e+03
-1.156577816751121e+03 -9.039829937840692e+01 -2.918975276816622e+03
-1.156570189577805e+03 -9.198921635214036e+01 -2.918975276816622e+03
-1.156549030368782e+03 -9.524524719696888e+01 -2.918975276816622e+03
-1.156484947330468e+03 -9.640175888061778e+01 -2.918975276816622e+03
-1.156545659784154e+03 -9.895448560017498e+01 -2.918975276816622e+03
-1.156590637629922e+03 -1.011612768929907e+02 -2.918975276816622e+03
-1.156466185193260e+03 -1.013596965882097e+02 -2.918975276816622e+03
-1.156373056399705e+03 -1.035767367522513e+02 -2.918975276816622e+03
-1.156502418446334e+03 -1.052515604321997e+02 -2.918975276816622e+03
-1.156520771306517e+03 -1.065733510209687e+02 -2.918975276816622e+03
-1.156469588810217e+03 -1.071422136809912e+02 -2.918975276816622e+03
-1.156452619961943e+03 -1.095332182015577e+02 -2.918975276816622e+03
-1.156465252888624e+03 -1.108325941331343e+02 -2.918975276816622e+03
-1.156477647965079e+03 -1.128762303858408e+02 -2.918975276816622e+03
-1.156464129744104e+03 -1.134801718165051e+02 -2.918975276816622e+03
-1.156455069732904e+03 -1.182541110446880e+02 -2.918975276816622e+03
-1.156435808180273e+03 -1.204156965262792e+02 -2.918975276816622e+03
-1.156456822526370e+03 -1.212185839651107e+02 -2.918975276816622e+03
-1.156425801148385e+03 -1.234319490797170e+02 -2.918975276816622e+03
-1.156465760221590e+03 -1.250112994569815e+02 -2.918975276816622e+03
-1.156431810923244e+03 -1.259331889055700e+02 -2.918975276816622e+03
-1.156479289538762e+03 -1.272913257258317e+02 -2.918975276816622e+03
-1.156419511777019e+03 -1.298503028706114e+02 -2.918975276816622e+03
-1.156491939542720e+03 -1.316167775991836e+02 -2.918975276816622e+03
-1.156444207541592e+03 -1.324336317687064e+02 -2.918975276816622e+03
-1.156510610111337e+03 -1.332743271508233e+02 -2.918975276816622e+03
-1.156424307039084e+03 -1.351832317239784e+02 -2.918975276816622e+03
-1.156523646112847e+03 -1.361899850396948e+02 -2.918975276816622e+03
-1.156434550390457e+03 -1.385103838661007e+02 -2.918975276816622e+03
-1.156564137633928e+03 -1.404133545495989e+02 -2.918975276816622e+03
-1.156466495179580e+03 -1.413289824122873e+02 -2.918975276816622e+03
-1.156602872862615e+03 -1.435051012032442e+02 -2.918975276816622e+03
-1.156497366462842e+03 -1.449929304317684e+02 -2.918975276816622e+03
-1.156611550470198e+03 -1.458256184339577e+02 -2.918975276816622e+03
-1.156502039920056e+03 -1.476750719700099e+02 -2.918975276816622e+03
-1.156666334307017e+03 -1.516184507496770e+02 -2.918975276816622e+03
-1.156565204521770e+03 -1.550060256752618e+02 -2.918975276816622e+03
-1.156684611733604e+03 -1.562228646616377e+02 -2.918975276816622e+03
-1.156567593952477e+03 -1.586024603132770e+02 -2.918975276816622e+03
-1.156691013579989e+03 -1.604375995263091e+02 -2.918975276816622e+03
-1.156608206092812e+03 -1.610314121817886e+02 -2.918975276816622e+03
-1.156705246982701e+03 -1.633747914090501e+02 -2.918975276816622e+03
-1.156622351671701e+03 -1.643955760306153e+02 -2.918975276816622e+03
-1.156700002200792e+03 -1.659408138063759e+02 -2.918975276816622e+03
-1.156626934248979e+03 -1.674240648038449e+02 -2.918975276816622e+03
-1.156685103886958e+03 -1.700995194656871e+02 -2.918975276816622e+03
-1.156706058200577e+03 -1.723895105346682e+02 -2.918975276816622e+03
-1.156651863782142e+03 -1.731683113803325e+02 -2.918975276816622e+03
-1.156665612180127e+03 -1.770225554057059e+02 -2.918975276816622e+03
-1.156884462423356e+03 -1.819974347992893e+02 -2.918975276816622e+03
-1.156865986592077e+03 -1.840083716522170e+02 -2.918975276816622e+03
-1.156736964007622e+03 -1.865520035634650e+02 -2.918975276816622e+03
-1.156739237300280e+03 -1.868899722287178e+02 -2.918975276816622e+03
-1.156683979795894e+03 -1.893575747845130e+02 -2.918975276816622e+03
-1.156778911696089e+03 -1.915002676402016e+02 -2.918975276816622e+03
-1.156776674289055e+03 -1.948651609025863e+02 -2.918975276816622e+03
-1.156769850165472e+03 -1.973385258960998e+02 -2.918975276816622e+03
-1.156725238444005e+03 -1.985424569339260e+02 -2.918975276816622e+03
-1.156756454142281e+03 -2.003303411783317e+02 -2.918975276816622e+03
-1.156731444314053e+03 -2.009490574766391e+02 -2.918975276816622e+03
-1.156747297652952e+03 -2.032396743929530e+02 -2.918975276816622e+03
-1.156746595225927e+03 -2.044963887813671e+02 -2.918975276816622e+03
-1.156727837468151e+03 -2.055553068606394e+02 -2.918975276816622e+03
-1.156695563131039e+03 -2.073778342377782e+02 -2.918975276816622e+03
-1.156676546353786e+03 -2.097386679676078e+02 -2.918975276816622e+03
-1.156584640563384e+03 -2.182299751930962e+02 -2.918975276816622e+03
-1.156462663017420e+03 -2.207944947298900e+02 -2.918975276816622e+03
-1.156428828218656e+03 -2.208542668029295e+02 -2.918975276816622e+03
-1.156479858446186e+03 -2.234048372545871e+02 -2.918975276816622e+03
-1.156446386157052e+03 -2.269440289633978e+02 -2.918975276816622e+03
-1.156432518981049e+03 -2.300817567169646e+02 -2.918975276816622e+03
-1.156599542632358e+03 -2.410230847864843e+02 -2.918975276816622e+03
-1.156586308938807e+03 -2.441486356981725e+02 -2.918975276816622e+03
-1.156666132676872e+03 -2.468189127213503e+02 -2.918975276816622e+03
-1.156585121050079e+03 -2.492547527236505e+02 -2.918975276816622e+03
-1.156707091205393e+03 -2.503997664668544e+02 -2.918975276816622e+03
-1.156586671158025e+03 -2.517240947623139e+02 -2.918975276816622e+03
-1.156710475310524e+03 -2.547142576021490e+02 -2.918975276816622e+03
-1.156634070382300e+03 -2.564138442757219e+02 -2.918975276816622e+03
-1.156703161254332e+03 -2.604203554957821e+02 -2.918975276816622e+03
-1.156715409557076e+03 -2.649136605794174e+02 -2.918975276816622e+03
-1.156768875984111e+03 -2.668748698390835e+02 -2.918975276816622e+03
-1.156637654572766e+03 -2.684386710276730e+02 -2.918975276816622e+03
-1.156788566029908e+03 -2.695447454890668e+02 -2.918975276816622e+03
-1.156705578265010e+03 -2.703454377216152e+02 -2.918975276816622e+03
-1.156837505110287e+03 -2.717308964324986e+02 -2.918975276816622e+03
-1.156669736743070e+03 -2.733143720548368e+02 -2.918975276816622e+03
-1.156839350686088e+03 -2.771222313278147e+02 -2.918975276816622e+03
-1.156635474136041e+03 -2.794662905295094e+02 -2.918975276816622e+03
-1.156843485616683e+03 -2.819299421925928e+02 -2.918975276816622e+03
-1.156710164965665e+03 -2.860187854518031e+02 -2.918975276816622e+03
-1.156782276994787e+03 -2.865638494181889e+02 -2.918975276816622e+03
-1.156658875462587e+03 -2.892493529600998e+02 -2.918975276816622e+03
-1.156735127169435e+03 -2.932693387614556e+02 -2.918975276816622e+03
-1.156682619364665e+03 -2.948809197411549e+02 -2.918975276816622e+03
-1.156659315311564e+03 -3.010637827610707e+02 -2.918975276816622e+03
-1.156663725411141e+03 -3.018173714905861e+02 -2.918975276816622e+03
-1.156639964302846e+03 -3.039406385207155e+02 -2.918975276816622e+03
-1.156628255502914e+03 -3.054740027767456e+02 -2.918975276816622e+03
-1.156639237222284e+03 -3.078541194443546e+02 -2.918975276816622e+03
-1.156614834848887e+03 -3.095312258861328e+02 -2.918975276816622e+03
-1.156594224622401e+03 -3.151904825445831e+02 -2.918975276816622e+03
-1.156564000505814e+03 -3.177510547184004e+02 -2.918975276816622e+03
-1.156592174592724e+03 -3.189396629001200e+02 -2.918975276816622e+03
-1.156550367435912e+03 -3.201194654699747e+02 -2.918975276816622e+03
-1.156589569932785e+03 -3.219225850945330e+02 -2.918975276816622e+03
-1.156518142005167e+03 -3.236196451267400e+02 -2.918975276816622e+03
-1.156576355693030e+03 -3.243980954876751e+02 -2.918975276816622e+03
-1.156509770175981e+03 -3.261841627335091e+02 -2.918975276816622e+03
-1.156558940270485e+03 -3.269652088859070e+02 -2.918975276816622e+03
-1.156473432051926e+03 -3.288492044296900e+02 -2.918975276816622e+03
-1.156544128471335e+03 -3.299102959593246e+02 -2.918975276816622e+03
-1.156467900099614e+03 -3.312526451216680e+02 -2.918975276816622e+03
-1.156519654172943e+03 -3.346024939132701e+02 -2.918975276816622e+03
-1.156462259737818e+03 -3.351942931804076e+02 -2.918975276816622e+03
-1.156527756330957e+03 -3.365199435271514e+02 -2.918975276816622e+03
-1.156464199431279e+03 -3.384488116375114e+02 -2.918975276816622e+03
-1.156513225715626e+03 -3.413476081672677e+02 -2.918975276816622e+03
-1.156468285804966e+03 -3.427649537899132e+02 -2.918975276816622e+03
-1.156503104122409e+03 -3.441038411269585e+02 -2.918975276816622e+03
-1.156498412133568e+03 -3.485463659767303e+02 -2.918975276816622e+03
-1.156417503126197e+03 -3.486153686642281e+02 -2.918975276816622e+03
-1.156529268089035e+03 -3.533243806036370e+02 -2.918975276816622e+03
-1.156576129464483e+03 -3.575666432994149e+02 -2.918975276816622e+03
-1.156587917028974e+03 -3.587057288706314e+02 -2.918975276816622e+03
-1.156627240165473e+03 -3.622823897130129e+02 -2.918975276816622e+03
-1.156622183995518e+03 -3.629046348278128e+02 -2.918975276816622e+03
-1.156649176534247e+03 -3.647493574364011e+02 -2.918975276816622e+03
-1.156651082298882e+03 -3.672245650218857e+02 -2.918975276816622e+03
-1.156699633876740e+03 -3.710759549733473e+02 -2.918975276816622e+03
-1.156688432558637e+03 -3.725527113559177e+02 -2.918975276816622e+03
-1.156685349285071e+03 -3.742073011324447e+02 -2.918975276816622e+03
-1.156714727715202e+03 -3.767443840132135e+02 -2.918975276816622e+03
-1.156784299205983e+03 -3.776228550042575e+02 -2.918975276816622e+03
-1.156741657281257e+03 -3.799599615616597e+02 -2.918975276816622e+03
-1.156632474165235e+03 -3.803238001330399e+02 -2.918975276816622e+03
-1.156709618446905e+03 -3.824438588497968e+02 -2.918975276816622e+03
-1.156753753902871e+03 -3.861363482678278e+02 -2.918975276816622e+03
-1.156768398245331e+03  3.833448938615302e+02 -2.918975276816622e+03
-1.156767048297777e+03  3.823256414233848e+02 -2.918975276816622e+03
-1.156757055179339e+03  3.786834950987989e+02 -2.918975276816622e+03
-1.156774533054303e+03  3.775854908321459e+02 -2.918975276816622e+03
-1.156788949217601e+03  3.765351213581588e+02 -2.918975276816622e+03
-1.156773595191204e+03  3.735986302012556e+02 -2.918975276816622e+03
-1.156770036191104e+03  3.694952886250397e+02 -2.918975276816622e+03
-1.156777183974672e+03  3.642141380219574e+02 -2.918975276816622e+03
-1.156763082906661e+03  3.602380054343905e+02 -2.918975276816622e+03
-1.156751576855685e+03  3.564606000880490e+02 -2.918975276816622e+03
-1.156756977331193e+03  3.552552136212556e+02 -2.918975276816622e+03
-1.156750816346858e+03  3.531715301274884e+02 -2.918975276816622e+03
-1.156722999100909e+03  3.470539315468062e+02 -2.918975276816622e+03
-1.156715211027345e+03  3.433727879244049e+02 -2.918975276816622e+03
-1.156700484721933e+03  3.380514236966472e+02 -2.918975276816622e+03
-1.156691256336282e+03  3.354030855245459e+02 -2.918975276816622e+03
-1.156666915875646e+03  3.277309002782881e+02 -2.918975276816622e+03
-1.156668271035987e+03  3.265204703144272e+02 -2.918975276816622e+03
-1.156678304325806e+03  3.231761528269074e+02 -2.918975276816622e+03
-1.156660890937209e+03  3.220615400704859e+02 -2.918975276816622e+03
-1.156654042741404e+03  3.199707524403536e+02 -2.918975276816622e+03
-1.156696195858259e+03  3.173177478846266e+02 -2.918975276816622e+03
-1.156630290411231e+03  3.124380932582612e+02 -2.918975276816622e+03
-1.156656228444950e+03  3.105257067610669e+02 -2.918975276816622e+03
-1.156673340162037e+03  3.077194119062544e+02 -2.918975276816622e+03
-1.156691791428246e+03  3.027971581242765e+02 -2.918975276816622e+03
-1.156626251191752e+03  3.026977394872548e+02 -2.918975276816622e+03
-1.156690738560919e+03  2.977393641666084e+02 -2.918975276816622e+03
-1.156695692573082e+03  2.954038836127868e+02 -2.918975276816622e+03
-1.156725814456792e+03  2.942777056916582e+02 -2.918975276816622e+03
-1.156708732981393e+03  2.917388781271364e+02 -2.918975276816622e+03
-1.156762237137769e+03  2.901852617405379e+02 -2.918975276816622e+03
-1.156726110894374e+03  2.879278196176691e+02 -2.918975276816622e+03
-1.156797804723758e+03  2.864989872405307e+02 -2.918975276816622e+03
-1.156743654727064e+03  2.844601000474001e+02 -2.918975276816622e+03
-1.156855965473351e+03  2.819593266689148e+02 -2.918975276816622e+03
-1.156804599298901e+03  2.780155485375017e+02 -2.918975276816622e+03
-1.156906882039899e+03  2.776479678732239e+02 -2.918975276816622e+03
-1.156753235874649e+03  2.753215724183311e+02 -2.918975276816622e+03
-1.156892203141088e+03  2.739334837751427e+02 -2.918975276816622e+03
-1.156768337789907e+03  2.716552324717499e+02 -2.918975276816622e+03
-1.156917957930061e+03  2.713132440556720e+02 -2.918975276816622e+03
-1.156718593572321e+03  2.695745833756308e+02 -2.918975276816622e+03
-1.156932553260179e+03  2.661268100319437e+02 -2.918975276816622e+03
-1.156757534476259e+03  2.648880978183867e+02 -2.918975276816622e+03
-1.156987048835355e+03  2.625672825723596e+02 -2.918975276816622e+03
-1.156806787268275e+03  2.608077430190223e+02 -2.918975276816622e+03
-1.156986584501602e+03  2.600348052002745e+02 -2.918975276816622e+03
-1.156843994675504e+03  2.577240814246570e+02 -2.918975276816622e+03
-1.157022159757187e+03  2.568379771456152e+02 -2.918975276816622e+03
-1.156867019127704e+03  2.552422455611546e+02 -2.918975276816622e+03
-1.157062220737239e+03  2.541246158276841e+02 -2.918975276816622e+03
-1.156964202815403e+03  2.516678227540593e+02 -2.918975276816622e+03
-1.157132558256467e+03  2.508316172633871e+02 -2.918975276816622e+03
-1.157009154325823e+03  2.503046887847030e+02 -2.918975276816622e+03
-1.157011959628844e+03  2.473804446705921e+02 -2.918975276816622e+03
-1.156908595358388e+03  2.459851996408694e+02 -2.918975276816622e+03
-1.156904637922014e+03  2.443408084949110e+02 -2.918975276816622e+03
-1.156855191292712e+03  2.431198150306750e+02 -2.918975276816622e+03
-1.156796531223902e+03  2.408835870875308e+02 -2.918975276816622e+03
-1.156795769595355e+03  2.400594792245305e+02 -2.918975276816622e+03
-1.156728262197073e+03  2.385148787830529e+02 -2.918975276816622e+03
-1.156704156348727e+03  2.354449393057963e+02 -2.918975276816622e+03
-1.156636794492969e+03  2.342594406049175e+02 -2.918975276816622e+03
-1.156638123316942e+03  2.316977707838254e+02 -2.918975276816622e+03
-1.156543868225248e+03  2.298076807195802e+02 -2.918975276816622e+03
-1.156574690534655e+03  2.291813182910642e+02 -2.918975276816622e+03
-1.156483729768175e+03  2.270012888563787e+02 -2.918975276816622e+03
-1.156515190446241e+03  2.256917743182710e+02 -2.918975276816622e+03
-1.156445149904671e+03  2.248964842430391e+02 -2.918975276816622e+03
-1.156471123831779e+03  2.232881018922024e+02 -2.918975276816622e+03
-1.156366438516232e+03  2.207157680679266e+02 -2.918975276816622e+03
-1.156393892713661e+03  2.196908776769098e+02 -2.918975276816622e+03
-1.156316377738561e+03  2.183608393049683e+02 -2.918975276816622e+03
-1.156301384878286e+03  2.154150841944430e+02 -2.918975276816622e+03
-1.156237190384443e+03  2.143981552089093e+02 -2.918975276816622e+03
-1.156235911067992e+03  2.119871376821743e+02 -2.918975276816622e+03
-1.156145389497833e+03  2.100317676092238e+02 -2.918975276816622e+03
-1.156184075556882e+03  2.091797976930911e+02 -2.918975276816622e+03
-1.156080281197090e+03  2.070636642686206e+02 -2.918975276816622e+03
-1.156134020957735e+03  2.053215489085502e+02 -2.918975276816622e+03
-1.156097250244964e+03  2.044110519184931e+02 -2.918975276816622e+03
-1.156145199967058e+03  2.034410129050975e+02 -2.918975276816622e+03
-1.156061707897820e+03  2.008147997619359e+02 -2.918975276816622e+03
-1.156051312576005e+03  1.998832424223633e+02 -2.918975276816622e+03
-1.156061172285830e+03  1.980715722539469e+02 -2.918975276816622e+03
-1.156102852606097e+03  1.950307144761456e+02 -2.918975276816622e+03
-1.156040574220496e+03  1.902875810448809e+02 -2.918975276816622e+03
-1.156037263353044e+03  1.872685812323629e+02 -2.918975276816622e+03
-1.156048385854778e+03  1.859134316722941e+02 -2.918975276816622e+03
-1.156024558777263e+03  1.845729669850103e+02 -2.918975276816622e+03
-1.156055283907606e+03  1.831921085724776e+02 -2.918975276816622e+03
-1.156012891367736e+03  1.808633176292644e+02 -2.918975276816622e+03
-1.156048677708240e+03  1.801992308247112e+02 -2.918975276816622e+03
-1.156011439458281e+03  1.788051738782108e+02 -2.918975276816622e+03
-1.156037655644099e+03  1.753880943073906e+02 -2.918975276816622e+03
-1.156012918382095e+03  1.743697869549453e+02 -2.918975276816622e+03
-1.156041836209134e+03  1.719393208710907e+02 -2.918975276816622e+03
-1.156020961797916e+03  1.701119425836354e+02 -2.918975276816622e+03
-1.156040955069828e+03  1.691475256639670e+02 -2.918975276816622e+03
-1.156023379287256e+03  1.671113794787433e+02 -2.918975276816622e+03
-1.156043334381186e+03  1.657488350999248e+02 -2.918975276816622e+03
-1.156032564570895e+03  1.646235730545846e+02 -2.918975276816622e+03
-1.156047203556125e+03  1.632563991794805e+02 -2.918975276816622e+03
-1.156042832736872e+03  1.608845180888781e+02 -2.918975276816622e+03
-1.156051669486565e+03  1.600768779516846e+02 -2.918975276816622e+03
-1.156051109116459e+03  1.585812081814637e+02 -2.918975276816622e+03
-1.156059057823990e+03  1.556747794796902e+02 -2.918975276816622e+03
-1.156069392564551e+03  1.544731311526821e+02 -2.918975276816622e+03
-1.156065214767810e+03  1.519156015459209e+02 -2.918975276816622e+03
-1.156090862771182e+03  1.501595252482918e+02 -2.918975276816622e+03
-1.156076039519412e+03  1.493408721900126e+02 -2.918975276816622e+03
-1.156117911375396e+03  1.471001214987869e+02 -2.918975276816622e+03
-1.156082071496141e+03  1.456077906066269e+02 -2.918975276816622e+03
-1.156113911083053e+03  1.447867535646712e+02 -2.918975276816622e+03
-1.156086753240842e+03  1.433488174289196e+02 -2.918975276816622e+03
-1.156171613020281e+03  1.408452782122443e+02 -2.918975276816622e+03
-1.156103535064089e+03  1.400586439286665e+02 -2.918975276816622e+03
-1.156183867280286e+03  1.385157984218520e+02 -2.918975276816622e+03
-1.156127174456782e+03  1.354979167626042e+02 -2.918975276816622e+03
-1.156227743866524e+03  1.343360940415596e+02 -2.918975276816622e+03
-1.156125804656661e+03  1.318544212178369e+02 -2.918975276816622e+03
-1.156250760679008e+03  1.296559188584386e+02 -2.918975276816622e+03
-1.156193099746908e+03  1.292241457688999e+02 -2.918975276816622e+03
-1.156335491863983e+03  1.270744790025397e+02 -2.918975276816622e+03
-1.156199755553917e+03  1.258570355264165e+02 -2.918975276816622e+03
-1.156351178866975e+03  1.243935310094954e+02 -2.918975276816622e+03
-1.156236597156765e+03  1.231322141851331e+02 -2.918975276816622e+03
-1.156400463858843e+03  1.209654558879251e+02 -2.918975276816622e+03
-1.156265461663317e+03  1.200674516477069e+02 -2.918975276816622e+03
-1.156439203952052e+03  1.187764043533055e+02 -2.918975276816622e+03
-1.156348479981035e+03  1.153557643391090e+02 -2.918975276816622e+03
-1.156492335222350e+03  1.143767878622490e+02 -2.918975276816622e+03
-1.156383016132426e+03  1.118677328098279e+02 -2.918975276816622e+03
-1.156530699457564e+03  1.105169859627215e+02 -2.918975276816622e+03
-1.156423773712552e+03  1.096120148289986e+02 -2.918975276816622e+03
-1.156566568810375e+03  1.074951127605766e+02 -2.918975276816622e+03
-1.156459600996849e+03  1.061928676424332e+02 -2.918975276816622e+03
-1.156578693857144e+03  1.047203459673168e+02 -2.918975276816622e+03
-1.156478402937721e+03  1.033159039389107e+02 -2.918975276816622e+03
-1.156585699116491e+03  1.010980960405525e+02 -2.918975276816622e+03
-1.156516298255356e+03  1.003584490249677e+02 -2.918975276816622e+03
-1.156609562031133e+03  9.824003457850527e+01 -2.918975276816622e+03
-1.156535900255680e+03  9.697471335935761e+01 -2.918975276816622e+03
-1.156616274341039e+03  9.517365045788463e+01 -2.918975276816622e+03
-1.156567256480979e+03  9.118624579863993e+01 -2.918975276816622e+03
-1.156629378176990e+03  8.995155944983814e+01 -2.918975276816622e+03
-1.156556897551994e+03  8.807611058434773e+01 -2.918975276816622e+03
-1.156590362824117e+03  8.682456914307684e+01 -2.918975276816622e+03
-1.156648578783545e+03  8.653460246322109e+01 -2.918975276816622e+03
-1.156651680136349e+03  8.512358936617049e+01 -2.918975276816622e+03
-1.156629461325387e+03  8.267715410109092e+01 -2.918975276816622e+03
-1.156666972672873e+03  7.914003983893086e+01 -2.918975276816622e+03
-1.156699940568532e+03  7.355718836315235e+01 -2.918975276816622e+03
-1.156708811974512e+03  7.166459273371098e+01 -2.918975276816622e+03
-1.156722620846680e+03  6.912773935948428e+01 -2.918975276816622e+03
-1.156739361005855e+03  6.724278238794945e+01 -2.918975276816622e+03
-1.156773920414781e+03  6.339943387211385e+01 -2.918975276816622e+03
-1.156780749556805e+03  6.276510100686951e+01 -2.918975276816622e+03
-1.156834670903258e+03  5.825676583738689e+01 -2.918975276816622e+03
-1.156831787205850e+03  5.635376567958529e+01 -2.918975276816622e+03
-1.156907282638641e+03  5.354867292413891e+01 -2.918975276816622e+03
-1.156888385438309e+03  5.095683420066217e+01 -2.918975276816622e+03
-1.156954697933410e+03  4.968809331607069e+01 -2.918975276816622e+03
-1.156907477322342e+03  4.793399453313971e+01 -2.918975276816622e+03
-1.156983178355126e+03  4.659523708809824e+01 -2.918975276816622e+03
-1.156951087362216e+03  4.421835007663108e+01 -2.918975276816622e+03
-1.157025945374614e+03  4.212860077675995e+01 -2.918975276816622e+03
-1.156996291927684e+03  4.161640175389823e+01 -2.918975276816622e+03
-1.157053147952350e+03  3.894068079715338e+01 -2.918975276816622e+03
-1.157064740677557e+03  3.611995988070498e+01 -2.918975276816622e+03
-1.157137390071135e+03  2.988254603266264e+01 -2.918975276816622e+03
-1.157145404954168e+03  2.878229692032672e+01 -2.918975276816622e+03
-1.157173357956436e+03  2.362448549402896e+01 -2.918975276816622e+03
-1.157227759351066e+03  1.902385186114745e+01 -2.918975276816622e+03
-1.157138697621463e+03  1.735461048357867e+01 -2.918975276816622e+03
-1.157239584192419e+03  1.581148039879706e+01 -2.918975276816622e+03
-1.157358846317871e+03  1.464116276680179e+01 -2.918975276816622e+03
-1.157226885717152e+03  1.372374175774791e+01 -2.918975276816622e+03
-1.157210566059995e+03  1.196324081819587e+01 -2.918975276816622e+03
-1.157158838121734e+03  7.575350917291928e+00 -2.918975276816622e+03
1.154291405676900e+03 5.926847561672343e-01 2.918975276816622e+03
 1.154512406724159e+03 -1.568981224778374e+00  2.918975276816622e+03
 1.154505635151753e+03 -2.055881474309792e+00  2.918975276816622e+03
 1.154467470501881e+03 -4.569559234474983e+00  2.918975276816622e+03
 1.154385279937724e+03 -9.306370238192047e+00  2.918975276816622e+03
 1.154261094863895e+03 -1.649902860174898e+01  2.918975276816622e+03
 1.154185207776969e+03 -2.117184070734724e+01  2.918975276816622e+03
 1.154114280556962e+03 -2.657488206060217e+01  2.918975276816622e+03
 1.154078326604543e+03 -2.671289659978173e+01  2.918975276816622e+03
 1.154035566506748e+03 -3.023730803691103e+01  2.918975276816622e+03
 1.153991857479891e+03 -3.482438361308198e+01  2.918975276816622e+03
 1.153959551894275e+03 -3.782910792255415e+01  2.918975276816622e+03
 1.153901150267903e+03 -4.290107390781252e+01  2.918975276816622e+03
 1.153898963171518e+03 -4.586618970574469e+01  2.918975276816622e+03
 1.153881767440954e+03 -4.902111678948118e+01  2.918975276816622e+03
 1.153855397023714e+03 -5.102971034298492e+01  2.918975276816622e+03
 1.153765413620674e+03 -5.269397175820729e+01  2.918975276816622e+03
 1.153832484233080e+03 -5.419496311902655e+01  2.918975276816622e+03
 1.153762192233185e+03 -5.661339872008155e+01  2.918975276816622e+03
 1.153804428110004e+03 -5.876987297089048e+01  2.918975276816622e+03
 1.153727280061019e+03 -6.057318551193063e+01  2.918975276816622e+03
 1.153783156668714e+03 -6.176836062397643e+01  2.918975276816622e+03
 1.153708711033907e+03 -6.337679711786331e+01  2.918975276816622e+03
 1.153764799784567e+03 -6.529278370081715e+01  2.918975276816622e+03
 1.153709778623093e+03 -6.635223329055198e+01  2.918975276816622e+03
 1.153757992935495e+03 -6.928483368005084e+01  2.918975276816622e+03
 1.153702753085036e+03 -7.089243150629432e+01  2.918975276816622e+03
 1.153736320027659e+03 -7.197359468237147e+01  2.918975276816622e+03
 1.153696655247049e+03 -7.450255945210053e+01  2.918975276816622e+03
 1.153729796194594e+03 -7.810536196966549e+01  2.918975276816622e+03
 1.153692321931677e+03 -8.073661836150103e+01  2.918975276816622e+03
 1.153708954933691e+03 -8.184854277964467e+01  2.918975276816622e+03
 1.153685561877826e+03 -8.477214328620880e+01  2.918975276816622e+03
 1.153725639271188e+03 -8.601387831967018e+01  2.918975276816622e+03
 1.153684865117047e+03 -8.892559506875858e+01  2.918975276816622e+03
 1.153691747632303e+03 -9.068004274598275e+01  2.918975276816622e+03
 1.153677929223902e+03 -9.233772171310650e+01  2.918975276816622e+03
 1.153695327264686e+03 -9.467564388845491e+01  2.918975276816622e+03
 1.153670783295802e+03 -9.736890721125263e+01  2.918975276816622e+03
 1.153680279272623e+03 -9.787415595745075e+01  2.918975276816622e+03
 1.153658559275788e+03 -1.004408756281528e+02  2.918975276816622e+03
 1.153664133695998e+03 -1.036988820327341e+02  2.918975276816622e+03
 1.153647471716461e+03 -1.051234181864081e+02  2.918975276816622e+03
 1.153656843999288e+03 -1.060743542319982e+02  2.918975276816622e+03
 1.153640560394115e+03 -1.089592998308769e+02  2.918975276816622e+03
 1.153643220455407e+03 -1.105163104250678e+02  2.918975276816622e+03
 1.153631122681063e+03 -1.122037533456368e+02  2.918975276816622e+03
 1.153629834893788e+03 -1.146487105475805e+02  2.918975276816622e+03
 1.153618661481086e+03 -1.172328010289252e+02  2.918975276816622e+03
 1.153617547223003e+03 -1.204183822473990e+02  2.918975276816622e+03
 1.153644846813054e+03 -1.249399725854074e+02  2.918975276816622e+03
 1.153591949633991e+03 -1.250525044928382e+02  2.918975276816622e+03
 1.153591712077878e+03 -1.289975243754111e+02  2.918975276816622e+03
 1.153611016899111e+03 -1.331054098927748e+02  2.918975276816622e+03
 1.153602719371881e+03 -1.428711351718858e+02  2.918975276816622e+03
 1.153612895079847e+03 -1.447117344561533e+02  2.918975276816622e+03
 1.153601994744895e+03 -1.488644183272658e+02  2.918975276816622e+03
 1.153613158901382e+03 -1.506772798469522e+02  2.918975276816622e+03
 1.153599154566207e+03 -1.523076731957633e+02  2.918975276816622e+03
 1.153631975270612e+03 -1.544217202382788e+02  2.918975276816622e+03
 1.153583267258005e+03 -1.578028685436988e+02  2.918975276816622e+03
 1.153618696998657e+03 -1.603414365111162e+02  2.918975276816622e+03
 1.153596212533146e+03 -1.616609171230975e+02  2.918975276816622e+03
 1.153698885404301e+03 -1.624651879831515e+02  2.918975276816622e+03
 1.153568258825564e+03 -1.636078595115357e+02  2.918975276816622e+03
 1.153684804017130e+03 -1.656064572498433e+02  2.918975276816622e+03
 1.153583114668052e+03 -1.663856474976736e+02  2.918975276816622e+03
 1.153547591718733e+03 -1.686831538935419e+02  2.918975276816622e+03
 1.153573336941846e+03 -1.704987197504560e+02  2.918975276816622e+03
 1.153573929460412e+03 -1.721163239351849e+02  2.918975276816622e+03
 1.153568340651301e+03 -1.743286690969289e+02  2.918975276816622e+03
 1.153803839230226e+03 -1.781576582359447e+02  2.918975276816622e+03
 1.153423885165314e+03 -1.805863131776245e+02  2.918975276816622e+03
 1.153513076810401e+03 -1.840987155405764e+02  2.918975276816622e+03
 1.153782333825421e+03 -1.863260730682706e+02  2.918975276816622e+03
 1.153550529348900e+03 -1.879351345691830e+02  2.918975276816622e+03
 1.153438379756113e+03 -1.913455033775209e+02  2.918975276816622e+03
 1.153615027062420e+03 -1.942656689988303e+02  2.918975276816622e+03
 1.153573942455972e+03 -1.978431531709240e+02  2.918975276816622e+03
 1.153633528447833e+03 -2.009835635325101e+02  2.918975276816622e+03
 1.153659581169939e+03 -2.087259116281632e+02  2.918975276816622e+03
 1.153669184947759e+03 -2.110707511458580e+02  2.918975276816622e+03
 1.153684255861771e+03 -2.178581777415120e+02  2.918975276816622e+03
 1.153693636459956e+03 -2.204340922742679e+02  2.918975276816622e+03
 1.153698378827970e+03 -2.233827682084732e+02  2.918975276816622e+03
 1.153701787459391e+03 -2.241150516871822e+02  2.918975276816622e+03
 1.153705199477975e+03 -2.257158797454194e+02  2.918975276816622e+03
 1.153714367980410e+03 -2.288086281877697e+02  2.918975276816622e+03
 1.153723042011954e+03 -2.304132032360455e+02  2.918975276816622e+03
 1.153723130423360e+03 -2.318603642847144e+02  2.918975276816622e+03
 1.153735221021388e+03 -2.345681780512137e+02  2.918975276816622e+03
 1.153753238289127e+03 -2.396254750834839e+02  2.918975276816622e+03
 1.153758193302323e+03 -2.407139515340857e+02  2.918975276816622e+03
 1.153769715085334e+03 -2.445989090275712e+02  2.918975276816622e+03
 1.153782063249417e+03 -2.476500619737622e+02  2.918975276816622e+03
 1.153800304010660e+03 -2.527740427923167e+02  2.918975276816622e+03
 1.153809242166645e+03 -2.554478289436587e+02  2.918975276816622e+03
 1.153816490593791e+03 -2.572499028228015e+02  2.918975276816622e+03
 1.153825537294146e+03 -2.608158583747018e+02  2.918975276816622e+03
 1.153824326496933e+03 -2.614400862474046e+02  2.918975276816622e+03
 1.153840079739148e+03 -2.657840826982554e+02  2.918975276816622e+03
 1.153850953782254e+03 -2.685534653884123e+02  2.918975276816622e+03
 1.153859845197637e+03 -2.715210734449558e+02  2.918975276816622e+03
 1.153860516219726e+03 -2.723160418920723e+02  2.918975276816622e+03
 1.153870200855458e+03 -2.743174672645694e+02  2.918975276816622e+03
 1.153871290988429e+03 -2.774861235597874e+02  2.918975276816622e+03
 1.153889376611373e+03 -2.794540284825076e+02  2.918975276816622e+03
 1.153877555569881e+03 -2.801657583737509e+02  2.918975276816622e+03
 1.153873819798469e+03 -2.834668561048469e+02  2.918975276816622e+03
 1.153881192895250e+03 -2.861095427466062e+02  2.918975276816622e+03
 1.153905633913225e+03 -2.914040440530659e+02  2.918975276816622e+03
 1.153891610662879e+03 -2.951237566533482e+02  2.918975276816622e+03
 1.153796183366455e+03 -2.965492073643262e+02  2.918975276816622e+03
 1.153842010793481e+03 -2.975655789489700e+02  2.918975276816622e+03
 1.153951097030309e+03 -2.978500953779414e+02  2.918975276816622e+03
 1.153885779055430e+03 -2.987850225428042e+02  2.918975276816622e+03
 1.153873633369706e+03 -3.032309838236333e+02  2.918975276816622e+03
 1.153876107453620e+03 -3.037926955995723e+02  2.918975276816622e+03
 1.153872680259583e+03 -3.074004027079122e+02  2.918975276816622e+03
 1.153883932543562e+03 -3.094167097817753e+02  2.918975276816622e+03
 1.153846220612846e+03 -3.100581783408172e+02  2.918975276816622e+03
 1.153836398824006e+03 -3.111707058968836e+02  2.918975276816622e+03
 1.153887925549965e+03 -3.116277377732862e+02  2.918975276816622e+03
 1.153863817757414e+03 -3.134099006050718e+02  2.918975276816622e+03
 1.153850017915023e+03 -3.145339532364255e+02  2.918975276816622e+03
 1.153832148606223e+03 -3.176876841493175e+02  2.918975276816622e+03
 1.153820970745457e+03 -3.214118277994192e+02  2.918975276816622e+03
 1.153796129213238e+03 -3.260612514582915e+02  2.918975276816622e+03
 1.153792687358960e+03 -3.285493848694486e+02  2.918975276816622e+03
 1.153770472609013e+03 -3.314398458557643e+02  2.918975276816622e+03
 1.153777514000180e+03 -3.322947553304571e+02  2.918975276816622e+03
 1.153749974000114e+03 -3.348230627452622e+02  2.918975276816622e+03
 1.153765344203239e+03 -3.385255336989048e+02  2.918975276816622e+03
 1.153736718729248e+03 -3.396213139831249e+02  2.918975276816622e+03
 1.153771984432834e+03 -3.438174979095648e+02  2.918975276816622e+03
 1.153626516597579e+03 -3.467544510279304e+02  2.918975276816622e+03
 1.153616451650914e+03 -3.507759988911741e+02  2.918975276816622e+03
 1.153960631165162e+03 -3.509850432168088e+02  2.918975276816622e+03
 1.153751591066338e+03 -3.547681472150667e+02  2.918975276816622e+03
 1.153702463663468e+03 -3.572181198768285e+02  2.918975276816622e+03
 1.153720675172741e+03 -3.601404551029042e+02  2.918975276816622e+03
 1.153724574232554e+03 -3.631373279012908e+02  2.918975276816622e+03
 1.153738435644377e+03 -3.646779466302407e+02  2.918975276816622e+03
 1.153726482043367e+03 -3.659274574478534e+02  2.918975276816622e+03
 1.153743024187616e+03 -3.667811666865578e+02  2.918975276816622e+03
 1.153775448095873e+03 -3.687840377820639e+02  2.918975276816622e+03
 1.153716829648927e+03 -3.709548708754806e+02  2.918975276816622e+03
 1.153717254863545e+03 -3.743078763740599e+02  2.918975276816622e+03
 1.153856503241580e+03 -3.760202738387546e+02  2.918975276816622e+03
 1.153737093452264e+03 -3.816679100622142e+02  2.918975276816622e+03
 1.153672653428015e+03 -3.838255906965065e+02  2.918975276816622e+03
 1.154020276113561e+03 -3.839383168308150e+02  2.918975276816622e+03
1.153850505527967e+03 3.852342901426105e+02 2.918975276816622e+03
1.153823851712674e+03 3.839939989685877e+02 2.918975276816622e+03
1.153851750320569e+03 3.815175931787120e+02 2.918975276816622e+03
1.153847565528620e+03 3.810902914722289e+02 2.918975276816622e+03
1.153901971146382e+03 3.765630618103449e+02 2.918975276816622e+03
1.153932627122328e+03 3.733441215934776e+02 2.918975276816622e+03
1.153945333771459e+03 3.723179194130302e+02 2.918975276816622e+03
1.153953163310242e+03 3.708629194679838e+02 2.918975276816622e+03
1.153991585037471e+03 3.675544628210684e+02 2.918975276816622e+03
1.154002746604710e+03 3.665274625810166e+02 2.918975276816622e+03
1.154020631312178e+03 3.648219891755874e+02 2.918975276816622e+03
1.154037502506985e+03 3.625678991954445e+02 2.918975276816622e+03
1.154077476676955e+03 3.593093192473165e+02 2.918975276816622e+03
1.154090498648458e+03 3.578325515206450e+02 2.918975276816622e+03
1.154114463079111e+03 3.558543913570306e+02 2.918975276816622e+03
1.154137869323849e+03 3.532146891940478e+02 2.918975276816622e+03
1.154150978333593e+03 3.522062785918122e+02 2.918975276816622e+03
1.154167276487010e+03 3.504864822496712e+02 2.918975276816622e+03
1.154221114603148e+03 3.452111925224445e+02 2.918975276816622e+03
1.154240384330307e+03 3.430725125695064e+02 2.918975276816622e+03
1.154252297924937e+03 3.419058623286618e+02 2.918975276816622e+03
1.154278432848973e+03 3.397637787224083e+02 2.918975276816622e+03
1.154364442473870e+03 3.326323576406562e+02 2.918975276816622e+03
1.154285370741719e+03 3.325923492615558e+02 2.918975276816622e+03
1.154349795651186e+03 3.278877607973196e+02 2.918975276816622e+03
1.154366776791448e+03 3.266064666939360e+02 2.918975276816622e+03
1.154377564221783e+03 3.216836041826001e+02 2.918975276816622e+03
1.154379173479106e+03 3.193019349520069e+02 2.918975276816622e+03
1.154376920047321e+03 3.162791858268142e+02 2.918975276816622e+03
1.154368883381031e+03 3.137687210042010e+02 2.918975276816622e+03
1.154367206830050e+03 3.112912574426020e+02 2.918975276816622e+03
1.154351476480703e+03 3.084077281626273e+02 2.918975276816622e+03
1.154305435883969e+03 3.017640646106721e+02 2.918975276816622e+03
1.154288240304924e+03 2.997597453404180e+02 2.918975276816622e+03
1.154244106014149e+03 2.948335383838822e+02 2.918975276816622e+03
1.154235219643998e+03 2.937538986363771e+02 2.918975276816622e+03
1.154177993834663e+03 2.880198641924630e+02 2.918975276816622e+03
1.154168193043623e+03 2.877925756633130e+02 2.918975276816622e+03
1.154107303994225e+03 2.817386015292615e+02 2.918975276816622e+03
1.154079979290070e+03 2.798205139222433e+02 2.918975276816622e+03
1.154062316296458e+03 2.769127637837717e+02 2.918975276816622e+03
1.154019677780608e+03 2.748702935956006e+02 2.918975276816622e+03
1.154014730573584e+03 2.709942471866178e+02 2.918975276816622e+03
1.153941057679838e+03 2.683017349059580e+02 2.918975276816622e+03
1.153942390084967e+03 2.644046798118042e+02 2.918975276816622e+03
1.153903258763925e+03 2.638228815199163e+02 2.918975276816622e+03
1.153931835787478e+03 2.606724907986331e+02 2.918975276816622e+03
1.153836940875871e+03 2.579053799869093e+02 2.918975276816622e+03
1.153895918392693e+03 2.562502195624963e+02 2.918975276816622e+03
1.153811941282856e+03 2.546381906668861e+02 2.918975276816622e+03
1.153877609787035e+03 2.531311676302093e+02 2.918975276816622e+03
1.153838528363595e+03 2.524344977106558e+02 2.918975276816622e+03
1.153854066620698e+03 2.505575366871395e+02 2.918975276816622e+03
1.153649936611384e+03 2.488755020492783e+02 2.918975276816622e+03
1.153867008676906e+03 2.483602292202723e+02 2.918975276816622e+03
1.153811934093759e+03 2.464797170000913e+02 2.918975276816622e+03
1.153746820730082e+03 2.457034775469500e+02 2.918975276816622e+03
1.153670071003487e+03 2.432546490546271e+02 2.918975276816622e+03
1.153912761850062e+03 2.418922192885872e+02 2.918975276816622e+03
1.153716344534521e+03 2.400710936036212e+02 2.918975276816622e+03
1.153770267198214e+03 2.382901847279086e+02 2.918975276816622e+03
1.153691945503822e+03 2.359563738856942e+02 2.918975276816622e+03
1.153781339898479e+03 2.331003073594673e+02 2.918975276816622e+03
1.153691469935057e+03 2.328578903802450e+02 2.918975276816622e+03
1.153813361131591e+03 2.299294594241414e+02 2.918975276816622e+03
1.153837521682605e+03 2.286262753580380e+02 2.918975276816622e+03
1.153802490595353e+03 2.264096510220348e+02 2.918975276816622e+03
1.152888139282584e+03 2.231451636625755e+02 2.918975276816622e+03
1.153849791178643e+03 2.214716922180131e+02 2.918975276816622e+03
1.153801474393412e+03 2.181572709203213e+02 2.918975276816622e+03
1.153764498214505e+03 2.106682914941470e+02 2.918975276816622e+03
1.153758241237143e+03 2.095863734172836e+02 2.918975276816622e+03
1.153753539623025e+03 2.036179717553943e+02 2.918975276816622e+03
1.153745030539242e+03 2.009187352529370e+02 2.918975276816622e+03
1.153722147840092e+03 1.956747048011283e+02 2.918975276816622e+03
1.153691962175441e+03 1.924305220206627e+02 2.918975276816622e+03
1.153750790583581e+03 1.924542552751189e+02 2.918975276816622e+03
1.153739907219655e+03 1.899324866924728e+02 2.918975276816622e+03
1.153716624495399e+03 1.875361296848200e+02 2.918975276816622e+03
1.153730201832685e+03 1.841724083162812e+02 2.918975276816622e+03
1.153732004257309e+03 1.819529241016064e+02 2.918975276816622e+03
1.153743816162811e+03 1.760074525058376e+02 2.918975276816622e+03
1.153766996720881e+03 1.679891959056889e+02 2.918975276816622e+03
1.153773957607398e+03 1.662701414601175e+02 2.918975276816622e+03
1.153802356161833e+03 1.590899756591831e+02 2.918975276816622e+03
1.153816694698721e+03 1.576611066730759e+02 2.918975276816622e+03
1.153842990439432e+03 1.497863219961001e+02 2.918975276816622e+03
1.153845523003141e+03 1.484782231066056e+02 2.918975276816622e+03
1.153862602863053e+03 1.450079454367374e+02 2.918975276816622e+03
1.153835518858285e+03 1.416643399347211e+02 2.918975276816622e+03
1.153825702285094e+03 1.393090489887401e+02 2.918975276816622e+03
1.153826290798148e+03 1.388724079977089e+02 2.918975276816622e+03
1.153819842313192e+03 1.363211799923803e+02 2.918975276816622e+03
1.153776016265723e+03 1.303461149983421e+02 2.918975276816622e+03
1.153760490193150e+03 1.282083134992408e+02 2.918975276816622e+03
1.153768522619184e+03 1.268934272393510e+02 2.918975276816622e+03
1.153770832450227e+03 1.258818698739544e+02 2.918975276816622e+03
1.153737225471039e+03 1.245862275462360e+02 2.918975276816622e+03
1.153772304973454e+03 1.188921749078069e+02 2.918975276816622e+03
1.153705040403475e+03 1.162118380073304e+02 2.918975276816622e+03
1.153841136061128e+03 1.131829489728754e+02 2.918975276816622e+03
1.153669579344530e+03 1.112018442784390e+02 2.918975276816622e+03
1.153927314700273e+03 1.096144505193877e+02 2.918975276816622e+03
1.153851395101215e+03 1.070479482872569e+02 2.918975276816622e+03
1.153889558157935e+03 1.069577658965058e+02 2.918975276816622e+03
1.153896926009863e+03 1.045657889304738e+02 2.918975276816622e+03
1.154103274559435e+03 1.011322281800660e+02 2.918975276816622e+03
1.154022896934034e+03 9.936620175716546e+01 2.918975276816622e+03
1.154118101318055e+03 9.359280962440909e+01 2.918975276816622e+03
1.154133818666955e+03 9.136792469934727e+01 2.918975276816622e+03
1.154229185366966e+03 8.764104400862728e+01 2.918975276816622e+03
1.154237997734394e+03 8.587875321500275e+01 2.918975276816622e+03
1.154313847407727e+03 8.272564129267170e+01 2.918975276816622e+03
1.154359577809428e+03 7.989320810499503e+01 2.918975276816622e+03
1.154397079975084e+03 7.827249632211806e+01 2.918975276816622e+03
1.154593160258363e+03 6.764831548000951e+01 2.918975276816622e+03
1.154646891573457e+03 6.605369571113808e+01 2.918975276816622e+03
1.154678373837207e+03 6.238789430399918e+01 2.918975276816622e+03
1.154775760483979e+03 5.916902081416664e+01 2.918975276816622e+03
1.154730875893305e+03 5.519905866556100e+01 2.918975276816622e+03
1.154774327974696e+03 5.428413358424999e+01 2.918975276816622e+03
1.154714576422849e+03 5.151984292344255e+01 2.918975276816622e+03
1.154782374392396e+03 4.999177594249204e+01 2.918975276816622e+03
1.154771775446310e+03 4.462559976933504e+01 2.918975276816622e+03
1.154843617871271e+03 4.291534104634513e+01 2.918975276816622e+03
1.154744159638940e+03 4.204925505821509e+01 2.918975276816622e+03
1.154870066469703e+03 4.068585465034150e+01 2.918975276816622e+03
1.154771050531927e+03 3.907734611074162e+01 2.918975276816622e+03
1.154847158969423e+03 3.558462574660451e+01 2.918975276816622e+03
1.154773743276224e+03 3.414886010659895e+01 2.918975276816622e+03
1.154817002490448e+03 3.198574737713759e+01 2.918975276816622e+03
1.154764410819351e+03 3.019861883253272e+01 2.918975276816622e+03
1.154785207489515e+03 2.849060443695482e+01 2.918975276816622e+03
1.154760720085211e+03 2.545989254401861e+01 2.918975276816622e+03
1.154789887138290e+03 1.600965134144518e+01 2.918975276816622e+03
1.154834057860686e+03 1.447389510517957e+01 2.918975276816622e+03
1.154736858619980e+03 1.348864020408219e+01 2.918975276816622e+03
1.154793634694412e+03 1.158951125328601e+01 2.918975276816622e+03
1.154686374232086e+03 1.023985718548203e+01 2.918975276816622e+03
1.154607324918623e+03 5.445474384985530e+00 2.918975276816622e+03
1.154597776285296e+03 4.350988896039940e+00 2.918975276816622e+03
1.154574313981522e+03 2.466103654060419e+00 2.918975276816622e+03
1.154544173673213e+03 8.748628087372731e-01 2.918975276816622e+03
-1.147924213351835e+03 -3.863858941524650e+02 -2.918975276816622e+03
-1.147924213351835e+03  3.863858941524653e+02 -2.918975276816622e+03
 1.145046468310372e+03 -3.863858941524653e+02  2.918975276816622e+03
1.145046468310372e+03 3.863858941524650e+02 2.918975276816622e+03
-1.156754864489139e+03 -3.863858941524650e+02 -2.918975276816622e+03
-1.156754864489139e+03  3.863858941524653e+02 -2.918975276816622e+03
 1.153904825793916e+03 -3.863858941524653e+02  2.918975276816622e+03
1.153904825793916e+03 3.863858941524650e+02 2.918975276816622e+03
-1.148386497741982e+03  1.419744610408429e-02 -2.918975276816622e+03
-1.148392890829026e+03  3.136240648075369e+00 -2.918975276816622e+03
-1.148378312763161e+03 -1.414591211520025e+00 -2.918975276816622e+03
-1.148383649115686e+03 -2.957172712222528e+00 -2.918975276816622e+03
-1.148365361456035e+03 -4.663814033924393e+00 -2.918975276816622e+03
-1.148196110074580e+03 -6.150158018135059e+00 -2.918975276816622e+03
-1.148174737036803e+03 -8.060519217213027e+00 -2.918975276816622e+03
-1.148312862429949e+03 -1.096680079371487e+01 -2.918975276816622e+03
-1.148295964925238e+03 -1.331302308033861e+01 -2.918975276816622e+03
-1.148289144798222e+03 -1.514117661236033e+01 -2.918975276816622e+03
-1.148264526441922e+03 -1.834958748458136e+01 -2.918975276816622e+03
-1.148239988753386e+03 -2.149879017075178e+01 -2.918975276816622e+03
-1.148222941433130e+03 -2.490906270181580e+01 -2.918975276816622e+03
-1.148201408565947e+03 -2.747846222372967e+01 -2.918975276816622e+03
-1.148202331426635e+03 -2.966963576291034e+01 -2.918975276816622e+03
-1.148179071832503e+03 -3.292575860339360e+01 -2.918975276816622e+03
-1.148159148408187e+03 -3.497986059275119e+01 -2.918975276816622e+03
-1.148142299815291e+03 -3.696023082691823e+01 -2.918975276816622e+03
-1.148125429516868e+03 -3.975236663301494e+01 -2.918975276816622e+03
-1.148108798851312e+03 -4.222797891510621e+01 -2.918975276816622e+03
-1.148092563177456e+03 -4.419195263428595e+01 -2.918975276816622e+03
-1.148073367674368e+03 -4.620287281443762e+01 -2.918975276816622e+03
-1.148050817350348e+03 -4.877237801847280e+01 -2.918975276816622e+03
-1.148026867248388e+03 -5.152717828148830e+01 -2.918975276816622e+03
-1.148001517368487e+03 -5.446727360348417e+01 -2.918975276816622e+03
-1.147992332494750e+03 -5.716477428718219e+01 -2.918975276816622e+03
-1.147965165437086e+03 -5.921682533542996e+01 -2.918975276816622e+03
-1.147957408681410e+03 -6.060390640779867e+01 -2.918975276816622e+03
-1.147934929602209e+03 -6.222239146279408e+01 -2.918975276816622e+03
-1.147926885890686e+03 -6.377219726836070e+01 -2.918975276816622e+03
-1.147907106791429e+03 -6.533606051973781e+01 -2.918975276816622e+03
-1.147897006027675e+03 -6.691545287840344e+01 -2.918975276816622e+03
-1.147877825437529e+03 -6.869307880742286e+01 -2.918975276816622e+03
-1.147862681680163e+03 -7.031655310758919e+01 -2.918975276816622e+03
-1.147843370353857e+03 -7.139871564713374e+01 -2.918975276816622e+03
-1.147829589669486e+03 -7.315425608737503e+01 -2.918975276816622e+03
-1.147816653257793e+03 -7.474256798245136e+01 -2.918975276816622e+03
-1.147808682367079e+03 -7.583889052172819e+01 -2.918975276816622e+03
-1.147794518803044e+03 -7.737137866667457e+01 -2.918975276816622e+03
-1.147780969758523e+03 -7.937733992238493e+01 -2.918975276816622e+03
-1.147776721967397e+03 -8.093761534290240e+01 -2.918975276816622e+03
-1.147777896516988e+03 -8.260248069353409e+01 -2.918975276816622e+03
-1.147779319390125e+03 -8.462844829450503e+01 -2.918975276816622e+03
-1.147750541180932e+03 -8.640195866574601e+01 -2.918975276816622e+03
-1.147713153976173e+03 -8.832654532480569e+01 -2.918975276816622e+03
-1.147722847306584e+03 -8.988354953226892e+01 -2.918975276816622e+03
-1.147749294198254e+03 -9.120913999915203e+01 -2.918975276816622e+03
-1.147725872534218e+03 -9.343772396936700e+01 -2.918975276816622e+03
-1.147704324022539e+03 -9.519041250572427e+01 -2.918975276816622e+03
-1.147705836313831e+03 -9.699055102055189e+01 -2.918975276816622e+03
-1.147702080872863e+03 -9.939764007997617e+01 -2.918975276816622e+03
-1.147680794679570e+03 -1.008760676282353e+02 -2.918975276816622e+03
-1.147666570701425e+03 -1.023173010107931e+02 -2.918975276816622e+03
-1.147660028164301e+03 -1.037461441751761e+02 -2.918975276816622e+03
-1.147653909908219e+03 -1.052332455122205e+02 -2.918975276816622e+03
-1.147637656567711e+03 -1.067461211285965e+02 -2.918975276816622e+03
-1.147629462936368e+03 -1.084835905905442e+02 -2.918975276816622e+03
-1.147617517957496e+03 -1.101203329704480e+02 -2.918975276816622e+03
-1.147587485091042e+03 -1.114108565708581e+02 -2.918975276816622e+03
-1.147537443520556e+03 -1.131820073784369e+02 -2.918975276816622e+03
-1.147632685910470e+03 -1.140971147066287e+02 -2.918975276816622e+03
-1.147691374455489e+03 -1.149113318821141e+02 -2.918975276816622e+03
-1.147629230231458e+03 -1.170216093199226e+02 -2.918975276816622e+03
-1.147603562716158e+03 -1.192191151300904e+02 -2.918975276816622e+03
-1.147607951454603e+03 -1.207290288731068e+02 -2.918975276816622e+03
-1.147608047849991e+03 -1.224746075759452e+02 -2.918975276816622e+03
-1.147617406627903e+03 -1.242304719833084e+02 -2.918975276816622e+03
-1.147623390805461e+03 -1.260109506514120e+02 -2.918975276816622e+03
-1.147635725006559e+03 -1.283235042062335e+02 -2.918975276816622e+03
-1.147628602032967e+03 -1.295844493121910e+02 -2.918975276816622e+03
-1.147627119813166e+03 -1.308207863829741e+02 -2.918975276816622e+03
-1.147654301474373e+03 -1.330103660283958e+02 -2.918975276816622e+03
-1.147654410132078e+03 -1.342142524066671e+02 -2.918975276816622e+03
-1.147639615064867e+03 -1.350590908399661e+02 -2.918975276816622e+03
-1.147656241540069e+03 -1.370832789023287e+02 -2.918975276816622e+03
-1.147679485689958e+03 -1.392308292519353e+02 -2.918975276816622e+03
-1.147684695223033e+03 -1.406536307506414e+02 -2.918975276816622e+03
-1.147688022852603e+03 -1.422097935929461e+02 -2.918975276816622e+03
-1.147696049621703e+03 -1.436656075791755e+02 -2.918975276816622e+03
-1.147710032958058e+03 -1.451496993267453e+02 -2.918975276816622e+03
-1.147721082633456e+03 -1.466437936038508e+02 -2.918975276816622e+03
-1.147728439031380e+03 -1.484080658538789e+02 -2.918975276816622e+03
-1.147736448761074e+03 -1.500131679352896e+02 -2.918975276816622e+03
-1.147746799945857e+03 -1.512092846809183e+02 -2.918975276816622e+03
-1.147758152061238e+03 -1.530425996191913e+02 -2.918975276816622e+03
-1.147769855954907e+03 -1.555607478262961e+02 -2.918975276816622e+03
-1.147790180707486e+03 -1.586205283390331e+02 -2.918975276816622e+03
-1.147801378852821e+03 -1.606771372065915e+02 -2.918975276816622e+03
-1.147809875973814e+03 -1.622319702206065e+02 -2.918975276816622e+03
-1.147819420433734e+03 -1.640184473149934e+02 -2.918975276816622e+03
-1.147827340017929e+03 -1.660349027919287e+02 -2.918975276816622e+03
-1.147839012970371e+03 -1.685510883626757e+02 -2.918975276816622e+03
-1.147850685922813e+03 -1.710672739334228e+02 -2.918975276816622e+03
-1.147862724216076e+03 -1.739969153295323e+02 -2.918975276816622e+03
-1.147876701539392e+03 -1.769891858412027e+02 -2.918975276816622e+03
-1.147887474042998e+03 -1.792622670519098e+02 -2.918975276816622e+03
-1.147885970923967e+03 -1.807457451476871e+02 -2.918975276816622e+03
-1.147888972208720e+03 -1.822137230010284e+02 -2.918975276816622e+03
-1.147903119651939e+03 -1.839319603820870e+02 -2.918975276816622e+03
-1.147913126432403e+03 -1.859027222533773e+02 -2.918975276816622e+03
-1.147919847909128e+03 -1.882814893685140e+02 -2.918975276816622e+03
-1.147904966974513e+03 -1.897435791791203e+02 -2.918975276816622e+03
-1.147897236553083e+03 -1.909815402726543e+02 -2.918975276816622e+03
-1.147902372582084e+03 -1.929239557069520e+02 -2.918975276816622e+03
-1.147911879158212e+03 -1.940983759970186e+02 -2.918975276816622e+03
-1.147903489707174e+03 -1.951737780843721e+02 -2.918975276816622e+03
-1.147891030451679e+03 -1.980732337531107e+02 -2.918975276816622e+03
-1.147875365655559e+03 -2.005897135366137e+02 -2.918975276816622e+03
-1.147875038648062e+03 -2.021147283317658e+02 -2.918975276816622e+03
-1.147867573674091e+03 -2.036399002964932e+02 -2.918975276816622e+03
-1.147858229169045e+03 -2.050705132299619e+02 -2.918975276816622e+03
-1.147845853822419e+03 -2.065535024947399e+02 -2.918975276816622e+03
-1.147825491653713e+03 -2.083705844098407e+02 -2.918975276816622e+03
-1.147810866362666e+03 -2.100380337635384e+02 -2.918975276816622e+03
-1.147800090476993e+03 -2.114078071046135e+02 -2.918975276816622e+03
-1.147765166177750e+03 -2.139863690386130e+02 -2.918975276816622e+03
-1.147710716547482e+03 -2.169132303628089e+02 -2.918975276816622e+03
-1.147681208732147e+03 -2.191487166891643e+02 -2.918975276816622e+03
-1.147664269723820e+03 -2.206328194015963e+02 -2.918975276816622e+03
-1.147640837987265e+03 -2.221829012982331e+02 -2.918975276816622e+03
-1.147601566890694e+03 -2.239001300228321e+02 -2.918975276816622e+03
-1.147568373475859e+03 -2.258400239014694e+02 -2.918975276816622e+03
-1.147507312744138e+03 -2.282482746587928e+02 -2.918975276816622e+03
-1.147467525966229e+03 -2.298183183243322e+02 -2.918975276816622e+03
-1.147410710910569e+03 -2.310973014432501e+02 -2.918975276816622e+03
-1.147289204097278e+03 -2.329218872334142e+02 -2.918975276816622e+03
-1.147275856075769e+03 -2.338493266670473e+02 -2.918975276816622e+03
-1.147403597024231e+03 -2.346972772560917e+02 -2.918975276816622e+03
-1.147482785500806e+03 -2.368328498582175e+02 -2.918975276816622e+03
-1.147556453108389e+03 -2.391036806891105e+02 -2.918975276816622e+03
-1.147611507998563e+03 -2.406269986909746e+02 -2.918975276816622e+03
-1.147668449780344e+03 -2.421768974750437e+02 -2.918975276816622e+03
-1.147705382093915e+03 -2.438280493003722e+02 -2.918975276816622e+03
-1.147752140462247e+03 -2.457631186458732e+02 -2.918975276816622e+03
-1.147860802884732e+03 -2.470480537608810e+02 -2.918975276816622e+03
-1.147873551729531e+03 -2.484112193122152e+02 -2.918975276816622e+03
-1.147824516380526e+03 -2.503092425407098e+02 -2.918975276816622e+03
-1.147798268294950e+03 -2.512699281816458e+02 -2.918975276816622e+03
-1.147806641919288e+03 -2.527706279110600e+02 -2.918975276816622e+03
-1.147803428376168e+03 -2.545418262973793e+02 -2.918975276816622e+03
-1.147788569337664e+03 -2.563570420296986e+02 -2.918975276816622e+03
-1.147800241069473e+03 -2.576046727671284e+02 -2.918975276816622e+03
-1.147818055394887e+03 -2.589394431364262e+02 -2.918975276816622e+03
-1.147814258515878e+03 -2.605478206119509e+02 -2.918975276816622e+03
-1.147809391595316e+03 -2.621730684957321e+02 -2.918975276816622e+03
-1.147819116209756e+03 -2.647696986575054e+02 -2.918975276816622e+03
-1.147830366112408e+03 -2.673744469137048e+02 -2.918975276816622e+03
-1.147836604924015e+03 -2.698507743467381e+02 -2.918975276816622e+03
-1.147841590847647e+03 -2.724811688871791e+02 -2.918975276816622e+03
-1.147842301988260e+03 -2.747184599437720e+02 -2.918975276816622e+03
-1.147844326123228e+03 -2.764721752393447e+02 -2.918975276816622e+03
-1.147849076034440e+03 -2.788350215232286e+02 -2.918975276816622e+03
-1.147849635745102e+03 -2.823101261421319e+02 -2.918975276816622e+03
-1.147843901682517e+03 -2.851444216250481e+02 -2.918975276816622e+03
-1.147840137239757e+03 -2.868818407208634e+02 -2.918975276816622e+03
-1.147838465786735e+03 -2.890182456198420e+02 -2.918975276816622e+03
-1.147833205017776e+03 -2.914429813961551e+02 -2.918975276816622e+03
-1.147827944248816e+03 -2.938677171724680e+02 -2.918975276816622e+03
-1.147816883830830e+03 -2.968464195524333e+02 -2.918975276816622e+03
-1.147806544038575e+03 -2.994623268924096e+02 -2.918975276816622e+03
-1.147794918346189e+03 -3.019809874205328e+02 -2.918975276816622e+03
-1.147783087428380e+03 -3.039629331975768e+02 -2.918975276816622e+03
-1.147765511434941e+03 -3.058297881795605e+02 -2.918975276816622e+03
-1.147741165004676e+03 -3.090269276942316e+02 -2.918975276816622e+03
-1.147716588437072e+03 -3.123091862216034e+02 -2.918975276816622e+03
-1.147680399922103e+03 -3.160276446637470e+02 -2.918975276816622e+03
-1.147637191657839e+03 -3.193689340362432e+02 -2.918975276816622e+03
-1.147591769866036e+03 -3.218928276921391e+02 -2.918975276816622e+03
-1.147513189147570e+03 -3.248924489071741e+02 -2.918975276816622e+03
-1.147455485409119e+03 -3.266294851989778e+02 -2.918975276816622e+03
-1.147538038915193e+03 -3.285423129338653e+02 -2.918975276816622e+03
-1.147604720349154e+03 -3.321576588557616e+02 -2.918975276816622e+03
-1.147611320383877e+03 -3.342853924639827e+02 -2.918975276816622e+03
-1.147637648639362e+03 -3.367028839870389e+02 -2.918975276816622e+03
-1.147648726841940e+03 -3.398297138691970e+02 -2.918975276816622e+03
-1.147666838781571e+03 -3.421000976203899e+02 -2.918975276816622e+03
-1.147688772022698e+03 -3.452634604547154e+02 -2.918975276816622e+03
-1.147704503277885e+03 -3.476302567623036e+02 -2.918975276816622e+03
-1.147715307340732e+03 -3.491944216734880e+02 -2.918975276816622e+03
-1.147731207498676e+03 -3.516455007981381e+02 -2.918975276816622e+03
-1.147744201051972e+03 -3.536311132302088e+02 -2.918975276816622e+03
-1.147763873745670e+03 -3.563867543143070e+02 -2.918975276816622e+03
-1.147790850925219e+03 -3.602615372765206e+02 -2.918975276816622e+03
-1.147812390655316e+03 -3.633951087822450e+02 -2.918975276816622e+03
-1.147830774195157e+03 -3.659038222979714e+02 -2.918975276816622e+03
-1.147849157734997e+03 -3.684125358136978e+02 -2.918975276816622e+03
-1.147867952275037e+03 -3.707161698719939e+02 -2.918975276816622e+03
-1.147889385823738e+03 -3.729278123791563e+02 -2.918975276816622e+03
-1.147891729537457e+03 -3.742411362482973e+02 -2.918975276816622e+03
-1.147887656568580e+03 -3.753836295353487e+02 -2.918975276816622e+03
-1.147900768890817e+03 -3.769559119677671e+02 -2.918975276816622e+03
-1.147910901260026e+03 -3.785933787347071e+02 -2.918975276816622e+03
-1.147909545202735e+03 -3.798162495624752e+02 -2.918975276816622e+03
-1.147908978825475e+03 -3.811541213286498e+02 -2.918975276816622e+03
-1.147917506270287e+03 -3.841923535780893e+02 -2.918975276816622e+03
-1.147923511621972e+03 -3.862223800412129e+02 -2.918975276816622e+03
-1.147943491551295e+03  3.820757882758863e+02 -2.918975276816622e+03
-1.147955277083964e+03  3.796936100376188e+02 -2.918975276816622e+03
-1.147930906068398e+03  3.848263857737427e+02 -2.918975276816622e+03
-1.147992385263429e+03  3.778072228998050e+02 -2.918975276816622e+03
-1.147972821319155e+03  3.767569744246411e+02 -2.918975276816622e+03
-1.147881044802616e+03  3.750720012759754e+02 -2.918975276816622e+03
-1.147859398443359e+03  3.724361979274328e+02 -2.918975276816622e+03
-1.147898100043115e+03  3.698246366147099e+02 -2.918975276816622e+03
-1.147914646991593e+03  3.671342256248575e+02 -2.918975276816622e+03
-1.147909039288793e+03  3.643649649578762e+02 -2.918975276816622e+03
-1.147903431585993e+03  3.615957042908945e+02 -2.918975276816622e+03
-1.147896196246808e+03  3.596531808220491e+02 -2.918975276816622e+03
-1.147890117173944e+03  3.569699743188442e+02 -2.918975276816622e+03
-1.147874525806481e+03  3.538025395092399e+02 -2.918975276816622e+03
-1.147873028182315e+03  3.518788268976523e+02 -2.918975276816622e+03
-1.147880260995533e+03  3.497688550594604e+02 -2.918975276816622e+03
-1.147873207026011e+03  3.472234948618427e+02 -2.918975276816622e+03
-1.147843587971543e+03  3.451286657869370e+02 -2.918975276816622e+03
-1.147828477562775e+03  3.428735432746384e+02 -2.918975276816622e+03
-1.147836582668783e+03  3.409266178153550e+02 -2.918975276816622e+03
-1.147828025294759e+03  3.394055765976521e+02 -2.918975276816622e+03
-1.147813614343814e+03  3.369098087576828e+02 -2.918975276816622e+03
-1.147792781359624e+03  3.340210505278873e+02 -2.918975276816622e+03
-1.147771948375435e+03  3.311322922980919e+02 -2.918975276816622e+03
-1.147747418929682e+03  3.286898240165477e+02 -2.918975276816622e+03
-1.147715262732298e+03  3.268646715486063e+02 -2.918975276816622e+03
-1.147662456503016e+03  3.247455297042001e+02 -2.918975276816622e+03
-1.147673706565464e+03  3.234472972942740e+02 -2.918975276816622e+03
-1.147738944668236e+03  3.221790988222347e+02 -2.918975276816622e+03
-1.147736614043107e+03  3.204883379271705e+02 -2.918975276816622e+03
-1.147740955993362e+03  3.186361069052996e+02 -2.918975276816622e+03
-1.147771866531603e+03  3.152338208560979e+02 -2.918975276816622e+03
-1.147790166420646e+03  3.115448173382613e+02 -2.918975276816622e+03
-1.147799508788841e+03  3.085806141665956e+02 -2.918975276816622e+03
-1.147806557454373e+03  3.063360919239158e+02 -2.918975276816622e+03
-1.147818491183082e+03  3.043501091220169e+02 -2.918975276816622e+03
-1.147824579074458e+03  3.022839863657682e+02 -2.918975276816622e+03
-1.147834480204309e+03  2.999597912382984e+02 -2.918975276816622e+03
-1.147843987582093e+03  2.974527834354173e+02 -2.918975276816622e+03
-1.147853494959876e+03  2.949457756325363e+02 -2.918975276816622e+03
-1.147862165061700e+03  2.925347391221844e+02 -2.918975276816622e+03
-1.147869997887565e+03  2.902196739043611e+02 -2.918975276816622e+03
-1.147873565097962e+03  2.888284857861528e+02 -2.918975276816622e+03
-1.147883045174711e+03  2.874182011050258e+02 -2.918975276816622e+03
-1.147892855204291e+03  2.847113138638838e+02 -2.918975276816622e+03
-1.147899204120590e+03  2.826100856660119e+02 -2.918975276816622e+03
-1.147903288796936e+03  2.810691033213336e+02 -2.918975276816622e+03
-1.147910971927648e+03  2.790357762121439e+02 -2.918975276816622e+03
-1.147926961431556e+03  2.771339397623952e+02 -2.918975276816622e+03
-1.147926743794761e+03  2.760797639221054e+02 -2.918975276816622e+03
-1.147919964491463e+03  2.750281894174127e+02 -2.918975276816622e+03
-1.147924868021864e+03  2.728812962762296e+02 -2.918975276816622e+03
-1.147934628307412e+03  2.712647439588229e+02 -2.918975276816622e+03
-1.147939640392646e+03  2.701652640086530e+02 -2.918975276816622e+03
-1.147941774653980e+03  2.680386491849321e+02 -2.918975276816622e+03
-1.147938897971064e+03  2.661141343109287e+02 -2.918975276816622e+03
-1.147943887377469e+03  2.643051871734413e+02 -2.918975276816622e+03
-1.147945415629781e+03  2.621068996480599e+02 -2.918975276816622e+03
-1.147939934990296e+03  2.605334882375255e+02 -2.918975276816622e+03
-1.147938669736458e+03  2.588953764754653e+02 -2.918975276816622e+03
-1.147936047829541e+03  2.572234403930211e+02 -2.918975276816622e+03
-1.147936753624901e+03  2.553008156990306e+02 -2.918975276816622e+03
-1.147936283830162e+03  2.527077557908000e+02 -2.918975276816622e+03
-1.147917990939487e+03  2.507855171618029e+02 -2.918975276816622e+03
-1.147918696174094e+03  2.497680687661692e+02 -2.918975276816622e+03
-1.147903453210455e+03  2.482511649587784e+02 -2.918975276816622e+03
-1.147914879100827e+03  2.464351644304723e+02 -2.918975276816622e+03
-1.147911255590192e+03  2.446059958048784e+02 -2.918975276816622e+03
-1.147886072461595e+03  2.433333851497556e+02 -2.918975276816622e+03
-1.147850542559447e+03  2.419237089454036e+02 -2.918975276816622e+03
-1.147791770317187e+03  2.403711775207066e+02 -2.918975276816622e+03
-1.147760299872552e+03  2.391983408861013e+02 -2.918975276816622e+03
-1.147773224553516e+03  2.373101867852026e+02 -2.918975276816622e+03
-1.147729307813334e+03  2.358313285620018e+02 -2.918975276816622e+03
-1.147677903171222e+03  2.341352463265080e+02 -2.918975276816622e+03
-1.147780974760534e+03  2.313868034844927e+02 -2.918975276816622e+03
-1.147772754689443e+03  2.285299035308331e+02 -2.918975276816622e+03
-1.147625246063677e+03  2.258936389672894e+02 -2.918975276816622e+03
-1.147567318355837e+03  2.238205870270734e+02 -2.918975276816622e+03
-1.147511755405544e+03  2.215783699406110e+02 -2.918975276816622e+03
-1.147452467264597e+03  2.185822026309770e+02 -2.918975276816622e+03
-1.147430412946083e+03  2.167821529913039e+02 -2.918975276816622e+03
-1.147429580307296e+03  2.154495741196658e+02 -2.918975276816622e+03
-1.147406790418825e+03  2.140967888757824e+02 -2.918975276816622e+03
-1.147374108878177e+03  2.129635197997467e+02 -2.918975276816622e+03
-1.147351116515156e+03  2.111076135820508e+02 -2.918975276816622e+03
-1.147320506555852e+03  2.096863338062698e+02 -2.918975276816622e+03
-1.147301564655284e+03  2.082322632214366e+02 -2.918975276816622e+03
-1.147264199112665e+03  2.058916901205238e+02 -2.918975276816622e+03
-1.147247064699359e+03  2.031223880878896e+02 -2.918975276816622e+03
-1.147218015465540e+03  2.001313020624165e+02 -2.918975276816622e+03
-1.147202680773489e+03  1.974603731700977e+02 -2.918975276816622e+03
-1.147177918681030e+03  1.942780120517830e+02 -2.918975276816622e+03
-1.147151506789654e+03  1.911657018697268e+02 -2.918975276816622e+03
-1.147177975298253e+03  1.894821472352987e+02 -2.918975276816622e+03
-1.147168097492603e+03  1.880328821140370e+02 -2.918975276816622e+03
-1.147118228245064e+03  1.866253265993159e+02 -2.918975276816622e+03
-1.147116435902185e+03  1.853040927087233e+02 -2.918975276816622e+03
-1.147139712749498e+03  1.838662662276728e+02 -2.918975276816622e+03
-1.147140911692383e+03  1.819173963950923e+02 -2.918975276816622e+03
-1.147137490707231e+03  1.797848795206142e+02 -2.918975276816622e+03
-1.147139475487917e+03  1.785935591067681e+02 -2.918975276816622e+03
-1.147139043895785e+03  1.771221656107145e+02 -2.918975276816622e+03
-1.147146982852059e+03  1.747727462818403e+02 -2.918975276816622e+03
-1.147150195298096e+03  1.726898041907208e+02 -2.918975276816622e+03
-1.147154708483315e+03  1.709860256506756e+02 -2.918975276816622e+03
-1.147152122966988e+03  1.695394031717404e+02 -2.918975276816622e+03
-1.147151907339292e+03  1.682235531416038e+02 -2.918975276816622e+03
-1.147162497576597e+03  1.668773575275064e+02 -2.918975276816622e+03
-1.147170778581717e+03  1.651129708696497e+02 -2.918975276816622e+03
-1.147168136280665e+03  1.637343180876701e+02 -2.918975276816622e+03
-1.147167189869195e+03  1.622514223933110e+02 -2.918975276816622e+03
-1.147177041736341e+03  1.606494989452005e+02 -2.918975276816622e+03
-1.147183695710324e+03  1.592724681742028e+02 -2.918975276816622e+03
-1.147186635364913e+03  1.569964072383450e+02 -2.918975276816622e+03
-1.147190857637658e+03  1.544846889844299e+02 -2.918975276816622e+03
-1.147191372784642e+03  1.524440072411644e+02 -2.918975276816622e+03
-1.147195138994438e+03  1.508574622928004e+02 -2.918975276816622e+03
-1.147208916830264e+03  1.496312841364884e+02 -2.918975276816622e+03
-1.147215913393453e+03  1.483345055933594e+02 -2.918975276816622e+03
-1.147214205178952e+03  1.468870626731393e+02 -2.918975276816622e+03
-1.147216587262765e+03  1.453564535162715e+02 -2.918975276816622e+03
-1.147244852231043e+03  1.438720601299151e+02 -2.918975276816622e+03
-1.147272730805284e+03  1.421803625438689e+02 -2.918975276816622e+03
-1.147257635503664e+03  1.409094581826328e+02 -2.918975276816622e+03
-1.147242377585560e+03  1.397051045172064e+02 -2.918975276816622e+03
-1.147271780909145e+03  1.378529493739605e+02 -2.918975276816622e+03
-1.147296200213330e+03  1.368391924739277e+02 -2.918975276816622e+03
-1.147303787179628e+03  1.353208069670437e+02 -2.918975276816622e+03
-1.147316781868089e+03  1.335581249202259e+02 -2.918975276816622e+03
-1.147335856095086e+03  1.317531159878643e+02 -2.918975276816622e+03
-1.147357320851931e+03  1.298046649349042e+02 -2.918975276816622e+03
-1.147373534033818e+03  1.282593148360182e+02 -2.918975276816622e+03
-1.147392827171950e+03  1.265252884955135e+02 -2.918975276816622e+03
-1.147413820648602e+03  1.245523087104818e+02 -2.918975276816622e+03
-1.147439774795510e+03  1.222748673770954e+02 -2.918975276816622e+03
-1.147450268995057e+03  1.206354570401545e+02 -2.918975276816622e+03
-1.147477836090169e+03  1.189758071863631e+02 -2.918975276816622e+03
-1.147494555495407e+03  1.163368671474524e+02 -2.918975276816622e+03
-1.147523808187648e+03  1.138011327972176e+02 -2.918975276816622e+03
-1.147535220714963e+03  1.122527363713352e+02 -2.918975276816622e+03
-1.147551101550106e+03  1.110654093514244e+02 -2.918975276816622e+03
-1.147560472990047e+03  1.098853759082904e+02 -2.918975276816622e+03
-1.147582905144724e+03  1.082043507691911e+02 -2.918975276816622e+03
-1.147607386803980e+03  1.065312909843620e+02 -2.918975276816622e+03
-1.147618187618318e+03  1.054243851880685e+02 -2.918975276816622e+03
-1.147613212472693e+03  1.041194684847056e+02 -2.918975276816622e+03
-1.147625533580808e+03  1.022621020805681e+02 -2.918975276816622e+03
-1.147662426146862e+03  1.005730008894915e+02 -2.918975276816622e+03
-1.147678028695808e+03  9.937386162016396e+01 -2.918975276816622e+03
-1.147681446214963e+03  9.789284407374208e+01 -2.918975276816622e+03
-1.147689090532916e+03  9.614990189126657e+01 -2.918975276816622e+03
-1.147717389488253e+03  9.335082638920022e+01 -2.918975276816622e+03
-1.147735796053043e+03  9.016734848551896e+01 -2.918975276816622e+03
-1.147790906027032e+03  8.724249025830797e+01 -2.918975276816622e+03
-1.147808541153779e+03  8.396381395431349e+01 -2.918975276816622e+03
-1.147772083557214e+03  8.069801030045512e+01 -2.918975276816622e+03
-1.147919453817056e+03  7.926143262645333e+01 -2.918975276816622e+03
-1.147995038938547e+03  7.785753269416851e+01 -2.918975276816622e+03
-1.147865388054578e+03  7.506308474940626e+01 -2.918975276816622e+03
-1.147841659996131e+03  7.290627347725739e+01 -2.918975276816622e+03
-1.147868763606875e+03  7.122886975919072e+01 -2.918975276816622e+03
-1.147886019417009e+03  6.932263016861499e+01 -2.918975276816622e+03
-1.147890854021454e+03  6.787097568055079e+01 -2.918975276816622e+03
-1.147901025854593e+03  6.658831650800684e+01 -2.918975276816622e+03
-1.147922047595816e+03  6.380327619969231e+01 -2.918975276816622e+03
-1.147970130134325e+03  6.026538772345202e+01 -2.918975276816622e+03
-1.148011996303659e+03  5.683334317417351e+01 -2.918975276816622e+03
-1.148038132797943e+03  5.404035743575288e+01 -2.918975276816622e+03
-1.148016148774279e+03  5.209654563223945e+01 -2.918975276816622e+03
-1.148047844659005e+03  5.055409918423373e+01 -2.918975276816622e+03
-1.148110071529442e+03  4.866345108340910e+01 -2.918975276816622e+03
-1.148129295599533e+03  4.597637658368303e+01 -2.918975276816622e+03
-1.148156253329406e+03  4.290472504285577e+01 -2.918975276816622e+03
-1.148181029187304e+03  4.047908108521255e+01 -2.918975276816622e+03
-1.148194668431382e+03  3.903143944421210e+01 -2.918975276816622e+03
-1.148214879115791e+03  3.692951534376842e+01 -2.918975276816622e+03
-1.148252491083099e+03  3.354298193614731e+01 -2.918975276816622e+03
-1.148277806458886e+03  3.035610583494526e+01 -2.918975276816622e+03
-1.148299725154172e+03  2.763116385889189e+01 -2.918975276816622e+03
-1.148327615555755e+03  2.474256406081566e+01 -2.918975276816622e+03
-1.148337519060076e+03  2.311219001327263e+01 -2.918975276816622e+03
-1.148358173195840e+03  2.204948183763581e+01 -2.918975276816622e+03
-1.148372165640938e+03  2.067616252053414e+01 -2.918975276816622e+03
-1.148366636748852e+03  1.904086228882424e+01 -2.918975276816622e+03
-1.148370092370674e+03  1.695534763816229e+01 -2.918975276816622e+03
-1.148376409375873e+03  1.494745866545219e+01 -2.918975276816622e+03
-1.148385763051515e+03  1.232713201927191e+01 -2.918975276816622e+03
-1.148388398645943e+03  9.208457254487906e+00 -2.918975276816622e+03
-1.148392360906137e+03  6.879020642113022e+00 -2.918975276816622e+03
-1.148389556701973e+03  5.637679538223013e+00 -2.918975276816622e+03
 1.145741368113743e+03 -3.671641948866626e-01  2.918975276816622e+03
1.145770419017070e+03 1.486629551689265e+00 2.918975276816622e+03
 1.145713299604629e+03 -2.189964554911610e+00  2.918975276816622e+03
 1.145685790503583e+03 -3.984383683366767e+00  2.918975276816622e+03
 1.145646666488857e+03 -6.591217850330978e+00  2.918975276816622e+03
 1.145584931776898e+03 -9.190843229915073e+00  2.918975276816622e+03
 1.145557735625737e+03 -1.071367467517973e+01  2.918975276816622e+03
 1.145543508423642e+03 -1.259752767198799e+01  2.918975276816622e+03
 1.145500227859296e+03 -1.522381032103577e+01  2.918975276816622e+03
 1.145444491519764e+03 -1.814907540514983e+01  2.918975276816622e+03
 1.145405419223183e+03 -2.041089099237901e+01  2.918975276816622e+03
 1.145365549393843e+03 -2.270161503404561e+01  2.918975276816622e+03
 1.145329715810181e+03 -2.500820911058370e+01  2.918975276816622e+03
 1.145294676880405e+03 -2.698277055775053e+01  2.918975276816622e+03
 1.145260304440834e+03 -2.878611984511060e+01  2.918975276816622e+03
 1.145251540440428e+03 -2.996281223740185e+01  2.918975276816622e+03
 1.145246118459858e+03 -3.104310289335813e+01  2.918975276816622e+03
 1.145222140047526e+03 -3.262435366416346e+01  2.918975276816622e+03
 1.145197313191451e+03 -3.449448506347306e+01  2.918975276816622e+03
 1.145172633518824e+03 -3.683057418517036e+01  2.918975276816622e+03
 1.145159294001443e+03 -3.868378446627669e+01  2.918975276816622e+03
 1.145135717432823e+03 -4.072175544001531e+01  2.918975276816622e+03
 1.145109636523621e+03 -4.339087865977903e+01  2.918975276816622e+03
 1.145085878296650e+03 -4.513140892716141e+01  2.918975276816622e+03
 1.145071773344098e+03 -4.662057719043221e+01  2.918975276816622e+03
 1.145056122393547e+03 -4.916130835773505e+01  2.918975276816622e+03
 1.145031433350001e+03 -5.248944431118108e+01  2.918975276816622e+03
 1.144998939807210e+03 -5.534196374590650e+01  2.918975276816622e+03
 1.144982024390155e+03 -5.749677472224801e+01  2.918975276816622e+03
 1.144966925815088e+03 -5.951400004077620e+01  2.918975276816622e+03
 1.144953264972772e+03 -6.137823936955576e+01  2.918975276816622e+03
 1.144937374738736e+03 -6.304657524974331e+01  2.918975276816622e+03
 1.144925952647775e+03 -6.423372366801858e+01  2.918975276816622e+03
 1.144942344377440e+03 -6.507081783835041e+01  2.918975276816622e+03
 1.144941909285672e+03 -6.615930782138444e+01  2.918975276816622e+03
 1.144931250450740e+03 -6.780921993805265e+01  2.918975276816622e+03
 1.144923690590678e+03 -6.948272485927490e+01  2.918975276816622e+03
 1.144927346264986e+03 -7.146333090035084e+01  2.918975276816622e+03
 1.144924922984050e+03 -7.383360807145125e+01  2.918975276816622e+03
 1.144922993907001e+03 -7.687141541890691e+01  2.918975276816622e+03
 1.144920044974802e+03 -7.971463286888978e+01  2.918975276816622e+03
 1.144919222042902e+03 -8.150053367440850e+01  2.918975276816622e+03
 1.144922015898731e+03 -8.315517676406644e+01  2.918975276816622e+03
 1.144920725205172e+03 -8.456881290775947e+01  2.918975276816622e+03
 1.144911548537031e+03 -8.562654253696775e+01  2.918975276816622e+03
 1.144911448157106e+03 -8.669916027777384e+01  2.918975276816622e+03
 1.144917581976492e+03 -8.809036780590435e+01  2.918975276816622e+03
 1.144915379672865e+03 -8.956055618881386e+01  2.918975276816622e+03
 1.144911189846979e+03 -9.133825673454096e+01  2.918975276816622e+03
 1.144906681836141e+03 -9.359722955028863e+01  2.918975276816622e+03
 1.144901752143275e+03 -9.636639547986688e+01  2.918975276816622e+03
 1.144898711527994e+03 -9.869570642188251e+01  2.918975276816622e+03
 1.144895037636818e+03 -1.005577931648978e+02  2.918975276816622e+03
 1.144935736150595e+03 -1.022764926241641e+02  2.918975276816622e+03
 1.145002918112581e+03 -1.034938816771144e+02  2.918975276816622e+03
 1.144908538236809e+03 -1.041652811037279e+02  2.918975276816622e+03
 1.144790272951527e+03 -1.048408983059835e+02  2.918975276816622e+03
 1.144835060969669e+03 -1.059376575825246e+02  2.918975276816622e+03
 1.144894098930327e+03 -1.069393951999951e+02  2.918975276816622e+03
 1.144900552470673e+03 -1.088021255487041e+02  2.918975276816622e+03
 1.144851240036696e+03 -1.101495728467372e+02  2.918975276816622e+03
 1.144817436344269e+03 -1.113089217389450e+02  2.918975276816622e+03
 1.144834282872305e+03 -1.134975035587930e+02  2.918975276816622e+03
 1.144841344599269e+03 -1.158063346504799e+02  2.918975276816622e+03
 1.144838621525161e+03 -1.182354150140057e+02  2.918975276816622e+03
 1.144834849257795e+03 -1.206191340262281e+02  2.918975276816622e+03
 1.144830038061912e+03 -1.229585505521192e+02  2.918975276816622e+03
 1.144825237130771e+03 -1.252990259429821e+02  2.918975276816622e+03
 1.144821255514034e+03 -1.275961938617676e+02  2.918975276816622e+03
 1.144818436704287e+03 -1.294599985859652e+02  2.918975276816622e+03
 1.144816546669105e+03 -1.313391251675372e+02  2.918975276816622e+03
 1.144815241915903e+03 -1.336236293289941e+02  2.918975276816622e+03
 1.144812407594884e+03 -1.363693882911536e+02  2.918975276816622e+03
 1.144810900904027e+03 -1.386327713311666e+02  2.918975276816622e+03
 1.144810477005511e+03 -1.411486934049566e+02  2.918975276816622e+03
 1.144810122134523e+03 -1.439019929696044e+02  2.918975276816622e+03
 1.144810630930778e+03 -1.458116645044933e+02  2.918975276816622e+03
 1.144810786394088e+03 -1.478154294337009e+02  2.918975276816622e+03
 1.144811600858717e+03 -1.495311388688806e+02  2.918975276816622e+03
 1.144812524266236e+03 -1.514393650887786e+02  2.918975276816622e+03
 1.144813524048301e+03 -1.538070927457318e+02  2.918975276816622e+03
 1.144815779679942e+03 -1.568358306693405e+02  2.918975276816622e+03
 1.144817988592022e+03 -1.595605540754653e+02  2.918975276816622e+03
 1.144821355435855e+03 -1.612967726362366e+02  2.918975276816622e+03
 1.144812446658409e+03 -1.630418574253908e+02  2.918975276816622e+03
 1.144804059006197e+03 -1.645565680882748e+02  2.918975276816622e+03
 1.144830978817992e+03 -1.654086211115825e+02  2.918975276816622e+03
 1.144843641950864e+03 -1.663999205600509e+02  2.918975276816622e+03
 1.144819398211617e+03 -1.679184160554372e+02  2.918975276816622e+03
 1.144813969793310e+03 -1.694145417909066e+02  2.918975276816622e+03
 1.144820633803256e+03 -1.713797568845800e+02  2.918975276816622e+03
 1.144817974943929e+03 -1.738244434944224e+02  2.918975276816622e+03
 1.144825031127465e+03 -1.767906886679540e+02  2.918975276816622e+03
 1.144830487486530e+03 -1.793987888228105e+02  2.918975276816622e+03
 1.144848288162818e+03 -1.809133850698578e+02  2.918975276816622e+03
 1.144840817234126e+03 -1.826365093502820e+02  2.918975276816622e+03
 1.144784415515897e+03 -1.847819619895276e+02  2.918975276816622e+03
 1.144594135564334e+03 -1.867179282484009e+02  2.918975276816622e+03
 1.145065233626890e+03 -1.878222356683383e+02  2.918975276816622e+03
 1.145259774919759e+03 -1.891548265206547e+02  2.918975276816622e+03
 1.144808449378059e+03 -1.914315577360133e+02  2.918975276816622e+03
 1.144783070018934e+03 -1.938019734234717e+02  2.918975276816622e+03
 1.144791844688954e+03 -1.968443065327037e+02  2.918975276816622e+03
 1.144834993055583e+03 -2.007972059003790e+02  2.918975276816622e+03
 1.144854392702949e+03 -2.048325732218284e+02  2.918975276816622e+03
 1.144857408113260e+03 -2.076387830508386e+02  2.918975276816622e+03
 1.144869344257980e+03 -2.093449153642241e+02  2.918975276816622e+03
 1.144876384184497e+03 -2.113407931297922e+02  2.918975276816622e+03
 1.144877191308074e+03 -2.136535172536237e+02  2.918975276816622e+03
 1.144880288548498e+03 -2.158825498079748e+02  2.918975276816622e+03
 1.144885403877774e+03 -2.178045595537440e+02  2.918975276816622e+03
 1.144893814660040e+03 -2.199036278802396e+02  2.918975276816622e+03
 1.144905792923289e+03 -2.224030860265629e+02  2.918975276816622e+03
 1.144907445732771e+03 -2.243847536473304e+02  2.918975276816622e+03
 1.144908322840113e+03 -2.269425167122889e+02  2.918975276816622e+03
 1.144919759754044e+03 -2.293923359330932e+02  2.918975276816622e+03
 1.144933532092306e+03 -2.314475726258294e+02  2.918975276816622e+03
 1.144943000503764e+03 -2.335274842386482e+02  2.918975276816622e+03
 1.144945475200510e+03 -2.354924566669843e+02  2.918975276816622e+03
 1.144951049023766e+03 -2.378625131991629e+02  2.918975276816622e+03
 1.144958458684558e+03 -2.401670922183748e+02  2.918975276816622e+03
 1.144968099630605e+03 -2.431873550057235e+02  2.918975276816622e+03
 1.144979949882259e+03 -2.464818286255204e+02  2.918975276816622e+03
 1.144985750363187e+03 -2.484671345272555e+02  2.918975276816622e+03
 1.144982372081736e+03 -2.501065913972159e+02  2.918975276816622e+03
 1.144973215121469e+03 -2.524649655822327e+02  2.918975276816622e+03
 1.144968685590429e+03 -2.554075479978943e+02  2.918975276816622e+03
 1.144968783488617e+03 -2.589343386442009e+02  2.918975276816622e+03
 1.145076603823687e+03 -2.619827283334982e+02  2.918975276816622e+03
 1.145292146595639e+03 -2.645527170657862e+02  2.918975276816622e+03
 1.145231214295372e+03 -2.674374199721161e+02  2.918975276816622e+03
 1.145043009159868e+03 -2.695298107712170e+02  2.918975276816622e+03
 1.145043722448346e+03 -2.714066824038197e+02  2.918975276816622e+03
 1.145054795550932e+03 -2.731094726334989e+02  2.918975276816622e+03
 1.145043732930155e+03 -2.746375243752418e+02  2.918975276816622e+03
 1.145051233714938e+03 -2.772158740618348e+02  2.918975276816622e+03
 1.145086493351607e+03 -2.798056520720403e+02  2.918975276816622e+03
 1.145138169084134e+03 -2.822474104907678e+02  2.918975276816622e+03
 1.145135342585654e+03 -2.850524205887529e+02  2.918975276816622e+03
 1.145015788445395e+03 -2.873343272817197e+02  2.918975276816622e+03
 1.145007978616916e+03 -2.894075386710517e+02  2.918975276816622e+03
 1.145096532714436e+03 -2.919574147164915e+02  2.918975276816622e+03
 1.145094539750753e+03 -2.940932708358413e+02  2.918975276816622e+03
 1.145079862265229e+03 -2.969047920673709e+02  2.918975276816622e+03
 1.145075137947271e+03 -2.988794396179175e+02  2.918975276816622e+03
 1.145072784258800e+03 -3.008287888726798e+02  2.918975276816622e+03
 1.145067556656393e+03 -3.031679685794791e+02  2.918975276816622e+03
 1.145063404809000e+03 -3.048230432130186e+02  2.918975276816622e+03
 1.145055876835291e+03 -3.071044476201980e+02  2.918975276816622e+03
 1.145055411185319e+03 -3.091602365687696e+02  2.918975276816622e+03
 1.145043444934559e+03 -3.112207166339957e+02  2.918975276816622e+03
 1.145040471265163e+03 -3.130417349377799e+02  2.918975276816622e+03
 1.145033173054493e+03 -3.143273232418156e+02  2.918975276816622e+03
 1.145030368929115e+03 -3.164615341103676e+02  2.918975276816622e+03
 1.145017996503964e+03 -3.185391396177039e+02  2.918975276816622e+03
 1.145018563220396e+03 -3.203325094781320e+02  2.918975276816622e+03
 1.145002493516994e+03 -3.225056719023382e+02  2.918975276816622e+03
 1.144992369558945e+03 -3.247813693198148e+02  2.918975276816622e+03
 1.145000121248208e+03 -3.263018311116953e+02  2.918975276816622e+03
 1.145015206508107e+03 -3.277609125406613e+02  2.918975276816622e+03
 1.144997427288991e+03 -3.303626339825718e+02  2.918975276816622e+03
 1.144990196942095e+03 -3.330807232447132e+02  2.918975276816622e+03
 1.144982293766039e+03 -3.360447906648635e+02  2.918975276816622e+03
 1.144963096861720e+03 -3.379323709725616e+02  2.918975276816622e+03
 1.144940001207333e+03 -3.394337135923963e+02  2.918975276816622e+03
 1.144936602641755e+03 -3.418783204698282e+02  2.918975276816622e+03
 1.144937827013887e+03 -3.440913587957245e+02  2.918975276816622e+03
 1.144937404421492e+03 -3.469068139013148e+02  2.918975276816622e+03
 1.144941150496009e+03 -3.504692975803932e+02  2.918975276816622e+03
 1.144924140163024e+03 -3.526327569866304e+02  2.918975276816622e+03
 1.144914630900196e+03 -3.550577470957755e+02  2.918975276816622e+03
 1.144895180868451e+03 -3.582527011728325e+02  2.918975276816622e+03
 1.144921191629725e+03 -3.596206075359729e+02  2.918975276816622e+03
 1.144932394318435e+03 -3.607600191870026e+02  2.918975276816622e+03
 1.144946465819284e+03 -3.630514311750354e+02  2.918975276816622e+03
 1.144945001860249e+03 -3.656159086320341e+02  2.918975276816622e+03
 1.144952555921418e+03 -3.677421178897240e+02  2.918975276816622e+03
 1.144958962918726e+03 -3.700082137029553e+02  2.918975276816622e+03
 1.144959145432425e+03 -3.715918229218244e+02  2.918975276816622e+03
 1.144965519086724e+03 -3.735057962533057e+02  2.918975276816622e+03
 1.144980278552903e+03 -3.765630659571779e+02  2.918975276816622e+03
 1.144998546577913e+03 -3.791244126357277e+02  2.918975276816622e+03
 1.145014187890026e+03 -3.816375453783873e+02  2.918975276816622e+03
 1.145023789028578e+03 -3.831869226236964e+02  2.918975276816622e+03
 1.145036018910723e+03 -3.849328138250704e+02  2.918975276816622e+03
1.145076287614772e+03 3.830893385805835e+02 2.918975276816622e+03
1.145052045120473e+03 3.856103899781176e+02 2.918975276816622e+03
1.145097234881969e+03 3.800776157347532e+02 2.918975276816622e+03
1.145112917830754e+03 3.783405395266622e+02 2.918975276816622e+03
1.145120389191095e+03 3.771333898122622e+02 2.918975276816622e+03
1.145139288537047e+03 3.750387330929328e+02 2.918975276816622e+03
1.145156442709580e+03 3.732619644565254e+02 2.918975276816622e+03
1.145171096009466e+03 3.720415515560361e+02 2.918975276816622e+03
1.145197674169747e+03 3.692174984249483e+02 2.918975276816622e+03
1.145230910549353e+03 3.662583930311243e+02 2.918975276816622e+03
1.145253101891559e+03 3.640531890710009e+02 2.918975276816622e+03
1.145283018372707e+03 3.613692118729304e+02 2.918975276816622e+03
1.145309637619853e+03 3.590641269649834e+02 2.918975276816622e+03
1.145324291133542e+03 3.576493166069801e+02 2.918975276816622e+03
1.145338167110686e+03 3.562804035367872e+02 2.918975276816622e+03
1.145359221097603e+03 3.545895441089754e+02 2.918975276816622e+03
1.145383367892015e+03 3.527212163806139e+02 2.918975276816622e+03
1.145400941938894e+03 3.510603807863077e+02 2.918975276816622e+03
1.145423895508223e+03 3.492531100869308e+02 2.918975276816622e+03
1.145439462585106e+03 3.474376942759497e+02 2.918975276816622e+03
1.145464131471807e+03 3.457068062444760e+02 2.918975276816622e+03
1.145483680807126e+03 3.440932579767202e+02 2.918975276816622e+03
1.145505630179494e+03 3.425468950272569e+02 2.918975276816622e+03
1.145519983162998e+03 3.407341987509540e+02 2.918975276816622e+03
1.145538864085120e+03 3.390809522148008e+02 2.918975276816622e+03
1.145559013452945e+03 3.364214344279495e+02 2.918975276816622e+03
1.145602218780446e+03 3.330759208746765e+02 2.918975276816622e+03
1.145640460613253e+03 3.301770640452227e+02 2.918975276816622e+03
1.145643568381491e+03 3.274634435844883e+02 2.918975276816622e+03
1.145664552126775e+03 3.248072861679325e+02 2.918975276816622e+03
1.145656430389810e+03 3.224776947449257e+02 2.918975276816622e+03
1.145668678947015e+03 3.204025157334412e+02 2.918975276816622e+03
1.145680745998785e+03 3.189979697380384e+02 2.918975276816622e+03
1.145690679073597e+03 3.173913139455227e+02 2.918975276816622e+03
1.145683475474066e+03 3.148253434953278e+02 2.918975276816622e+03
1.145654810401221e+03 3.126675454298333e+02 2.918975276816622e+03
1.145708676253782e+03 3.117658924656038e+02 2.918975276816622e+03
1.145729435635832e+03 3.107260308562407e+02 2.918975276816622e+03
1.145675619068520e+03 3.087901950146528e+02 2.918975276816622e+03
1.145634202374936e+03 3.071746595773971e+02 2.918975276816622e+03
1.145613003423413e+03 3.054187651871308e+02 2.918975276816622e+03
1.145579609303798e+03 3.032205372623581e+02 2.918975276816622e+03
1.145566325834354e+03 3.019921215688666e+02 2.918975276816622e+03
1.145552978488078e+03 3.003860597394470e+02 2.918975276816622e+03
1.145525129996055e+03 2.982074281035046e+02 2.918975276816622e+03
1.145501627960710e+03 2.963953594499255e+02 2.918975276816622e+03
1.145478896386109e+03 2.945201145638123e+02 2.918975276816622e+03
1.145459365581682e+03 2.928673099373830e+02 2.918975276816622e+03
1.145436554109431e+03 2.907603759580789e+02 2.918975276816622e+03
1.145409358584501e+03 2.883220217120031e+02 2.918975276816622e+03
1.145380545541298e+03 2.860188246943347e+02 2.918975276816622e+03
1.145352776314101e+03 2.838398955430627e+02 2.918975276816622e+03
1.145333183646146e+03 2.819777465719542e+02 2.918975276816622e+03
1.145306324861662e+03 2.792943532835252e+02 2.918975276816622e+03
1.145273352562794e+03 2.763374555678141e+02 2.918975276816622e+03
1.145240566051597e+03 2.732424447548992e+02 2.918975276816622e+03
1.145208691483240e+03 2.700340371459665e+02 2.918975276816622e+03
1.145184210897165e+03 2.677257552704332e+02 2.918975276816622e+03
1.145168689255665e+03 2.659237191346172e+02 2.918975276816622e+03
1.145146356274733e+03 2.638351685484754e+02 2.918975276816622e+03
1.145116331188989e+03 2.604010548824664e+02 2.918975276816622e+03
1.145100650659516e+03 2.581819778138150e+02 2.918975276816622e+03
1.145088513822100e+03 2.567936913298234e+02 2.918975276816622e+03
1.145073654299664e+03 2.544683559433100e+02 2.918975276816622e+03
1.145050552657456e+03 2.522910414472400e+02 2.918975276816622e+03
1.145040596202670e+03 2.507867717266682e+02 2.918975276816622e+03
1.145037912626585e+03 2.494310043612569e+02 2.918975276816622e+03
1.145035522380416e+03 2.478264505957576e+02 2.918975276816622e+03
1.145027283244827e+03 2.464609515771807e+02 2.918975276816622e+03
1.145017377580788e+03 2.451943476460690e+02 2.918975276816622e+03
1.145014651923398e+03 2.436950474597023e+02 2.918975276816622e+03
1.145007372329776e+03 2.416148972954828e+02 2.918975276816622e+03
1.145006948912656e+03 2.391741688790144e+02 2.918975276816622e+03
1.145006525495535e+03 2.367334404625460e+02 2.918975276816622e+03
1.144993031369694e+03 2.347063206539837e+02 2.918975276816622e+03
1.145025050269873e+03 2.326225185710298e+02 2.918975276816622e+03
1.145054156119765e+03 2.299392078531520e+02 2.918975276816622e+03
1.145068955868191e+03 2.279219077640260e+02 2.918975276816622e+03
1.145089019094499e+03 2.268539837057684e+02 2.918975276816622e+03
1.145075784106881e+03 2.250028774947471e+02 2.918975276816622e+03
1.145052733793557e+03 2.226516124588791e+02 2.918975276816622e+03
1.145039694745814e+03 2.209779849108398e+02 2.918975276816622e+03
1.145043191339030e+03 2.191325984626042e+02 2.918975276816622e+03
1.145034767990163e+03 2.168749866037505e+02 2.918975276816622e+03
1.145020885856338e+03 2.143082724738259e+02 2.918975276816622e+03
1.145004761471252e+03 2.120731912547405e+02 2.918975276816622e+03
1.145005027369969e+03 2.099820451291878e+02 2.918975276816622e+03
1.144990790870714e+03 2.081617103235340e+02 2.918975276816622e+03
1.144958664569621e+03 2.069188664515208e+02 2.918975276816622e+03
1.145004359150544e+03 2.061402727820235e+02 2.918975276816622e+03
1.145052784372499e+03 2.053531373731461e+02 2.918975276816622e+03
1.145011584597689e+03 2.042991068484554e+02 2.918975276816622e+03
1.144987867402908e+03 2.032191085287412e+02 2.918975276816622e+03
1.144994337691013e+03 2.017406572177095e+02 2.918975276816622e+03
1.144987673722653e+03 2.006341570372958e+02 2.918975276816622e+03
1.144978807878884e+03 1.990394060875708e+02 2.918975276816622e+03
1.144969258217014e+03 1.966079853423416e+02 2.918975276816622e+03
1.144959733465008e+03 1.938151925411801e+02 2.918975276816622e+03
1.144947758182920e+03 1.911598400091244e+02 2.918975276816622e+03
1.144933307460890e+03 1.890032998021067e+02 2.918975276816622e+03
1.144941767819195e+03 1.871168998424983e+02 2.918975276816622e+03
1.145073610117335e+03 1.849627658924210e+02 2.918975276816622e+03
1.145090289583521e+03 1.825292678775325e+02 2.918975276816622e+03
1.144954564670678e+03 1.809042901387597e+02 2.918975276816622e+03
1.144927299748943e+03 1.791718243693937e+02 2.918975276816622e+03
1.144945265505890e+03 1.767818604663859e+02 2.918975276816622e+03
1.144969789424917e+03 1.741007030174505e+02 2.918975276816622e+03
1.144985410986948e+03 1.718038597002275e+02 2.918975276816622e+03
1.145002931538695e+03 1.699633068420189e+02 2.918975276816622e+03
1.145010078101538e+03 1.683839819894432e+02 2.918975276816622e+03
1.145006158832467e+03 1.670431685669618e+02 2.918975276816622e+03
1.145032707766608e+03 1.647116026686475e+02 2.918975276816622e+03
1.145073057238181e+03 1.616312180886645e+02 2.918975276816622e+03
1.145113406709755e+03 1.585508335086815e+02 2.918975276816622e+03
1.145156754747272e+03 1.557823501898101e+02 2.918975276816622e+03
1.145211399104110e+03 1.528354482654702e+02 2.918975276816622e+03
1.145285730535855e+03 1.493219995597400e+02 2.918975276816622e+03
1.145353789559767e+03 1.467747580748272e+02 2.918975276816622e+03
1.145366812527665e+03 1.449686561722405e+02 2.918975276816622e+03
1.145349101480308e+03 1.428742520753109e+02 2.918975276816622e+03
1.145329657502242e+03 1.411159698911010e+02 2.918975276816622e+03
1.145287034456925e+03 1.392995185353978e+02 2.918975276816622e+03
1.145229605586460e+03 1.371017684544400e+02 2.918975276816622e+03
1.145181693682289e+03 1.344493862391473e+02 2.918975276816622e+03
1.145147937455847e+03 1.320787997157264e+02 2.918975276816622e+03
1.145131537069146e+03 1.300870337239894e+02 2.918975276816622e+03
1.145121132717807e+03 1.283374844171270e+02 2.918975276816622e+03
1.145101627634930e+03 1.271231554260082e+02 2.918975276816622e+03
1.145166343457644e+03 1.264136591784498e+02 2.918975276816622e+03
1.145240026497830e+03 1.256780288986781e+02 2.918975276816622e+03
1.145183038669584e+03 1.250500517385525e+02 2.918975276816622e+03
1.145119933359678e+03 1.243907960605267e+02 2.918975276816622e+03
1.145134790259886e+03 1.227848364057729e+02 2.918975276816622e+03
1.145139613526127e+03 1.212035451704278e+02 2.918975276816622e+03
1.145114574830989e+03 1.193910365569813e+02 2.918975276816622e+03
1.145100749958497e+03 1.171104402462708e+02 2.918975276816622e+03
1.145087526134715e+03 1.141909851131817e+02 2.918975276816622e+03
1.145089339632694e+03 1.114534907509236e+02 2.918975276816622e+03
1.145101218755946e+03 1.099077070932885e+02 2.918975276816622e+03
1.145113634761118e+03 1.080856635489929e+02 2.918975276816622e+03
1.145133448208905e+03 1.059843239168419e+02 2.918975276816622e+03
1.145167981717378e+03 1.035418909821319e+02 2.918975276816622e+03
1.145200272267585e+03 1.012596553023660e+02 2.918975276816622e+03
1.145231147955366e+03 9.931579643014857e+01 2.918975276816622e+03
1.145275081886752e+03 9.684116889775768e+01 2.918975276816622e+03
1.145311192245721e+03 9.468308730365362e+01 2.918975276816622e+03
1.145348057815271e+03 9.248409271074611e+01 2.918975276816622e+03
1.145393502167818e+03 8.992763918074833e+01 2.918975276816622e+03
1.145438946520366e+03 8.737118565075058e+01 2.918975276816622e+03
1.145484390872913e+03 8.481473212075281e+01 2.918975276816622e+03
1.145534155972630e+03 8.196179246415990e+01 2.918975276816622e+03
1.145584093382035e+03 7.928011558034164e+01 2.918975276816622e+03
1.145629882353956e+03 7.706618759589320e+01 2.918975276816622e+03
1.145685331953876e+03 7.457504863342265e+01 2.918975276816622e+03
1.145750442181793e+03 7.180669869293000e+01 2.918975276816622e+03
1.145720035606066e+03 6.896379428629960e+01 2.918975276816622e+03
1.145594112226696e+03 6.604633541353148e+01 2.918975276816622e+03
1.145702049386829e+03 6.369235709710119e+01 2.918975276816622e+03
1.145889732537432e+03 6.152404511399512e+01 2.918975276816622e+03
1.145923301139002e+03 5.897791890787542e+01 2.918975276816622e+03
1.145945035255559e+03 5.765822102855751e+01 2.918975276816622e+03
1.145971794322066e+03 5.634001346564067e+01 2.918975276816622e+03
1.145986001176405e+03 5.409069186479310e+01 2.918975276816622e+03
1.145994400384279e+03 5.188786190151463e+01 2.918975276816622e+03
1.146013529485906e+03 5.001757347342727e+01 2.918975276816622e+03
1.146008843684832e+03 4.856906686121825e+01 2.918975276816622e+03
1.146024295845184e+03 4.740652884500820e+01 2.918975276816622e+03
1.146045755533470e+03 4.560340909959703e+01 2.918975276816622e+03
1.146049321041421e+03 4.333716190948404e+01 2.918975276816622e+03
1.146051944212780e+03 4.228338768230569e+01 2.918975276816622e+03
1.146058432378563e+03 4.118657360011952e+01 2.918975276816622e+03
1.145990770638299e+03 3.928206773318024e+01 2.918975276816622e+03
1.145972453543249e+03 3.717049427537478e+01 2.918975276816622e+03
1.146030468034036e+03 3.497873314144232e+01 2.918975276816622e+03
1.146031307285191e+03 3.268312940172998e+01 2.918975276816622e+03
1.146034118642092e+03 3.033049704302092e+01 2.918975276816622e+03
1.145986826236942e+03 2.819060985260331e+01 2.918975276816622e+03
1.145718750091085e+03 2.543610473752221e+01 2.918975276816622e+03
1.145723710552806e+03 2.219941282748196e+01 2.918975276816622e+03
1.145963126638380e+03 1.913592840253962e+01 2.918975276816622e+03
1.145955622465873e+03 1.637369955889211e+01 2.918975276816622e+03
1.145910458997666e+03 1.408469510943732e+01 2.918975276816622e+03
1.145881092977765e+03 1.184241311207249e+01 2.918975276816622e+03
1.145864503785514e+03 1.020876279754352e+01 2.918975276816622e+03
1.145856950061374e+03 8.790224964081206e+00 2.918975276816622e+03
1.145825724721764e+03 6.202267497226412e+00 2.918975276816622e+03
1.145796860043614e+03 3.665453397126492e+00 2.918975276816622e+03
-1.157114025617463e+03 -6.008698366713288e-01 -2.918975276816622e+03
-1.157070095072939e+03 -4.082639683866641e+00 -2.918975276816622e+03
-1.157141702697727e+03  2.748849044517728e+00 -2.918975276816622e+03
-1.157153126313732e+03  5.966516959700528e+00 -2.918975276816622e+03
-1.157026873679125e+03 -6.927826894751106e+00 -2.918975276816622e+03
-1.156984361436023e+03 -9.136431469324716e+00 -2.918975276816622e+03
-1.156937808811375e+03 -1.028839818360221e+01 -2.918975276816622e+03
-1.156961617989613e+03 -1.205934839585638e+01 -2.918975276816622e+03
-1.157004533677915e+03 -1.516179873968607e+01 -2.918975276816622e+03
-1.157005053442797e+03 -1.773791733536863e+01 -2.918975276816622e+03
-1.157018472958629e+03 -2.013182540960131e+01 -2.918975276816622e+03
-1.157022252961454e+03 -2.163292505656513e+01 -2.918975276816622e+03
-1.157020524425053e+03 -2.383521625178595e+01 -2.918975276816622e+03
-1.157025131364757e+03 -2.709286063956823e+01 -2.918975276816622e+03
-1.157022793321955e+03 -2.956043126362535e+01 -2.918975276816622e+03
-1.157011305794321e+03 -3.177657490692171e+01 -2.918975276816622e+03
-1.157010490385432e+03 -3.366145553447519e+01 -2.918975276816622e+03
-1.156996015320054e+03 -3.523334284720325e+01 -2.918975276816622e+03
-1.156991948142130e+03 -3.661451884017644e+01 -2.918975276816622e+03
-1.156970687877448e+03 -3.888295746203428e+01 -2.918975276816622e+03
-1.156958342263022e+03 -4.100080238962819e+01 -2.918975276816622e+03
-1.156933475317636e+03 -4.250464819315663e+01 -2.918975276816622e+03
-1.156910016243897e+03 -4.442352919491032e+01 -2.918975276816622e+03
-1.156924086567256e+03 -4.546187646803543e+01 -2.918975276816622e+03
-1.156942254205813e+03 -4.652871862918084e+01 -2.918975276816622e+03
-1.156912833166913e+03 -4.857611625315151e+01 -2.918975276816622e+03
-1.156884489173812e+03 -5.007292190173658e+01 -2.918975276816622e+03
-1.156866077712972e+03 -5.123331940331602e+01 -2.918975276816622e+03
-1.156843657613175e+03 -5.358021759698717e+01 -2.918975276816622e+03
-1.156827715855294e+03 -5.563379105538383e+01 -2.918975276816622e+03
-1.156810107344758e+03 -5.740362441924010e+01 -2.918975276816622e+03
-1.156793833650742e+03 -5.956227978838280e+01 -2.918975276816622e+03
-1.156796278703979e+03 -6.093512996858956e+01 -2.918975276816622e+03
-1.156789677026054e+03 -6.243671079745722e+01 -2.918975276816622e+03
-1.156749112353186e+03 -6.420451337099419e+01 -2.918975276816622e+03
-1.156713037186322e+03 -6.534968553122060e+01 -2.918975276816622e+03
-1.156704319861954e+03 -6.660689717057791e+01 -2.918975276816622e+03
-1.156674443521467e+03 -6.863748083191481e+01 -2.918975276816622e+03
-1.156663082774650e+03 -7.016895993779080e+01 -2.918975276816622e+03
-1.156738296486145e+03 -7.126994793181709e+01 -2.918975276816622e+03
-1.156705348687763e+03 -7.261877394043138e+01 -2.918975276816622e+03
-1.156609651952836e+03 -7.425056487120804e+01 -2.918975276816622e+03
-1.156607120953925e+03 -7.576583154615818e+01 -2.918975276816622e+03
-1.156629608171261e+03 -7.653722568939938e+01 -2.918975276816622e+03
-1.156615011855625e+03 -7.774590792263335e+01 -2.918975276816622e+03
-1.156616879400659e+03 -7.952244365776831e+01 -2.918975276816622e+03
-1.156617830674040e+03 -8.084422132061266e+01 -2.918975276816622e+03
-1.156612110556582e+03 -8.236442791959826e+01 -2.918975276816622e+03
-1.156603538202605e+03 -8.413457902361905e+01 -2.918975276816622e+03
-1.156595665330819e+03 -8.539016902781428e+01 -2.918975276816622e+03
-1.156590925983516e+03 -8.666769683270221e+01 -2.918975276816622e+03
-1.156567369559732e+03 -8.857291406850784e+01 -2.918975276816622e+03
-1.156559278627722e+03 -9.008307531041380e+01 -2.918975276816622e+03
-1.156574003164462e+03 -9.119375786527362e+01 -2.918975276816622e+03
-1.156559609973293e+03 -9.361723177455463e+01 -2.918975276816622e+03
-1.156516988849625e+03 -9.582350303879332e+01 -2.918975276816622e+03
-1.156515303557311e+03 -9.767812224039638e+01 -2.918975276816622e+03
-1.156568148707038e+03 -1.000578812465829e+02 -2.918975276816622e+03
-1.156528411411591e+03 -1.012604867406002e+02 -2.918975276816622e+03
-1.156419620796483e+03 -1.024682166702305e+02 -2.918975276816622e+03
-1.156437737423020e+03 -1.044141485922255e+02 -2.918975276816622e+03
-1.156511594876426e+03 -1.059124557265842e+02 -2.918975276816622e+03
-1.156495180058367e+03 -1.068577823509799e+02 -2.918975276816622e+03
-1.156461104386080e+03 -1.083377159412744e+02 -2.918975276816622e+03
-1.156458936425283e+03 -1.101829061673460e+02 -2.918975276816622e+03
-1.156471450426851e+03 -1.118544122594876e+02 -2.918975276816622e+03
-1.156470888854591e+03 -1.131782011011730e+02 -2.918975276816622e+03
-1.156461864741304e+03 -1.146736566235509e+02 -2.918975276816622e+03
-1.156457334735705e+03 -1.170606262376423e+02 -2.918975276816622e+03
-1.156445438956589e+03 -1.193349037854836e+02 -2.918975276816622e+03
-1.156446315353322e+03 -1.208171402456950e+02 -2.918975276816622e+03
-1.156441311837377e+03 -1.223252665224138e+02 -2.918975276816622e+03
-1.156445780684988e+03 -1.242216242683493e+02 -2.918975276816622e+03
-1.156448785572418e+03 -1.254722441812758e+02 -2.918975276816622e+03
-1.156455550231003e+03 -1.266122573157008e+02 -2.918975276816622e+03
-1.156449400657890e+03 -1.285708142982215e+02 -2.918975276816622e+03
-1.156455725659869e+03 -1.307335402348974e+02 -2.918975276816622e+03
-1.156468073542156e+03 -1.320252046839450e+02 -2.918975276816622e+03
-1.156477408826464e+03 -1.328539794597648e+02 -2.918975276816622e+03
-1.156467458575210e+03 -1.342287794374008e+02 -2.918975276816622e+03
-1.156473976575966e+03 -1.356866083818365e+02 -2.918975276816622e+03
-1.156479098251652e+03 -1.373501844528977e+02 -2.918975276816622e+03
-1.156499344012192e+03 -1.394618692078498e+02 -2.918975276816622e+03
-1.156515316406754e+03 -1.408711684809431e+02 -2.918975276816622e+03
-1.156534684021098e+03 -1.424170418077657e+02 -2.918975276816622e+03
-1.156550119662728e+03 -1.442490158175063e+02 -2.918975276816622e+03
-1.156554458466520e+03 -1.454092744328630e+02 -2.918975276816622e+03
-1.156556795195127e+03 -1.467503452019838e+02 -2.918975276816622e+03
-1.156584187113536e+03 -1.496467613598435e+02 -2.918975276816622e+03
-1.156615769414393e+03 -1.533122382124694e+02 -2.918975276816622e+03
-1.156624908127687e+03 -1.556144451684497e+02 -2.918975276816622e+03
-1.156626102843040e+03 -1.574126624874574e+02 -2.918975276816622e+03
-1.156629303766233e+03 -1.595200299197931e+02 -2.918975276816622e+03
-1.156649609836400e+03 -1.607345058540489e+02 -2.918975276816622e+03
-1.156656726537757e+03 -1.622031017954194e+02 -2.918975276816622e+03
-1.156663799327201e+03 -1.638851837198327e+02 -2.918975276816622e+03
-1.156661176936246e+03 -1.651681949184956e+02 -2.918975276816622e+03
-1.156663468224885e+03 -1.666824393051104e+02 -2.918975276816622e+03
-1.156656019067969e+03 -1.687617921347660e+02 -2.918975276816622e+03
-1.156695581043768e+03 -1.712445150001777e+02 -2.918975276816622e+03
-1.156678960991360e+03 -1.727789109575003e+02 -2.918975276816622e+03
-1.156658737981135e+03 -1.750954333930192e+02 -2.918975276816622e+03
-1.156720324740934e+03 -1.782662752541017e+02 -2.918975276816622e+03
-1.156829749862548e+03 -1.807537149508935e+02 -2.918975276816622e+03
-1.156875224507716e+03 -1.830029032257531e+02 -2.918975276816622e+03
-1.156801475299849e+03 -1.852801876078410e+02 -2.918975276816622e+03
-1.156738100653951e+03 -1.867209878960914e+02 -2.918975276816622e+03
-1.156711608548087e+03 -1.881237735066154e+02 -2.918975276816622e+03
-1.156731445745992e+03 -1.904289212123573e+02 -2.918975276816622e+03
-1.156777792992572e+03 -1.931827142713939e+02 -2.918975276816622e+03
-1.156773262227264e+03 -1.961018433993431e+02 -2.918975276816622e+03
-1.156747544304738e+03 -1.979404914150129e+02 -2.918975276816622e+03
-1.156740846293143e+03 -1.994363990561289e+02 -2.918975276816622e+03
-1.156743949228167e+03 -2.006396993274854e+02 -2.918975276816622e+03
-1.156739370983502e+03 -2.020943659347960e+02 -2.918975276816622e+03
-1.156746946439439e+03 -2.038680315871600e+02 -2.918975276816622e+03
-1.156737216347039e+03 -2.050258478210033e+02 -2.918975276816622e+03
-1.156711700299595e+03 -2.064665705492088e+02 -2.918975276816622e+03
-1.156686054742413e+03 -2.085582511026930e+02 -2.918975276816622e+03
-1.156661228722053e+03 -2.111538858385225e+02 -2.918975276816622e+03
-1.156630593458585e+03 -2.139843215803520e+02 -2.918975276816622e+03
-1.156599958195118e+03 -2.168147573221814e+02 -2.918975276816622e+03
-1.156523651790402e+03 -2.195122349614931e+02 -2.918975276816622e+03
-1.156445745618038e+03 -2.208243807664098e+02 -2.918975276816622e+03
-1.156454343332421e+03 -2.221295520287583e+02 -2.918975276816622e+03
-1.156463122301619e+03 -2.251744331089924e+02 -2.918975276816622e+03
-1.156439452569050e+03 -2.285128928401812e+02 -2.918975276816622e+03
-1.156453396937462e+03 -2.314494227256546e+02 -2.918975276816622e+03
-1.156495152850290e+03 -2.341847547430345e+02 -2.918975276816622e+03
-1.156536908763117e+03 -2.369200867604144e+02 -2.918975276816622e+03
-1.156578664675945e+03 -2.396554187777944e+02 -2.918975276816622e+03
-1.156592925785582e+03 -2.425858602423284e+02 -2.918975276816622e+03
-1.156626220807839e+03 -2.454837742097614e+02 -2.918975276816622e+03
-1.156625626863476e+03 -2.480368327225004e+02 -2.918975276816622e+03
-1.156646106127736e+03 -2.498272595952525e+02 -2.918975276816622e+03
-1.156646881181709e+03 -2.510619306145842e+02 -2.918975276816622e+03
-1.156648573234274e+03 -2.532191761822314e+02 -2.918975276816622e+03
-1.156672272846412e+03 -2.555640509389354e+02 -2.918975276816622e+03
-1.156668615818316e+03 -2.584170998857520e+02 -2.918975276816622e+03
-1.156706223330018e+03 -2.615436817666910e+02 -2.918975276816622e+03
-1.156712347481390e+03 -2.637903343085086e+02 -2.918975276816622e+03
-1.156742142770594e+03 -2.658942652092505e+02 -2.918975276816622e+03
-1.156703265278438e+03 -2.676567704333783e+02 -2.918975276816622e+03
-1.156713110301337e+03 -2.689917082583699e+02 -2.918975276816622e+03
-1.156747072147459e+03 -2.699450916053410e+02 -2.918975276816622e+03
-1.156771541687649e+03 -2.710381670770569e+02 -2.918975276816622e+03
-1.156753620926679e+03 -2.725226342436677e+02 -2.918975276816622e+03
-1.156754543714579e+03 -2.752183016913257e+02 -2.918975276816622e+03
-1.156737412411064e+03 -2.782942609286620e+02 -2.918975276816622e+03
-1.156739479876362e+03 -2.806981163610511e+02 -2.918975276816622e+03
-1.156776825291174e+03 -2.839743638221980e+02 -2.918975276816622e+03
-1.156746220980226e+03 -2.862913174349960e+02 -2.918975276816622e+03
-1.156720576228687e+03 -2.879066011891443e+02 -2.918975276816622e+03
-1.156697001316011e+03 -2.912593458607776e+02 -2.918975276816622e+03
-1.156708873267050e+03 -2.940751292513051e+02 -2.918975276816622e+03
-1.156676793351390e+03 -2.964266354961337e+02 -2.918975276816622e+03
-1.156665141324839e+03 -2.995180670060916e+02 -2.918975276816622e+03
-1.156661520361353e+03 -3.014405771258284e+02 -2.918975276816622e+03
-1.156651844856994e+03 -3.028790050056508e+02 -2.918975276816622e+03
-1.156634109902880e+03 -3.047073206487307e+02 -2.918975276816622e+03
-1.156633746362599e+03 -3.066640611105503e+02 -2.918975276816622e+03
-1.156627036035586e+03 -3.086926726652437e+02 -2.918975276816622e+03
-1.156609682292265e+03 -3.109460400507455e+02 -2.918975276816622e+03
-1.156599377179023e+03 -3.137756683799703e+02 -2.918975276816622e+03
-1.156579112564108e+03 -3.164707686314918e+02 -2.918975276816622e+03
-1.156578087549269e+03 -3.183453588092603e+02 -2.918975276816622e+03
-1.156571271014318e+03 -3.195295641850474e+02 -2.918975276816622e+03
-1.156569968684349e+03 -3.210210252822539e+02 -2.918975276816622e+03
-1.156553855968976e+03 -3.227711151106365e+02 -2.918975276816622e+03
-1.156547248849098e+03 -3.240088703072075e+02 -2.918975276816622e+03
-1.156543062934506e+03 -3.252911291105919e+02 -2.918975276816622e+03
-1.156534355223233e+03 -3.265746858097080e+02 -2.918975276816622e+03
-1.156516186161206e+03 -3.279072066577985e+02 -2.918975276816622e+03
-1.156508780261631e+03 -3.293797501945073e+02 -2.918975276816622e+03
-1.156506014285475e+03 -3.305814705404963e+02 -2.918975276816622e+03
-1.156493777136278e+03 -3.329275695174690e+02 -2.918975276816622e+03
-1.156490956955381e+03 -3.348983935468389e+02 -2.918975276816622e+03
-1.156495008034388e+03 -3.358571183537796e+02 -2.918975276816622e+03
-1.156495977881118e+03 -3.374843775823314e+02 -2.918975276816622e+03
-1.156488712573452e+03 -3.398982099023897e+02 -2.918975276816622e+03
-1.156490755760296e+03 -3.420562809785905e+02 -2.918975276816622e+03
-1.156485694963688e+03 -3.434343974584357e+02 -2.918975276816622e+03
-1.156501931125198e+03 -3.452144723394015e+02 -2.918975276816622e+03
-1.156499585130778e+03 -3.474357347642873e+02 -2.918975276816622e+03
-1.156457957629883e+03 -3.485808673204792e+02 -2.918975276816622e+03
-1.156445444366907e+03 -3.497926216490803e+02 -2.918975276816622e+03
-1.156501326848326e+03 -3.521471276187848e+02 -2.918975276816622e+03
-1.156552698776759e+03 -3.554455119515260e+02 -2.918975276816622e+03
-1.156582023246728e+03 -3.581361860850230e+02 -2.918975276816622e+03
-1.156607578597224e+03 -3.604940592918222e+02 -2.918975276816622e+03
-1.156624712080495e+03 -3.625935122704128e+02 -2.918975276816622e+03
-1.156635680264883e+03 -3.638269961321069e+02 -2.918975276816622e+03
-1.156650129416564e+03 -3.659869612291433e+02 -2.918975276816622e+03
-1.156675358087811e+03 -3.691502599976165e+02 -2.918975276816622e+03
-1.156694033217688e+03 -3.718143331646323e+02 -2.918975276816622e+03
-1.156686890921854e+03 -3.733800062441812e+02 -2.918975276816622e+03
-1.156700038500137e+03 -3.754758425728290e+02 -2.918975276816622e+03
-1.156749513460593e+03 -3.771836195087355e+02 -2.918975276816622e+03
-1.156762978243620e+03 -3.787914082829585e+02 -2.918975276816622e+03
-1.156687065723246e+03 -3.801418808473498e+02 -2.918975276816622e+03
-1.156671046306070e+03 -3.813838294914181e+02 -2.918975276816622e+03
-1.156731686174888e+03 -3.842901035588123e+02 -2.918975276816622e+03
-1.156754309196005e+03 -3.862611212101464e+02 -2.918975276816622e+03
-1.156767723271554e+03  3.828352676424574e+02 -2.918975276816622e+03
-1.156761631367234e+03  3.848653940069976e+02 -2.918975276816622e+03
-1.156762051738558e+03  3.805045682610918e+02 -2.918975276816622e+03
-1.156765794116821e+03  3.781344929654724e+02 -2.918975276816622e+03
-1.156781741135952e+03  3.770603060951524e+02 -2.918975276816622e+03
-1.156781272204403e+03  3.750668757797072e+02 -2.918975276816622e+03
-1.156771815691154e+03  3.715469594131478e+02 -2.918975276816622e+03
-1.156771823136996e+03  3.681750009742690e+02 -2.918975276816622e+03
-1.156775397028780e+03  3.655344256727280e+02 -2.918975276816622e+03
-1.156770133440666e+03  3.622260717281740e+02 -2.918975276816622e+03
-1.156757329881173e+03  3.583493027612197e+02 -2.918975276816622e+03
-1.156754277093439e+03  3.558579068546522e+02 -2.918975276816622e+03
-1.156753896839025e+03  3.542133718743720e+02 -2.918975276816622e+03
-1.156743862035371e+03  3.516421304823178e+02 -2.918975276816622e+03
-1.156729953412396e+03  3.485833311919768e+02 -2.918975276816622e+03
-1.156719105064127e+03  3.452133597356055e+02 -2.918975276816622e+03
-1.156711529450992e+03  3.420424468674654e+02 -2.918975276816622e+03
-1.156704166298286e+03  3.393817647535864e+02 -2.918975276816622e+03
-1.156695870529108e+03  3.367272546105966e+02 -2.918975276816622e+03
-1.156687199592843e+03  3.341243879835027e+02 -2.918975276816622e+03
-1.156679086105964e+03  3.315669929014168e+02 -2.918975276816622e+03
-1.156670972619085e+03  3.290095978193310e+02 -2.918975276816622e+03
-1.156667593455816e+03  3.271256852963576e+02 -2.918975276816622e+03
-1.156673287680897e+03  3.248483115706675e+02 -2.918975276816622e+03
-1.156669597631508e+03  3.226188464486968e+02 -2.918975276816622e+03
-1.156657466839307e+03  3.210161462554198e+02 -2.918975276816622e+03
-1.156675119299831e+03  3.186442501624902e+02 -2.918975276816622e+03
-1.156679719496502e+03  3.160978342280353e+02 -2.918975276816622e+03
-1.156646766772988e+03  3.136580069148526e+02 -2.918975276816622e+03
-1.156643259428091e+03  3.114819000096641e+02 -2.918975276816622e+03
-1.156664784303493e+03  3.091225593336607e+02 -2.918975276816622e+03
-1.156677952978589e+03  3.064888484607598e+02 -2.918975276816622e+03
-1.156687178611694e+03  3.040277215697707e+02 -2.918975276816622e+03
-1.156659021309999e+03  3.027474488057657e+02 -2.918975276816622e+03
-1.156642373034044e+03  3.014581456570933e+02 -2.918975276816622e+03
-1.156674616718627e+03  2.989789579967702e+02 -2.918975276816622e+03
-1.156693215567000e+03  2.965716238896977e+02 -2.918975276816622e+03
-1.156710753514937e+03  2.948407946522227e+02 -2.918975276816622e+03
-1.156717273719092e+03  2.930082919093974e+02 -2.918975276816622e+03
-1.156735485059581e+03  2.909620699338373e+02 -2.918975276816622e+03
-1.156744174016072e+03  2.890565406791036e+02 -2.918975276816622e+03
-1.156761957809066e+03  2.872134034290999e+02 -2.918975276816622e+03
-1.156770729725411e+03  2.854795436439654e+02 -2.918975276816622e+03
-1.156799810100208e+03  2.832097133581574e+02 -2.918975276816622e+03
-1.156830282386126e+03  2.799874376032082e+02 -2.918975276816622e+03
-1.156855740669400e+03  2.778317582053628e+02 -2.918975276816622e+03
-1.156830058957274e+03  2.764847701457775e+02 -2.918975276816622e+03
-1.156822719507868e+03  2.746275280967369e+02 -2.918975276816622e+03
-1.156830270465498e+03  2.727943581234463e+02 -2.918975276816622e+03
-1.156843147859984e+03  2.714842382637109e+02 -2.918975276816622e+03
-1.156818275751191e+03  2.704439137156514e+02 -2.918975276816622e+03
-1.156825573416250e+03  2.678506967037873e+02 -2.918975276816622e+03
-1.156845043868219e+03  2.655074539251652e+02 -2.918975276816622e+03
-1.156872291655807e+03  2.637276901953732e+02 -2.918975276816622e+03
-1.156896918051815e+03  2.616875127956910e+02 -2.918975276816622e+03
-1.156896685884938e+03  2.604212741096484e+02 -2.918975276816622e+03
-1.156915289588553e+03  2.588794433124658e+02 -2.918975276816622e+03
-1.156933077216345e+03  2.572810292851361e+02 -2.918975276816622e+03
-1.156944589442445e+03  2.560401113533849e+02 -2.918975276816622e+03
-1.156964619932472e+03  2.546834306944193e+02 -2.918975276816622e+03
-1.157013211776322e+03  2.528962192908717e+02 -2.918975276816622e+03
-1.157048380535935e+03  2.512497200087232e+02 -2.918975276816622e+03
-1.157070856291145e+03  2.505681530240450e+02 -2.918975276816622e+03
-1.157010556977334e+03  2.488425667276476e+02 -2.918975276816622e+03
-1.156960277493616e+03  2.466828221557308e+02 -2.918975276816622e+03
-1.156906616640201e+03  2.451630040678903e+02 -2.918975276816622e+03
-1.156879914607363e+03  2.437303117627930e+02 -2.918975276816622e+03
-1.156825861258307e+03  2.420017010591029e+02 -2.918975276816622e+03
-1.156796150409629e+03  2.404715331560307e+02 -2.918975276816622e+03
-1.156762015896214e+03  2.392871790037917e+02 -2.918975276816622e+03
-1.156716209272900e+03  2.369799090444246e+02 -2.918975276816622e+03
-1.156670475420848e+03  2.348521899553569e+02 -2.918975276816622e+03
-1.156637458904955e+03  2.329786056943715e+02 -2.918975276816622e+03
-1.156590995771095e+03  2.307527257517029e+02 -2.918975276816622e+03
-1.156559279379952e+03  2.294944995053222e+02 -2.918975276816622e+03
-1.156529210151415e+03  2.280913035737215e+02 -2.918975276816622e+03
-1.156499460107208e+03  2.263465315873249e+02 -2.918975276816622e+03
-1.156480170175456e+03  2.252941292806550e+02 -2.918975276816622e+03
-1.156458136868225e+03  2.240922930676207e+02 -2.918975276816622e+03
-1.156418781174006e+03  2.220019349800645e+02 -2.918975276816622e+03
-1.156380165614947e+03  2.202033228724182e+02 -2.918975276816622e+03
-1.156355135226111e+03  2.190258584909390e+02 -2.918975276816622e+03
-1.156308881308424e+03  2.168879617497057e+02 -2.918975276816622e+03
-1.156269287631365e+03  2.149066197016762e+02 -2.918975276816622e+03
-1.156236550726218e+03  2.131926464455418e+02 -2.918975276816622e+03
-1.156190650282913e+03  2.110094526456991e+02 -2.918975276816622e+03
-1.156164732527358e+03  2.096057826511575e+02 -2.918975276816622e+03
-1.156132178376986e+03  2.081217309808559e+02 -2.918975276816622e+03
-1.156107151077412e+03  2.061926065885854e+02 -2.918975276816622e+03
-1.156115635601350e+03  2.048663004135217e+02 -2.918975276816622e+03
-1.156121225106011e+03  2.039260324117953e+02 -2.918975276816622e+03
-1.156103453932439e+03  2.021279063335167e+02 -2.918975276816622e+03
-1.156056510236912e+03  2.003490210921496e+02 -2.918975276816622e+03
-1.156056242430917e+03  1.989774073381551e+02 -2.918975276816622e+03
-1.156082012445964e+03  1.965511433650462e+02 -2.918975276816622e+03
-1.156087283009697e+03  1.938449311183294e+02 -2.918975276816622e+03
-1.156056143816896e+03  1.914733644026970e+02 -2.918975276816622e+03
-1.156038918786770e+03  1.887780811386219e+02 -2.918975276816622e+03
-1.156042824603911e+03  1.865910064523285e+02 -2.918975276816622e+03
-1.156036472316021e+03  1.852431993286522e+02 -2.918975276816622e+03
-1.156039921342435e+03  1.838825377787440e+02 -2.918975276816622e+03
-1.156034087637671e+03  1.820277131008710e+02 -2.918975276816622e+03
-1.156030784537988e+03  1.805312742269878e+02 -2.918975276816622e+03
-1.156030058583261e+03  1.795022023514610e+02 -2.918975276816622e+03
-1.156024547551190e+03  1.770966340928007e+02 -2.918975276816622e+03
-1.156025287013097e+03  1.748789406311679e+02 -2.918975276816622e+03
-1.156027377295614e+03  1.731545539130180e+02 -2.918975276816622e+03
-1.156031399003525e+03  1.710256317273630e+02 -2.918975276816622e+03
-1.156030958433872e+03  1.696297341238012e+02 -2.918975276816622e+03
-1.156032167178542e+03  1.681294525713551e+02 -2.918975276816622e+03
-1.156033356834221e+03  1.664301072893340e+02 -2.918975276816622e+03
-1.156037949476041e+03  1.651862040772546e+02 -2.918975276816622e+03
-1.156039884063510e+03  1.639399861170325e+02 -2.918975276816622e+03
-1.156045018146498e+03  1.620704586341793e+02 -2.918975276816622e+03
-1.156047251111718e+03  1.604806980202813e+02 -2.918975276816622e+03
-1.156051389301512e+03  1.593290430665741e+02 -2.918975276816622e+03
-1.156055083470224e+03  1.571279938305769e+02 -2.918975276816622e+03
-1.156064225194270e+03  1.550739553161862e+02 -2.918975276816622e+03
-1.156067303666180e+03  1.531943663493015e+02 -2.918975276816622e+03
-1.156078038769496e+03  1.510375633971064e+02 -2.918975276816622e+03
-1.156083451145297e+03  1.497501987191522e+02 -2.918975276816622e+03
-1.156096975447404e+03  1.482204968443998e+02 -2.918975276816622e+03
-1.156099991435769e+03  1.463539560527069e+02 -2.918975276816622e+03
-1.156097991289597e+03  1.451972720856491e+02 -2.918975276816622e+03
-1.156100332161948e+03  1.440677854967954e+02 -2.918975276816622e+03
-1.156129183130561e+03  1.420970478205820e+02 -2.918975276816622e+03
-1.156137574042185e+03  1.404519610704554e+02 -2.918975276816622e+03
-1.156143701172187e+03  1.392872211752593e+02 -2.918975276816622e+03
-1.156155520868534e+03  1.370068575922281e+02 -2.918975276816622e+03
-1.156177459161654e+03  1.349170054020819e+02 -2.918975276816622e+03
-1.156176774261593e+03  1.330952576296982e+02 -2.918975276816622e+03
-1.156188282667834e+03  1.307551700381378e+02 -2.918975276816622e+03
-1.156221930212958e+03  1.294400323136692e+02 -2.918975276816622e+03
-1.156264295805445e+03  1.281493123857198e+02 -2.918975276816622e+03
-1.156267623708950e+03  1.264657572644781e+02 -2.918975276816622e+03
-1.156275467210446e+03  1.251252832679559e+02 -2.918975276816622e+03
-1.156293888011870e+03  1.237628725973143e+02 -2.918975276816622e+03
-1.156318530507804e+03  1.220488350365291e+02 -2.918975276816622e+03
-1.156332962761080e+03  1.205164537678160e+02 -2.918975276816622e+03
-1.156352332807685e+03  1.194219280005062e+02 -2.918975276816622e+03
-1.156393841966544e+03  1.170660843462073e+02 -2.918975276816622e+03
-1.156420407601692e+03  1.148662761006790e+02 -2.918975276816622e+03
-1.156437675677388e+03  1.131222603360385e+02 -2.918975276816622e+03
-1.156456857794995e+03  1.111923593862747e+02 -2.918975276816622e+03
-1.156477236585058e+03  1.100645003958600e+02 -2.918975276816622e+03
-1.156495171261464e+03  1.085535637947876e+02 -2.918975276816622e+03
-1.156513084903612e+03  1.068439902015050e+02 -2.918975276816622e+03
-1.156519147426996e+03  1.054566068048750e+02 -2.918975276816622e+03
-1.156528548397433e+03  1.040181249531137e+02 -2.918975276816622e+03
-1.156532051027106e+03  1.022069999897315e+02 -2.918975276816622e+03
-1.156550998685924e+03  1.007282725327601e+02 -2.918975276816622e+03
-1.156562930143244e+03  9.929924180173646e+01 -2.918975276816622e+03
-1.156572731143407e+03  9.760737396893146e+01 -2.918975276816622e+03
-1.156576087298360e+03  9.607418190862111e+01 -2.918975276816622e+03
-1.156591765411009e+03  9.317994812826230e+01 -2.918975276816622e+03
-1.156598317328984e+03  9.056890262423904e+01 -2.918975276816622e+03
-1.156593137864492e+03  8.901383501709296e+01 -2.918975276816622e+03
-1.156573630188055e+03  8.745033986371227e+01 -2.918975276816622e+03
-1.156619470803831e+03  8.667958580314897e+01 -2.918975276816622e+03
-1.156650129459947e+03  8.582909591469578e+01 -2.918975276816622e+03
-1.156640570730868e+03  8.390037173363072e+01 -2.918975276816622e+03
-1.156648216999130e+03  8.090859697001089e+01 -2.918975276816622e+03
-1.156675214646788e+03  7.774432696998625e+01 -2.918975276816622e+03
-1.156691698594617e+03  7.495290123209698e+01 -2.918975276816622e+03
-1.156704376271522e+03  7.261089054843166e+01 -2.918975276816622e+03
-1.156715716410596e+03  7.039616604659764e+01 -2.918975276816622e+03
-1.156730990926267e+03  6.818526087371687e+01 -2.918975276816622e+03
-1.156756640710318e+03  6.532110813003166e+01 -2.918975276816622e+03
-1.156777334985793e+03  6.308226743949167e+01 -2.918975276816622e+03
-1.156794229893418e+03  6.163801721449887e+01 -2.918975276816622e+03
-1.156821190566645e+03  5.938384962975757e+01 -2.918975276816622e+03
-1.156833229054554e+03  5.730526575848609e+01 -2.918975276816622e+03
-1.156869534922246e+03  5.495121930186211e+01 -2.918975276816622e+03
-1.156897834038475e+03  5.225275356240054e+01 -2.918975276816622e+03
-1.156921541685860e+03  5.032246375836643e+01 -2.918975276816622e+03
-1.156931087627876e+03  4.881104392460519e+01 -2.918975276816622e+03
-1.156945327838734e+03  4.726461581061897e+01 -2.918975276816622e+03
-1.156967132858671e+03  4.540679358236464e+01 -2.918975276816622e+03
-1.156988516368415e+03  4.317347542669550e+01 -2.918975276816622e+03
-1.157011118651149e+03  4.187250126532911e+01 -2.918975276816622e+03
-1.157024719940017e+03  4.027854127552581e+01 -2.918975276816622e+03
-1.157058944314953e+03  3.753032033892919e+01 -2.918975276816622e+03
-1.157082903025951e+03  3.456060641869441e+01 -2.918975276816622e+03
-1.157119227722741e+03  3.144189949467324e+01 -2.918975276816622e+03
-1.157141397512652e+03  2.933242147649468e+01 -2.918975276816622e+03
-1.157152393204735e+03  2.749284406375227e+01 -2.918975276816622e+03
-1.157166369705869e+03  2.491393835060340e+01 -2.918975276816622e+03
-1.157186958305094e+03  2.247432708580858e+01 -2.918975276816622e+03
-1.157214159002409e+03  2.017401026936783e+01 -2.918975276816622e+03
-1.157183228486264e+03  1.818923117236305e+01 -2.918975276816622e+03
-1.157189140906941e+03  1.658304544118786e+01 -2.918975276816622e+03
-1.157299215255145e+03  1.522632158279943e+01 -2.918975276816622e+03
-1.157292866017512e+03  1.418245226227485e+01 -2.918975276816622e+03
-1.157218725888573e+03  1.284349128797189e+01 -2.918975276816622e+03
-1.157197634075430e+03  1.086626834296989e+01 -2.918975276816622e+03
-1.157171770106299e+03  8.672323392517917e+00 -2.918975276816622e+03
 1.154509020937956e+03 -1.812431349544083e+00  2.918975276816622e+03
 1.154528290198686e+03 -3.470592080205507e-01  2.918975276816622e+03
 1.154486552826817e+03 -3.312720354392386e+00  2.918975276816622e+03
 1.154446922860842e+03 -5.753761985404250e+00  2.918975276816622e+03
 1.154405827578763e+03 -8.122167487262782e+00  2.918975276816622e+03
 1.154364582425419e+03 -1.050514663211820e+01  2.918975276816622e+03
 1.154323187400810e+03 -1.290269941997052e+01  2.918975276816622e+03
 1.154281792376200e+03 -1.530025220782282e+01  2.918975276816622e+03
 1.154242123092164e+03 -1.766723162814854e+01  2.918975276816622e+03
 1.154204179548701e+03 -2.000363768094767e+01  2.918975276816622e+03
 1.154167475971968e+03 -2.252260104566097e+01  2.918975276816622e+03
 1.154132012361964e+03 -2.522412172228844e+01  2.918975276816622e+03
 1.154096303580752e+03 -2.664388933019195e+01  2.918975276816622e+03
 1.154056946555645e+03 -2.847510231834638e+01  2.918975276816622e+03
 1.154024639250034e+03 -3.138407693095377e+01  2.918975276816622e+03
 1.154002784736605e+03 -3.367761471903923e+01  2.918975276816622e+03
 1.153975704687083e+03 -3.632674576781807e+01  2.918975276816622e+03
 1.153944951487682e+03 -3.909709941886874e+01  2.918975276816622e+03
 1.153915750674496e+03 -4.163308241149792e+01  2.918975276816622e+03
 1.153900056719711e+03 -4.438363180677860e+01  2.918975276816622e+03
 1.153890365306236e+03 -4.744365324761294e+01  2.918975276816622e+03
 1.153868582232335e+03 -5.002541356623305e+01  2.918975276816622e+03
 1.153810405322194e+03 -5.186184105059611e+01  2.918975276816622e+03
 1.153798948926877e+03 -5.344446743861695e+01  2.918975276816622e+03
 1.153797338233132e+03 -5.540418091955407e+01  2.918975276816622e+03
 1.153783310171594e+03 -5.769163584548601e+01  2.918975276816622e+03
 1.153765854085511e+03 -5.967152924141054e+01  2.918975276816622e+03
 1.153755218364866e+03 -6.117077306795352e+01  2.918975276816622e+03
 1.153745933851311e+03 -6.257257887091988e+01  2.918975276816622e+03
 1.153736755409237e+03 -6.433479040934026e+01  2.918975276816622e+03
 1.153737289203830e+03 -6.582250849568457e+01  2.918975276816622e+03
 1.153733885779294e+03 -6.781853348530143e+01  2.918975276816622e+03
 1.153730373010266e+03 -7.008863259317259e+01  2.918975276816622e+03
 1.153719536556348e+03 -7.143301309433289e+01  2.918975276816622e+03
 1.153716487637354e+03 -7.323807706723599e+01  2.918975276816622e+03
 1.153713225720822e+03 -7.630396071088302e+01  2.918975276816622e+03
 1.153711059063136e+03 -7.942099016558328e+01  2.918975276816622e+03
 1.153700638432684e+03 -8.129258057057287e+01  2.918975276816622e+03
 1.153697258405758e+03 -8.331034303292675e+01  2.918975276816622e+03
 1.153705600574507e+03 -8.539301080293949e+01  2.918975276816622e+03
 1.153705252194118e+03 -8.746973669421439e+01  2.918975276816622e+03
 1.153688306374675e+03 -8.980281890737065e+01  2.918975276816622e+03
 1.153684838428103e+03 -9.150888222954464e+01  2.918975276816622e+03
 1.153686628244294e+03 -9.350668280078071e+01  2.918975276816622e+03
 1.153683055280244e+03 -9.602227554985377e+01  2.918975276816622e+03
 1.153675531284213e+03 -9.762153158435170e+01  2.918975276816622e+03
 1.153669419274206e+03 -9.915751579280179e+01  2.918975276816622e+03
 1.153661346485893e+03 -1.020698788304435e+02  2.918975276816622e+03
 1.153655802706229e+03 -1.044111501095711e+02  2.918975276816622e+03
 1.153652157857874e+03 -1.055988862092032e+02  2.918975276816622e+03
 1.153648702196701e+03 -1.075168270314376e+02  2.918975276816622e+03
 1.153641890424761e+03 -1.097378051279724e+02  2.918975276816622e+03
 1.153637171568234e+03 -1.113600318853523e+02  2.918975276816622e+03
 1.153630478787425e+03 -1.134262319466086e+02  2.918975276816622e+03
 1.153624248187437e+03 -1.159407557882528e+02  2.918975276816622e+03
 1.153618104352045e+03 -1.188255916381621e+02  2.918975276816622e+03
 1.153624372120516e+03 -1.215487798319011e+02  2.918975276816622e+03
 1.153638021915541e+03 -1.238095750009053e+02  2.918975276816622e+03
 1.153618398223523e+03 -1.249962385391228e+02  2.918975276816622e+03
 1.153591830855935e+03 -1.270250144341247e+02  2.918975276816622e+03
 1.153601364488494e+03 -1.310514671340930e+02  2.918975276816622e+03
 1.153609633977906e+03 -1.347330307726266e+02  2.918975276816622e+03
 1.153606868135496e+03 -1.379882725323303e+02  2.918975276816622e+03
 1.153604102293086e+03 -1.412435142920340e+02  2.918975276816622e+03
 1.153607807225864e+03 -1.437914348140195e+02  2.918975276816622e+03
 1.153607444912371e+03 -1.467880763917095e+02  2.918975276816622e+03
 1.153607576823139e+03 -1.497708490871090e+02  2.918975276816622e+03
 1.153606156733795e+03 -1.514924765213578e+02  2.918975276816622e+03
 1.153615564918409e+03 -1.533646967170211e+02  2.918975276816622e+03
 1.153607621264308e+03 -1.561122943909888e+02  2.918975276816622e+03
 1.153600982128331e+03 -1.590721525274075e+02  2.918975276816622e+03
 1.153607454765901e+03 -1.610011768171068e+02  2.918975276816622e+03
 1.153647548968723e+03 -1.620630525531245e+02  2.918975276816622e+03
 1.153633572114933e+03 -1.630365237473436e+02  2.918975276816622e+03
 1.153626531421347e+03 -1.646071583806895e+02  2.918975276816622e+03
 1.153633959342591e+03 -1.659960523737584e+02  2.918975276816622e+03
 1.153565353193393e+03 -1.675344006956077e+02  2.918975276816622e+03
 1.153560464330290e+03 -1.695909368219989e+02  2.918975276816622e+03
 1.153573633201129e+03 -1.713075218428204e+02  2.918975276816622e+03
 1.153571135055856e+03 -1.732224965160569e+02  2.918975276816622e+03
 1.153686089940764e+03 -1.762431636664368e+02  2.918975276816622e+03
 1.153613862197770e+03 -1.793719857067846e+02  2.918975276816622e+03
 1.153468480987857e+03 -1.823425143591005e+02  2.918975276816622e+03
 1.153647705317911e+03 -1.852123943044235e+02  2.918975276816622e+03
 1.153666431587160e+03 -1.871306038187268e+02  2.918975276816622e+03
 1.153494454552507e+03 -1.896403189733519e+02  2.918975276816622e+03
 1.153526703409267e+03 -1.928055861881756e+02  2.918975276816622e+03
 1.153594484759196e+03 -1.960544110848772e+02  2.918975276816622e+03
 1.153603735451902e+03 -1.994133583517171e+02  2.918975276816622e+03
 1.153637870568184e+03 -2.022739548817856e+02  2.918975276816622e+03
 1.153646554808886e+03 -2.048547375803366e+02  2.918975276816622e+03
 1.153655239049588e+03 -2.074355202788877e+02  2.918975276816622e+03
 1.153664383058850e+03 -2.098983313870106e+02  2.918975276816622e+03
 1.153672952676263e+03 -2.127676077947715e+02  2.918975276816622e+03
 1.153680488133268e+03 -2.161613210925985e+02  2.918975276816622e+03
 1.153688946160863e+03 -2.191461350078900e+02  2.918975276816622e+03
 1.153696007643963e+03 -2.219084302413706e+02  2.918975276816622e+03
 1.153700083143680e+03 -2.237489099478277e+02  2.918975276816622e+03
 1.153703493468683e+03 -2.249154657163008e+02  2.918975276816622e+03
 1.153709783729192e+03 -2.272622539665946e+02  2.918975276816622e+03
 1.153718704996182e+03 -2.296109157119076e+02  2.918975276816622e+03
 1.153723086217656e+03 -2.311367837603800e+02  2.918975276816622e+03
 1.153729175722374e+03 -2.332142711679641e+02  2.918975276816622e+03
 1.153739725338323e+03 -2.358325023092813e+02  2.918975276816622e+03
 1.153748733972192e+03 -2.383611508254163e+02  2.918975276816622e+03
 1.153755715795725e+03 -2.401697133087848e+02  2.918975276816622e+03
 1.153763954193829e+03 -2.426564302808285e+02  2.918975276816622e+03
 1.153775889167376e+03 -2.461244855006667e+02  2.918975276816622e+03
 1.153786623439728e+03 -2.489310571784008e+02  2.918975276816622e+03
 1.153795743820349e+03 -2.514930475876781e+02  2.918975276816622e+03
 1.153804773088652e+03 -2.541109358679877e+02  2.918975276816622e+03
 1.153812866380218e+03 -2.563488658832301e+02  2.918975276816622e+03
 1.153821013943969e+03 -2.590328805987517e+02  2.918975276816622e+03
 1.153824931895540e+03 -2.611279723110532e+02  2.918975276816622e+03
 1.153828264807486e+03 -2.625260853601173e+02  2.918975276816622e+03
 1.153836141428594e+03 -2.646980835855427e+02  2.918975276816622e+03
 1.153845516760701e+03 -2.671687740433338e+02  2.918975276816622e+03
 1.153855399489946e+03 -2.700372694166841e+02  2.918975276816622e+03
 1.153860180708682e+03 -2.719185576685141e+02  2.918975276816622e+03
 1.153865358537592e+03 -2.733167545783209e+02  2.918975276816622e+03
 1.153870745921943e+03 -2.759017954121784e+02  2.918975276816622e+03
 1.153880333799901e+03 -2.784700760211475e+02  2.918975276816622e+03
 1.153883466090627e+03 -2.798098934281293e+02  2.918975276816622e+03
 1.153875687684175e+03 -2.818163072392989e+02  2.918975276816622e+03
 1.153877506346859e+03 -2.847881994257265e+02  2.918975276816622e+03
 1.153887303149744e+03 -2.874331680732209e+02  2.918975276816622e+03
 1.153899523658731e+03 -2.900804187264509e+02  2.918975276816622e+03
 1.153898622288052e+03 -2.932639003532070e+02  2.918975276816622e+03
 1.153843897014667e+03 -2.958364820088372e+02  2.918975276816622e+03
 1.153819097079968e+03 -2.970573931566481e+02  2.918975276816622e+03
 1.153896553911895e+03 -2.977078371634556e+02  2.918975276816622e+03
 1.153918438042870e+03 -2.983175589603729e+02  2.918975276816622e+03
 1.153882742633999e+03 -2.998965128630117e+02  2.918975276816622e+03
 1.153876669791137e+03 -3.021194935034262e+02  2.918975276816622e+03
 1.153874870411663e+03 -3.035118397116028e+02  2.918975276816622e+03
 1.153874393856601e+03 -3.055965491537421e+02  2.918975276816622e+03
 1.153878306401572e+03 -3.084085562448439e+02  2.918975276816622e+03
 1.153865076578204e+03 -3.097374440612961e+02  2.918975276816622e+03
 1.153841309718425e+03 -3.106144421188503e+02  2.918975276816622e+03
 1.153862162186985e+03 -3.113992218350848e+02  2.918975276816622e+03
 1.153875871653689e+03 -3.125188191891789e+02  2.918975276816622e+03
 1.153856917836219e+03 -3.139719269207487e+02  2.918975276816622e+03
 1.153841083260623e+03 -3.161108186928715e+02  2.918975276816622e+03
 1.153826559675840e+03 -3.195497559743683e+02  2.918975276816622e+03
 1.153814760362402e+03 -3.225741837141372e+02  2.918975276816622e+03
 1.153802339596293e+03 -3.248988955435735e+02  2.918975276816622e+03
 1.153794408286099e+03 -3.273053181638700e+02  2.918975276816622e+03
 1.153781579983987e+03 -3.299946153626065e+02  2.918975276816622e+03
 1.153773993304597e+03 -3.318673005931106e+02  2.918975276816622e+03
 1.153763744000147e+03 -3.335589090378596e+02  2.918975276816622e+03
 1.153757659101676e+03 -3.366742982220835e+02  2.918975276816622e+03
 1.153751031466243e+03 -3.390734238410150e+02  2.918975276816622e+03
 1.153754351581041e+03 -3.417194059463450e+02  2.918975276816622e+03
 1.153699250515206e+03 -3.452859744687476e+02  2.918975276816622e+03
 1.153621484124247e+03 -3.487652249595522e+02  2.918975276816622e+03
 1.153788541408038e+03 -3.508805210539915e+02  2.918975276816622e+03
 1.153856111115750e+03 -3.528765952159376e+02  2.918975276816622e+03
 1.153727027364903e+03 -3.559931335459476e+02  2.918975276816622e+03
 1.153711569418105e+03 -3.586792874898662e+02  2.918975276816622e+03
 1.153722624702648e+03 -3.616388915020974e+02  2.918975276816622e+03
 1.153731504938466e+03 -3.639076372657657e+02  2.918975276816622e+03
 1.153732458843872e+03 -3.653027020390470e+02  2.918975276816622e+03
 1.153734753115491e+03 -3.663543120672058e+02  2.918975276816622e+03
 1.153759236141744e+03 -3.677826022343110e+02  2.918975276816622e+03
 1.153746138872400e+03 -3.698694543287724e+02  2.918975276816622e+03
 1.153717042256236e+03 -3.726313736247703e+02  2.918975276816622e+03
 1.153786879052562e+03 -3.751640751064074e+02  2.918975276816622e+03
 1.153826650794251e+03 -3.774321828946197e+02  2.918975276816622e+03
 1.153766945899593e+03 -3.802560010063495e+02  2.918975276816622e+03
 1.153704873440140e+03 -3.827467503793605e+02  2.918975276816622e+03
 1.153846464770788e+03 -3.838819537636609e+02  2.918975276816622e+03
 1.153962550953739e+03 -3.851621054916400e+02  2.918975276816622e+03
1.153837178620321e+03 3.846141445555990e+02 2.918975276816622e+03
1.153877665660942e+03 3.858100921475378e+02 2.918975276816622e+03
1.153837801016621e+03 3.827557960736499e+02 2.918975276816622e+03
1.153849657924595e+03 3.813039423254704e+02 2.918975276816622e+03
1.153861166933061e+03 3.799584840567579e+02 2.918975276816622e+03
1.153888369741941e+03 3.776948692258159e+02 2.918975276816622e+03
1.153917299134354e+03 3.749535917019113e+02 2.918975276816622e+03
1.153938980446893e+03 3.728310205032539e+02 2.918975276816622e+03
1.153949248540850e+03 3.715904194405068e+02 2.918975276816622e+03
1.153972374173856e+03 3.692086911445261e+02 2.918975276816622e+03
1.153997165821091e+03 3.670409627010423e+02 2.918975276816622e+03
1.154011688958444e+03 3.656747258783021e+02 2.918975276816622e+03
1.154029066909581e+03 3.636949441855158e+02 2.918975276816622e+03
1.154057489591969e+03 3.609386092213805e+02 2.918975276816622e+03
1.154083987662706e+03 3.585709353839808e+02 2.918975276816622e+03
1.154102480863784e+03 3.568434714388379e+02 2.918975276816622e+03
1.154126166201481e+03 3.545345402755390e+02 2.918975276816622e+03
1.154144423828721e+03 3.527104838929300e+02 2.918975276816622e+03
1.154159127410301e+03 3.513463804207417e+02 2.918975276816622e+03
1.154180736016044e+03 3.491676598178646e+02 2.918975276816622e+03
1.154207655074113e+03 3.465300149542512e+02 2.918975276816622e+03
1.154230749466727e+03 3.441418525459754e+02 2.918975276816622e+03
1.154246341127622e+03 3.424891874490841e+02 2.918975276816622e+03
1.154265365386955e+03 3.408348205255351e+02 2.918975276816622e+03
1.154299935255197e+03 3.379809234519704e+02 2.918975276816622e+03
1.154342940067646e+03 3.344152129110942e+02 2.918975276816622e+03
1.154324906607795e+03 3.326123534511060e+02 2.918975276816622e+03
1.154301476969085e+03 3.314162021454967e+02 2.918975276816622e+03
1.154333689423818e+03 3.290639079133787e+02 2.918975276816622e+03
1.154358286221317e+03 3.272471137456278e+02 2.918975276816622e+03
1.154369473649032e+03 3.253757510661021e+02 2.918975276816622e+03
1.154374867364199e+03 3.229143198104341e+02 2.918975276816622e+03
1.154378368850444e+03 3.204927695673035e+02 2.918975276816622e+03
1.154378046763213e+03 3.177905603894104e+02 2.918975276816622e+03
1.154372901714176e+03 3.150239534155076e+02 2.918975276816622e+03
1.154368045105540e+03 3.125299892234014e+02 2.918975276816622e+03
1.154359341655377e+03 3.098494928026146e+02 2.918975276816622e+03
1.154339966331520e+03 3.067468122746384e+02 2.918975276816622e+03
1.154316946033153e+03 3.034249804986609e+02 2.918975276816622e+03
1.154296838094447e+03 3.007619049755452e+02 2.918975276816622e+03
1.154277206732230e+03 2.985281936012839e+02 2.918975276816622e+03
1.154255139586842e+03 2.960650901230162e+02 2.918975276816622e+03
1.154239662829073e+03 2.942937185101296e+02 2.918975276816622e+03
1.154220913191664e+03 2.923203900253986e+02 2.918975276816622e+03
1.154192300286996e+03 2.894533728034414e+02 2.918975276816622e+03
1.154173093439143e+03 2.879062199278879e+02 2.918975276816622e+03
1.154152970781273e+03 2.862790821298002e+02 2.918975276816622e+03
1.154122526256574e+03 2.832520950627743e+02 2.918975276816622e+03
1.154093641642148e+03 2.807795577257524e+02 2.918975276816622e+03
1.154071147793264e+03 2.783666388530075e+02 2.918975276816622e+03
1.154040997038533e+03 2.758915286896861e+02 2.918975276816622e+03
1.154017204177096e+03 2.729322703911092e+02 2.918975276816622e+03
1.153977894126711e+03 2.696479910462879e+02 2.918975276816622e+03
1.153941723882403e+03 2.663532073588811e+02 2.918975276816622e+03
1.153922824424446e+03 2.641137806658603e+02 2.918975276816622e+03
1.153917547275702e+03 2.622476861592747e+02 2.918975276816622e+03
1.153884388331674e+03 2.592889353927712e+02 2.918975276816622e+03
1.153866429634282e+03 2.570777997747028e+02 2.918975276816622e+03
1.153853929837775e+03 2.554442051146912e+02 2.918975276816622e+03
1.153844775534945e+03 2.538846791485477e+02 2.918975276816622e+03
1.153858069075315e+03 2.527828326704326e+02 2.918975276816622e+03
1.153846297492147e+03 2.514960171988976e+02 2.918975276816622e+03
1.153752001616041e+03 2.497165193682088e+02 2.918975276816622e+03
1.153758472644145e+03 2.486178656347753e+02 2.918975276816622e+03
1.153839471385333e+03 2.474199731101818e+02 2.918975276816622e+03
1.153779377411921e+03 2.460915972735206e+02 2.918975276816622e+03
1.153708445866785e+03 2.444790633007885e+02 2.918975276816622e+03
1.153791416426774e+03 2.425734341716071e+02 2.918975276816622e+03
1.153814553192291e+03 2.409816564461042e+02 2.918975276816622e+03
1.153743305866367e+03 2.391806391657649e+02 2.918975276816622e+03
1.153731106351018e+03 2.371232793068014e+02 2.918975276816622e+03
1.153736642701151e+03 2.345283406225807e+02 2.918975276816622e+03
1.153736404916768e+03 2.329790988698561e+02 2.918975276816622e+03
1.153752415533324e+03 2.313936749021932e+02 2.918975276816622e+03
1.153825441407098e+03 2.292778673910896e+02 2.918975276816622e+03
1.153820006138979e+03 2.275179631900364e+02 2.918975276816622e+03
1.153345314938969e+03 2.247774073423052e+02 2.918975276816622e+03
1.153368965230614e+03 2.223084279402943e+02 2.918975276816622e+03
1.153825632786027e+03 2.198144815691672e+02 2.918975276816622e+03
1.153795311696928e+03 2.169091076826255e+02 2.918975276816622e+03
1.153782986303959e+03 2.144127812072341e+02 2.918975276816622e+03
1.153770660910990e+03 2.119164547318427e+02 2.918975276816622e+03
1.153761369725824e+03 2.101273324557153e+02 2.918975276816622e+03
1.153757065833613e+03 2.080942730018113e+02 2.918975276816622e+03
1.153754715026555e+03 2.051100721708666e+02 2.918975276816622e+03
1.153749285081134e+03 2.022683535041656e+02 2.918975276816622e+03
1.153739309864455e+03 1.996077276399848e+02 2.918975276816622e+03
1.153727868514880e+03 1.969857124140804e+02 2.918975276816622e+03
1.153707055007767e+03 1.940526134108955e+02 2.918975276816622e+03
1.153721376379511e+03 1.924423886478908e+02 2.918975276816622e+03
1.153745348901618e+03 1.911933709837959e+02 2.918975276816622e+03
1.153728265857527e+03 1.887343081886464e+02 2.918975276816622e+03
1.153723413164042e+03 1.858542690005506e+02 2.918975276816622e+03
1.153731103044997e+03 1.830626662089438e+02 2.918975276816622e+03
1.153734957233685e+03 1.804665562026642e+02 2.918975276816622e+03
1.153740863186435e+03 1.774938204047798e+02 2.918975276816622e+03
1.153747679589156e+03 1.746710764058128e+02 2.918975276816622e+03
1.153755406441846e+03 1.719983242057632e+02 2.918975276816622e+03
1.153763133294536e+03 1.693255720057136e+02 2.918975276816622e+03
1.153770477164140e+03 1.671296686829032e+02 2.918975276816622e+03
1.153778690699804e+03 1.650734471599618e+02 2.918975276816622e+03
1.153788156884616e+03 1.626800585596503e+02 2.918975276816622e+03
1.153797623069427e+03 1.602866699593388e+02 2.918975276816622e+03
1.153809525430277e+03 1.583755411661294e+02 2.918975276816622e+03
1.153821077322173e+03 1.563486425602466e+02 2.918975276816622e+03
1.153829842569076e+03 1.537237143345880e+02 2.918975276816622e+03
1.153838607815980e+03 1.510987861089295e+02 2.918975276816622e+03
1.153844256721287e+03 1.491322725513529e+02 2.918975276816622e+03
1.153854062933097e+03 1.467430842716715e+02 2.918975276816622e+03
1.153849060860669e+03 1.433361426857293e+02 2.918975276816622e+03
1.153830610571689e+03 1.404866944617306e+02 2.918975276816622e+03
1.153825996541621e+03 1.390907284932245e+02 2.918975276816622e+03
1.153823066555670e+03 1.375967939950446e+02 2.918975276816622e+03
1.153808885801325e+03 1.348274137438707e+02 2.918975276816622e+03
1.153786972777590e+03 1.318398812468517e+02 2.918975276816622e+03
1.153768253229436e+03 1.292772142487914e+02 2.918975276816622e+03
1.153764506406167e+03 1.275508703692959e+02 2.918975276816622e+03
1.153769677534706e+03 1.263876485566527e+02 2.918975276816622e+03
1.153754028960633e+03 1.252340487100952e+02 2.918975276816622e+03
1.153745995346643e+03 1.231627143866287e+02 2.918975276816622e+03
1.153763535097851e+03 1.203156880674142e+02 2.918975276816622e+03
1.153738672688465e+03 1.175520064575687e+02 2.918975276816622e+03
1.153773088232302e+03 1.146973934901029e+02 2.918975276816622e+03
1.153755357702829e+03 1.121923966256572e+02 2.918975276816622e+03
1.153798447022401e+03 1.104081473989134e+02 2.918975276816622e+03
1.153889354900743e+03 1.083311994033223e+02 2.918975276816622e+03
1.153870476629575e+03 1.070028570918813e+02 2.918975276816622e+03
1.153893242083899e+03 1.057617774134898e+02 2.918975276816622e+03
1.154000100284649e+03 1.028490085552699e+02 2.918975276816622e+03
1.154063085746735e+03 1.002492149686157e+02 2.918975276816622e+03
1.154046698030039e+03 9.792285372397636e+01 2.918975276816622e+03
1.154094300222050e+03 9.503615765759818e+01 2.918975276816622e+03
1.154125959992505e+03 9.248036716187818e+01 2.918975276816622e+03
1.154181502016960e+03 8.950448435398728e+01 2.918975276816622e+03
1.154233591550680e+03 8.675989861181500e+01 2.918975276816622e+03
1.154275922571060e+03 8.430219725383722e+01 2.918975276816622e+03
1.154336712608577e+03 8.130942469883335e+01 2.918975276816622e+03
1.154378328892256e+03 7.908285221355654e+01 2.918975276816622e+03
1.154421590010494e+03 7.694447371685449e+01 2.918975276816622e+03
1.154470610081314e+03 7.428842850632735e+01 2.918975276816622e+03
1.154519630152133e+03 7.163238329580022e+01 2.918975276816622e+03
1.154568650222953e+03 6.897633808527308e+01 2.918975276816622e+03
1.154620025915910e+03 6.685100559557380e+01 2.918975276816622e+03
1.154662632705332e+03 6.422079500756863e+01 2.918975276816622e+03
1.154727067160593e+03 6.077845755908290e+01 2.918975276816622e+03
1.154753318188642e+03 5.718403973986381e+01 2.918975276816622e+03
1.154752601934000e+03 5.474159612490549e+01 2.918975276816622e+03
1.154744452198772e+03 5.290198825384627e+01 2.918975276816622e+03
1.154748475407622e+03 5.075580943296729e+01 2.918975276816622e+03
1.154779724655874e+03 4.865023189920279e+01 2.918975276816622e+03
1.154774425182831e+03 4.596714381262429e+01 2.918975276816622e+03
1.154807696658791e+03 4.377047040784009e+01 2.918975276816622e+03
1.154793888755105e+03 4.248229805228011e+01 2.918975276816622e+03
1.154807113054321e+03 4.136755485427828e+01 2.918975276816622e+03
1.154820558500815e+03 3.988160038054158e+01 2.918975276816622e+03
1.154809104750675e+03 3.733098592867306e+01 2.918975276816622e+03
1.154810451122823e+03 3.486674292660172e+01 2.918975276816622e+03
1.154795372883336e+03 3.306730374186825e+01 2.918975276816622e+03
1.154790706654899e+03 3.109218310483514e+01 2.918975276816622e+03
1.154774809154433e+03 2.934461163474378e+01 2.918975276816622e+03
1.154772963787363e+03 2.697524849048671e+01 2.918975276816622e+03
1.154765581260724e+03 2.388485234358970e+01 2.918975276816622e+03
1.154775303611750e+03 2.073477194273189e+01 2.918975276816622e+03
1.154785025962776e+03 1.758469154187408e+01 2.918975276816622e+03
1.154811972499488e+03 1.524177322331237e+01 2.918975276816622e+03
1.154785458240333e+03 1.398126765463087e+01 2.918975276816622e+03
1.154765246657196e+03 1.253907572868410e+01 2.918975276816622e+03
1.154740004463249e+03 1.091468421938402e+01 2.918975276816622e+03
1.154666611903721e+03 9.041261485357902e+00 2.918975276816622e+03
1.154627087246989e+03 6.644070085109654e+00 2.918975276816622e+03
1.154602550601959e+03 4.898231640512737e+00 2.918975276816622e+03
1.154586045133408e+03 3.408546275050179e+00 2.918975276816622e+03
1.154559243827367e+03 1.670483231398846e+00 2.918975276816622e+03

CELLS 1340 5523
3 6 1352 7
3 6 1353 356
3 7 1354 8
3 8 1355 9
3 9 1356 10
3 10 1357 11
3 11 1358 12
3 12 1359 13
3 13 1360 14
3 14 1361 15
3 15 1362 16
3 16 1363 17
3 17 1364 18
3 18 1365 19
4 19 1366 1367 20
3 20 1368 21
3 21 1369 22
4 22 1370 1371 23
3 23 1372 24
4 24 1373 1374 25
4 25 1375 1376 26
3 26 1377 27
3 27 1378 28
3 28 1379 29
3 29 1380 30
3 30 1381 31
3 31 1382 32
3 32 1383 33
3 33 1384 34
3 34 1385 35
3 35 1386 36
3 36 1387 37
3 37 1388 38
3 38 1389 39
3 39 1390 40
3 40 1391 41
3 41 1392 42
3 42 1393 43
3 43 1394 44
3 44 1395 45
3 45 1396 46
3 46 1397 47
3 47 1398 48
3 48 1399 49
3 49 1400 50
3 50 1401 51
3 51 1402 52
3 52 1403 53
3 53 1404 54
3 54 1405 55
3 55 1406 56
3 56 1407 57
3 57 1408 58
3 58 1409 59
3 59 1410 60
3 60 1411 61
3 61 1412 62
3 62 1413 63
3 63 1414 64
3 64 1415 65
3 65 1416 66
3 66 1417 67
3 67 1418 68
4 68 1419 1420 69
3 69 1421 70
3 70 1422 71
3 71 1423 72
3 72 1424 73
3 73 1425 74
3 74 1426 75
3 75 1427 76
3 76 1428 77
3 77 1429 78
3 78 1430 79
3 79 1431 80
3 80 1432 81
3 81 1433 82
3 82 1434 83
3 83 1435 84
3 84 1436 85
4 85 1437 1438 86
3 86 1439 87
3 87 1440 88
3 88 1441 89
5 89 1442 1443 1444 90
3 90 1445 91
3 91 1446 92
3 92 1447 93
3 93 1448 94
3 94 1449 95
3 95 1450 96
4 96 1451 1452 97
3 97 1453 98
3 98 1454 99
3 99 1455 100
3 100 1456 101
3 101 1457 102
3 102 1458 103
3 103 1459 104
3 104 1460 105
3 105 1461 106
3 106 1462 107
3 107 1463 108
3 108 1464 109
3 109 1465 110
3 110 1466 111
3 111 1467 112
3 112 1468 113
3 113 1469 114
3 114 1470 115
3 115 1471 116
3 116 1472 117
4 117 1473 1474 118
3 118 1475 119
3 119 1476 120
3 120 1477 121
3 121 1478 122
3 122 1479 123
3 123 1480 124
3 124 1481 125
3 125 1482 126
3 126 1483 127
3 127 1484 128
3 128 1485 129
3 129 1486 130
3 130 1487 131
3 131 1488 132
3 132 1489 133
3 133 1490 134
3 134 1491 135
3 135 1492 136
3 136 1493 137
3 137 1494 138
3 138 1495 139
3 139 1496 140
3 140 1497 141
4 141 1498 1499 142
3 142 1500 143
3 143 1501 144
3 144 1502 145
3 145 1503 146
3 146 1504 147
3 147 1505 148
3 148 1506 149
5 149 1507 1508 1509 150
3 150 1510 151
3 151 1511 152
3 152 1512 153
3 153 1513 154
3 154 1514 155
3 155 1515 156
3 156 1516 157
3 157 1517 158
4 158 1518 1519 159
3 159 1520 160
3 160 1521 161
3 161 1522 162
3 162 1523 163
3 163 1524 164
3 164 1525 165
4 165 1526 1527 166
3 166 1528 167
3 167 1529 168
4 168 1530 1531 169
3 169 1532 170
3 170 1533 171
3 171 1534 172
5 172 1535 1536 1537 173
3 173 1538 174
3 174 1539 175
3 175 1540 176
3 176 1541 177
3 177 1542 178
3 178 1543 179
3 179 1544 180
3 180 1545 181
3 181 1546 182
3 182 1547 1344
4 183 1548 1549 184
3 183 1550 1345
3 184 1551 185
3 185 1552 186
3 186 1553 187
4 187 1554 1555 188
5 188 1556 1557 1558 189
3 189 1559 190
3 190 1560 191
3 191 1561 192
3 192 1562 193
3 193 1563 194
3 194 1564 195
3 195 1565 196
3 196 1566 197
3 197 1567 198
3 198 1568 199
5 199 1569 1570 1571 200
3 200 1572 201
3 201 1573 202
3 202 1574 203
3 203 1575 204
3 204 1576 205
3 205 1577 206
3 206 1578 207
3 207 1579 208
3 208 1580 209
3 209 1581 210
3 210 1582 211
3 211 1583 212
3 212 1584 213
5 213 1585 1586 1587 214
4 214 1588 1589 215
3 215 1590 216
3 216 1591 217
3 217 1592 218
3 218 1593 219
3 219 1594 220
3 220 1595 221
3 221 1596 222
3 222 1597 223
3 223 1598 224
3 224 1599 225
3 225 1600 226
3 226 1601 227
3 227 1602 228
3 228 1603 229
3 229 1604 230
3 230 1605 231
3 231 1606 232
3 232 1607 233
3 233 1608 234
4 234 1609 1610 235
3 235 1611 236
3 236 1612 237
3 237 1613 238
3 238 1614 239
3 239 1615 240
3 240 1616 241
3 241 1617 242
3 242 1618 243
3 243 1619 244
3 244 1620 245
3 245 1621 246
3 246 1622 247
3 247 1623 248
4 248 1624 1625 249
3 249 1626 250
3 250 1627 251
3 251 1628 252
3 252 1629 253
3 253 1630 254
3 254 1631 255
3 255 1632 256
3 256 1633 257
3 257 1634 258
3 258 1635 259
3 259 1636 260
4 260 1637 1638 261
3 261 1639 262
3 262 1640 263
3 263 1641 264
3 264 1642 265
3 265 1643 266
3 266 1644 267
3 267 1645 268
3 268 1646 269
3 269 1647 270
3 270 1648 271
3 271 1649 272
3 272 1650 273
3 273 1651 274
3 274 1652 275
3 275 1653 276
3 276 1654 277
3 277 1655 278
3 278 1656 279
3 279 1657 280
3 280 1658 281
3 281 1659 282
3 282 1660 283
3 283 1661 284
4 284 1662 1663 285
3 285 1664 286
3 286 1665 287
3 287 1666 288
3 288 1667 289
3 289 1668 290
3 290 1669 291
3 291 1670 292
3 292 1671 293
3 293 1672 294
3 294 1673 295
3 295 1674 296
3 296 1675 297
3 297 1676 298
3 298 1677 299
3 299 1678 300
3 300 1679 301
3 301 1680 302
3 302 1681 303
4 303 1682 1683 304
3 304 1684 305
3 305 1685 306
3 306 1686 307
3 307 1687 308
3 308 1688 309
3 309 1689 310
3 310 1690 311
3 311 1691 312
3 312 1692 313
3 313 1693 314
3 314 1694 315
3 315 1695 316
3 316 1696 317
3 317 1697 318
3 318 1698 319
3 319 1699 320
3 320 1700 321
3 321 1701 322
3 322 1702 323
3 323 1703 324
3 324 1704 325
3 325 1705 326
3 326 1706 327
3 327 1707 328
3 328 1708 329
3 329 1709 330
3 330 1710 331
3 331 1711 332
3 332 1712 333
3 333 1713 334
4 334 1714 1715 335
3 335 1716 336
3 336 1717 337
3 337 1718 338
3 338 1719 339
3 339 1720 340
3 340 1721 341
3 341 1722 342
3 342 1723 343
3 343 1724 344
3 344 1725 345
3 345 1726 346
4 346 1727 1728 347
3 347 1729 348
3 348 1730 349
3 349 1731 350
3 350 1732 351
3 351 1733 352
3 352 1734 353
4 353 1735 1736 354
3 354 1737 355
3 355 1738 356
3 358 1739 359
3 358 1740 682
3 359 1741 360
3 360 1742 361
3 361 1743 362
3 362 1744 363
3 363 1745 364
3 364 1746 365
3 365 1747 366
4 366 1748 1749 367
3 367 1750 368
3 368 1751 369
3 369 1752 370
3 370 1753 371
3 371 1754 372
3 372 1755 373
3 373 1756 374
4 374 1757 1758 375
3 375 1759 376
3 376 1760 377
3 377 1761 378
3 378 1762 379
3 379 1763 380
3 380 1764 381
3 381 1765 382
3 382 1766 383
3 383 1767 384
3 384 1768 385
3 385 1769 386
3 386 1770 387
3 387 1771 388
3 388 1772 389
3 389 1773 390
3 390 1774 391
3 391 1775 392
4 392 1776 1777 393
3 393 1778 394
3 394 1779 395
3 395 1780 396
3 396 1781 397
3 397 1782 398
3 398 1783 399
3 399 1784 400
3 400 1785 401
3 401 1786 402
4 402 1787 1788 403
3 403 1789 404
3 404 1790 405
3 405 1791 406
3 406 1792 407
3 407 1793 408
3 408 1794 409
3 409 1795 410
3 410 1796 411
3 411 1797 412
3 412 1798 413
3 413 1799 414
4 414 1800 1801 415
4 415 1802 1803 416
3 416 1804 417
4 417 1805 1806 418
3 418 1807 419
3 419 1808 420
4 420 1809 1810 421
3 421 1811 422
3 422 1812 423
3 423 1813 424
3 424 1814 425
3 425 1815 426
3 426 1816 427
3 427 1817 428
4 428 1818 1819 429
3 429 1820 430
3 430 1821 431
3 431 1822 432
3 432 1823 433
3 433 1824 434
3 434 1825 435
3 435 1826 436
3 436 1827 437
3 437 1828 438
4 438 1829 1830 439
3 439 1831 440
3 440 1832 441
3 441 1833 442
4 442 1834 1835 443
3 443 1836 444
3 444 1837 445
3 445 1838 446
4 446 1839 1840 447
3 447 1841 448
3 448 1842 449
3 449 1843 450
3 450 1844 451
3 451 1845 452
4 452 1846 1847 453
3 453 1848 454
3 454 1849 455
4 455 1850 1851 456
3 456 1852 457
3 457 1853 458
3 458 1854 459
3 459 1855 460
3 460 1856 461
3 461 1857 462
3 462 1858 463
3 463 1859 464
3 464 1860 465
3 465 1861 466
3 466 1862 467
4 467 1863 1864 468
4 468 1865 1866 469
4 469 1867 1868 470
3 470 1869 471
3 471 1870 472
3 472 1871 473
3 473 1872 474
3 474 1873 475
3 475 1874 476
4 476 1875 1876 477
3 477 1877 478
3 478 1878 479
3 479 1879 480
3 480 1880 481
3 481 1881 482
3 482 1882 483
3 483 1883 484
3 484 1884 485
3 485 1885 486
4 486 1886 1887 487
3 487 1888 488
3 488 1889 489
3 489 1890 490
3 490 1891 491
3 491 1892 492
3 492 1893 493
3 493 1894 494
3 494 1895 495
3 495 1896 496
3 496 1897 497
3 497 1898 498
3 498 1899 499
3 499 1900 500
3 500 1901 501
3 501 1902 502
3 502 1903 503
3 503 1904 504
3 504 1905 505
3 505 1906 506
3 506 1907 507
3 507 1908 508
3 508 1909 509
3 509 1910 510
3 510 1911 511
3 511 1912 512
4 512 1913 1914 513
3 513 1915 514
3 514 1916 515
3 515 1917 516
3 516 1918 517
3 517 1919 518
4 518 1920 1921 519
3 519 1922 520
3 520 1923 1346
3 521 1924 522
3 521 1925 1347
3 522 1926 523
3 523 1927 524
3 524 1928 525
3 525 1929 526
3 526 1930 527
3 527 1931 528
3 528 1932 529
3 529 1933 530
3 530 1934 531
3 531 1935 532
3 532 1936 533
3 533 1937 534
3 534 1938 535
3 535 1939 536
3 536 1940 537
3 537 1941 538
3 538 1942 539
3 539 1943 540
3 540 1944 541
3 541 1945 542
3 542 1946 543
3 543 1947 544
3 544 1948 545
3 545 1949 546
3 546 1950 547
4 547 1951 1952 548
3 548 1953 549
3 549 1954 550
3 550 1955 551
3 551 1956 552
3 552 1957 553
3 553 1958 554
3 554 1959 555
3 555 1960 556
3 556 1961 557
3 557 1962 558
3 558 1963 559
4 559 1964 1965 560
3 560 1966 561
3 561 1967 562
3 562 1968 563
3 563 1969 564
3 564 1970 565
3 565 1971 566
4 566 1972 1973 567
3 567 1974 568
3 568 1975 569
3 569 1976 570
3 570 1977 571
3 571 1978 572
3 572 1979 573
4 573 1980 1981 574
3 574 1982 575
3 575 1983 576
3 576 1984 577
3 577 1985 578
4 578 1986 1987 579
3 579 1988 580
3 580 1989 581
3 581 1990 582
3 582 1991 583
3 583 1992 584
3 584 1993 585
3 585 1994 586
5 586 1995 1996 1997 587
3 587 1998 588
3 588 1999 589
3 589 2000 590
3 590 2001 591
3 591 2002 592
3 592 2003 593
3 593 2004 594
3 594 2005 595
4 595 2006 2007 596
3 596 2008 597
3 597 2009 598
3 598 2010 599
3 599 2011 600
3 600 2012 601
3 601 2013 602
3 602 2014 603
3 603 2015 604
3 604 2016 605
3 605 2017 606
3 606 2018 607
4 607 2019 2020 608
3 608 2021 609
4 609 2022 2023 610
3 610 2024 611
3 611 2025 612
3 612 2026 613
3 613 2027 614
4 614 2028 2029 615
3 615 2030 616
3 616 2031 617
3 617 2032 618
3 618 2033 619
3 619 2034 620
5 620 2035 2036 2037 621
3 621 2038 622
3 622 2039 623
3 623 2040 624
3 624 2041 625
3 625 2042 626
3 626 2043 627
3 627 2044 628
4 628 2045 2046 629
3 629 2047 630
3 630 2048 631
3 631 2049 632
3 632 2050 633
3 633 2051 634
3 634 2052 635
3 635 2053 636
3 636 2054 637
3 637 2055 638
3 638 2056 639
3 639 2057 640
4 640 2058 2059 641
3 641 2060 642
3 642 2061 643
3 643 2062 644
3 644 2063 645
3 645 2064 646
3 646 2065 647
3 647 2066 648
4 648 2067 2068 649
3 649 2069 650
6 650 2070 2071 2072 2073 651
3 651 2074 652
4 652 2075 2076 653
4 653 2077 2078 654
4 654 2079 2080 655
3 655 2081 656
4 656 2082 2083 657
3 657 2084 658
3 658 2085 659
3 659 2086 660
3 660 2087 661
3 661 2088 662
3 662 2089 663
3 663 2090 664
3 664 2091 665
3 665 2092 666
3 666 2093 667
3 667 2094 668
3 668 2095 669
3 669 2096 670
3 670 2097 671
4 671 2098 2099 672
3 672 2100 673
3 673 2101 674
3 674 2102 675
3 675 2103 676
4 676 2104 2105 677
3 677 2106 678
3 678 2107 679
3 679 2108 680
3 680 2109 681
3 681 2110 682
4 683 2111 2112 684
4 683 2113 2114 1048
4 684 2115 2116 685
3 685 2117 686
3 686 2118 687
3 687 2119 688
4 688 2120 2121 689
3 689 2122 690
3 690 2123 691
3 691 2124 692
4 692 2125 2126 693
3 693 2127 694
3 694 2128 695
3 695 2129 696
3 696 2130 697
3 697 2131 698
3 698 2132 699
3 699 2133 700
3 700 2134 701
3 701 2135 702
3 702 2136 703
3 703 2137 704
3 704 2138 705
3 705 2139 706
3 706 2140 707
3 707 2141 708
3 708 2142 709
3 709 2143 710
3 710 2144 711
3 711 2145 712
3 712 2146 713
3 713 2147 714
3 714 2148 715
3 715 2149 716
3 716 2150 717
3 717 2151 718
3 718 2152 719
3 719 2153 720
3 720 2154 721
3 721 2155 722
3 722 2156 723
3 723 2157 724
3 724 2158 725
3 725 2159 726
3 726 2160 727
3 727 2161 728
3 728 2162 729
3 729 2163 730
3 730 2164 731
3 731 2165 732
3 732 2166 733
3 733 2167 734
3 734 2168 735
3 735 2169 736
3 736 2170 737
3 737 2171 738
3 738 2172 739
3 739 2173 740
3 740 2174 741
3 741 2175 742
3 742 2176 743
3 743 2177 744
4 744 2178 2179 745
3 745 2180 746
3 746 2181 747
3 747 2182 748
3 748 2183 749
3 749 2184 750
3 750 2185 751
3 751 2186 752
3 752 2187 753
3 753 2188 754
3 754 2189 755
3 755 2190 756
3 756 2191 757
3 757 2192 758
3 758 2193 759
3 759 2194 760
3 760 2195 761
3 761 2196 762
3 762 2197 763
3 763 2198 764
3 764 2199 765
3 765 2200 766
3 766 2201 767
3 767 2202 768
3 768 2203 769
3 769 2204 770
3 770 2205 771
3 771 2206 772
3 772 2207 773
3 773 2208 774
3 774 2209 775
3 775 2210 776
3 776 2211 777
3 777 2212 778
4 778 2213 2214 779
3 779 2215 780
3 780 2216 781
3 781 2217 782
3 782 2218 783
3 783 2219 784
3 784 2220 785
3 785 2221 786
3 786 2222 787
3 787 2223 788
3 788 2224 789
3 789 2225 790
3 790 2226 791
3 791 2227 792
3 792 2228 793
3 793 2229 794
5 794 2230 2231 2232 795
3 795 2233 796
3 796 2234 797
3 797 2235 798
3 798 2236 799
3 799 2237 800
6 800 2238 2239 2240 2241 801
3 801 2242 802
3 802 2243 803
3 803 2244 804
3 804 2245 805
3 805 2246 806
3 806 2247 807
3 807 2248 808
3 808 2249 809
4 809 2250 2251 810
3 810 2252 811
3 811 2253 812
3 812 2254 813
3 813 2255 814
3 814 2256 815
3 815 2257 816
3 816 2258 817
3 817 2259 818
3 818 2260 819
3 819 2261 820
3 820 2262 821
3 821 2263 822
3 822 2264 823
3 823 2265 824
4 824 2266 2267 825
3 825 2268 826
3 826 2269 827
3 827 2270 828
3 828 2271 829
3 829 2272 830
4 830 2273 2274 831
3 831 2275 832
3 832 2276 833
3 833 2277 834
3 834 2278 835
3 835 2279 836
3 836 2280 837
3 837 2281 838
3 838 2282 839
3 839 2283 840
3 840 2284 841
3 841 2285 842
3 842 2286 843
3 843 2287 844
3 844 2288 845
3 845 2289 846
3 846 2290 847
3 847 2291 848
3 848 2292 849
4 849 2293 2294 850
3 850 2295 851
4 851 2296 2297 852
3 852 2298 853
3 853 2299 854
3 854 2300 855
3 855 2301 856
3 856 2302 857
3 857 2303 858
3 858 2304 859
3 859 2305 860
3 860 2306 861
3 861 2307 862
3 862 2308 863
3 863 2309 864
3 864 2310 865
3 865 2311 866
3 866 2312 867
3 867 2313 1348
3 868 2314 869
3 868 2315 1349
3 869 2316 870
3 870 2317 871
3 871 2318 872
3 872 2319 873
3 873 2320 874
4 874 2321 2322 875
3 875 2323 876
3 876 2324 877
3 877 2325 878
3 878 2326 879
4 879 2327 2328 880
3 880 2329 881
4 881 2330 2331 882
3 882 2332 883
5 883 2333 2334 2335 884
3 884 2336 885
3 885 2337 886
3 886 2338 887
3 887 2339 888
3 888 2340 889
4 889 2341 2342 890
3 890 2343 891
3 891 2344 892
4 892 2345 2346 893
3 893 2347 894
4 894 2348 2349 895
3 895 2350 896
3 896 2351 897
3 897 2352 898
3 898 2353 899
3 899 2354 900
3 900 2355 901
3 901 2356 902
3 902 2357 903
3 903 2358 904
3 904 2359 905
3 905 2360 906
3 906 2361 907
3 907 2362 908
3 908 2363 909
3 909 2364 910
3 910 2365 911
3 911 2366 912
3 912 2367 913
3 913 2368 914
3 914 2369 915
3 915 2370 916
3 916 2371 917
3 917 2372 918
3 918 2373 919
3 919 2374 920
3 920 2375 921
3 921 2376 922
3 922 2377 923
3 923 2378 924
3 924 2379 925
3 925 2380 926
3 926 2381 927
3 927 2382 928
3 928 2383 929
3 929 2384 930
3 930 2385 931
3 931 2386 932
3 932 2387 933
3 933 2388 934
3 934 2389 935
3 935 2390 936
3 936 2391 937
3 937 2392 938
3 938 2393 939
3 939 2394 940
3 940 2395 941
3 941 2396 942
3 942 2397 943
3 943 2398 944
3 944 2399 945
3 945 2400 946
3 946 2401 947
3 947 2402 948
3 948 2403 949
3 949 2404 950
3 950 2405 951
3 951 2406 952
3 952 2407 953
3 953 2408 954
4 954 2409 2410 955
3 955 2411 956
3 956 2412 957
3 957 2413 958
3 958 2414 959
3 959 2415 960
3 960 2416 961
3 961 2417 962
3 962 2418 963
3 963 2419 964
3 964 2420 965
3 965 2421 966
3 966 2422 967
3 967 2423 968
3 968 2424 969
3 969 2425 970
3 970 2426 971
3 971 2427 972
3 972 2428 973
3 973 2429 974
3 974 2430 975
3 975 2431 976
3 976 2432 977
3 977 2433 978
3 978 2434 979
3 979 2435 980
3 980 2436 981
3 981 2437 982
3 982 2438 983
3 983 2439 984
3 984 2440 985
3 985 2441 986
3 986 2442 987
3 987 2443 988
3 988 2444 989
3 989 2445 990
3 990 2446 991
3 991 2447 992
3 992 2448 993
3 993 2449 994
3 994 2450 995
3 995 2451 996
3 996 2452 997
3 997 2453 998
3 998 2454 999
3 999 2455 1000
3 1000 2456 1001
3 1001 2457 1002
3 1002 2458 1003
3 1003 2459 1004
3 1004 2460 1005
3 1005 2461 1006
3 1006 2462 1007
3 1007 2463 1008
3 1008 2464 1009
3 1009 2465 1010
3 1010 2466 1011
3 1011 2467 1012
3 1012 2468 1013
3 1013 2469 1014
3 1014 2470 1015
3 1015 2471 1016
3 1016 2472 1017
3 1017 2473 1018
3 1018 2474 1019
3 1019 2475 1020
4 1020 2476 2477 1021
3 1021 2478 1022
3 1022 2479 1023
3 1023 2480 1024
3 1024 2481 1025
3 1025 2482 1026
4 1026 2483 2484 1027
3 1027 2485 1028
3 1028 2486 1029
3 1029 2487 1030
3 1030 2488 1031
3 1031 2489 1032
3 1032 2490 1033
3 1033 2491 1034
3 1034 2492 1035
3 1035 2493 1036
3 1036 2494 1037
3 1037 2495 1038
4 1038 2496 2497 1039
3 1039 2498 1040
4 1040 2499 2500 1041
4 1041 2501 2502 1042
3 1042 2503 1043
3 1043 2504 1044
3 1044 2505 1045
3 1045 2506 1046
3 1046 2507 1047
4 1047 2508 2509 1048
3 1050 2510 1051
3 1050 2511 1343
3 1051 2512 1052
4 1052 2513 2514 1053
5 1053 2515 2516 2517 1054
4 1054 2518 2519 1055
4 1055 2520 2521 1056
3 1056 2522 1057
3 1057 2523 1058
4 1058 2524 2525 1059
3 1059 2526 1060
4 1060 2527 2528 1061
3 1061 2529 1062
3 1062 2530 1063
3 1063 2531 1064
3 1064 2532 1065
3 1065 2533 1066
3 1066 2534 1067
3 1067 2535 1068
3 1068 2536 1069
3 1069 2537 1070
3 1070 2538 1071
3 1071 2539 1072
3 1072 2540 1073
3 1073 2541 1074
3 1074 2542 1075
3 1075 2543 1076
3 1076 2544 1077
3 1077 2545 1078
3 1078 2546 1079
3 1079 2547 1080
3 1080 2548 1081
3 1081 2549 1082
3 1082 2550 1083
3 1083 2551 1084
3 1084 2552 1085
3 1085 2553 1086
3 1086 2554 1087
3 1087 2555 1088
3 1088 2556 1089
3 1089 2557 1090
3 1090 2558 1091
3 1091 2559 1092
3 1092 2560 1093
3 1093 2561 1094
3 1094 2562 1095
3 1095 2563 1096
3 1096 2564 1097
3 1097 2565 1098
4 1098 2566 2567 1099
3 1099 2568 1100
3 1100 2569 1101
3 1101 2570 1102
5 1102 2571 2572 2573 1103
3 1103 2574 1104
3 1104 2575 1105
3 1105 2576 1106
3 1106 2577 1107
3 1107 2578 1108
3 1108 2579 1109
3 1109 2580 1110
3 1110 2581 1111
3 1111 2582 1112
3 1112 2583 1113
3 1113 2584 1114
3 1114 2585 1115
3 1115 2586 1116
3 1116 2587 1117
3 1117 2588 1118
3 1118 2589 1119
3 1119 2590 1120
3 1120 2591 1121
3 1121 2592 1122
3 1122 2593 1123
3 1123 2594 1124
3 1124 2595 1125
3 1125 2596 1126
3 1126 2597 1127
3 1127 2598 1128
5 1128 2599 2600 2601 1129
3 1129 2602 1130
4 1130 2603 2604 1131
3 1131 2605 1132
3 1132 2606 1133
3 1133 2607 1134
3 1134 2608 1135
3 1135 2609 1136
3 1136 2610 1137
3 1137 2611 1138
3 1138 2612 1139
4 1139 2613 2614 1140
3 1140 2615 1141
3 1141 2616 1142
3 1142 2617 1143
4 1143 2618 2619 1144
3 1144 2620 1145
3 1145 2621 1146
3 1146 2622 1147
3 1147 2623 1148
4 1148 2624 2625 1149
3 1149 2626 1150
3 1150 2627 1151
3 1151 2628 1152
3 1152 2629 1153
3 1153 2630 1154
3 1154 2631 1155
3 1155 2632 1156
3 1156 2633 1157
3 1157 2634 1158
4 1158 2635 2636 1159
3 1159 2637 1160
3 1160 2638 1161
3 1161 2639 1162
3 1162 2640 1163
3 1163 2641 1164
4 1164 2642 2643 1165
3 1165 2644 1166
3 1166 2645 1167
3 1167 2646 1168
3 1168 2647 1169
3 1169 2648 1170
3 1170 2649 1171
3 1171 2650 1172
3 1172 2651 1173
3 1173 2652 1174
3 1174 2653 1175
4 1175 2654 2655 1176
3 1176 2656 1177
3 1177 2657 1178
3 1178 2658 1179
3 1179 2659 1180
3 1180 2660 1181
3 1181 2661 1182
3 1182 2662 1183
3 1183 2663 1184
3 1184 2664 1185
3 1185 2665 1186
3 1186 2666 1187
3 1187 2667 1188
3 1188 2668 1189
3 1189 2669 1190
3 1190 2670 1191
3 1191 2671 1192
3 1192 2672 1193
3 1193 2673 1194
3 1194 2674 1195
3 1195 2675 1196
3 1196 2676 1197
4 1197 2677 2678 1198
3 1198 2679 1199
3 1199 2680 1200
3 1200 2681 1350
3 1201 2682 1202
3 1201 2683 1351
3 1202 2684 1203
3 1203 2685 1204
4 1204 2686 2687 1205
3 1205 2688 1206
3 1206 2689 1207
3 1207 2690 1208
3 1208 2691 1209
3 1209 2692 1210
3 1210 2693 1211
3 1211 2694 1212
3 1212 2695 1213
3 1213 2696 1214
3 1214 2697 1215
3 1215 2698 1216
3 1216 2699 1217
3 1217 2700 1218
4 1218 2701 2702 1219
3 1219 2703 1220
3 1220 2704 1221
3 1221 2705 1222
4 1222 2706 2707 1223
3 1223 2708 1224
4 1224 2709 2710 1225
3 1225 2711 1226
4 1226 2712 2713 1227
3 1227 2714 1228
3 1228 2715 1229
3 1229 2716 1230
3 1230 2717 1231
3 1231 2718 1232
4 1232 2719 2720 1233
3 1233 2721 1234
4 1234 2722 2723 1235
3 1235 2724 1236
4 1236 2725 2726 1237
3 1237 2727 1238
4 1238 2728 2729 1239
3 1239 2730 1240
3 1240 2731 1241
3 1241 2732 1242
3 1242 2733 1243
3 1243 2734 1244
3 1244 2735 1245
3 1245 2736 1246
3 1246 2737 1247
3 1247 2738 1248
3 1248 2739 1249
3 1249 2740 1250
3 1250 2741 1251
3 1251 2742 1252
3 1252 2743 1253
3 1253 2744 1254
3 1254 2745 1255
3 1255 2746 1256
3 1256 2747 1257
3 1257 2748 1258
3 1258 2749 1259
3 1259 2750 1260
3 1260 2751 1261
3 1261 2752 1262
3 1262 2753 1263
3 1263 2754 1264
3 1264 2755 1265
3 1265 2756 1266
3 1266 2757 1267
3 1267 2758 1268
3 1268 2759 1269
3 1269 2760 1270
5 1270 2761 2762 2763 1271
3 1271 2764 1272
4 1272 2765 2766 1273
3 1273 2767 1274
4 1274 2768 2769 1275
3 1275 2770 1276
3 1276 2771 1277
3 1277 2772 1278
3 1278 2773 1279
3 1279 2774 1280
3 1280 2775 1281
4 1281 2776 2777 1282
5 1282 2778 2779 2780 1283
3 1283 2781 1284
5 1284 2782 2783 2784 1285
3 1285 2785 1286
5 1286 2786 2787 2788 1287
3 1287 2789 1288
3 1288 2790 1289
3 1289 2791 1290
3 1290 2792 1291
3 1291 2793 1292
3 1292 2794 1293
4 1293 2795 2796 1294
3 1294 2797 1295
3 1295 2798 1296
3 1296 2799 1297
3 1297 2800 1298
4 1298 2801 2802 1299
3 1299 2803 1300
3 1300 2804 1301
3 1301 2805 1302
3 1302 2806 1303
3 1303 2807 1304
3 1304 2808 1305
3 1305 2809 1306
3 1306 2810 1307
3 1307 2811 1308
4 1308 2812 2813 1309
3 1309 2814 1310
3 1310 2815 1311
3 1311 2816 1312
3 1312 2817 1313
3 1313 2818 1314
3 1314 2819 1315
6 1315 2820 2821 2822 2823 1316
3 1316 2824 1317
3 1317 2825 1318
3 1318 2826 1319
3 1319 2827 1320
3 1320 2828 1321
3 1321 2829 1322
3 1322 2830 1323
4 1323 2831 2832 1324
3 1324 2833 1325
3 1325 2834 1326
3 1326 2835 1327
3 1327 2836 1328
3 1328 2837 1329
3 1329 2838 1330
3 1330 2839 1331
3 1331 2840 1332
3 1332 2841 1333
3 1333 2842 1334
5 1334 2843 2844 2845 1335
3 1335 2846 1336
3 1336 2847 1337
3 1337 2848 1338
3 1338 2849 1339
4 1339 2850 2851 1340
3 1340 2852 1341
3 1341 2853 1342
3 1342 2854 1343

CELL_TYPES 1340
4
4
4
4
4
4
4
4
4
4
4
4
4
4
4
4
4
4
4
4
4
4
4
4
4
4
4
4
4
4
4
4
4
4
4
4
4
4
4
4
4
4
4
4
4
4
4
4
4
4
4
4
4
4
4
4
4
4
4
4
4
4
4
4
4
4
4
4
4
4
4
4
4
4
4
4
4
4
4
4
4
4
4
4
4
4
4
4
4
4
4
4
4
4
4
4
4
4
4
4
4
4
4
4
4
4
4
4
4
4
4
4
4
4
4
4
4
4
4
4
4
4
4
4
4
4
4
4
4
4
4
4
4
4
4
4
4
4
4
4
4
4
4
4
4
4
4
4
4
4
4
4
4
4
4
4
4
4
4
4
4
4
4
4
4
4
4
4
4
4
4
4
4
4
4
4
4
4
4
4
4
4
4
4
4
4
4
4
4
4
4
4
4
4
4
4
4
4
4
4
4
4
4
4
4
4
4
4
4
4
4
4
4
4
4
4
4
4
4
4
4
4
4
4
4
4
4
4
4
4
4
4
4
4
4
4
4
4
4
4
4
4
4
4
4
4
4
4
4
4
4
4
4
4
4
4
4
4
4
4
4
4
4
4
4
4
4
4
4
4
4
4
4
4
4
4
4
4
4
4
4
4
4
4
4
4
4
4
4
4
4
4
4
4
4
4
4
4
4
4
4
4
4
4
4
4
4
4
4
4
4
4
4
4
4
4
4
4
4
4
4
4
4
4
4
4
4
4
4
4
4
4
4
4
4
4
4
4
4
4
4
4
4
4
4
4
4
4
4
4
4
4
4
4
4
4
4
4
4
4
4
4
4
4
4
4
4
4
4
4
4
4
4
4
4
4
4
4
4
4
4
4
4
4
4
4
4
4
4
4
4
4
4
4
4
4
4
4
4
4
4
4
4
4
4
4
4
4
4
4
4
4
4
4
4
4
4
4
4
4
4
4
4
4
4
4
4
4
4
4
4
4
4
4
4
4
4
4
4
4
4
4
4
4
4
4
4
4
4
4
4
4
4
4
4
4
4
4
4
4
4
4
4
4
4
4
4
4
4
4
4
4
4
4
4
4
4
4
4
4
4
4
4
4
4
4
4
4
4
4
4
4
4
4
4
4
4
4
4
4
4
4
4
4
4
4
4
4
4
4
4
4
4
4
4
4
4
4
4
4
4
4
4
4
4
4
4
4
4
4
4
4
4
4
4
4
4
4
4
4
4
4
4
4
4
4
4
4
4
4
4
4
4
4
4
4
4
4
4
4
4
4
4
4
4
4
4
4
4
4
4
4
4
4
4
4
4
4
4
4
4
4
4
4
4
4
4
4
4
4
4
4
4
4
4
4
4
4
4
4
4
4
4
4
4
4
4
4
4
4
4
4
4
4
4
4
4
4
4
4
4
4
4
4
4
4
4
4
4
4
4
4
4
4
4
4
4
4
4
4
4
4
4
4
4
4
4
4
4
4
4
4
4
4
4
4
4
4
4
4
4
4
4
4
4
4
4
4
4
4
4
4
4
4
4
4
4
4
4
4
4
4
4
4
4
4
4
4
4
4
4
4
4
4
4
4
4
4
4
4
4
4
4
4
4
4
4
4
4
4
4
4
4
4
4
4
4
4
4
4
4
4
4
4
4
4
4
4
4
4
4
4
4
4
4
4
4
4
4
4
4
4
4
4
4
4
4
4
4
4
4
4
4
4
4
4
4
4
4
4
4
4
4
4
4
4
4
4
4
4
4
4
4
4
4
4
4
4
4
4
4
4
4
4
4
4
4
4
4
4
4
4
4
4
4
4
4
4
4
4
4
4
4
4
4
4
4
4
4
4
4
4
4
4
4
4
4
4
4
4
4
4
4
4
4
4
4
4
4
4
4
4
4
4
4
4
4
4
4
4
4
4
4
4
4
4
4
4
4
4
4
4
4
4
4
4
4
4
4
4
4
4
4
4
4
4
4
4
4
4
4
4
4
4
4
4
4
4
4
4
4
4
4
4
4
4
4
4
4
4
4
4
4
4
4
4
4
4
4
4
4
4
4
4
4
4
4
4
4
4
4
4
4
4
4
4
4
4
4
4
4
4
4
4
4
4
4
4
4
4
4
4
4
4
4
4
4
4
4
4
4
4
4
4
4
4
4
4
4
4
4
4
4
4
4
4
4
4
4
4
4
4
4
4
4
4
4
4
4
4
4
4
4
4
4
4
4
4
4
4
4
4
4
4
4
4
4
4
4
4
4
4
4
4
4
4
4
4
4
4
4
4
4
4
4
4
4
4
4
4
4
4
4
4
4
4
4
4
4
4
4
4
4
4
4
4
4
4
4
4
4
4
4
4
4
4
4
4
4
4
4
4
4
4
4
4
4
4
4
4
4
4
4
4
4
4
4
4
4
4
4
4
4
4
4
4
4
4
4
4
4
4
4
4
4
4
4
4
4
4
4
4
4
4
4
4
4
4
4
4
4
4
4
4
4
4
4
4
4
4
4
4
4
4
4
4
4
4
4
4
4
4
4
4
4
4
4
4
4
4
4
4
4
4
4
4
4
4
4
4
4
4
4
4
4
4
4
4
4
4
4
4
4
4
4
4
4
4
4
4
4
4
4
4
4
4
4
4
4
4
4
4
4
4
4
4
4
4
4
4
4
4
4
4
4
4
4
4
4
4
4
4
4
4
4
4
4
4
4
4
4
4
4
4
4
4
4
4
4
4
4
4
4
4
4
4
4
4
4
4
4
4
4
4
4
4
4
4
4
4
4
4
4
4
4
4
4
4
4
4
4
4
4
4
4
4
4
4
4
4
4
4
4
4
4
4
4
4
4
4
4
4
4
4
4
4
4
4
4
4
4
4
4
4
4
4
4
4
4
4
4
4
4
4
4
4
4
4
4
4
4
4
4
4
4
4
4
4
4
4
4
4
4
4
4
4
4
4
4
4
4
4
4
4
4
4
4
4
4
4
4
4
4
4
4
4
4
4
4
4
4
4
4
4
4
4
4
4
4
4
4
4
4
4
4
4
4
4
4
4

POINT_DATA 2855
VECTORS PK_force double
0.000000000000000e+00 0.000000000000000e+00 0.000000000000000e+00
0.000000000000000e+00 0.000000000000000e+00 0.000000000000000e+00
0.000000000000000e+00 0.000000000000000e+00 0.000000000000000e+00
0.000000000000000e+00 0.000000000000000e+00 0.000000000000000e+00
0.000000000000000e+00 0.000000000000000e+00 0.000000000000000e+00
0.000000000000000e+00 0.000000000000000e+00 0.000000000000000e+00
0.000000000000000e+00 0.000000000000000e+00 0.000000000000000e+00
0.000000000000000e+00 0.000000000000000e+00 0.000000000000000e+00
0.000000000000000e+00 0.000000000000000e+00 0.000000000000000e+00
0.000000000000000e+00 0.000000000000000e+00 0.000000000000000e+00
0.000000000000000e+00 0.000000000000000e+00 0.000000000000000e+00
0.000000000000000e+00 0.000000000000000e+00 0.000000000000000e+00
0.000000000000000e+00 0.000000000000000e+00 0.000000000000000e+00
0.000000000000000e+00 0.000000000000000e+00 0.000000000000000e+00
0.000000000000000e+00 0.000000000000000e+00 0.000000000000000e+00
0.000000000000000e+00 0.000000000000000e+00 0.000000000000000e+00
0.000000000000000e+00 0.000000000000000e+00 0.000000000000000e+00
0.000000000000000e+00 0.000000000000000e+00 0.000000000000000e+00
0.000000000000000e+00 0.000000000000000e+00 0.000000000000000e+00
0.000000000000000e+00 0.000000000000000e+00 0.000000000000000e+00
0.000000000000000e+00 0.000000000000000e+00 0.000000000000000e+00
0.000000000000000e+00 0.000000000000000e+00 0.000000000000000e+00
0.000000000000000e+00 0.000000000000000e+00 0.000000000000000e+00
0.000000000000000e+00 0.000000000000000e+00 0.000000000000000e+00
0.000000000000000e+00 0.000000000000000e+00 0.000000000000000e+00
0.000000000000000e+00 0.000000000000000e+00 0.000000000000000e+00
0.000000000000000e+00 0.000000000000000e+00 0.000000000000000e+00
0.000000000000000e+00 0.000000000000000e+00 0.000000000000000e+00
0.000000000000000e+00 0.000000000000000e+00 0.000000000000000e+00
0.000000000000000e+00 0.000000000000000e+00 0.000000000000000e+00
0.000000000000000e+00 0.000000000000000e+00 0.000000000000000e+00
0.000000000000000e+00 0.000000000000000e+00 0.000000000000000e+00
0.000000000000000e+00 0.000000000000000e+00 0.000000000000000e+00
0.000000000000000e+00 0.000000000000000e+00 0.000000000000000e+00
0.000000000000000e+00 0.000000000000000e+00 0.000000000000000e+00
0.000000000000000e+00 0.000000000000000e+00 0.000000000000000e+00
0.000000000000000e+00 0.000000000000000e+00 0.000000000000000e+00
0.000000000000000e+00 0.000000000000000e+00 0.000000000000000e+00
0.000000000000000e+00 0.000000000000000e+00 0.000000000000000e+00
0.000000000000000e+00 0.000000000000000e+00 0.000000000000000e+00
0.000000000000000e+00 0.000000000000000e+00 0.000000000000000e+00
0.000000000000000e+00 0.000000000000000e+00 0.000000000000000e+00
0.000000000000000e+00 0.000000000000000e+00 0.000000000000000e+00
0.000000000000000e+00 0.000000000000000e+00 0.000000000000000e+00
0.000000000000000e+00 0.000000000000000e+00 0.000000000000000e+00
0.000000000000000e+00 0.000000000000000e+00 0.000000000000000e+00
0.000000000000000e+00 0.000000000000000e+00 0.000000000000000e+00
0.000000000000000e+00 0.000000000000000e+00 0.000000000000000e+00
0.000000000000000e+00 0.000000000000000e+00 0.000000000000000e+00
0.000000000000000e+00 0.000000000000000e+00 0.000000000000000e+00
0.000000000000000e+00 0.000000000000000e+00 0.000000000000000e+00
0.000000000000000e+00 0.000000000000000e+00 0.000000000000000e+00
0.000000000000000e+00 0.000000000000000e+00 0.000000000000000e+00
0.000000000000000e+00 0.000000000000000e+00 0.000000000000000e+00
0.000000000000000e+00 0.000000000000000e+00 0.000000000000000e+00
0.000000000000000e+00 0.000000000000000e+00 0.000000000000000e+00
0.000000000000000e+00 0.000000000000000e+00 0.000000000000000e+00
0.000000000000000e+00 0.000000000000000e+00 0.000000000000000e+00
0.000000000000000e+00 0.000000000000000e+00 0.000000000000000e+00
0.000000000000000e+00 0.000000000000000e+00 0.000000000000000e+00
0.000000000000000e+00 0.000000000000000e+00 0.000000000000000e+00
0.000000000000000e+00 0.000000000000000e+00 0.000000000000000e+00
0.000000000000000e+00 0.000000000000000e+00 0.000000000000000e+00
0.000000000000000e+00 0.000000000000000e+00 0.000000000000000e+00
0.000000000000000e+00 0.000000000000000e+00 0.000000000000000e+00
0.000000000000000e+00 0.000000000000000e+00 0.000000000000000e+00
0.000000000000000e+00 0.000000000000000e+00 0.000000000000000e+00
0.000000000000000e+00 0.000000000000000e+00 0.000000000000000e+00
0.000000000000000e+00 0.000000000000000e+00 0.000000000000000e+00
0.000000000000000e+00 0.000000000000000e+00 0.000000000000000e+00
0.000000000000000e+00 0.000000000000000e+00 0.000000000000000e+00
0.000000000000000e+00 0.000000000000000e+00 0.000000000000000e+00
0.000000000000000e+00 0.000000000000000e+00 0.000000000000000e+00
0.000000000000000e+00 0.000000000000000e+00 0.000000000000000e+00
0.000000000000000e+00 0.000000000000000e+00 0.000000000000000e+00
0.000000000000000e+00 0.000000000000000e+00 0.000000000000000e+00
0.000000000000000e+00 0.000000000000000e+00 0.000000000000000e+00
0.000000000000000e+00 0.000000000000000e+00 0.000000000000000e+00
0.000000000000000e+00 0.000000000000000e+00 0.000000000000000e+00
0.000000000000000e+00 0.000000000000000e+00 0.000000000000000e+00
0.000000000000000e+00 0.000000000000000e+00 0.000000000000000e+00
0.000000000000000e+00 0.000000000000000e+00 0.000000000000000e+00
0.000000000000000e+00 0.000000000000000e+00 0.000000000000000e+00
0.000000000000000e+00 0.000000000000000e+00 0.000000000000000e+00
0.000000000000000e+00 0.000000000000000e+00 0.000000000000000e+00
0.000000000000000e+00 0.000000000000000e+00 0.000000000000000e+00
0.000000000000000e+00 0.000000000000000e+00 0.000000000000000e+00
0.000000000000000e+00 0.000000000000000e+00 0.000000000000000e+00
0.000000000000000e+00 0.000000000000000e+00 0.000000000000000e+00
0.000000000000000e+00 0.000000000000000e+00 0.000000000000000e+00
0.000000000000000e+00 0.000000000000000e+00 0.000000000000000e+00
0.000000000000000e+00 0.000000000000000e+00 0.000000000000000e+00
0.000000000000000e+00 0.000000000000000e+00 0.000000000000000e+00
0.000000000000000e+00 0.000000000000000e+00 0.000000000000000e+00
0.000000000000000e+00 0.000000000000000e+00 0.000000000000000e+00
0.000000000000000e+00 0.000000000000000e+00 0.000000000000000e+00
0.000000000000000e+00 0.000000000000000e+00 0.000000000000000e+00
0.000000000000000e+00 0.000000000000000e+00 0.000000000000000e+00
0.000000000000000e+00 0.000000000000000e+00 0.000000000000000e+00
0.000000000000000e+00 0.000000000000000e+00 0.000000000000000e+00
0.000000000000000e+00 0.000000000000000e+00 0.000000000000000e+00
0.000000000000000e+00 0.000000000000000e+00 0.000000000000000e+00
0.000000000000000e+00 0.000000000000000e+00 0.000000000000000e+00
0.000000000000000e+00 0.000000000000000e+00 0.000000000000000e+00
0.000000000000000e+00 0.000000000000000e+00 0.000000000000000e+00
0.000000000000000e+00 0.000000000000000e+00 0.000000000000000e+00
0.000000000000000e+00 0.000000000000000e+00 0.000000000000000e+00
0.000000000000000e+00 0.000000000000000e+00 0.000000000000000e+00
0.000000000000000e+00 0.000000000000000e+00 0.000000000000000e+00
0.000000000000000e+00 0.000000000000000e+00 0.000000000000000e+00
0.000000000000000e+00 0.000000000000000e+00 0.000000000000000e+00
0.000000000000000e+00 0.000000000000000e+00 0.000000000000000e+00
0.000000000000000e+00 0.000000000000000e+00 0.000000000000000e+00
0.000000000000000e+00 0.000000000000000e+00 0.000000000000000e+00
0.000000000000000e+00 0.000000000000000e+00 0.000000000000000e+00
0.000000000000000e+00 0.000000000000000e+00 0.000000000000000e+00
0.000000000000000e+00 0.000000000000000e+00 0.000000000000000e+00
0.000000000000000e+00 0.000000000000000e+00 0.000000000000000e+00
0.000000000000000e+00 0.000000000000000e+00 0.000000000000000e+00
0.000000000000000e+00 0.000000000000000e+00 0.000000000000000e+00
0.000000000000000e+00 0.000000000000000e+00 0.000000000000000e+00
0.000000000000000e+00 0.000000000000000e+00 0.000000000000000e+00
0.000000000000000e+00 0.000000000000000e+00 0.000000000000000e+00
0.000000000000000e+00 0.000000000000000e+00 0.000000000000000e+00
0.000000000000000e+00 0.000000000000000e+00 0.000000000000000e+00
0.000000000000000e+00 0.000000000000000e+00 0.000000000000000e+00
0.000000000000000e+00 0.000000000000000e+00 0.000000000000000e+00
0.000000000000000e+00 0.000000000000000e+00 0.000000000000000e+00
0.000000000000000e+00 0.000000000000000e+00 0.000000000000000e+00
0.000000000000000e+00 0.000000000000000e+00 0.000000000000000e+00
0.000000000000000e+00 0.000000000000000e+00 0.000000000000000e+00
0.000000000000000e+00 0.000000000000000e+00 0.000000000000000e+00
0.000000000000000e+00 0.000000000000000e+00 0.000000000000000e+00
0.000000000000000e+00 0.000000000000000e+00 0.000000000000000e+00
0.000000000000000e+00 0.000000000000000e+00 0.000000000000000e+00
0.000000000000000e+00 0.000000000000000e+00 0.000000000000000e+00
0.000000000000000e+00 0.000000000000000e+00 0.000000000000000e+00
0.000000000000000e+00 0.000000000000000e+00 0.000000000000000e+00
0.000000000000000e+00 0.000000000000000e+00 0.000000000000000e+00
0.000000000000000e+00 0.000000000000000e+00 0.000000000000000e+00
0.000000000000000e+00 0.000000000000000e+00 0.000000000000000e+00
0.000000000000000e+00 0.000000000000000e+00 0.000000000000000e+00
0.000000000000000e+00 0.000000000000000e+00 0.000000000000000e+00
0.000000000000000e+00 0.000000000000000e+00 0.000000000000000e+00
0.000000000000000e+00 0.000000000000000e+00 0.000000000000000e+00
0.000000000000000e+00 0.000000000000000e+00 0.000000000000000e+00
0.000000000000000e+00 0.000000000000000e+00 0.000000000000000e+00
0.000000000000000e+00 0.000000000000000e+00 0.000000000000000e+00
0.000000000000000e+00 0.000000000000000e+00 0.000000000000000e+00
0.000000000000000e+00 0.000000000000000e+00 0.000000000000000e+00
0.000000000000000e+00 0.000000000000000e+00 0.000000000000000e+00
0.000000000000000e+00 0.000000000000000e+00 0.000000000000000e+00
0.000000000000000e+00 0.000000000000000e+00 0.000000000000000e+00
0.000000000000000e+00 0.000000000000000e+00 0.000000000000000e+00
0.000000000000000e+00 0.000000000000000e+00 0.000000000000000e+00
0.000000000000000e+00 0.000000000000000e+00 0.000000000000000e+00
0.000000000000000e+00 0.000000000000000e+00 0.000000000000000e+00
0.000000000000000e+00 0.000000000000000e+00 0.000000000000000e+00
0.000000000000000e+00 0.000000000000000e+00 0.000000000000000e+00
0.000000000000000e+00 0.000000000000000e+00 0.000000000000000e+00
0.000000000000000e+00 0.000000000000000e+00 0.000000000000000e+00
0.000000000000000e+00 0.000000000000000e+00 0.000000000000000e+00
0.000000000000000e+00 0.000000000000000e+00 0.000000000000000e+00
0.000000000000000e+00 0.000000000000000e+00 0.000000000000000e+00
0.000000000000000e+00 0.000000000000000e+00 0.000000000000000e+00
0.000000000000000e+00 0.000000000000000e+00 0.000000000000000e+00
0.000000000000000e+00 0.000000000000000e+00 0.000000000000000e+00
0.000000000000000e+00 0.000000000000000e+00 0.000000000000000e+00
0.000000000000000e+00 0.000000000000000e+00 0.000000000000000e+00
0.000000000000000e+00 0.000000000000000e+00 0.000000000000000e+00
0.000000000000000e+00 0.000000000000000e+00 0.000000000000000e+00
0.000000000000000e+00 0.000000000000000e+00 0.000000000000000e+00
0.000000000000000e+00 0.000000000000000e+00 0.000000000000000e+00
0.000000000000000e+00 0.000000000000000e+00 0.000000000000000e+00
0.000000000000000e+00 0.000000000000000e+00 0.000000000000000e+00
0.000000000000000e+00 0.000000000000000e+00 0.000000000000000e+00
0.000000000000000e+00 0.000000000000000e+00 0.000000000000000e+00
0.000000000000000e+00 0.000000000000000e+00 0.000000000000000e+00
0.000000000000000e+00 0.000000000000000e+00 0.000000000000000e+00
0.000000000000000e+00 0.000000000000000e+00 0.000000000000000e+00
0.000000000000000e+00 0.000000000000000e+00 0.000000000000000e+00
0.000000000000000e+00 0.000000000000000e+00 0.000000000000000e+00
0.000000000000000e+00 0.000000000000000e+00 0.000000000000000e+00
0.000000000000000e+00 0.000000000000000e+00 0.000000000000000e+00
0.000000000000000e+00 0.000000000000000e+00 0.000000000000000e+00
0.000000000000000e+00 0.000000000000000e+00 0.000000000000000e+00
0.000000000000000e+00 0.000000000000000e+00 0.000000000000000e+00
0.000000000000000e+00 0.000000000000000e+00 0.000000000000000e+00
0.000000000000000e+00 0.000000000000000e+00 0.000000000000000e+00
0.000000000000000e+00 0.000000000000000e+00 0.000000000000000e+00
0.000000000000000e+00 0.000000000000000e+00 0.000000000000000e+00
0.000000000000000e+00 0.000000000000000e+00 0.000000000000000e+00
0.000000000000000e+00 0.000000000000000e+00 0.000000000000000e+00
0.000000000000000e+00 0.000000000000000e+00 0.000000000000000e+00
0.000000000000000e+00 0.000000000000000e+00 0.000000000000000e+00
0.000000000000000e+00 0.000000000000000e+00 0.000000000000000e+00
0.000000000000000e+00 0.000000000000000e+00 0.000000000000000e+00
0.000000000000000e+00 0.000000000000000e+00 0.000000000000000e+00
0.000000000000000e+00 0.000000000000000e+00 0.000000000000000e+00
0.000000000000000e+00 0.000000000000000e+00 0.000000000000000e+00
0.000000000000000e+00 0.000000000000000e+00 0.000000000000000e+00
0.000000000000000e+00 0.000000000000000e+00 0.000000000000000e+00
0.000000000000000e+00 0.000000000000000e+00 0.000000000000000e+00
0.000000000000000e+00 0.000000000000000e+00 0.000000000000000e+00
0.000000000000000e+00 0.000000000000000e+00 0.000000000000000e+00
0.000000000000000e+00 0.000000000000000e+00 0.000000000000000e+00
0.000000000000000e+00 0.000000000000000e+00 0.000000000000000e+00
0.000000000000000e+00 0.000000000000000e+00 0.000000000000000e+00
0.000000000000000e+00 0.000000000000000e+00 0.000000000000000e+00
0.000000000000000e+00 0.000000000000000e+00 0.000000000000000e+00
0.000000000000000e+00 0.000000000000000e+00 0.000000000000000e+00
0.000000000000000e+00 0.000000000000000e+00 0.000000000000000e+00
0.000000000000000e+00 0.000000000000000e+00 0.000000000000000e+00
0.000000000000000e+00 0.000000000000000e+00 0.000000000000000e+00
0.000000000000000e+00 0.000000000000000e+00 0.000000000000000e+00
0.000000000000000e+00 0.000000000000000e+00 0.000000000000000e+00
0.000000000000000e+00 0.000000000000000e+00 0.000000000000000e+00
0.000000000000000e+00 0.000000000000000e+00 0.000000000000000e+00
0.000000000000000e+00 0.000000000000000e+00 0.000000000000000e+00
0.000000000000000e+00 0.000000000000000e+00 0.000000000000000e+00
0.000000000000000e+00 0.000000000000000e+00 0.000000000000000e+00
0.000000000000000e+00 0.000000000000000e+00 0.000000000000000e+00
0.000000000000000e+00 0.000000000000000e+00 0.000000000000000e+00
0.000000000000000e+00 0.000000000000000e+00 0.000000000000000e+00
0.000000000000000e+00 0.000000000000000e+00 0.000000000000000e+00
0.000000000000000e+00 0.000000000000000e+00 0.000000000000000e+00
0.000000000000000e+00 0.000000000000000e+00 0.000000000000000e+00
0.000000000000000e+00 0.000000000000000e+00 0.000000000000000e+00
0.000000000000000e+00 0.000000000000000e+00 0.000000000000000e+00
0.000000000000000e+00 0.000000000000000e+00 0.000000000000000e+00
0.000000000000000e+00 0.000000000000000e+00 0.000000000000000e+00
0.000000000000000e+00 0.000000000000000e+00 0.000000000000000e+00
0.000000000000000e+00 0.000000000000000e+00 0.000000000000000e+00
0.000000000000000e+00 0.000000000000000e+00 0.000000000000000e+00
0.000000000000000e+00 0.000000000000000e+00 0.000000000000000e+00
0.000000000000000e+00 0.000000000000000e+00 0.000000000000000e+00
0.000000000000000e+00 0.000000000000000e+00 0.000000000000000e+00
0.000000000000000e+00 0.000000000000000e+00 0.000000000000000e+00
0.000000000000000e+00 0.000000000000000e+00 0.000000000000000e+00
0.000000000000000e+00 0.000000000000000e+00 0.000000000000000e+00
0.000000000000000e+00 0.000000000000000e+00 0.000000000000000e+00
0.000000000000000e+00 0.000000000000000e+00 0.000000000000000e+00
0.000000000000000e+00 0.000000000000000e+00 0.000000000000000e+00
0.000000000000000e+00 0.000000000000000e+00 0.000000000000000e+00
0.000000000000000e+00 0.000000000000000e+00 0.000000000000000e+00
0.000000000000000e+00 0.000000000000000e+00 0.000000000000000e+00
0.000000000000000e+00 0.000000000000000e+00 0.000000000000000e+00
0.000000000000000e+00 0.000000000000000e+00 0.000000000000000e+00
0.000000000000000e+00 0.000000000000000e+00 0.000000000000000e+00
0.000000000000000e+00 0.000000000000000e+00 0.000000000000000e+00
0.000000000000000e+00 0.000000000000000e+00 0.000000000000000e+00
0.000000000000000e+00 0.000000000000000e+00 0.000000000000000e+00
0.000000000000000e+00 0.000000000000000e+00 0.000000000000000e+00
0.000000000000000e+00 0.000000000000000e+00 0.000000000000000e+00
0.000000000000000e+00 0.000000000000000e+00 0.000000000000000e+00
0.000000000000000e+00 0.000000000000000e+00 0.000000000000000e+00
0.000000000000000e+00 0.000000000000000e+00 0.000000000000000e+00
0.000000000000000e+00 0.000000000000000e+00 0.000000000000000e+00
0.000000000000000e+00 0.000000000000000e+00 0.000000000000000e+00
0.000000000000000e+00 0.000000000000000e+00 0.000000000000000e+00
0.000000000000000e+00 0.000000000000000e+00 0.000000000000000e+00
0.000000000000000e+00 0.000000000000000e+00 0.000000000000000e+00
0.000000000000000e+00 0.000000000000000e+00 0.000000000000000e+00
0.000000000000000e+00 0.000000000000000e+00 0.000000000000000e+00
0.000000000000000e+00 0.000000000000000e+00 0.000000000000000e+00
0.000000000000000e+00 0.000000000000000e+00 0.000000000000000e+00
0.000000000000000e+00 0.000000000000000e+00 0.000000000000000e+00
0.000000000000000e+00 0.000000000000000e+00 0.000000000000000e+00
0.000000000000000e+00 0.000000000000000e+00 0.000000000000000e+00
0.000000000000000e+00 0.000000000000000e+00 0.000000000000000e+00
0.000000000000000e+00 0.000000000000000e+00 0.000000000000000e+00
0.000000000000000e+00 0.000000000000000e+00 0.000000000000000e+00
0.000000000000000e+00 0.000000000000000e+00 0.000000000000000e+00
0.000000000000000e+00 0.000000000000000e+00 0.000000000000000e+00
0.000000000000000e+00 0.000000000000000e+00 0.000000000000000e+00
0.000000000000000e+00 0.000000000000000e+00 0.000000000000000e+00
0.000000000000000e+00 0.000000000000000e+00 0.000000000000000e+00
0.000000000000000e+00 0.000000000000000e+00 0.000000000000000e+00
0.000000000000000e+00 0.000000000000000e+00 0.000000000000000e+00
0.000000000000000e+00 0.000000000000000e+00 0.000000000000000e+00
0.000000000000000e+00 0.000000000000000e+00 0.000000000000000e+00
0.000000000000000e+00 0.000000000000000e+00 0.000000000000000e+00
0.000000000000000e+00 0.000000000000000e+00 0.000000000000000e+00
0.000000000000000e+00 0.000000000000000e+00 0.000000000000000e+00
0.000000000000000e+00 0.000000000000000e+00 0.000000000000000e+00
0.000000000000000e+00 0.000000000000000e+00 0.000000000000000e+00
0.000000000000000e+00 0.000000000000000e+00 0.000000000000000e+00
0.000000000000000e+00 0.000000000000000e+00 0.000000000000000e+00
0.000000000000000e+00 0.000000000000000e+00 0.000000000000000e+00
0.000000000000000e+00 0.000000000000000e+00 0.000000000000000e+00
0.000000000000000e+00 0.000000000000000e+00 0.000000000000000e+00
0.000000000000000e+00 0.000000000000000e+00 0.000000000000000e+00
0.000000000000000e+00 0.000000000000000e+00 0.000000000000000e+00
0.000000000000000e+00 0.000000000000000e+00 0.000000000000000e+00
0.000000000000000e+00 0.000000000000000e+00 0.000000000000000e+00
0.000000000000000e+00 0.000000000000000e+00 0.000000000000000e+00
0.000000000000000e+00 0.000000000000000e+00 0.000000000000000e+00
0.000000000000000e+00 0.000000000000000e+00 0.000000000000000e+00
0.000000000000000e+00 0.000000000000000e+00 0.000000000000000e+00
0.000000000000000e+00 0.000000000000000e+00 0.000000000000000e+00
0.000000000000000e+00 0.000000000000000e+00 0.000000000000000e+00
0.000000000000000e+00 0.000000000000000e+00 0.000000000000000e+00
0.000000000000000e+00 0.000000000000000e+00 0.000000000000000e+00
0.000000000000000e+00 0.000000000000000e+00 0.000000000000000e+00
0.000000000000000e+00 0.000000000000000e+00 0.000000000000000e+00
0.000000000000000e+00 0.000000000000000e+00 0.000000000000000e+00
0.000000000000000e+00 0.000000000000000e+00 0.000000000000000e+00
0.000000000000000e+00 0.000000000000000e+00 0.000000000000000e+00
0.000000000000000e+00 0.000000000000000e+00 0.000000000000000e+00
0.000000000000000e+00 0.000000000000000e+00 0.000000000000000e+00
0.000000000000000e+00 0.000000000000000e+00 0.000000000000000e+00
0.000000000000000e+00 0.000000000000000e+00 0.000000000000000e+00
0.000000000000000e+00 0.000000000000000e+00 0.000000000000000e+00
0.000000000000000e+00 0.000000000000000e+00 0.000000000000000e+00
0.000000000000000e+00 0.000000000000000e+00 0.000000000000000e+00
0.000000000000000e+00 0.000000000000000e+00 0.000000000000000e+00
0.000000000000000e+00 0.000000000000000e+00 0.000000000000000e+00
0.000000000000000e+00 0.000000000000000e+00 0.000000000000000e+00
0.000000000000000e+00 0.000000000000000e+00 0.000000000000000e+00
0.000000000000000e+00 0.000000000000000e+00 0.000000000000000e+00
0.000000000000000e+00 0.000000000000000e+00 0.000000000000000e+00
0.000000000000000e+00 0.000000000000000e+00 0.000000000000000e+00
0.000000000000000e+00 0.000000000000000e+00 0.000000000000000e+00
0.000000000000000e+00 0.000000000000000e+00 0.000000000000000e+00
0.000000000000000e+00 0.000000000000000e+00 0.000000000000000e+00
0.000000000000000e+00 0.000000000000000e+00 0.000000000000000e+00
0.000000000000000e+00 0.000000000000000e+00 0.000000000000000e+00
0.000000000000000e+00 0.000000000000000e+00 0.000000000000000e+00
0.000000000000000e+00 0.000000000000000e+00 0.000000000000000e+00
0.000000000000000e+00 0.000000000000000e+00 0.000000000000000e+00
0.000000000000000e+00 0.000000000000000e+00 0.000000000000000e+00
0.000000000000000e+00 0.000000000000000e+00 0.000000000000000e+00
0.000000000000000e+00 0.000000000000000e+00 0.000000000000000e+00
0.000000000000000e+00 0.000000000000000e+00 0.000000000000000e+00
0.000000000000000e+00 0.000000000000000e+00 0.000000000000000e+00
0.000000000000000e+00 0.000000000000000e+00 0.000000000000000e+00
0.000000000000000e+00 0.000000000000000e+00 0.000000000000000e+00
0.000000000000000e+00 0.000000000000000e+00 0.000000000000000e+00
0.000000000000000e+00 0.000000000000000e+00 0.000000000000000e+00
0.000000000000000e+00 0.000000000000000e+00 0.000000000000000e+00
0.000000000000000e+00 0.000000000000000e+00 0.000000000000000e+00
0.000000000000000e+00 0.000000000000000e+00 0.000000000000000e+00
0.000000000000000e+00 0.000000000000000e+00 0.000000000000000e+00
0.000000000000000e+00 0.000000000000000e+00 0.000000000000000e+00
0.000000000000000e+00 0.000000000000000e+00 0.000000000000000e+00
0.000000000000000e+00 0.000000000000000e+00 0.000000000000000e+00
0.000000000000000e+00 0.000000000000000e+00 0.000000000000000e+00
0.000000000000000e+00 0.000000000000000e+00 0.000000000000000e+00
0.000000000000000e+00 0.000000000000000e+00 0.000000000000000e+00
0.000000000000000e+00 0.000000000000000e+00 0.000000000000000e+00
0.000000000000000e+00 0.000000000000000e+00 0.000000000000000e+00
0.000000000000000e+00 0.000000000000000e+00 0.000000000000000e+00
0.000000000000000e+00 0.000000000000000e+00 0.000000000000000e+00
0.000000000000000e+00 0.000000000000000e+00 0.000000000000000e+00
0.000000000000000e+00 0.000000000000000e+00 0.000000000000000e+00
0.000000000000000e+00 0.000000000000000e+00 0.000000000000000e+00
0.000000000000000e+00 0.000000000000000e+00 0.000000000000000e+00
0.000000000000000e+00 0.000000000000000e+00 0.000000000000000e+00
0.000000000000000e+00 0.000000000000000e+00 0.000000000000000e+00
0.000000000000000e+00 0.000000000000000e+00 0.000000000000000e+00
0.000000000000000e+00 0.000000000000000e+00 0.000000000000000e+00
0.000000000000000e+00 0.000000000000000e+00 0.000000000000000e+00
0.000000000000000e+00 0.000000000000000e+00 0.000000000000000e+00
0.000000000000000e+00 0.000000000000000e+00 0.000000000000000e+00
0.000000000000000e+00 0.000000000000000e+00 0.000000000000000e+00
0.000000000000000e+00 0.000000000000000e+00 0.000000000000000e+00
0.000000000000000e+00 0.000000000000000e+00 0.000000000000000e+00
0.000000000000000e+00 0.000000000000000e+00 0.000000000000000e+00
0.000000000000000e+00 0.000000000000000e+00 0.000000000000000e+00
0.000000000000000e+00 0.000000000000000e+00 0.000000000000000e+00
0.000000000000000e+00 0.000000000000000e+00 0.000000000000000e+00
0.000000000000000e+00 0.000000000000000e+00 0.000000000000000e+00
0.000000000000000e+00 0.000000000000000e+00 0.000000000000000e+00
0.000000000000000e+00 0.000000000000000e+00 0.000000000000000e+00
0.000000000000000e+00 0.000000000000000e+00 0.000000000000000e+00
0.000000000000000e+00 0.000000000000000e+00 0.000000000000000e+00
0.000000000000000e+00 0.000000000000000e+00 0.000000000000000e+00
0.000000000000000e+00 0.000000000000000e+00 0.000000000000000e+00
0.000000000000000e+00 0.000000000000000e+00 0.000000000000000e+00
0.000000000000000e+00 0.000000000000000e+00 0.000000000000000e+00
0.000000000000000e+00 0.000000000000000e+00 0.000000000000000e+00
0.000000000000000e+00 0.000000000000000e+00 0.000000000000000e+00
0.000000000000000e+00 0.000000000000000e+00 0.000000000000000e+00
0.000000000000000e+00 0.000000000000000e+00 0.000000000000000e+00
0.000000000000000e+00 0.000000000000000e+00 0.000000000000000e+00
0.000000000000000e+00 0.000000000000000e+00 0.000000000000000e+00
0.000000000000000e+00 0.000000000000000e+00 0.000000000000000e+00
0.000000000000000e+00 0.000000000000000e+00 0.000000000000000e+00
0.000000000000000e+00 0.000000000000000e+00 0.000000000000000e+00
0.000000000000000e+00 0.000000000000000e+00 0.000000000000000e+00
0.000000000000000e+00 0.000000000000000e+00 0.000000000000000e+00
0.000000000000000e+00 0.000000000000000e+00 0.000000000000000e+00
0.000000000000000e+00 0.000000000000000e+00 0.000000000000000e+00
0.000000000000000e+00 0.000000000000000e+00 0.000000000000000e+00
0.000000000000000e+00 0.000000000000000e+00 0.000000000000000e+00
0.000000000000000e+00 0.000000000000000e+00 0.000000000000000e+00
0.000000000000000e+00 0.000000000000000e+00 0.000000000000000e+00
0.000000000000000e+00 0.000000000000000e+00 0.000000000000000e+00
0.000000000000000e+00 0.000000000000000e+00 0.000000000000000e+00
0.000000000000000e+00 0.000000000000000e+00 0.000000000000000e+00
0.000000000000000e+00 0.000000000000000e+00 0.000000000000000e+00
0.000000000000000e+00 0.000000000000000e+00 0.000000000000000e+00
0.000000000000000e+00 0.000000000000000e+00 0.000000000000000e+00
0.000000000000000e+00 0.000000000000000e+00 0.000000000000000e+00
0.000000000000000e+00 0.000000000000000e+00 0.000000000000000e+00
0.000000000000000e+00 0.000000000000000e+00 0.000000000000000e+00
0.000000000000000e+00 0.000000000000000e+00 0.000000000000000e+00
0.000000000000000e+00 0.000000000000000e+00 0.000000000000000e+00
0.000000000000000e+00 0.000000000000000e+00 0.000000000000000e+00
0.000000000000000e+00 0.000000000000000e+00 0.000000000000000e+00
0.000000000000000e+00 0.000000000000000e+00 0.000000000000000e+00
0.000000000000000e+00 0.000000000000000e+00 0.000000000000000e+00
0.000000000000000e+00 0.000000000000000e+00 0.000000000000000e+00
0.000000000000000e+00 0.000000000000000e+00 0.000000000000000e+00
0.000000000000000e+00 0.000000000000000e+00 0.000000000000000e+00
0.000000000000000e+00 0.000000000000000e+00 0.000000000000000e+00
0.000000000000000e+00 0.000000000000000e+00 0.000000000000000e+00
0.000000000000000e+00 0.000000000000000e+00 0.000000000000000e+00
0.000000000000000e+00 0.000000000000000e+00 0.000000000000000e+00
0.000000000000000e+00 0.000000000000000e+00 0.000000000000000e+00
0.000000000000000e+00 0.000000000000000e+00 0.000000000000000e+00
0.000000000000000e+00 0.000000000000000e+00 0.000000000000000e+00
0.000000000000000e+00 0.000000000000000e+00 0.000000000000000e+00
0.000000000000000e+00 0.000000000000000e+00 0.000000000000000e+00
0.000000000000000e+00 0.000000000000000e+00 0.000000000000000e+00
0.000000000000000e+00 0.000000000000000e+00 0.000000000000000e+00
0.000000000000000e+00 0.000000000000000e+00 0.000000000000000e+00
0.000000000000000e+00 0.000000000000000e+00 0.000000000000000e+00
0.000000000000000e+00 0.000000000000000e+00 0.000000000000000e+00
0.000000000000000e+00 0.000000000000000e+00 0.000000000000000e+00
0.000000000000000e+00 0.000000000000000e+00 0.000000000000000e+00
0.000000000000000e+00 0.000000000000000e+00 0.000000000000000e+00
0.000000000000000e+00 0.000000000000000e+00 0.000000000000000e+00
0.000000000000000e+00 0.000000000000000e+00 0.000000000000000e+00
0.000000000000000e+00 0.000000000000000e+00 0.000000000000000e+00
0.000000000000000e+00 0.000000000000000e+00 0.000000000000000e+00
0.000000000000000e+00 0.000000000000000e+00 0.000000000000000e+00
0.000000000000000e+00 0.000000000000000e+00 0.000000000000000e+00
0.000000000000000e+00 0.000000000000000e+00 0.000000000000000e+00
0.000000000000000e+00 0.000000000000000e+00 0.000000000000000e+00
0.000000000000000e+00 0.000000000000000e+00 0.000000000000000e+00
0.000000000000000e+00 0.000000000000000e+00 0.000000000000000e+00
0.000000000000000e+00 0.000000000000000e+00 0.000000000000000e+00
0.000000000000000e+00 0.000000000000000e+00 0.000000000000000e+00
0.000000000000000e+00 0.000000000000000e+00 0.000000000000000e+00
0.000000000000000e+00 0.000000000000000e+00 0.000000000000000e+00
0.000000000000000e+00 0.000000000000000e+00 0.000000000000000e+00
0.000000000000000e+00 0.000000000000000e+00 0.000000000000000e+00
0.000000000000000e+00 0.000000000000000e+00 0.000000000000000e+00
0.000000000000000e+00 0.000000000000000e+00 0.000000000000000e+00
0.000000000000000e+00 0.000000000000000e+00 0.000000000000000e+00
0.000000000000000e+00 0.000000000000000e+00 0.000000000000000e+00
0.000000000000000e+00 0.000000000000000e+00 0.000000000000000e+00
0.000000000000000e+00 0.000000000000000e+00 0.000000000000000e+00
0.000000000000000e+00 0.000000000000000e+00 0.000000000000000e+00
0.000000000000000e+00 0.000000000000000e+00 0.000000000000000e+00
0.000000000000000e+00 0.000000000000000e+00 0.000000000000000e+00
0.000000000000000e+00 0.000000000000000e+00 0.000000000000000e+00
0.000000000000000e+00 0.000000000000000e+00 0.000000000000000e+00
0.000000000000000e+00 0.000000000000000e+00 0.000000000000000e+00
0.000000000000000e+00 0.000000000000000e+00 0.000000000000000e+00
0.000000000000000e+00 0.000000000000000e+00 0.000000000000000e+00
0.000000000000000e+00 0.000000000000000e+00 0.000000000000000e+00
0.000000000000000e+00 0.000000000000000e+00 0.000000000000000e+00
0.000000000000000e+00 0.000000000000000e+00 0.000000000000000e+00
0.000000000000000e+00 0.000000000000000e+00 0.000000000000000e+00
0.000000000000000e+00 0.000000000000000e+00 0.000000000000000e+00
0.000000000000000e+00 0.000000000000000e+00 0.000000000000000e+00
0.000000000000000e+00 0.000000000000000e+00 0.000000000000000e+00
0.000000000000000e+00 0.000000000000000e+00 0.000000000000000e+00
0.000000000000000e+00 0.000000000000000e+00 0.000000000000000e+00
0.000000000000000e+00 0.000000000000000e+00 0.000000000000000e+00
0.000000000000000e+00 0.000000000000000e+00 0.000000000000000e+00
0.000000000000000e+00 0.000000000000000e+00 0.000000000000000e+00
0.000000000000000e+00 0.000000000000000e+00 0.000000000000000e+00
0.000000000000000e+00 0.000000000000000e+00 0.000000000000000e+00
0.000000000000000e+00 0.000000000000000e+00 0.000000000000000e+00
0.000000000000000e+00 0.000000000000000e+00 0.000000000000000e+00
0.000000000000000e+00 0.000000000000000e+00 0.000000000000000e+00
0.000000000000000e+00 0.000000000000000e+00 0.000000000000000e+00
0.000000000000000e+00 0.000000000000000e+00 0.000000000000000e+00
0.000000000000000e+00 0.000000000000000e+00 0.000000000000000e+00
0.000000000000000e+00 0.000000000000000e+00 0.000000000000000e+00
0.000000000000000e+00 0.000000000000000e+00 0.000000000000000e+00
0.000000000000000e+00 0.000000000000000e+00 0.000000000000000e+00
0.000000000000000e+00 0.000000000000000e+00 0.000000000000000e+00
0.000000000000000e+00 0.000000000000000e+00 0.000000000000000e+00
0.000000000000000e+00 0.000000000000000e+00 0.000000000000000e+00
0.000000000000000e+00 0.000000000000000e+00 0.000000000000000e+00
0.000000000000000e+00 0.000000000000000e+00 0.000000000000000e+00
0.000000000000000e+00 0.000000000000000e+00 0.000000000000000e+00
0.000000000000000e+00 0.000000000000000e+00 0.000000000000000e+00
0.000000000000000e+00 0.000000000000000e+00 0.000000000000000e+00
0.000000000000000e+00 0.000000000000000e+00 0.000000000000000e+00
0.000000000000000e+00 0.000000000000000e+00 0.000000000000000e+00
0.000000000000000e+00 0.000000000000000e+00 0.000000000000000e+00
0.000000000000000e+00 0.000000000000000e+00 0.000000000000000e+00
0.000000000000000e+00 0.000000000000000e+00 0.000000000000000e+00
0.000000000000000e+00 0.000000000000000e+00 0.000000000000000e+00
0.000000000000000e+00 0.000000000000000e+00 0.000000000000000e+00
0.000000000000000e+00 0.000000000000000e+00 0.000000000000000e+00
0.000000000000000e+00 0.000000000000000e+00 0.000000000000000e+00
0.000000000000000e+00 0.000000000000000e+00 0.000000000000000e+00
0.000000000000000e+00 0.000000000000000e+00 0.000000000000000e+00
0.000000000000000e+00 0.000000000000000e+00 0.000000000000000e+00
0.000000000000000e+00 0.000000000000000e+00 0.000000000000000e+00
0.000000000000000e+00 0.000000000000000e+00 0.000000000000000e+00
0.000000000000000e+00 0.000000000000000e+00 0.000000000000000e+00
0.000000000000000e+00 0.000000000000000e+00 0.000000000000000e+00
0.000000000000000e+00 0.000000000000000e+00 0.000000000000000e+00
0.000000000000000e+00 0.000000000000000e+00 0.000000000000000e+00
0.000000000000000e+00 0.000000000000000e+00 0.000000000000000e+00
0.000000000000000e+00 0.000000000000000e+00 0.000000000000000e+00
0.000000000000000e+00 0.000000000000000e+00 0.000000000000000e+00
0.000000000000000e+00 0.000000000000000e+00 0.000000000000000e+00
0.000000000000000e+00 0.000000000000000e+00 0.000000000000000e+00
0.000000000000000e+00 0.000000000000000e+00 0.000000000000000e+00
0.000000000000000e+00 0.000000000000000e+00 0.000000000000000e+00
0.000000000000000e+00 0.000000000000000e+00 0.000000000000000e+00
0.000000000000000e+00 0.000000000000000e+00 0.000000000000000e+00
0.000000000000000e+00 0.000000000000000e+00 0.000000000000000e+00
0.000000000000000e+00 0.000000000000000e+00 0.000000000000000e+00
0.000000000000000e+00 0.000000000000000e+00 0.000000000000000e+00
0.000000000000000e+00 0.000000000000000e+00 0.000000000000000e+00
0.000000000000000e+00 0.000000000000000e+00 0.000000000000000e+00
0.000000000000000e+00 0.000000000000000e+00 0.000000000000000e+00
0.000000000000000e+00 0.000000000000000e+00 0.000000000000000e+00
0.000000000000000e+00 0.000000000000000e+00 0.000000000000000e+00
0.000000000000000e+00 0.000000000000000e+00 0.000000000000000e+00
0.000000000000000e+00 0.000000000000000e+00 0.000000000000000e+00
0.000000000000000e+00 0.000000000000000e+00 0.000000000000000e+00
0.000000000000000e+00 0.000000000000000e+00 0.000000000000000e+00
0.000000000000000e+00 0.000000000000000e+00 0.000000000000000e+00
0.000000000000000e+00 0.000000000000000e+00 0.000000000000000e+00
0.000000000000000e+00 0.000000000000000e+00 0.000000000000000e+00
0.000000000000000e+00 0.000000000000000e+00 0.000000000000000e+00
0.000000000000000e+00 0.000000000000000e+00 0.000000000000000e+00
0.000000000000000e+00 0.000000000000000e+00 0.000000000000000e+00
0.000000000000000e+00 0.000000000000000e+00 0.000000000000000e+00
0.000000000000000e+00 0.000000000000000e+00 0.000000000000000e+00
0.000000000000000e+00 0.000000000000000e+00 0.000000000000000e+00
0.000000000000000e+00 0.000000000000000e+00 0.000000000000000e+00
0.000000000000000e+00 0.000000000000000e+00 0.000000000000000e+00
0.000000000000000e+00 0.000000000000000e+00 0.000000000000000e+00
0.000000000000000e+00 0.000000000000000e+00 0.000000000000000e+00
0.000000000000000e+00 0.000000000000000e+00 0.000000000000000e+00
0.000000000000000e+00 0.000000000000000e+00 0.000000000000000e+00
0.000000000000000e+00 0.000000000000000e+00 0.000000000000000e+00
0.000000000000000e+00 0.000000000000000e+00 0.000000000000000e+00
0.000000000000000e+00 0.000000000000000e+00 0.000000000000000e+00
0.000000000000000e+00 0.000000000000000e+00 0.000000000000000e+00
0.000000000000000e+00 0.000000000000000e+00 0.000000000000000e+00
0.000000000000000e+00 0.000000000000000e+00 0.000000000000000e+00
0.000000000000000e+00 0.000000000000000e+00 0.000000000000000e+00
0.000000000000000e+00 0.000000000000000e+00 0.000000000000000e+00
0.000000000000000e+00 0.000000000000000e+00 0.000000000000000e+00
0.000000000000000e+00 0.000000000000000e+00 0.000000000000000e+00
0.000000000000000e+00 0.000000000000000e+00 0.000000000000000e+00
0.000000000000000e+00 0.000000000000000e+00 0.000000000000000e+00
0.000000000000000e+00 0.000000000000000e+00 0.000000000000000e+00
0.000000000000000e+00 0.000000000000000e+00 0.000000000000000e+00
0.000000000000000e+00 0.000000000000000e+00 0.000000000000000e+00
0.000000000000000e+00 0.000000000000000e+00 0.000000000000000e+00
0.000000000000000e+00 0.000000000000000e+00 0.000000000000000e+00
0.000000000000000e+00 0.000000000000000e+00 0.000000000000000e+00
0.000000000000000e+00 0.000000000000000e+00 0.000000000000000e+00
0.000000000000000e+00 0.000000000000000e+00 0.000000000000000e+00
0.000000000000000e+00 0.000000000000000e+00 0.000000000000000e+00
0.000000000000000e+00 0.000000000000000e+00 0.000000000000000e+00
0.000000000000000e+00 0.000000000000000e+00 0.000000000000000e+00
0.000000000000000e+00 0.000000000000000e+00 0.000000000000000e+00
0.000000000000000e+00 0.000000000000000e+00 0.000000000000000e+00
0.000000000000000e+00 0.000000000000000e+00 0.000000000000000e+00
0.000000000000000e+00 0.000000000000000e+00 0.000000000000000e+00
0.000000000000000e+00 0.000000000000000e+00 0.000000000000000e+00
0.000000000000000e+00 0.000000000000000e+00 0.000000000000000e+00
0.000000000000000e+00 0.000000000000000e+00 0.000000000000000e+00
0.000000000000000e+00 0.000000000000000e+00 0.000000000000000e+00
0.000000000000000e+00 0.000000000000000e+00 0.000000000000000e+00
0.000000000000000e+00 0.000000000000000e+00 0.000000000000000e+00
0.000000000000000e+00 0.000000000000000e+00 0.000000000000000e+00
0.000000000000000e+00 0.000000000000000e+00 0.000000000000000e+00
0.000000000000000e+00 0.000000000000000e+00 0.000000000000000e+00
0.000000000000000e+00 0.000000000000000e+00 0.000000000000000e+00
0.000000000000000e+00 0.000000000000000e+00 0.000000000000000e+00
0.000000000000000e+00 0.000000000000000e+00 0.000000000000000e+00
0.000000000000000e+00 0.000000000000000e+00 0.000000000000000e+00
0.000000000000000e+00 0.000000000000000e+00 0.000000000000000e+00
0.000000000000000e+00 0.000000000000000e+00 0.000000000000000e+00
0.000000000000000e+00 0.000000000000000e+00 0.000000000000000e+00
0.000000000000000e+00 0.000000000000000e+00 0.000000000000000e+00
0.000000000000000e+00 0.000000000000000e+00 0.000000000000000e+00
0.000000000000000e+00 0.000000000000000e+00 0.000000000000000e+00
0.000000000000000e+00 0.000000000000000e+00 0.000000000000000e+00
0.000000000000000e+00 0.000000000000000e+00 0.000000000000000e+00
0.000000000000000e+00 0.000000000000000e+00 0.000000000000000e+00
0.000000000000000e+00 0.000000000000000e+00 0.000000000000000e+00
0.000000000000000e+00 0.000000000000000e+00 0.000000000000000e+00
0.000000000000000e+00 0.000000000000000e+00 0.000000000000000e+00
0.000000000000000e+00 0.000000000000000e+00 0.000000000000000e+00
0.000000000000000e+00 0.000000000000000e+00 0.000000000000000e+00
0.000000000000000e+00 0.000000000000000e+00 0.000000000000000e+00
0.000000000000000e+00 0.000000000000000e+00 0.000000000000000e+00
0.000000000000000e+00 0.000000000000000e+00 0.000000000000000e+00
0.000000000000000e+00 0.000000000000000e+00 0.000000000000000e+00
0.000000000000000e+00 0.000000000000000e+00 0.000000000000000e+00
0.000000000000000e+00 0.000000000000000e+00 0.000000000000000e+00
0.000000000000000e+00 0.000000000000000e+00 0.000000000000000e+00
0.000000000000000e+00 0.000000000000000e+00 0.000000000000000e+00
0.000000000000000e+00 0.000000000000000e+00 0.000000000000000e+00
0.000000000000000e+00 0.000000000000000e+00 0.000000000000000e+00
0.000000000000000e+00 0.000000000000000e+00 0.000000000000000e+00
0.000000000000000e+00 0.000000000000000e+00 0.000000000000000e+00
0.000000000000000e+00 0.000000000000000e+00 0.000000000000000e+00
0.000000000000000e+00 0.000000000000000e+00 0.000000000000000e+00
0.000000000000000e+00 0.000000000000000e+00 0.000000000000000e+00
0.000000000000000e+00 0.000000000000000e+00 0.000000000000000e+00
0.000000000000000e+00 0.000000000000000e+00 0.000000000000000e+00
0.000000000000000e+00 0.000000000000000e+00 0.000000000000000e+00
0.000000000000000e+00 0.000000000000000e+00 0.000000000000000e+00
0.000000000000000e+00 0.000000000000000e+00 0.000000000000000e+00
0.000000000000000e+00 0.000000000000000e+00 0.000000000000000e+00
0.000000000000000e+00 0.000000000000000e+00 0.000000000000000e+00
0.000000000000000e+00 0.000000000000000e+00 0.000000000000000e+00
0.000000000000000e+00 0.000000000000000e+00 0.000000000000000e+00
0.000000000000000e+00 0.000000000000000e+00 0.000000000000000e+00
0.000000000000000e+00 0.000000000000000e+00 0.000000000000000e+00
0.000000000000000e+00 0.000000000000000e+00 0.000000000000000e+00
0.000000000000000e+00 0.000000000000000e+00 0.000000000000000e+00
0.000000000000000e+00 0.000000000000000e+00 0.000000000000000e+00
0.000000000000000e+00 0.000000000000000e+00 0.000000000000000e+00
0.000000000000000e+00 0.000000000000000e+00 0.000000000000000e+00
0.000000000000000e+00 0.000000000000000e+00 0.000000000000000e+00
0.000000000000000e+00 0.000000000000000e+00 0.000000000000000e+00
0.000000000000000e+00 0.000000000000000e+00 0.000000000000000e+00
0.000000000000000e+00 0.000000000000000e+00 0.000000000000000e+00
0.000000000000000e+00 0.000000000000000e+00 0.000000000000000e+00
0.000000000000000e+00 0.000000000000000e+00 0.000000000000000e+00
0.000000000000000e+00 0.000000000000000e+00 0.000000000000000e+00
0.000000000000000e+00 0.000000000000000e+00 0.000000000000000e+00
0.000000000000000e+00 0.000000000000000e+00 0.000000000000000e+00
0.000000000000000e+00 0.000000000000000e+00 0.000000000000000e+00
0.000000000000000e+00 0.000000000000000e+00 0.000000000000000e+00
0.000000000000000e+00 0.000000000000000e+00 0.000000000000000e+00
0.000000000000000e+00 0.000000000000000e+00 0.000000000000000e+00
0.000000000000000e+00 0.000000000000000e+00 0.000000000000000e+00
0.000000000000000e+00 0.000000000000000e+00 0.000000000000000e+00
0.000000000000000e+00 0.000000000000000e+00 0.000000000000000e+00
0.000000000000000e+00 0.000000000000000e+00 0.000000000000000e+00
0.000000000000000e+00 0.000000000000000e+00 0.000000000000000e+00
0.000000000000000e+00 0.000000000000000e+00 0.000000000000000e+00
0.000000000000000e+00 0.000000000000000e+00 0.000000000000000e+00
0.000000000000000e+00 0.000000000000000e+00 0.000000000000000e+00
0.000000000000000e+00 0.000000000000000e+00 0.000000000000000e+00
0.000000000000000e+00 0.000000000000000e+00 0.000000000000000e+00
0.000000000000000e+00 0.000000000000000e+00 0.000000000000000e+00
0.000000000000000e+00 0.000000000000000e+00 0.000000000000000e+00
0.000000000000000e+00 0.000000000000000e+00 0.000000000000000e+00
0.000000000000000e+00 0.000000000000000e+00 0.000000000000000e+00
0.000000000000000e+00 0.000000000000000e+00 0.000000000000000e+00
0.000000000000000e+00 0.000000000000000e+00 0.000000000000000e+00
0.000000000000000e+00 0.000000000000000e+00 0.000000000000000e+00
0.000000000000000e+00 0.000000000000000e+00 0.000000000000000e+00
0.000000000000000e+00 0.000000000000000e+00 0.000000000000000e+00
0.000000000000000e+00 0.000000000000000e+00 0.000000000000000e+00
0.000000000000000e+00 0.000000000000000e+00 0.000000000000000e+00
0.000000000000000e+00 0.000000000000000e+00 0.000000000000000e+00
0.000000000000000e+00 0.000000000000000e+00 0.000000000000000e+00
0.000000000000000e+00 0.000000000000000e+00 0.000000000000000e+00
0.000000000000000e+00 0.000000000000000e+00 0.000000000000000e+00
0.000000000000000e+00 0.000000000000000e+00 0.000000000000000e+00
0.000000000000000e+00 0.000000000000000e+00 0.000000000000000e+00
0.000000000000000e+00 0.000000000000000e+00 0.000000000000000e+00
0.000000000000000e+00 0.000000000000000e+00 0.000000000000000e+00
0.000000000000000e+00 0.000000000000000e+00 0.000000000000000e+00
0.000000000000000e+00 0.000000000000000e+00 0.000000000000000e+00
0.000000000000000e+00 0.000000000000000e+00 0.000000000000000e+00
0.000000000000000e+00 0.000000000000000e+00 0.000000000000000e+00
0.000000000000000e+00 0.000000000000000e+00 0.000000000000000e+00
0.000000000000000e+00 0.000000000000000e+00 0.000000000000000e+00
0.000000000000000e+00 0.000000000000000e+00 0.000000000000000e+00
0.000000000000000e+00 0.000000000000000e+00 0.000000000000000e+00
0.000000000000000e+00 0.000000000000000e+00 0.000000000000000e+00
0.000000000000000e+00 0.000000000000000e+00 0.000000000000000e+00
0.000000000000000e+00 0.000000000000000e+00 0.000000000000000e+00
0.000000000000000e+00 0.000000000000000e+00 0.000000000000000e+00
0.000000000000000e+00 0.000000000000000e+00 0.000000000000000e+00
0.000000000000000e+00 0.000000000000000e+00 0.000000000000000e+00
0.000000000000000e+00 0.000000000000000e+00 0.000000000000000e+00
0.000000000000000e+00 0.000000000000000e+00 0.000000000000000e+00
0.000000000000000e+00 0.000000000000000e+00 0.000000000000000e+00
0.000000000000000e+00 0.000000000000000e+00 0.000000000000000e+00
0.000000000000000e+00 0.000000000000000e+00 0.000000000000000e+00
0.000000000000000e+00 0.000000000000000e+00 0.000000000000000e+00
0.000000000000000e+00 0.000000000000000e+00 0.000000000000000e+00
0.000000000000000e+00 0.000000000000000e+00 0.000000000000000e+00
0.000000000000000e+00 0.000000000000000e+00 0.000000000000000e+00
0.000000000000000e+00 0.000000000000000e+00 0.000000000000000e+00
0.000000000000000e+00 0.000000000000000e+00 0.000000000000000e+00
0.000000000000000e+00 0.000000000000000e+00 0.000000000000000e+00
0.000000000000000e+00 0.000000000000000e+00 0.000000000000000e+00
0.000000000000000e+00 0.000000000000000e+00 0.000000000000000e+00
0.000000000000000e+00 0.000000000000000e+00 0.000000000000000e+00
0.000000000000000e+00 0.000000000000000e+00 0.000000000000000e+00
0.000000000000000e+00 0.000000000000000e+00 0.000000000000000e+00
0.000000000000000e+00 0.000000000000000e+00 0.000000000000000e+00
0.000000000000000e+00 0.000000000000000e+00 0.000000000000000e+00
0.000000000000000e+00 0.000000000000000e+00 0.000000000000000e+00
0.000000000000000e+00 0.000000000000000e+00 0.000000000000000e+00
0.000000000000000e+00 0.000000000000000e+00 0.000000000000000e+00
0.000000000000000e+00 0.000000000000000e+00 0.000000000000000e+00
0.000000000000000e+00 0.000000000000000e+00 0.000000000000000e+00
0.000000000000000e+00 0.000000000000000e+00 0.000000000000000e+00
0.000000000000000e+00 0.000000000000000e+00 0.000000000000000e+00
0.000000000000000e+00 0.000000000000000e+00 0.000000000000000e+00
0.000000000000000e+00 0.000000000000000e+00 0.000000000000000e+00
0.000000000000000e+00 0.000000000000000e+00 0.000000000000000e+00
0.000000000000000e+00 0.000000000000000e+00 0.000000000000000e+00
0.000000000000000e+00 0.000000000000000e+00 0.000000000000000e+00
0.000000000000000e+00 0.000000000000000e+00 0.000000000000000e+00
0.000000000000000e+00 0.000000000000000e+00 0.000000000000000e+00
0.000000000000000e+00 0.000000000000000e+00 0.000000000000000e+00
0.000000000000000e+00 0.000000000000000e+00 0.000000000000000e+00
0.000000000000000e+00 0.000000000000000e+00 0.000000000000000e+00
0.000000000000000e+00 0.000000000000000e+00 0.000000000000000e+00
0.000000000000000e+00 0.000000000000000e+00 0.000000000000000e+00
0.000000000000000e+00 0.000000000000000e+00 0.000000000000000e+00
0.000000000000000e+00 0.000000000000000e+00 0.000000000000000e+00
0.000000000000000e+00 0.000000000000000e+00 0.000000000000000e+00
0.000000000000000e+00 0.000000000000000e+00 0.000000000000000e+00
0.000000000000000e+00 0.000000000000000e+00 0.000000000000000e+00
0.000000000000000e+00 0.000000000000000e+00 0.000000000000000e+00
0.000000000000000e+00 0.000000000000000e+00 0.000000000000000e+00
0.000000000000000e+00 0.000000000000000e+00 0.000000000000000e+00
0.000000000000000e+00 0.000000000000000e+00 0.000000000000000e+00
0.000000000000000e+00 0.000000000000000e+00 0.000000000000000e+00
0.000000000000000e+00 0.000000000000000e+00 0.000000000000000e+00
0.000000000000000e+00 0.000000000000000e+00 0.000000000000000e+00
0.000000000000000e+00 0.000000000000000e+00 0.000000000000000e+00
0.000000000000000e+00 0.000000000000000e+00 0.000000000000000e+00
0.000000000000000e+00 0.000000000000000e+00 0.000000000000000e+00
0.000000000000000e+00 0.000000000000000e+00 0.000000000000000e+00
0.000000000000000e+00 0.000000000000000e+00 0.000000000000000e+00
0.000000000000000e+00 0.000000000000000e+00 0.000000000000000e+00
0.000000000000000e+00 0.000000000000000e+00 0.000000000000000e+00
0.000000000000000e+00 0.000000000000000e+00 0.000000000000000e+00
0.000000000000000e+00 0.000000000000000e+00 0.000000000000000e+00
0.000000000000000e+00 0.000000000000000e+00 0.000000000000000e+00
0.000000000000000e+00 0.000000000000000e+00 0.000000000000000e+00
0.000000000000000e+00 0.000000000000000e+00 0.000000000000000e+00
0.000000000000000e+00 0.000000000000000e+00 0.000000000000000e+00
0.000000000000000e+00 0.000000000000000e+00 0.000000000000000e+00
0.000000000000000e+00 0.000000000000000e+00 0.000000000000000e+00
0.000000000000000e+00 0.000000000000000e+00 0.000000000000000e+00
0.000000000000000e+00 0.000000000000000e+00 0.000000000000000e+00
0.000000000000000e+00 0.000000000000000e+00 0.000000000000000e+00
0.000000000000000e+00 0.000000000000000e+00 0.000000000000000e+00
0.000000000000000e+00 0.000000000000000e+00 0.000000000000000e+00
0.000000000000000e+00 0.000000000000000e+00 0.000000000000000e+00
0.000000000000000e+00 0.000000000000000e+00 0.000000000000000e+00
0.000000000000000e+00 0.000000000000000e+00 0.000000000000000e+00
0.000000000000000e+00 0.000000000000000e+00 0.000000000000000e+00
0.000000000000000e+00 0.000000000000000e+00 0.000000000000000e+00
0.000000000000000e+00 0.000000000000000e+00 0.000000000000000e+00
0.000000000000000e+00 0.000000000000000e+00 0.000000000000000e+00
0.000000000000000e+00 0.000000000000000e+00 0.000000000000000e+00
0.000000000000000e+00 0.000000000000000e+00 0.000000000000000e+00
0.000000000000000e+00 0.000000000000000e+00 0.000000000000000e+00
0.000000000000000e+00 0.000000000000000e+00 0.000000000000000e+00
0.000000000000000e+00 0.000000000000000e+00 0.000000000000000e+00
0.000000000000000e+00 0.000000000000000e+00 0.000000000000000e+00
0.000000000000000e+00 0.000000000000000e+00 0.000000000000000e+00
0.000000000000000e+00 0.000000000000000e+00 0.000000000000000e+00
0.000000000000000e+00 0.000000000000000e+00 0.000000000000000e+00
0.000000000000000e+00 0.000000000000000e+00 0.000000000000000e+00
0.000000000000000e+00 0.000000000000000e+00 0.000000000000000e+00
0.000000000000000e+00 0.000000000000000e+00 0.000000000000000e+00
0.000000000000000e+00 0.000000000000000e+00 0.000000000000000e+00
0.000000000000000e+00 0.000000000000000e+00 0.000000000000000e+00
0.000000000000000e+00 0.000000000000000e+00 0.000000000000000e+00
0.000000000000000e+00 0.000000000000000e+00 0.000000000000000e+00
0.000000000000000e+00 0.000000000000000e+00 0.000000000000000e+00
0.000000000000000e+00 0.000000000000000e+00 0.000000000000000e+00
0.000000000000000e+00 0.000000000000000e+00 0.000000000000000e+00
0.000000000000000e+00 0.000000000000000e+00 0.000000000000000e+00
0.000000000000000e+00 0.000000000000000e+00 0.000000000000000e+00
0.000000000000000e+00 0.000000000000000e+00 0.000000000000000e+00
0.000000000000000e+00 0.000000000000000e+00 0.000000000000000e+00
0.000000000000000e+00 0.000000000000000e+00 0.000000000000000e+00
0.000000000000000e+00 0.000000000000000e+00 0.000000000000000e+00
0.000000000000000e+00 0.000000000000000e+00 0.000000000000000e+00
0.000000000000000e+00 0.000000000000000e+00 0.000000000000000e+00
0.000000000000000e+00 0.000000000000000e+00 0.000000000000000e+00
0.000000000000000e+00 0.000000000000000e+00 0.000000000000000e+00
0.000000000000000e+00 0.000000000000000e+00 0.000000000000000e+00
0.000000000000000e+00 0.000000000000000e+00 0.000000000000000e+00
0.000000000000000e+00 0.000000000000000e+00 0.000000000000000e+00
0.000000000000000e+00 0.000000000000000e+00 0.000000000000000e+00
0.000000000000000e+00 0.000000000000000e+00 0.000000000000000e+00
0.000000000000000e+00 0.000000000000000e+00 0.000000000000000e+00
0.000000000000000e+00 0.000000000000000e+00 0.000000000000000e+00
0.000000000000000e+00 0.000000000000000e+00 0.000000000000000e+00
0.000000000000000e+00 0.000000000000000e+00 0.000000000000000e+00
0.000000000000000e+00 0.000000000000000e+00 0.000000000000000e+00
0.000000000000000e+00 0.000000000000000e+00 0.000000000000000e+00
0.000000000000000e+00 0.000000000000000e+00 0.000000000000000e+00
0.000000000000000e+00 0.000000000000000e+00 0.000000000000000e+00
0.000000000000000e+00 0.000000000000000e+00 0.000000000000000e+00
0.000000000000000e+00 0.000000000000000e+00 0.000000000000000e+00
0.000000000000000e+00 0.000000000000000e+00 0.000000000000000e+00
0.000000000000000e+00 0.000000000000000e+00 0.000000000000000e+00
0.000000000000000e+00 0.000000000000000e+00 0.000000000000000e+00
0.000000000000000e+00 0.000000000000000e+00 0.000000000000000e+00
0.000000000000000e+00 0.000000000000000e+00 0.000000000000000e+00
0.000000000000000e+00 0.000000000000000e+00 0.000000000000000e+00
0.000000000000000e+00 0.000000000000000e+00 0.000000000000000e+00
0.000000000000000e+00 0.000000000000000e+00 0.000000000000000e+00
0.000000000000000e+00 0.000000000000000e+00 0.000000000000000e+00
0.000000000000000e+00 0.000000000000000e+00 0.000000000000000e+00
0.000000000000000e+00 0.000000000000000e+00 0.000000000000000e+00
0.000000000000000e+00 0.000000000000000e+00 0.000000000000000e+00
0.000000000000000e+00 0.000000000000000e+00 0.000000000000000e+00
0.000000000000000e+00 0.000000000000000e+00 0.000000000000000e+00
0.000000000000000e+00 0.000000000000000e+00 0.000000000000000e+00
0.000000000000000e+00 0.000000000000000e+00 0.000000000000000e+00
0.000000000000000e+00 0.000000000000000e+00 0.000000000000000e+00
0.000000000000000e+00 0.000000000000000e+00 0.000000000000000e+00
0.000000000000000e+00 0.000000000000000e+00 0.000000000000000e+00
0.000000000000000e+00 0.000000000000000e+00 0.000000000000000e+00
0.000000000000000e+00 0.000000000000000e+00 0.000000000000000e+00
0.000000000000000e+00 0.000000000000000e+00 0.000000000000000e+00
0.000000000000000e+00 0.000000000000000e+00 0.000000000000000e+00
0.000000000000000e+00 0.000000000000000e+00 0.000000000000000e+00
0.000000000000000e+00 0.000000000000000e+00 0.000000000000000e+00
0.000000000000000e+00 0.000000000000000e+00 0.000000000000000e+00
0.000000000000000e+00 0.000000000000000e+00 0.000000000000000e+00
0.000000000000000e+00 0.000000000000000e+00 0.000000000000000e+00
0.000000000000000e+00 0.000000000000000e+00 0.000000000000000e+00
0.000000000000000e+00 0.000000000000000e+00 0.000000000000000e+00
0.000000000000000e+00 0.000000000000000e+00 0.000000000000000e+00
0.000000000000000e+00 0.000000000000000e+00 0.000000000000000e+00
0.000000000000000e+00 0.000000000000000e+00 0.000000000000000e+00
0.000000000000000e+00 0.000000000000000e+00 0.000000000000000e+00
0.000000000000000e+00 0.000000000000000e+00 0.000000000000000e+00
0.000000000000000e+00 0.000000000000000e+00 0.000000000000000e+00
0.000000000000000e+00 0.000000000000000e+00 0.000000000000000e+00
0.000000000000000e+00 0.000000000000000e+00 0.000000000000000e+00
0.000000000000000e+00 0.000000000000000e+00 0.000000000000000e+00
0.000000000000000e+00 0.000000000000000e+00 0.000000000000000e+00
0.000000000000000e+00 0.000000000000000e+00 0.000000000000000e+00
0.000000000000000e+00 0.000000000000000e+00 0.000000000000000e+00
0.000000000000000e+00 0.000000000000000e+00 0.000000000000000e+00
0.000000000000000e+00 0.000000000000000e+00 0.000000000000000e+00
0.000000000000000e+00 0.000000000000000e+00 0.000000000000000e+00
0.000000000000000e+00 0.000000000000000e+00 0.000000000000000e+00
0.000000000000000e+00 0.000000000000000e+00 0.000000000000000e+00
0.000000000000000e+00 0.000000000000000e+00 0.000000000000000e+00
0.000000000000000e+00 0.000000000000000e+00 0.000000000000000e+00
0.000000000000000e+00 0.000000000000000e+00 0.000000000000000e+00
0.000000000000000e+00 0.000000000000000e+00 0.000000000000000e+00
0.000000000000000e+00 0.000000000000000e+00 0.000000000000000e+00
0.000000000000000e+00 0.000000000000000e+00 0.000000000000000e+00
0.000000000000000e+00 0.000000000000000e+00 0.000000000000000e+00
0.000000000000000e+00 0.000000000000000e+00 0.000000000000000e+00
0.000000000000000e+00 0.000000000000000e+00 0.000000000000000e+00
0.000000000000000e+00 0.000000000000000e+00 0.000000000000000e+00
0.000000000000000e+00 0.000000000000000e+00 0.000000000000000e+00
0.000000000000000e+00 0.000000000000000e+00 0.000000000000000e+00
0.000000000000000e+00 0.000000000000000e+00 0.000000000000000e+00
0.000000000000000e+00 0.000000000000000e+00 0.000000000000000e+00
0.000000000000000e+00 0.000000000000000e+00 0.000000000000000e+00
0.000000000000000e+00 0.000000000000000e+00 0.000000000000000e+00
0.000000000000000e+00 0.000000000000000e+00 0.000000000000000e+00
0.000000000000000e+00 0.000000000000000e+00 0.000000000000000e+00
0.000000000000000e+00 0.000000000000000e+00 0.000000000000000e+00
0.000000000000000e+00 0.000000000000000e+00 0.000000000000000e+00
0.000000000000000e+00 0.000000000000000e+00 0.000000000000000e+00
0.000000000000000e+00 0.000000000000000e+00 0.000000000000000e+00
0.000000000000000e+00 0.000000000000000e+00 0.000000000000000e+00
0.000000000000000e+00 0.000000000000000e+00 0.000000000000000e+00
0.000000000000000e+00 0.000000000000000e+00 0.000000000000000e+00
0.000000000000000e+00 0.000000000000000e+00 0.000000000000000e+00
0.000000000000000e+00 0.000000000000000e+00 0.000000000000000e+00
0.000000000000000e+00 0.000000000000000e+00 0.000000000000000e+00
0.000000000000000e+00 0.000000000000000e+00 0.000000000000000e+00
0.000000000000000e+00 0.000000000000000e+00 0.000000000000000e+00
0.000000000000000e+00 0.000000000000000e+00 0.000000000000000e+00
0.000000000000000e+00 0.000000000000000e+00 0.000000000000000e+00
0.000000000000000e+00 0.000000000000000e+00 0.000000000000000e+00
0.000000000000000e+00 0.000000000000000e+00 0.000000000000000e+00
0.000000000000000e+00 0.000000000000000e+00 0.000000000000000e+00
0.000000000000000e+00 0.000000000000000e+00 0.000000000000000e+00
0.000000000000000e+00 0.000000000000000e+00 0.000000000000000e+00
0.000000000000000e+00 0.000000000000000e+00 0.000000000000000e+00
0.000000000000000e+00 0.000000000000000e+00 0.000000000000000e+00
0.000000000000000e+00 0.000000000000000e+00 0.000000000000000e+00
0.000000000000000e+00 0.000000000000000e+00 0.000000000000000e+00
0.000000000000000e+00 0.000000000000000e+00 0.000000000000000e+00
0.000000000000000e+00 0.000000000000000e+00 0.000000000000000e+00
0.000000000000000e+00 0.000000000000000e+00 0.000000000000000e+00
0.000000000000000e+00 0.000000000000000e+00 0.000000000000000e+00
0.000000000000000e+00 0.000000000000000e+00 0.000000000000000e+00
0.000000000000000e+00 0.000000000000000e+00 0.000000000000000e+00
0.000000000000000e+00 0.000000000000000e+00 0.000000000000000e+00
0.000000000000000e+00 0.000000000000000e+00 0.000000000000000e+00
0.000000000000000e+00 0.000000000000000e+00 0.000000000000000e+00
0.000000000000000e+00 0.000000000000000e+00 0.000000000000000e+00
0.000000000000000e+00 0.000000000000000e+00 0.000000000000000e+00
0.000000000000000e+00 0.000000000000000e+00 0.000000000000000e+00
0.000000000000000e+00 0.000000000000000e+00 0.000000000000000e+00
0.000000000000000e+00 0.000000000000000e+00 0.000000000000000e+00
0.000000000000000e+00 0.000000000000000e+00 0.000000000000000e+00
0.000000000000000e+00 0.000000000000000e+00 0.000000000000000e+00
0.000000000000000e+00 0.000000000000000e+00 0.000000000000000e+00
0.000000000000000e+00 0.000000000000000e+00 0.000000000000000e+00
0.000000000000000e+00 0.000000000000000e+00 0.000000000000000e+00
0.000000000000000e+00 0.000000000000000e+00 0.000000000000000e+00
0.000000000000000e+00 0.000000000000000e+00 0.000000000000000e+00
0.000000000000000e+00 0.000000000000000e+00 0.000000000000000e+00
0.000000000000000e+00 0.000000000000000e+00 0.000000000000000e+00
0.000000000000000e+00 0.000000000000000e+00 0.000000000000000e+00
0.000000000000000e+00 0.000000000000000e+00 0.000000000000000e+00
0.000000000000000e+00 0.000000000000000e+00 0.000000000000000e+00
0.000000000000000e+00 0.000000000000000e+00 0.000000000000000e+00
0.000000000000000e+00 0.000000000000000e+00 0.000000000000000e+00
0.000000000000000e+00 0.000000000000000e+00 0.000000000000000e+00
0.000000000000000e+00 0.000000000000000e+00 0.000000000000000e+00
0.000000000000000e+00 0.000000000000000e+00 0.000000000000000e+00
0.000000000000000e+00 0.000000000000000e+00 0.000000000000000e+00
0.000000000000000e+00 0.000000000000000e+00 0.000000000000000e+00
0.000000000000000e+00 0.000000000000000e+00 0.000000000000000e+00
0.000000000000000e+00 0.000000000000000e+00 0.000000000000000e+00
0.000000000000000e+00 0.000000000000000e+00 0.000000000000000e+00
0.000000000000000e+00 0.000000000000000e+00 0.000000000000000e+00
0.000000000000000e+00 0.000000000000000e+00 0.000000000000000e+00
0.000000000000000e+00 0.000000000000000e+00 0.000000000000000e+00
0.000000000000000e+00 0.000000000000000e+00 0.000000000000000e+00
0.000000000000000e+00 0.000000000000000e+00 0.000000000000000e+00
0.000000000000000e+00 0.000000000000000e+00 0.000000000000000e+00
0.000000000000000e+00 0.000000000000000e+00 0.000000000000000e+00
0.000000000000000e+00 0.000000000000000e+00 0.000000000000000e+00
0.000000000000000e+00 0.000000000000000e+00 0.000000000000000e+00
0.000000000000000e+00 0.000000000000000e+00 0.000000000000000e+00
0.000000000000000e+00 0.000000000000000e+00 0.000000000000000e+00
0.000000000000000e+00 0.000000000000000e+00 0.000000000000000e+00
0.000000000000000e+00 0.000000000000000e+00 0.000000000000000e+00
0.000000000000000e+00 0.000000000000000e+00 0.000000000000000e+00
0.000000000000000e+00 0.000000000000000e+00 0.000000000000000e+00
0.000000000000000e+00 0.000000000000000e+00 0.000000000000000e+00
0.000000000000000e+00 0.000000000000000e+00 0.000000000000000e+00
0.000000000000000e+00 0.000000000000000e+00 0.000000000000000e+00
0.000000000000000e+00 0.000000000000000e+00 0.000000000000000e+00
0.000000000000000e+00 0.000000000000000e+00 0.000000000000000e+00
0.000000000000000e+00 0.000000000000000e+00 0.000000000000000e+00
0.000000000000000e+00 0.000000000000000e+00 0.000000000000000e+00
0.000000000000000e+00 0.000000000000000e+00 0.000000000000000e+00
0.000000000000000e+00 0.000000000000000e+00 0.000000000000000e+00
0.000000000000000e+00 0.000000000000000e+00 0.000000000000000e+00
0.000000000000000e+00 0.000000000000000e+00 0.000000000000000e+00
0.000000000000000e+00 0.000000000000000e+00 0.000000000000000e+00
0.000000000000000e+00 0.000000000000000e+00 0.000000000000000e+00
0.000000000000000e+00 0.000000000000000e+00 0.000000000000000e+00
0.000000000000000e+00 0.000000000000000e+00 0.000000000000000e+00
0.000000000000000e+00 0.000000000000000e+00 0.000000000000000e+00
0.000000000000000e+00 0.000000000000000e+00 0.000000000000000e+00
0.000000000000000e+00 0.000000000000000e+00 0.000000000000000e+00
0.000000000000000e+00 0.000000000000000e+00 0.000000000000000e+00
0.000000000000000e+00 0.000000000000000e+00 0.000000000000000e+00
0.000000000000000e+00 0.000000000000000e+00 0.000000000000000e+00
0.000000000000000e+00 0.000000000000000e+00 0.000000000000000e+00
0.000000000000000e+00 0.000000000000000e+00 0.000000000000000e+00
0.000000000000000e+00 0.000000000000000e+00 0.000000000000000e+00
0.000000000000000e+00 0.000000000000000e+00 0.000000000000000e+00
0.000000000000000e+00 0.000000000000000e+00 0.000000000000000e+00
0.000000000000000e+00 0.000000000000000e+00 0.000000000000000e+00
0.000000000000000e+00 0.000000000000000e+00 0.000000000000000e+00
0.000000000000000e+00 0.000000000000000e+00 0.000000000000000e+00
0.000000000000000e+00 0.000000000000000e+00 0.000000000000000e+00
0.000000000000000e+00 0.000000000000000e+00 0.000000000000000e+00
0.000000000000000e+00 0.000000000000000e+00 0.000000000000000e+00
0.000000000000000e+00 0.000000000000000e+00 0.000000000000000e+00
0.000000000000000e+00 0.000000000000000e+00 0.000000000000000e+00
0.000000000000000e+00 0.000000000000000e+00 0.000000000000000e+00
0.000000000000000e+00 0.000000000000000e+00 0.000000000000000e+00
0.000000000000000e+00 0.000000000000000e+00 0.000000000000000e+00
0.000000000000000e+00 0.000000000000000e+00 0.000000000000000e+00
0.000000000000000e+00 0.000000000000000e+00 0.000000000000000e+00
0.000000000000000e+00 0.000000000000000e+00 0.000000000000000e+00
0.000000000000000e+00 0.000000000000000e+00 0.000000000000000e+00
0.000000000000000e+00 0.000000000000000e+00 0.000000000000000e+00
0.000000000000000e+00 0.000000000000000e+00 0.000000000000000e+00
0.000000000000000e+00 0.000000000000000e+00 0.000000000000000e+00
0.000000000000000e+00 0.000000000000000e+00 0.000000000000000e+00
0.000000000000000e+00 0.000000000000000e+00 0.000000000000000e+00
0.000000000000000e+00 0.000000000000000e+00 0.000000000000000e+00
0.000000000000000e+00 0.000000000000000e+00 0.000000000000000e+00
0.000000000000000e+00 0.000000000000000e+00 0.000000000000000e+00
0.000000000000000e+00 0.000000000000000e+00 0.000000000000000e+00
0.000000000000000e+00 0.000000000000000e+00 0.000000000000000e+00
0.000000000000000e+00 0.000000000000000e+00 0.000000000000000e+00
0.000000000000000e+00 0.000000000000000e+00 0.000000000000000e+00
0.000000000000000e+00 0.000000000000000e+00 0.000000000000000e+00
0.000000000000000e+00 0.000000000000000e+00 0.000000000000000e+00
0.000000000000000e+00 0.000000000000000e+00 0.000000000000000e+00
0.000000000000000e+00 0.000000000000000e+00 0.000000000000000e+00
0.000000000000000e+00 0.000000000000000e+00 0.000000000000000e+00
0.000000000000000e+00 0.000000000000000e+00 0.000000000000000e+00
0.000000000000000e+00 0.000000000000000e+00 0.000000000000000e+00
0.000000000000000e+00 0.000000000000000e+00 0.000000000000000e+00
0.000000000000000e+00 0.000000000000000e+00 0.000000000000000e+00
0.000000000000000e+00 0.000000000000000e+00 0.000000000000000e+00
0.000000000000000e+00 0.000000000000000e+00 0.000000000000000e+00
0.000000000000000e+00 0.000000000000000e+00 0.000000000000000e+00
0.000000000000000e+00 0.000000000000000e+00 0.000000000000000e+00
0.000000000000000e+00 0.000000000000000e+00 0.000000000000000e+00
0.000000000000000e+00 0.000000000000000e+00 0.000000000000000e+00
0.000000000000000e+00 0.000000000000000e+00 0.000000000000000e+00
0.000000000000000e+00 0.000000000000000e+00 0.000000000000000e+00
0.000000000000000e+00 0.000000000000000e+00 0.000000000000000e+00
0.000000000000000e+00 0.000000000000000e+00 0.000000000000000e+00
0.000000000000000e+00 0.000000000000000e+00 0.000000000000000e+00
0.000000000000000e+00 0.000000000000000e+00 0.000000000000000e+00
0.000000000000000e+00 0.000000000000000e+00 0.000000000000000e+00
0.000000000000000e+00 0.000000000000000e+00 0.000000000000000e+00
0.000000000000000e+00 0.000000000000000e+00 0.000000000000000e+00
0.000000000000000e+00 0.000000000000000e+00 0.000000000000000e+00
0.000000000000000e+00 0.000000000000000e+00 0.000000000000000e+00
0.000000000000000e+00 0.000000000000000e+00 0.000000000000000e+00
0.000000000000000e+00 0.000000000000000e+00 0.000000000000000e+00
0.000000000000000e+00 0.000000000000000e+00 0.000000000000000e+00
0.000000000000000e+00 0.000000000000000e+00 0.000000000000000e+00
0.000000000000000e+00 0.000000000000000e+00 0.000000000000000e+00
0.000000000000000e+00 0.000000000000000e+00 0.000000000000000e+00
0.000000000000000e+00 0.000000000000000e+00 0.000000000000000e+00
0.000000000000000e+00 0.000000000000000e+00 0.000000000000000e+00
0.000000000000000e+00 0.000000000000000e+00 0.000000000000000e+00
0.000000000000000e+00 0.000000000000000e+00 0.000000000000000e+00
0.000000000000000e+00 0.000000000000000e+00 0.000000000000000e+00
0.000000000000000e+00 0.000000000000000e+00 0.000000000000000e+00
0.000000000000000e+00 0.000000000000000e+00 0.000000000000000e+00
0.000000000000000e+00 0.000000000000000e+00 0.000000000000000e+00
0.000000000000000e+00 0.000000000000000e+00 0.000000000000000e+00
0.000000000000000e+00 0.000000000000000e+00 0.000000000000000e+00
0.000000000000000e+00 0.000000000000000e+00 0.000000000000000e+00
0.000000000000000e+00 0.000000000000000e+00 0.000000000000000e+00
0.000000000000000e+00 0.000000000000000e+00 0.000000000000000e+00
0.000000000000000e+00 0.000000000000000e+00 0.000000000000000e+00
0.000000000000000e+00 0.000000000000000e+00 0.000000000000000e+00
0.000000000000000e+00 0.000000000000000e+00 0.000000000000000e+00
0.000000000000000e+00 0.000000000000000e+00 0.000000000000000e+00
0.000000000000000e+00 0.000000000000000e+00 0.000000000000000e+00
0.000000000000000e+00 0.000000000000000e+00 0.000000000000000e+00
0.000000000000000e+00 0.000000000000000e+00 0.000000000000000e+00
0.000000000000000e+00 0.000000000000000e+00 0.000000000000000e+00
0.000000000000000e+00 0.000000000000000e+00 0.000000000000000e+00
0.000000000000000e+00 0.000000000000000e+00 0.000000000000000e+00
0.000000000000000e+00 0.000000000000000e+00 0.000000000000000e+00
0.000000000000000e+00 0.000000000000000e+00 0.000000000000000e+00
0.000000000000000e+00 0.000000000000000e+00 0.000000000000000e+00
0.000000000000000e+00 0.000000000000000e+00 0.000000000000000e+00
0.000000000000000e+00 0.000000000000000e+00 0.000000000000000e+00
0.000000000000000e+00 0.000000000000000e+00 0.000000000000000e+00
0.000000000000000e+00 0.000000000000000e+00 0.000000000000000e+00
0.000000000000000e+00 0.000000000000000e+00 0.000000000000000e+00
0.000000000000000e+00 0.000000000000000e+00 0.000000000000000e+00
0.000000000000000e+00 0.000000000000000e+00 0.000000000000000e+00
0.000000000000000e+00 0.000000000000000e+00 0.000000000000000e+00
0.000000000000000e+00 0.000000000000000e+00 0.000000000000000e+00
0.000000000000000e+00 0.000000000000000e+00 0.000000000000000e+00
0.000000000000000e+00 0.000000000000000e+00 0.000000000000000e+00
0.000000000000000e+00 0.000000000000000e+00 0.000000000000000e+00
0.000000000000000e+00 0.000000000000000e+00 0.000000000000000e+00
0.000000000000000e+00 0.000000000000000e+00 0.000000000000000e+00
0.000000000000000e+00 0.000000000000000e+00 0.000000000000000e+00
0.000000000000000e+00 0.000000000000000e+00 0.000000000000000e+00
0.000000000000000e+00 0.000000000000000e+00 0.000000000000000e+00
0.000000000000000e+00 0.000000000000000e+00 0.000000000000000e+00
0.000000000000000e+00 0.000000000000000e+00 0.000000000000000e+00
0.000000000000000e+00 0.000000000000000e+00 0.000000000000000e+00
0.000000000000000e+00 0.000000000000000e+00 0.000000000000000e+00
0.000000000000000e+00 0.000000000000000e+00 0.000000000000000e+00
0.000000000000000e+00 0.000000000000000e+00 0.000000000000000e+00
0.000000000000000e+00 0.000000000000000e+00 0.000000000000000e+00
0.000000000000000e+00 0.000000000000000e+00 0.000000000000000e+00
0.000000000000000e+00 0.000000000000000e+00 0.000000000000000e+00
0.000000000000000e+00 0.000000000000000e+00 0.000000000000000e+00
0.000000000000000e+00 0.000000000000000e+00 0.000000000000000e+00
0.000000000000000e+00 0.000000000000000e+00 0.000000000000000e+00
0.000000000000000e+00 0.000000000000000e+00 0.000000000000000e+00
0.000000000000000e+00 0.000000000000000e+00 0.000000000000000e+00
0.000000000000000e+00 0.000000000000000e+00 0.000000000000000e+00
0.000000000000000e+00 0.000000000000000e+00 0.000000000000000e+00
0.000000000000000e+00 0.000000000000000e+00 0.000000000000000e+00
0.000000000000000e+00 0.000000000000000e+00 0.000000000000000e+00
0.000000000000000e+00 0.000000000000000e+00 0.000000000000000e+00
0.000000000000000e+00 0.000000000000000e+00 0.000000000000000e+00
0.000000000000000e+00 0.000000000000000e+00 0.000000000000000e+00
0.000000000000000e+00 0.000000000000000e+00 0.000000000000000e+00
0.000000000000000e+00 0.000000000000000e+00 0.000000000000000e+00
0.000000000000000e+00 0.000000000000000e+00 0.000000000000000e+00
0.000000000000000e+00 0.000000000000000e+00 0.000000000000000e+00
0.000000000000000e+00 0.000000000000000e+00 0.000000000000000e+00
0.000000000000000e+00 0.000000000000000e+00 0.000000000000000e+00
0.000000000000000e+00 0.000000000000000e+00 0.000000000000000e+00
0.000000000000000e+00 0.000000000000000e+00 0.000000000000000e+00
0.000000000000000e+00 0.000000000000000e+00 0.000000000000000e+00
0.000000000000000e+00 0.000000000000000e+00 0.000000000000000e+00
0.000000000000000e+00 0.000000000000000e+00 0.000000000000000e+00
0.000000000000000e+00 0.000000000000000e+00 0.000000000000000e+00
0.000000000000000e+00 0.000000000000000e+00 0.000000000000000e+00
0.000000000000000e+00 0.000000000000000e+00 0.000000000000000e+00
0.000000000000000e+00 0.000000000000000e+00 0.000000000000000e+00
0.000000000000000e+00 0.000000000000000e+00 0.000000000000000e+00
0.000000000000000e+00 0.000000000000000e+00 0.000000000000000e+00
0.000000000000000e+00 0.000000000000000e+00 0.000000000000000e+00
0.000000000000000e+00 0.000000000000000e+00 0.000000000000000e+00
0.000000000000000e+00 0.000000000000000e+00 0.000000000000000e+00
0.000000000000000e+00 0.000000000000000e+00 0.000000000000000e+00
0.000000000000000e+00 0.000000000000000e+00 0.000000000000000e+00
0.000000000000000e+00 0.000000000000000e+00 0.000000000000000e+00
0.000000000000000e+00 0.000000000000000e+00 0.000000000000000e+00
0.000000000000000e+00 0.000000000000000e+00 0.000000000000000e+00
0.000000000000000e+00 0.000000000000000e+00 0.000000000000000e+00
0.000000000000000e+00 0.000000000000000e+00 0.000000000000000e+00
0.000000000000000e+00 0.000000000000000e+00 0.000000000000000e+00
0.000000000000000e+00 0.000000000000000e+00 0.000000000000000e+00
0.000000000000000e+00 0.000000000000000e+00 0.000000000000000e+00
0.000000000000000e+00 0.000000000000000e+00 0.000000000000000e+00
0.000000000000000e+00 0.000000000000000e+00 0.000000000000000e+00
0.000000000000000e+00 0.000000000000000e+00 0.000000000000000e+00
0.000000000000000e+00 0.000000000000000e+00 0.000000000000000e+00
0.000000000000000e+00 0.000000000000000e+00 0.000000000000000e+00
0.000000000000000e+00 0.000000000000000e+00 0.000000000000000e+00
0.000000000000000e+00 0.000000000000000e+00 0.000000000000000e+00
0.000000000000000e+00 0.000000000000000e+00 0.000000000000000e+00
0.000000000000000e+00 0.000000000000000e+00 0.000000000000000e+00
0.000000000000000e+00 0.000000000000000e+00 0.000000000000000e+00
0.000000000000000e+00 0.000000000000000e+00 0.000000000000000e+00
0.000000000000000e+00 0.000000000000000e+00 0.000000000000000e+00
0.000000000000000e+00 0.000000000000000e+00 0.000000000000000e+00
0.000000000000000e+00 0.000000000000000e+00 0.000000000000000e+00
0.000000000000000e+00 0.000000000000000e+00 0.000000000000000e+00
0.000000000000000e+00 0.000000000000000e+00 0.000000000000000e+00
0.000000000000000e+00 0.000000000000000e+00 0.000000000000000e+00
0.000000000000000e+00 0.000000000000000e+00 0.000000000000000e+00
0.000000000000000e+00 0.000000000000000e+00 0.000000000000000e+00
0.000000000000000e+00 0.000000000000000e+00 0.000000000000000e+00
0.000000000000000e+00 0.000000000000000e+00 0.000000000000000e+00
0.000000000000000e+00 0.000000000000000e+00 0.000000000000000e+00
0.000000000000000e+00 0.000000000000000e+00 0.000000000000000e+00
0.000000000000000e+00 0.000000000000000e+00 0.000000000000000e+00
0.000000000000000e+00 0.000000000000000e+00 0.000000000000000e+00
0.000000000000000e+00 0.000000000000000e+00 0.000000000000000e+00
0.000000000000000e+00 0.000000000000000e+00 0.000000000000000e+00
0.000000000000000e+00 0.000000000000000e+00 0.000000000000000e+00
0.000000000000000e+00 0.000000000000000e+00 0.000000000000000e+00
0.000000000000000e+00 0.000000000000000e+00 0.000000000000000e+00
0.000000000000000e+00 0.000000000000000e+00 0.000000000000000e+00
0.000000000000000e+00 0.000000000000000e+00 0.000000000000000e+00
0.000000000000000e+00 0.000000000000000e+00 0.000000000000000e+00
0.000000000000000e+00 0.000000000000000e+00 0.000000000000000e+00
0.000000000000000e+00 0.000000000000000e+00 0.000000000000000e+00
0.000000000000000e+00 0.000000000000000e+00 0.000000000000000e+00
0.000000000000000e+00 0.000000000000000e+00 0.000000000000000e+00
0.000000000000000e+00 0.000000000000000e+00 0.000000000000000e+00
0.000000000000000e+00 0.000000000000000e+00 0.000000000000000e+00
0.000000000000000e+00 0.000000000000000e+00 0.000000000000000e+00
0.000000000000000e+00 0.000000000000000e+00 0.000000000000000e+00
0.000000000000000e+00 0.000000000000000e+00 0.000000000000000e+00
0.000000000000000e+00 0.000000000000000e+00 0.000000000000000e+00
0.000000000000000e+00 0.000000000000000e+00 0.000000000000000e+00
0.000000000000000e+00 0.000000000000000e+00 0.000000000000000e+00
0.000000000000000e+00 0.000000000000000e+00 0.000000000000000e+00
0.000000000000000e+00 0.000000000000000e+00 0.000000000000000e+00
0.000000000000000e+00 0.000000000000000e+00 0.000000000000000e+00
0.000000000000000e+00 0.000000000000000e+00 0.000000000000000e+00
0.000000000000000e+00 0.000000000000000e+00 0.000000000000000e+00
0.000000000000000e+00 0.000000000000000e+00 0.000000000000000e+00
0.000000000000000e+00 0.000000000000000e+00 0.000000000000000e+00
0.000000000000000e+00 0.000000000000000e+00 0.000000000000000e+00
0.000000000000000e+00 0.000000000000000e+00 0.000000000000000e+00
0.000000000000000e+00 0.000000000000000e+00 0.000000000000000e+00
0.000000000000000e+00 0.000000000000000e+00 0.000000000000000e+00
0.000000000000000e+00 0.000000000000000e+00 0.000000000000000e+00
0.000000000000000e+00 0.000000000000000e+00 0.000000000000000e+00
0.000000000000000e+00 0.000000000000000e+00 0.000000000000000e+00
0.000000000000000e+00 0.000000000000000e+00 0.000000000000000e+00
0.000000000000000e+00 0.000000000000000e+00 0.000000000000000e+00
0.000000000000000e+00 0.000000000000000e+00 0.000000000000000e+00
0.000000000000000e+00 0.000000000000000e+00 0.000000000000000e+00
0.000000000000000e+00 0.000000000000000e+00 0.000000000000000e+00
0.000000000000000e+00 0.000000000000000e+00 0.000000000000000e+00
0.000000000000000e+00 0.000000000000000e+00 0.000000000000000e+00
0.000000000000000e+00 0.000000000000000e+00 0.000000000000000e+00
0.000000000000000e+00 0.000000000000000e+00 0.000000000000000e+00
0.000000000000000e+00 0.000000000000000e+00 0.000000000000000e+00
0.000000000000000e+00 0.000000000000000e+00 0.000000000000000e+00
0.000000000000000e+00 0.000000000000000e+00 0.000000000000000e+00
0.000000000000000e+00 0.000000000000000e+00 0.000000000000000e+00
0.000000000000000e+00 0.000000000000000e+00 0.000000000000000e+00
0.000000000000000e+00 0.000000000000000e+00 0.000000000000000e+00
0.000000000000000e+00 0.000000000000000e+00 0.000000000000000e+00
0.000000000000000e+00 0.000000000000000e+00 0.000000000000000e+00
0.000000000000000e+00 0.000000000000000e+00 0.000000000000000e+00
0.000000000000000e+00 0.000000000000000e+00 0.000000000000000e+00
0.000000000000000e+00 0.000000000000000e+00 0.000000000000000e+00
0.000000000000000e+00 0.000000000000000e+00 0.000000000000000e+00
0.000000000000000e+00 0.000000000000000e+00 0.000000000000000e+00
0.000000000000000e+00 0.000000000000000e+00 0.000000000000000e+00
0.000000000000000e+00 0.000000000000000e+00 0.000000000000000e+00
0.000000000000000e+00 0.000000000000000e+00 0.000000000000000e+00
0.000000000000000e+00 0.000000000000000e+00 0.000000000000000e+00
0.000000000000000e+00 0.000000000000000e+00 0.000000000000000e+00
0.000000000000000e+00 0.000000000000000e+00 0.000000000000000e+00
0.000000000000000e+00 0.000000000000000e+00 0.000000000000000e+00
0.000000000000000e+00 0.000000000000000e+00 0.000000000000000e+00
0.000000000000000e+00 0.000000000000000e+00 0.000000000000000e+00
0.000000000000000e+00 0.000000000000000e+00 0.000000000000000e+00
0.000000000000000e+00 0.000000000000000e+00 0.000000000000000e+00
0.000000000000000e+00 0.000000000000000e+00 0.000000000000000e+00
0.000000000000000e+00 0.000000000000000e+00 0.000000000000000e+00
0.000000000000000e+00 0.000000000000000e+00 0.000000000000000e+00
0.000000000000000e+00 0.000000000000000e+00 0.000000000000000e+00
0.000000000000000e+00 0.000000000000000e+00 0.000000000000000e+00
0.000000000000000e+00 0.000000000000000e+00 0.000000000000000e+00
0.000000000000000e+00 0.000000000000000e+00 0.000000000000000e+00
0.000000000000000e+00 0.000000000000000e+00 0.000000000000000e+00
0.000000000000000e+00 0.000000000000000e+00 0.000000000000000e+00
0.000000000000000e+00 0.000000000000000e+00 0.000000000000000e+00
0.000000000000000e+00 0.000000000000000e+00 0.000000000000000e+00
0.000000000000000e+00 0.000000000000000e+00 0.000000000000000e+00
0.000000000000000e+00 0.000000000000000e+00 0.000000000000000e+00
0.000000000000000e+00 0.000000000000000e+00 0.000000000000000e+00
0.000000000000000e+00 0.000000000000000e+00 0.000000000000000e+00
0.000000000000000e+00 0.000000000000000e+00 0.000000000000000e+00
0.000000000000000e+00 0.000000000000000e+00 0.000000000000000e+00
0.000000000000000e+00 0.000000000000000e+00 0.000000000000000e+00
0.000000000000000e+00 0.000000000000000e+00 0.000000000000000e+00
0.000000000000000e+00 0.000000000000000e+00 0.000000000000000e+00
0.000000000000000e+00 0.000000000000000e+00 0.000000000000000e+00
0.000000000000000e+00 0.000000000000000e+00 0.000000000000000e+00
0.000000000000000e+00 0.000000000000000e+00 0.000000000000000e+00
0.000000000000000e+00 0.000000000000000e+00 0.000000000000000e+00
0.000000000000000e+00 0.000000000000000e+00 0.000000000000000e+00
0.000000000000000e+00 0.000000000000000e+00 0.000000000000000e+00
0.000000000000000e+00 0.000000000000000e+00 0.000000000000000e+00
0.000000000000000e+00 0.000000000000000e+00 0.000000000000000e+00
0.000000000000000e+00 0.000000000000000e+00 0.000000000000000e+00
0.000000000000000e+00 0.000000000000000e+00 0.000000000000000e+00
0.000000000000000e+00 0.000000000000000e+00 0.000000000000000e+00
0.000000000000000e+00 0.000000000000000e+00 0.000000000000000e+00
0.000000000000000e+00 0.000000000000000e+00 0.000000000000000e+00
0.000000000000000e+00 0.000000000000000e+00 0.000000000000000e+00
0.000000000000000e+00 0.000000000000000e+00 0.000000000000000e+00
0.000000000000000e+00 0.000000000000000e+00 0.000000000000000e+00
0.000000000000000e+00 0.000000000000000e+00 0.000000000000000e+00
0.000000000000000e+00 0.000000000000000e+00 0.000000000000000e+00
0.000000000000000e+00 0.000000000000000e+00 0.000000000000000e+00
0.000000000000000e+00 0.000000000000000e+00 0.000000000000000e+00
0.000000000000000e+00 0.000000000000000e+00 0.000000000000000e+00
0.000000000000000e+00 0.000000000000000e+00 0.000000000000000e+00
0.000000000000000e+00 0.000000000000000e+00 0.000000000000000e+00
0.000000000000000e+00 0.000000000000000e+00 0.000000000000000e+00
0.000000000000000e+00 0.000000000000000e+00 0.000000000000000e+00
0.000000000000000e+00 0.000000000000000e+00 0.000000000000000e+00
0.000000000000000e+00 0.000000000000000e+00 0.000000000000000e+00
0.000000000000000e+00 0.000000000000000e+00 0.000000000000000e+00
0.000000000000000e+00 0.000000000000000e+00 0.000000000000000e+00
0.000000000000000e+00 0.000000000000000e+00 0.000000000000000e+00
0.000000000000000e+00 0.000000000000000e+00 0.000000000000000e+00
0.000000000000000e+00 0.000000000000000e+00 0.000000000000000e+00
0.000000000000000e+00 0.000000000000000e+00 0.000000000000000e+00
0.000000000000000e+00 0.000000000000000e+00 0.000000000000000e+00
0.000000000000000e+00 0.000000000000000e+00 0.000000000000000e+00
0.000000000000000e+00 0.000000000000000e+00 0.000000000000000e+00
0.000000000000000e+00 0.000000000000000e+00 0.000000000000000e+00
0.000000000000000e+00 0.000000000000000e+00 0.000000000000000e+00
0.000000000000000e+00 0.000000000000000e+00 0.000000000000000e+00
0.000000000000000e+00 0.000000000000000e+00 0.000000000000000e+00
0.000000000000000e+00 0.000000000000000e+00 0.000000000000000e+00
0.000000000000000e+00 0.000000000000000e+00 0.000000000000000e+00
0.000000000000000e+00 0.000000000000000e+00 0.000000000000000e+00
0.000000000000000e+00 0.000000000000000e+00 0.000000000000000e+00
0.000000000000000e+00 0.000000000000000e+00 0.000000000000000e+00
0.000000000000000e+00 0.000000000000000e+00 0.000000000000000e+00
0.000000000000000e+00 0.000000000000000e+00 0.000000000000000e+00
0.000000000000000e+00 0.000000000000000e+00 0.000000000000000e+00
0.000000000000000e+00 0.000000000000000e+00 0.000000000000000e+00
0.000000000000000e+00 0.000000000000000e+00 0.000000000000000e+00
0.000000000000000e+00 0.000000000000000e+00 0.000000000000000e+00
0.000000000000000e+00 0.000000000000000e+00 0.000000000000000e+00
0.000000000000000e+00 0.000000000000000e+00 0.000000000000000e+00
0.000000000000000e+00 0.000000000000000e+00 0.000000000000000e+00
0.000000000000000e+00 0.000000000000000e+00 0.000000000000000e+00
0.000000000000000e+00 0.000000000000000e+00 0.000000000000000e+00
0.000000000000000e+00 0.000000000000000e+00 0.000000000000000e+00
0.000000000000000e+00 0.000000000000000e+00 0.000000000000000e+00
0.000000000000000e+00 0.000000000000000e+00 0.000000000000000e+00
0.000000000000000e+00 0.000000000000000e+00 0.000000000000000e+00
0.000000000000000e+00 0.000000000000000e+00 0.000000000000000e+00
0.000000000000000e+00 0.000000000000000e+00 0.000000000000000e+00
0.000000000000000e+00 0.000000000000000e+00 0.000000000000000e+00
0.000000000000000e+00 0.000000000000000e+00 0.000000000000000e+00
0.000000000000000e+00 0.000000000000000e+00 0.000000000000000e+00
0.000000000000000e+00 0.000000000000000e+00 0.000000000000000e+00
0.000000000000000e+00 0.000000000000000e+00 0.000000000000000e+00
0.000000000000000e+00 0.000000000000000e+00 0.000000000000000e+00
0.000000000000000e+00 0.000000000000000e+00 0.000000000000000e+00
0.000000000000000e+00 0.000000000000000e+00 0.000000000000000e+00
0.000000000000000e+00 0.000000000000000e+00 0.000000000000000e+00
0.000000000000000e+00 0.000000000000000e+00 0.000000000000000e+00
0.000000000000000e+00 0.000000000000000e+00 0.000000000000000e+00
0.000000000000000e+00 0.000000000000000e+00 0.000000000000000e+00
0.000000000000000e+00 0.000000000000000e+00 0.000000000000000e+00
0.000000000000000e+00 0.000000000000000e+00 0.000000000000000e+00
0.000000000000000e+00 0.000000000000000e+00 0.000000000000000e+00
0.000000000000000e+00 0.000000000000000e+00 0.000000000000000e+00
0.000000000000000e+00 0.000000000000000e+00 0.000000000000000e+00
0.000000000000000e+00 0.000000000000000e+00 0.000000000000000e+00
0.000000000000000e+00 0.000000000000000e+00 0.000000000000000e+00
0.000000000000000e+00 0.000000000000000e+00 0.000000000000000e+00
0.000000000000000e+00 0.000000000000000e+00 0.000000000000000e+00
0.000000000000000e+00 0.000000000000000e+00 0.000000000000000e+00
0.000000000000000e+00 0.000000000000000e+00 0.000000000000000e+00
0.000000000000000e+00 0.000000000000000e+00 0.000000000000000e+00
0.000000000000000e+00 0.000000000000000e+00 0.000000000000000e+00
0.000000000000000e+00 0.000000000000000e+00 0.000000000000000e+00
0.000000000000000e+00 0.000000000000000e+00 0.000000000000000e+00
0.000000000000000e+00 0.000000000000000e+00 0.000000000000000e+00
0.000000000000000e+00 0.000000000000000e+00 0.000000000000000e+00
0.000000000000000e+00 0.000000000000000e+00 0.000000000000000e+00
0.000000000000000e+00 0.000000000000000e+00 0.000000000000000e+00
0.000000000000000e+00 0.000000000000000e+00 0.000000000000000e+00
0.000000000000000e+00 0.000000000000000e+00 0.000000000000000e+00
0.000000000000000e+00 0.000000000000000e+00 0.000000000000000e+00
0.000000000000000e+00 0.000000000000000e+00 0.000000000000000e+00
0.000000000000000e+00 0.000000000000000e+00 0.000000000000000e+00
0.000000000000000e+00 0.000000000000000e+00 0.000000000000000e+00
0.000000000000000e+00 0.000000000000000e+00 0.000000000000000e+00
0.000000000000000e+00 0.000000000000000e+00 0.000000000000000e+00
0.000000000000000e+00 0.000000000000000e+00 0.000000000000000e+00
0.000000000000000e+00 0.000000000000000e+00 0.000000000000000e+00
0.000000000000000e+00 0.000000000000000e+00 0.000000000000000e+00
0.000000000000000e+00 0.000000000000000e+00 0.000000000000000e+00
0.000000000000000e+00 0.000000000000000e+00 0.000000000000000e+00
0.000000000000000e+00 0.000000000000000e+00 0.000000000000000e+00
0.000000000000000e+00 0.000000000000000e+00 0.000000000000000e+00
0.000000000000000e+00 0.000000000000000e+00 0.000000000000000e+00
0.000000000000000e+00 0.000000000000000e+00 0.000000000000000e+00
0.000000000000000e+00 0.000000000000000e+00 0.000000000000000e+00
0.000000000000000e+00 0.000000000000000e+00 0.000000000000000e+00
0.000000000000000e+00 0.000000000000000e+00 0.000000000000000e+00
7.041720743733047e-03 9.787488306324177e-05 3.170157528997309e-19
 6.981469811590600e-03 -3.020239516867093e-05  3.181222285349768e-19
 7.103791406673582e-03 -1.473898860909899e-04  3.209266073013845e-19
7.030801247268826e-03 9.648668632408976e-06 3.216805213485093e-19
6.501412123676726e-03 2.158447235576280e-04 3.107857755896761e-19
6.818798455730954e-03 1.056154676651935e-03 2.962484322102216e-19
 6.829211687913671e-03 -9.689541441817591e-04  2.905127737404263e-19
 6.985377475820953e-03 -2.425752252460558e-05  3.202592831654182e-19
7.030123738605196e-03 4.580223034563510e-04 3.154071906917896e-19
 7.012929870608127e-03 -8.127567015871942e-05  3.210775046682543e-19
6.936843531414189e-03 1.652547354858156e-04 3.135814463148405e-19
 6.909769494129543e-03 -8.385421225759219e-05  3.177784443891657e-19
6.901931896248320e-03 1.172593574642307e-04 3.067217903525003e-19
 6.910313410904937e-03 -1.540417907959691e-04  3.176402735924512e-19
6.893609841218037e-03 4.924340231176543e-05 3.140988145311533e-19
6.890771765471400e-03 4.922312897036634e-05 3.141685517347053e-19
6.881289298944641e-03 1.339563707849043e-04 3.097230382974743e-19
6.873333670852951e-03 3.783054183845694e-05 3.132554612286229e-19
6.874712298075570e-03 4.618293496435154e-05 3.114914954860510e-19
6.877510548561056e-03 4.620173304848682e-05 3.118936061944779e-19
6.876551343321475e-03 7.500284193908422e-05 3.079415620362261e-19
6.870925684773291e-03 6.030016995502515e-05 3.120762683282013e-19
6.863494661675342e-03 6.023495429467549e-05 3.131174322600492e-19
6.860009611778176e-03 5.914788492704451e-05 3.132453675810660e-19
6.866188238400183e-03 5.920115784022210e-05 3.128564946971935e-19
 6.867130696920827e-03 -1.952558704039265e-05  3.124415549083700e-19
6.940688363781510e-03 2.580427509837923e-04 3.140394976369300e-19
 6.862542538169629e-03 -2.793946445337237e-04  2.999391902012695e-19
6.898529143053162e-03 2.964496638955858e-04 3.205075901454324e-19
 6.827523380291109e-03 -5.162184069375035e-04  3.265730939462679e-19
6.883832179855848e-03 3.674271916221198e-04 3.066370848245073e-19
 6.862617746050911e-03 -6.334552462723290e-04  2.871335383135213e-19
6.879356260545505e-03 3.590468846331922e-04 3.124955631010476e-19
 6.639836174981841e-03 -9.543567279045843e-04  3.414846545443881e-19
6.719576844421980e-03 6.503667125434015e-04 2.877937413626883e-19
 6.815259782210929e-03 -3.749107920332202e-04  3.003797693468250e-19
6.918822292944262e-03 8.592765701248866e-04 2.926969036724583e-19
 6.902748991833602e-03 -7.917775819723852e-04  3.301203465086231e-19
6.766511012631656e-03 5.143964185985589e-04 3.033003884412331e-19
 6.766902535144990e-03 -4.164589294034797e-04  2.970122890658222e-19
6.801200192758904e-03 8.208593304625457e-04 2.765699609345239e-19
 6.917563679402629e-03 -4.194350776610492e-04  3.174785394112869e-19
6.860598518680565e-03 4.980655412755230e-04 2.922682865234193e-19
 6.853717582379109e-03 -2.971685262702132e-04  3.179570981590126e-19
6.915014551408965e-03 4.866628533735123e-04 3.321037901212543e-19
 6.743385777581139e-03 -1.151591204916996e-03  3.450945487220371e-19
6.642453850877485e-03 4.637462161652168e-04 3.224719137002091e-19
 6.839315080479865e-03 -1.692953340849831e-04  3.116736576008632e-19
6.833013491380558e-03 1.080332783953991e-03 2.753197872369597e-19
 6.920727301487758e-03 -2.761306236690355e-04  3.162342542886730e-19
6.935496494635242e-03 4.427162706111452e-04 3.051730516522909e-19
 6.880858791413516e-03 -5.346763859775102e-04  3.336950876782389e-19
6.871284304796641e-03 4.037877475993981e-04 2.955870451729142e-19
 6.842161784490217e-03 -6.490244606381912e-04  3.307766872841355e-19
6.827147304547762e-03 3.744734561159225e-04 3.078745555058911e-19
 6.889917777612952e-03 -4.899427569489903e-04  3.038461101642942e-19
6.831841520332859e-03 2.594508704246494e-04 3.176493990125748e-19
 6.643846580124887e-03 -5.252718632700618e-04  3.034695363601230e-19
6.643131311665163e-03 4.931523232073303e-04 3.042018697322490e-19
 7.273667117310401e-03 -1.112342712224138e-04  3.190056731062982e-19
 4.403885039182251e-04 -6.574410608451385e-03  3.972287937818065e-19
6.305170047096017e-03 1.765223681074319e-04 2.960062392988010e-19
6.929294984969350e-03 2.103082756390088e-04 3.118815922311149e-19
 6.846636771914015e-03 -1.057108620018517e-04  3.117334862403498e-19
6.800521085858681e-03 1.046282876532461e-04 3.064927541880046e-19
 6.838152621035788e-03 -5.765641795447246e-05  3.100442573455586e-19
6.836202255376441e-03 2.003355943910074e-06 3.085609282886325e-19
 6.858500063312351e-03 -3.658039349589518e-05  3.095960579797572e-19
 6.815208884002647e-03 -3.634949630854636e-05  3.084743697357611e-19
6.818616791780666e-03 8.657816931324289e-04 2.925029186511389e-19
 6.900848352123794e-03 -7.200359003420598e-05  3.063790846990912e-19
 6.793738536552692e-03 -9.872818575022992e-05  3.124597709494141e-19
6.748925030046915e-03 7.057579171929789e-04 2.921426768646890e-19
 6.944893039003096e-03 -4.671400630207581e-06  3.108562275352383e-19
 6.845891323111314e-03 -8.345492892562084e-05  3.060241051019529e-19
 6.839314572502408e-03 -5.895634745815596e-05  3.108870436179992e-19
6.859521949869610e-03 2.145225637379594e-05 3.093032741350571e-19
 6.867374712997141e-03 -3.741214514118982e-05  3.079113266962609e-19
 6.873685109417826e-03 -3.876254717661814e-05  3.101007606824063e-19
 6.852415719245582e-03 -7.774399478663146e-05  3.102347224336350e-19
6.851387393927144e-03 1.513944129029931e-06 3.077982392877682e-19
 6.861659622013338e-03 -4.086841041353581e-05  3.097762276426519e-19
 6.876273573584032e-03 -1.058857502478576e-05  3.078798921917001e-19
 6.861098638004994e-03 -7.965318503688408e-05  3.055391998357651e-19
 6.856520466885976e-03 -1.069502699233695e-05  3.075686369963038e-19
 6.859189077024964e-03 -4.556252329352986e-05  3.064775929254314e-19
 6.865044443570851e-03 -4.560141787299739e-05  3.045398075057779e-19
 6.879701278535169e-03 -1.352863080242529e-05  3.070398916194766e-19
 6.876620770315081e-03 -4.990581557093505e-05  3.081135426543883e-19
 6.871681590676458e-03 -1.887547326911107e-05  3.068071539983124e-19
 6.874106734691370e-03 -3.188998535308297e-05  3.048234521828801e-19
 6.873970006360108e-03 -3.188935105038017e-05  3.047979002276978e-19
 6.875323988971251e-03 -3.189563237351117e-05  3.048291385361585e-19
 6.875129877314096e-03 -2.550826064034937e-05  3.051353519756593e-19
 6.874591187339883e-03 -4.047288597990732e-05  3.056485397697549e-19
 6.851184328589760e-03 -2.156012016200121e-05  3.034917858871386e-19
6.873543388143765e-03 5.823884579234550e-05 3.090600015289705e-19
 6.876893195864727e-03 -5.506306775547912e-05  3.065993104288083e-19
 6.864324309606235e-03 -5.838476389600907e-05  3.023539659282661e-19
 6.891555065781495e-03 -1.947287175656930e-05  3.052129201765127e-19
 6.859835700228050e-03 -1.938324508570529e-05  3.042547892573278e-19
6.899778648331619e-03 4.615350924793055e-04 2.995916315997451e-19
 6.928661276426145e-03 -7.545043909760962e-05  3.006358564342075e-19
6.907133868821093e-03 3.799516878597882e-05 3.024378285473496e-19
 6.773050104818333e-03 -5.109770012315171e-04  2.799821931875685e-19
6.828148984826814e-03 1.809496520196732e-04 2.831555448514227e-19
 6.878026364113868e-03 -3.679052727340565e-05  2.998131358248574e-19
6.942352752676988e-03 3.712109282466157e-04 3.100987632240006e-19
 6.875885962046264e-03 -1.745916622909712e-04  3.120632261555534e-19
6.886042098540222e-03 4.673159027359067e-04 3.210026115481282e-19
 6.891595730764472e-03 -1.788331919814411e-04  2.977270459639995e-19
6.842951125262592e-03 4.578492526085688e-04 3.032314881308773e-19
 6.880583143342281e-03 -8.826302869737570e-05  3.051929584864880e-19
6.899584912567462e-03 5.357316849986375e-04 2.974961055632222e-19
 6.951497984134127e-03 -1.440285202992590e-04  3.086270272787770e-19
6.873739365039244e-03 2.355210313615233e-04 2.815153287028509e-19
 6.843130506391969e-03 -3.149403593195833e-06  2.959121657847396e-19
6.885779217509633e-03 2.265119987032840e-04 2.968624847171424e-19
 6.854695958073193e-03 -1.588395421554623e-04  2.898432504470215e-19
6.823908417831609e-03 2.545288722757606e-04 2.865488975162674e-19
6.862401498773511e-03 2.483785494157454e-05 2.963223348098395e-19
6.785625822738575e-03 1.720482290568708e-04 2.858103877848817e-19
6.717536104029213e-03 1.703218274209788e-04 2.828820051074639e-19
6.504512867018276e-03 1.645407005560814e-04 2.824768056819893e-19
6.368377827286453e-03 3.317085499811349e-04 2.731117573281503e-19
6.778371960584338e-03 5.499030992388056e-04 3.070132983617516e-19
 1.839583101041062e-03 -7.003120897794157e-03  2.573632606247581e-19
 6.149324849007280e-03 -4.962195387524360e-04  3.027678327580662e-19
 6.573871043263466e-03 -6.075750692779760e-05  2.820512729095732e-19
 6.672601937007161e-03 -4.250691389736795e-04  3.045327743150089e-19
6.784617476180300e-03 8.010625367709773e-05 2.825777283109542e-19
 6.784160479081678e-03 -4.334973292712926e-04  2.959242282532726e-19
6.854176368386359e-03 2.771211350933300e-04 2.726024489880998e-19
 7.088672055638556e-03 -4.068221476559965e-04  2.578772414394392e-19
 1.314576605789335e-03 -6.498787650790212e-03  1.034713166327135e-19
6.961082988565755e-03 1.159173414062567e-04 2.917334502175347e-19
7.058496692337011e-03 3.445177555141096e-04 3.046632565457571e-19
 7.116174368309911e-03 -3.510881846258993e-06  2.927982688653103e-19
 6.873262198511246e-03 -5.187930228117696e-05  2.808320965753920e-19
6.828502191971733e-03 1.127607631141632e-04 2.796588705639903e-19
6.896577083469642e-03 2.130420366241790e-05 2.819939730527781e-19
 6.811369167148347e-03 -8.486635425462183e-04  3.456665987555994e-19
 6.801867320155182e-03 -1.493704851672393e-05  2.790020494039841e-19
6.843316302182507e-03 1.118792375907313e-04 2.729928620543978e-19
 6.845969922039986e-03 -8.872257174571063e-06  2.779765956085061e-19
 6.829370835361817e-03 -4.063135242098035e-05  2.752021642552016e-19
 6.837784627755012e-03 -1.722698280465870e-05  2.748085892719778e-19
 6.841366978874756e-03 -1.723600811102615e-05  2.730020857762761e-19
 6.839458547732137e-03 -9.169435908590003e-06  2.694632380130305e-19
6.840755592265634e-03 9.352768989415446e-06 2.669427802405761e-19
 6.842073683482840e-03 -2.394138052140044e-05  2.625347515990504e-19
 6.842350847755665e-03 -7.389139052655512e-06  2.628822338440488e-19
6.847527277505309e-03 3.424548613817031e-06 2.586006857973546e-19
6.850044494027080e-03 3.977875114987698e-05 2.564242856270625e-19
 6.852200539338557e-03 -7.110960465674482e-06  2.515336122220352e-19
6.847880298206644e-03 1.485733681374969e-05 2.475615780890161e-19
6.857191046900435e-03 1.487753765303247e-05 2.432438241341973e-19
6.860979329845572e-03 1.488575680891877e-05 2.388402987779311e-19
6.865426777457629e-03 3.276603499133816e-05 2.284172885047438e-19
6.870418765610609e-03 1.544404623669617e-05 2.266373133298075e-19
6.871980006354069e-03 4.000251304742690e-05 2.178834281355691e-19
6.849737023899206e-03 4.630561115234478e-05 2.150820916829622e-19
6.854720012350861e-03 6.819890738855024e-05 2.024601420413238e-19
6.846469740249836e-03 3.702281523688639e-05 1.913288224558338e-19
6.846122533100358e-03 6.553747206646301e-05 1.797541552201395e-19
6.837058432768046e-03 6.739712298911434e-05 1.570012386171294e-19
6.799935986730078e-03 1.223765018559692e-04 1.198428976452357e-19
6.725794578466773e-03 1.210422001502407e-04 9.506151816899479e-20
6.570566965596359e-03 2.112573064563254e-04 6.216771353373075e-20
-2.293417746013691e-03  6.591390581543575e-03  2.731191797605225e-19
 6.653037049651285e-03 -2.934113773957287e-04  3.161645105693311e-20
 6.830573466112318e-03  7.106379139975426e-05 -3.855030149402865e-20
 6.848409228533687e-03 -3.908799243820215e-04 -8.410183201589957e-20
 6.837503430919199e-03 -6.942538455921588e-06 -1.381240420612637e-19
 6.844032874940818e-03 -5.459813135024442e-05 -2.315770629545201e-19
 6.851119133561132e-03 -5.465466183249130e-05 -3.211857879997922e-19
 6.870980492297162e-03 -4.362525732674228e-05 -4.822795936833813e-19
 6.878074826220672e-03 -5.796941874749068e-05 -6.479217411747506e-19
 6.881001881304518e-03 -4.463708071352345e-05 -7.735957820837892e-19
 6.883231565994288e-03 -4.465154468507582e-05 -1.035257433511751e-18
 6.888010363174009e-03 -4.570549061567499e-05 -1.323882080989200e-18
 6.880336885926985e-03 -5.043874568655547e-05 -1.833358585712777e-18
 6.875941205261584e-03 -4.518049269040965e-05 -3.008038796410275e-18
 6.872422927732103e-03 -5.036025831617969e-05 -4.626796101716849e-18
 6.873712735253472e-03 -5.036970986487470e-05 -6.693987342315281e-18
 6.880181401827396e-03 -5.041711144697317e-05 -9.940486443051763e-18
 6.899725758557286e-03 -6.314487154111635e-05 -1.461349585823431e-17
 6.874637043212010e-03 -6.997138955663486e-05 -2.163591076525242e-17
 6.862740644532093e-03  4.312920145745158e-04 -2.861291635976372e-17
 6.941509126066243e-03 -3.790285861349124e-05 -3.427990915331374e-17
 6.893501209415129e-03 -9.137827344954623e-05 -4.600049762289572e-17
 6.875823958403629e-03 -1.583840084076120e-05 -6.482471818601363e-17
 6.892625504475379e-03  1.572322424376668e-04 -8.579057731695673e-17
 6.896694819917741e-03 -1.897528867087176e-05 -1.197051643263120e-16
 6.875865165329608e-03 -1.953750185938605e-05  2.463898373878326e-16
 6.885114290754603e-03 -2.954784923305398e-05 -6.523369904225714e-15
 6.927020089893632e-03 -3.427057650766741e-05  1.744052236897565e-16
 7.018189036331427e-03 -3.472162361211830e-05 -1.299186121811711e-16
 6.903401660517057e-03 -2.962633049029487e-05 -6.526482415629669e-15
 6.747883958492284e-03 -3.029463336045680e-04 -8.003222736449913e-17
 6.621834525391437e-03  9.473223541351886e-04 -7.157102910439719e-17
 6.880522198099114e-03  2.120880080787213e-04 -4.689030452678345e-17
 6.758095391231760e-03 -1.001504738435583e-04 -2.758488084329399e-17
 6.829187410228791e-03 -1.012040102287187e-04 -1.731627447194454e-17
 6.888959090644621e-03  1.395001764971221e-05 -1.099496247586717e-17
 6.886820181290635e-03  1.394568639692835e-05 -7.063919077895833e-18
 6.872551285180699e-03  1.391679214019720e-05 -4.687032592737452e-18
 6.875775004318648e-03  5.461603847046734e-05 -3.591495170583226e-18
 6.866289121788566e-03  5.322883522070975e-06 -2.508537033101759e-18
 6.868178059333891e-03  9.189752403390049e-05 -1.706712942820824e-18
 6.878135099482124e-03 -9.710437290473335e-05 -1.343323624781597e-18
 6.882167084581127e-03  2.920846305999739e-05 -1.053377004666895e-18
 6.875721972258427e-03  9.609581752741029e-06 -7.796880601953811e-19
 6.863813484508460e-03  2.451193333221115e-04 -6.092472080502168e-19
 6.841612657338287e-03 -5.866870646141718e-05 -4.614006280414198e-19
 6.826263524534514e-03  6.632065599619987e-05 -3.561963870598485e-19
 6.873108736135836e-03  2.611246380331553e-05 -2.882029875287281e-19
 6.859210171022678e-03  4.946686627185851e-05 -1.959202021730606e-19
 6.846054195739929e-03  4.937198874897158e-05 -1.129292431345839e-19
 6.831821019905787e-03  4.926934273171061e-05 -4.753666179441573e-20
 6.777119512904800e-03  9.582828550688612e-05 -4.931961728546317e-21
6.690187280470141e-03 1.459533744056343e-04 1.948934556432278e-20
6.801693927192916e-03 1.829975344844164e-04 4.972926787094798e-20
 9.187304886092889e-04 -6.869435323634190e-03  7.774413875800906e-20
 6.592529658129125e-03 -1.004257244245185e-04  7.991296647516806e-20
6.794379899481853e-03 3.416186454284605e-04 9.806949975439581e-20
 6.829860118636886e-03 -1.242538537594356e-04  1.200082843607395e-19
 6.841656161366181e-03 -1.733226736099230e-05  1.447953091702436e-19
 6.855654086012766e-03 -5.326232615272280e-05  1.694431747625151e-19
6.859243472452025e-03 2.157710181963221e-05 1.834482511298231e-19
 6.860637725541220e-03 -7.614032905559219e-05  1.944579044301920e-19
 6.857628236607417e-03 -6.478857801086674e-06  2.020825344242861e-19
 6.870209078028625e-03 -3.302912618436452e-05  2.104999491222506e-19
 6.865867240192030e-03 -2.603757099904927e-05  2.171274631417162e-19
 6.866424920681072e-03 -2.603968590235575e-05  2.237983716719819e-19
 6.863298751297383e-03 -2.602783046524414e-05  2.303520883130310e-19
 6.858929824417974e-03 -2.320660451464475e-05  2.365903902064194e-19
 6.851291900679539e-03 -2.318076225061112e-05  2.408971442742084e-19
6.873128403330409e-03 1.027201915647003e-05 2.441828580259522e-19
 6.857334851059438e-03 -5.728453875876256e-05  2.467787205566139e-19
6.853571508193291e-03 8.621371067195281e-08 2.506705767974695e-19
 6.842050030474671e-03 -7.631101561506333e-05  2.543364138635243e-19
6.839640437789852e-03 1.610108401837547e-05 2.554257841037670e-19
 6.859637997210318e-03 -6.429648284007037e-05  2.595631724087856e-19
 6.817788758280846e-03 -4.897041390219266e-05  2.607475410448282e-19
6.815982320509299e-03 1.972382628487593e-04 2.600079684776171e-19
6.880207054420899e-03 4.434559960810868e-06 2.642373053786820e-19
 6.850165072091900e-03 -2.843746376754736e-05  2.655207650634139e-19
 6.838849809210628e-03 -9.663597581374665e-05  2.676942240124045e-19
 6.845850017037385e-03 -5.985376652441024e-06  2.685805323085382e-19
 6.853557763306048e-03 -7.406043193764054e-06  2.704769479572605e-19
6.869041416494313e-03 5.010554592693569e-05 2.719789030136996e-19
 6.844607991813142e-03 -5.233350832528727e-05  2.739205230048655e-19
6.833458392515953e-03 5.417217237062752e-05 2.732163943689913e-19
 6.839186153894539e-03 -2.652838152297601e-05  2.759460264346610e-19
6.808251132746312e-03 2.319192414638986e-05 2.756516282261952e-19
 6.815300244265267e-03 -1.023982950566545e-05  2.769975441319904e-19
6.803684869320485e-03 1.232650022702665e-06 2.776902367156848e-19
6.790347741562060e-03 1.230233683446809e-06 2.788012202818615e-19
6.876538445738951e-03 1.984573495684140e-04 2.799085478747522e-19
 6.770672930536079e-03 -3.242961399679735e-04  2.834211346884009e-19
6.828437654141800e-03 2.063780399808938e-04 2.823715790527549e-19
 6.826671893732713e-03 -4.489484022935697e-04  2.844698341424226e-19
6.894383560571643e-03 2.971084149744441e-04 2.875196715261309e-19
 6.765317594336653e-03 -1.202760196899409e-03  2.917712072790004e-19
6.778536194239474e-03 3.157141323295284e-04 2.821545958361565e-19
 6.804704332504220e-03 -1.547197841786160e-05  2.841612240435775e-19
6.819939336142299e-03 2.444157758106757e-04 2.833150525426177e-19
 6.576306852585829e-03 -2.983520691715361e-04  2.814877991452981e-19
6.560695554298712e-03 1.199656332140122e-03 2.833074318009152e-19
 6.876035256571526e-03 -2.133697800469026e-04  2.868613860682849e-19
 6.985693925337102e-03 -2.975121996367454e-04  2.994613161976557e-19
7.055706976008646e-03 3.947925615011098e-04 2.962869283913890e-19
6.911341247126072e-03 3.867147719766407e-04 2.880361787879417e-19
 6.819718734894832e-03 -1.429728232776082e-04  2.913871435836146e-19
6.755997374381775e-03 3.242845978992154e-04 2.904478076925670e-19
 6.749363573835980e-03 -5.413113910852415e-05  2.902926215220230e-19
6.866163975291401e-03 8.054092233546129e-04 2.821099692117685e-19
 6.801341958774630e-03 -2.176319868498057e-04  2.939852350664333e-19
6.733873064670532e-03 1.213469917998520e-03 3.034216475893294e-19
 6.984306328502464e-03 -1.991188271386888e-04  3.000330218309481e-19
6.831518465059420e-03 3.067098095223963e-04 3.008025909065512e-19
 6.849913249861650e-03 -2.797202107967014e-04  3.004246811790791e-19
6.762797514176989e-03 2.203252453657465e-04 2.929126447074395e-19
6.806531024973390e-03 1.394585621076907e-05 2.952036427786943e-19
6.809889819172589e-03 6.613720901332862e-05 2.967663219660201e-19
6.811322387768593e-03 6.615112202678046e-05 2.972831613708588e-19
6.816819742698836e-03 4.698147486932167e-06 2.980159554090989e-19
6.797005569850200e-03 8.111808853940468e-05 2.975834418961910e-19
6.855533238686759e-03 1.525668620312508e-05 2.996085881586345e-19
 6.719838140029930e-03 -3.361941008054660e-04  3.012690690208395e-19
6.712831707862809e-03 2.990652408245881e-04 2.989544172136886e-19
6.927047366434833e-03 1.428385737956252e-04 3.037106602725457e-19
 6.837832675478290e-03 -8.078206205755644e-05  2.999428143522783e-19
 6.736209590862467e-03 -1.444615637245501e-04  2.977492308779825e-19
6.803486690259510e-03 6.724474617399672e-05 2.986805121250056e-19
 6.801906159724998e-03 -7.630008136928495e-05  3.016825222325548e-19
6.788130612527326e-03 1.416976115338963e-04 3.009894006744399e-19
 6.830489601958507e-03 -4.262748943540736e-05  3.028632117511392e-19
 6.823574749197786e-03 -5.365019846316073e-06  3.019601350328211e-19
 6.835550439622558e-03 -1.803305246367761e-05  3.027396947149415e-19
 6.814883501034852e-03 -1.812546304666619e-05  3.024867745335969e-19
6.838636454909898e-03 5.597568756600870e-05 3.048461726316731e-19
 6.862633668679345e-03 -4.406070425502566e-05  3.039823250360578e-19
 6.827861383761342e-03 -6.515924496628669e-05  3.041782190154008e-19
 6.820789732358510e-03 -1.393345069139304e-05  3.033881056682538e-19
6.836717732490766e-03 1.429672557020213e-04 3.001916016935244e-19
 6.849869124097165e-03 -2.215124338250979e-05  3.040482478395536e-19
 6.822927410145759e-03 -1.113885531796727e-04  3.040561783221489e-19
 6.828671187259991e-03 -5.545646392208125e-06  3.042334778301855e-19
 6.838500916294757e-03 -1.149572249322797e-05  3.047084859553663e-19
 6.821172158653461e-03 -1.146659233861730e-05  3.042516868762503e-19
6.824811454117476e-03 1.387871147250656e-05 3.043554714486661e-19
 6.847664041321983e-03 -4.579957056907246e-05  3.060811499539348e-19
 6.787240314621142e-03 -1.345698304433603e-04  3.048609256443078e-19
6.789986629417259e-03 1.104578566468088e-05 3.038486446930896e-19
6.822351131932732e-03 3.429929507836008e-06 3.046634764466479e-19
 6.873867098651855e-03 -1.921701404971579e-05  3.062256566606926e-19
 6.837099648310467e-03 -3.308480018650575e-04  3.086848698934427e-19
 6.762415146632770e-03 -1.328781004372358e-05  3.049717356664855e-19
6.735729786772843e-03 1.082846821342814e-03 2.844946410119655e-19
 6.886928589039052e-03 -1.333239602529611e-05  3.066904614538564e-19
 6.783270378400559e-03 -2.448102064993437e-04  3.059316562231872e-19
6.701927413699192e-03 7.438448712645231e-05 3.033766307779864e-19
 6.835338039432357e-03 -5.665890110162637e-05  3.074251808211958e-19
 6.850601027187105e-03 -3.473341312166772e-05  3.073958293021106e-19
 6.834088719539002e-03 -8.669790102521337e-05  3.064733896670151e-19
 6.841522427995184e-03 -5.231367460030449e-05  3.073516827798978e-19
 6.843474128023381e-03 -8.576889874178631e-05  3.078506068130206e-19
 6.840486186311954e-03 -6.573029186448786e-05  3.076114748381910e-19
 6.841740090882562e-03 -7.796974825352606e-05  3.078150213956738e-19
 6.823879087467734e-03 -7.776620092180777e-05  3.071913397958422e-19
6.889658136720202e-03 3.416517942302437e-05 3.097223832065884e-19
 6.845548990355087e-03 -1.774940485512315e-04  3.098573616756999e-19
6.833662197616177e-03 6.155257415176247e-05 3.075382292960291e-19
 6.764018452101799e-03 -2.728228303901573e-04  3.054636498789834e-19
6.876599667493595e-03 4.351002405035367e-04 3.051627154835979e-19
 6.789158166500752e-03 -4.598349872065932e-04  3.056645233345864e-19
6.776763575620584e-03 5.261154982990170e-04 3.050314629331906e-19
 6.839655750122384e-03 -3.438615661828039e-04  3.113670817465721e-19
6.883620266038967e-03 5.137754242106338e-04 3.112711216401707e-19
 6.802066715389943e-03 -5.016970177293561e-04  3.114730629916962e-19
6.775576831928400e-03 5.157127182279981e-04 3.072209513038639e-19
 6.829008549100302e-03 -3.681954725612960e-04  3.115774632077530e-19
6.854217656122446e-03 3.626964215800386e-04 3.108155768720672e-19
 6.841955968270598e-03 -4.195841536683358e-04  3.137830964138044e-19
6.832584234434128e-03 3.379038200128104e-04 3.068732512541798e-19
 6.900048501249618e-03 -3.375356064195154e-04  3.125538548658707e-19
6.836018792062981e-03 6.804197915887590e-05 3.097056491848216e-19
 6.840065470887524e-03 -1.879372008571956e-04  3.124032525460640e-19
 6.901112040459355e-03 -7.976692510058134e-05  3.120907082915072e-19
6.854185105029396e-03 2.846609638418154e-06 3.111988058650777e-19
7.231597315637330e-03 1.643089961501282e-04 3.190609252743344e-19
-4.000289153916383e-03 -5.344362384526315e-03 -1.281226701701897e-19
6.655730628927147e-03 4.644846711878850e-04 3.098617851088543e-19
6.939528519418403e-03 1.224109065030651e-04 3.127104925089989e-19
6.863957869833145e-03 1.228780403894735e-05 3.098529046161072e-19
 6.788650601325690e-03 -2.518830392146763e-04  3.082522330498261e-19
6.838395604392124e-03 6.924918014134699e-05 3.121318744354302e-19
 6.837699496031957e-03 -3.488469657326926e-04  3.097342409234170e-19
6.796293134373742e-03 4.323800952476110e-05 3.094862563604915e-19
 6.825942123385212e-03 -1.017202034061063e-04  3.103328163179295e-19
 6.862116136707375e-03 -8.370827127732368e-05  3.122486558923135e-19
 6.885343829423019e-03 -8.399161681742411e-05  3.142642349228638e-19
 6.808302783675634e-03 -3.289469826494599e-05  3.114684877288765e-19
6.926689281715623e-03 2.172455019832793e-04 3.117406076795568e-19
 6.877625895863687e-03 -5.994354155321438e-04  3.099259217698462e-19
 6.830850287439364e-03 -1.879700935053641e-05  3.128929757417678e-19
 6.900641307983633e-03 -7.444560578436048e-05  3.130320786763167e-19
 6.879388113649784e-03 -4.763888107707230e-05  3.128584158518116e-19
 6.863187768226370e-03 -1.138189482357475e-04  3.141548581419166e-19
6.869554702586338e-03 6.564452533000746e-07 3.131728318528784e-19
 6.878793409187582e-03 -9.419292857376707e-05  3.129922524051860e-19
 6.887992190887106e-03 -6.266320997243218e-05  3.133909329001978e-19
 6.881398181755441e-03 -4.284475069618944e-05  3.138411516066710e-19
 6.878714649198138e-03 -6.641630109797438e-05  3.139259125095734e-19
 6.887400773981985e-03 -6.650016855118904e-05  3.142907449229757e-19
6.990667025281149e-03 1.518435229621766e-04 3.145155776137690e-19
 6.906915575967442e-03 -1.945760979376260e-04  3.121624548753250e-19
6.867943597881739e-03 1.480016836416443e-04 3.138911257342789e-19
 6.935275194501861e-03 -3.151772021273200e-05  3.164223262143585e-19
6.905510669849698e-03 1.253532692377848e-05 3.144468341600479e-19
 6.907501790230087e-03 -5.231706532240685e-05  3.154554162416117e-19
 6.914644347186034e-03 -5.843571225087368e-06  3.152479104796573e-19
 6.929257403517173e-03 -5.855920730166682e-06  3.156025907340601e-19
 6.924085738575719e-03 -2.377679095535945e-05  3.155964855099775e-19
6.957032411373954e-03 8.043969779049449e-05 3.157764819259245e-19
-6.908155001238415e-03 -2.730516658264487e-05 -3.167683073486698e-19
-6.907143344971088e-03  1.591973867784206e-04 -3.173088583624424e-19
-6.896823478801657e-03  1.575550681113379e-04 -3.168393796848362e-19
-6.917374171407959e-03 -3.705819486897448e-05 -3.172115487975329e-19
-6.892394004187536e-03  1.349693329243840e-04 -3.167835701003520e-19
-6.893874628363654e-03  2.935153876029811e-04 -3.162816942809608e-19
-6.887124837674344e-03  4.679133968186912e-05 -3.154669571073337e-19
-6.855170116864830e-03  5.834316940804814e-05 -3.153302040275641e-19
-6.881506106847483e-03  1.388306768186099e-04 -3.160844171528864e-19
-6.863578538486733e-03  1.185665965766443e-04 -3.150374391921217e-19
-6.852203847288187e-03  1.183701016411002e-04 -3.146319465922328e-19
-6.851785138748213e-03  1.201242126673188e-04 -3.149879422090914e-19
-6.838272307200487e-03  9.242640741643033e-05 -3.144660392245823e-19
-6.825914531642535e-03  1.611190732057635e-04 -3.137156570249741e-19
-6.867250930900551e-03  1.044161028084291e-04 -3.145090764487949e-19
-6.833032335981013e-03 -2.062007858202719e-04 -3.129900313918089e-19
-6.795029636977828e-03  8.881660201552369e-05 -3.130684320802177e-19
-6.846425761729552e-03  1.217676348527958e-04 -3.144872957657388e-19
-6.839612323858327e-03  7.225725743275954e-05 -3.138613064103359e-19
-6.846748843674573e-03  7.233265137690720e-05 -3.140650848217085e-19
-6.841701592762557e-03  9.982285086038507e-06 -3.140001849027383e-19
-6.846755670249103e-03  1.142651039152781e-04 -3.142899663149026e-19
-6.822957012109940e-03  1.816262460459252e-05 -3.131390549432832e-19
-6.852364858202949e-03  3.271692131950191e-04 -3.149918296285375e-19
-6.865566928634273e-03 -3.964305375504596e-05 -3.138290843196733e-19
-6.837723915534452e-03  1.010070985717673e-04 -3.135777424099844e-19
-6.853380533173348e-03  1.068815638446657e-05 -3.139267333694483e-19
-6.854807924161467e-03  2.029023518977692e-04 -3.139845884244541e-19
-6.826669017628394e-03 -7.502306366312477e-05 -3.123191310749653e-19
-6.830963482530676e-03  2.200600466004734e-04 -3.136544264805679e-19
-6.802008511367893e-03 -9.593224654133534e-05 -3.111388046970439e-19
-6.844183003149872e-03  3.081640052918012e-04 -3.140333717658978e-19
-6.922227839405024e-03 -2.473106186439745e-04 -3.141431638128852e-19
-6.736043530079477e-03  4.687837307271903e-05 -3.095077123171411e-19
-6.803102001075198e-03 -1.558568703898756e-05 -3.119310124834945e-19
-6.844741022585595e-03  9.687604086178035e-05 -3.132431293548430e-19
-6.859998592729995e-03 -4.197503277131429e-05 -3.128263234883603e-19
-6.836456093143209e-03  6.989331847613455e-06 -3.124554612458526e-19
-6.852898248840541e-03  7.006141680206984e-06 -3.129382885012378e-19
-6.858323566518763e-03  2.655851017806948e-06 -3.129720944571154e-19
-6.866363353871738e-03  1.546845693801812e-05 -3.131017913695000e-19
-6.877083399411368e-03 -1.217927248027563e-05 -3.133122678240999e-19
-6.863262763280536e-03 -1.106449860537298e-05 -3.130607515806431e-19
-6.845264211534794e-03  3.304408494883522e-05 -3.126744836430212e-19
-6.914510888929998e-03  8.929365823955870e-05 -3.148169470788106e-19
-6.904236760964383e-03 -7.762934008224866e-05 -3.138526295665077e-19
-6.856426346941403e-03  2.222845990128861e-06 -3.126527524105644e-19
-6.880394438296526e-03  2.054754378685071e-05 -3.135159603136290e-19
-6.877607149975901e-03  1.372496709623329e-05 -3.130669444705420e-19
-6.872637588469552e-03  1.371504982898176e-05 -3.127973923636826e-19
-6.868793867459267e-03  1.120874249139252e-05 -3.124372022165290e-19
-6.869910272495233e-03  3.635306347483347e-06 -3.121693659823669e-19
-6.984813376206125e-03  1.971289733443880e-05 -3.153298247088436e-19
-6.944335064225514e-03 -5.594616875107517e-04 -3.145652464113355e-19
-5.904670556108721e-03 -2.038869625900819e-04 -2.822363243375789e-19
-1.455765272265395e-05  6.723956004351978e-03 -2.187223765002061e-20
-7.875227059214328e-03  8.289905593942102e-06 -3.412384849092756e-19
-7.001280489936868e-03 -7.559407743512723e-04 -3.113450874668878e-19
-6.645973471069311e-03 -1.550466855276512e-04 -3.045272822234686e-19
-6.787286703671781e-03  3.750122279314428e-05 -3.113967936813814e-19
-5.817325102445311e-03  3.775830806663451e-03 -2.748119514329133e-19
-6.984172781936937e-03 -5.376041302597331e-05 -3.131935943659746e-19
-6.804772590301346e-03 -5.237948665138363e-05 -3.086818888886407e-19
-6.851954009286289e-03  7.681252060970857e-06 -3.108063341743231e-19
-6.868862682178567e-03  7.700207205492555e-06 -3.110850389424046e-19
-6.869823751572491e-03  1.416489242518462e-05 -3.108735097477766e-19
-6.865069057997506e-03  1.408206382204243e-05 -3.104782251496418e-19
-6.863105673291119e-03  1.407803640316157e-05 -3.102532755707461e-19
-6.863606763061520e-03  9.630054827606401e-06 -3.099885332986047e-19
-6.865686691972834e-03  1.153164621190059e-05 -3.099531996988427e-19
-6.860830624268388e-03  3.918439229689383e-06 -3.095235066089465e-19
-6.860029565789551e-03  3.917981719638391e-06 -3.094059715024750e-19
-6.859188275910822e-03  9.333522507516068e-06 -3.090599271690203e-19
-6.862553335600278e-03 -7.022474612601820e-06 -3.089287006408932e-19
-6.857028019470478e-03  4.060738217385365e-06 -3.085065390192818e-19
-6.860211452427982e-03 -5.690615634281798e-06 -3.083032439509795e-19
-6.859739897842325e-03  1.595551331807067e-06 -3.081406383128860e-19
-6.862092997994913e-03 -2.706138611658805e-06 -3.079785880365071e-19
-6.862516027951480e-03 -4.012340656813520e-06 -3.078464382428070e-19
-6.859554761941646e-03 -2.896473253239132e-06 -3.074774869402326e-19
-6.861281100761609e-03 -2.897202206413439e-06 -3.073562350712368e-19
-6.864574384753713e-03 -6.532918444574622e-06 -3.070865474159063e-19
-6.876527545944324e-03 -3.541795251080378e-06 -3.072661587522487e-19
-6.846382812098917e-03 -2.329382608374357e-05 -3.061384088088551e-19
-6.866690395256202e-03  9.134655458447461e-05 -3.063444742135385e-19
-7.029447174718754e-03 -3.857015386899756e-05 -3.110592804273047e-19
-6.766839852187212e-03 -7.030027713093028e-04 -3.000639877565260e-19
-6.746877859085914e-03  9.541289501672034e-05 -3.038327847887560e-19
-6.931002680584566e-03  1.235000939602923e-04 -3.084839389097057e-19
-6.903838022806813e-03 -7.428659042467668e-05 -3.062512248624875e-19
-6.854258835885349e-03  7.454742853306869e-06 -3.050825778362293e-19
-6.862239851065672e-03  7.463423064734852e-06 -3.048887438297626e-19
-6.867942766272951e-03 -3.302474327656942e-05 -3.045512153153244e-19
-6.949025543204435e-03  2.355415664000991e-05 -3.072101735634879e-19
-6.871825386729022e-03 -2.190235374719936e-04 -3.045063098829615e-19
-6.794906491323508e-03  1.786310237284436e-04 -3.036388402799925e-19
-6.428328583418010e-03  1.689940718367576e-04 -2.873729200345569e-19
-8.683340993530136e-03  1.630355551999076e-03 -3.456551271274672e-19
-2.288186890219637e-03 -6.010050219730702e-03 -7.401253449787983e-20
-5.501535906931504e-03  2.210828469955201e-03 -3.060964857268765e-19
-7.385829885585532e-03  7.907795670362577e-05 -3.138752917133771e-19
-6.714061027182922e-03  7.188552071166212e-05 -2.950928582664945e-19
-6.758909875164851e-03 -7.811837308380038e-05 -2.965055361152752e-19
-6.867303086161049e-03 -7.105284726858720e-05 -2.999840220378107e-19
-6.878099965160344e-03  8.100731055035432e-06 -2.995884949893475e-19
-6.881160689756017e-03 -4.208162795376209e-05 -2.984048718628357e-19
-6.866086971215570e-03 -5.427636099195442e-05 -2.977625361436947e-19
-6.870628234456859e-03 -2.397798328563162e-06 -2.976447740057737e-19
-6.866930464685850e-03 -2.396507834321039e-06 -2.967431180478359e-19
-6.859739692274764e-03 -1.722610473895245e-05 -2.956470558176167e-19
-6.862460770380317e-03 -1.956636581016687e-05 -2.951462054261307e-19
-6.864979183669584e-03 -3.289934179536776e-05 -2.944610572221510e-19
-6.866376398855787e-03 -3.290603773118092e-05 -2.941183844243566e-19
-6.864476152111995e-03  4.066814083605121e-05 -2.936196759147764e-19
-6.849555863885247e-03 -1.955810986138347e-05 -2.914750295127714e-19
-6.868115214146602e-03 -6.849995356934329e-05 -2.911019199630288e-19
-6.872542780205899e-03 -3.624811260207021e-05 -2.907907054736617e-19
-6.873959907006599e-03 -2.034157572915003e-05 -2.902096164753856e-19
-6.875143841845368e-03 -2.899531307234724e-06 -2.891997207269225e-19
-6.868483425519181e-03 -3.271233877691217e-05 -2.877182188582829e-19
-6.866117687665456e-03 -1.312471621833061e-05 -2.866567476753958e-19
-6.869203099937456e-03 -2.814539222777722e-05 -2.850511262460008e-19
-6.879388400984627e-03 -2.075172372493802e-05 -2.837475072204473e-19
-6.861750619530564e-03 -1.789268915132045e-05 -2.825767727988711e-19
-6.854175791978499e-03  2.661300135968184e-05 -2.810000278564595e-19
-6.821055954828624e-03  2.648440555212556e-05 -2.781978471682029e-19
-6.759288031146205e-03 -1.876272558837016e-07 -2.735100199978508e-19
-6.672455618658531e-03 -1.852169240260044e-07 -2.665491155340698e-19
-6.929474899226884e-03 -5.811691736941795e-04 -2.684903887459438e-19
-7.272869033209628e-03 -6.099693480220279e-04 -2.850356389360518e-19
-7.153413831378124e-03  7.543919734435733e-04 -2.854425019508493e-19
-7.191735221905769e-03  2.846647245773281e-04 -2.722485693774824e-19
-6.728825877029338e-03 -9.826794872795405e-05 -2.554355841651455e-19
-6.685901831901180e-03  1.918390176128004e-04 -2.560216573032840e-19
-6.791026487585914e-03  1.078627036787754e-05 -2.555259456889324e-19
-6.802334848726365e-03 -4.681868165477574e-05 -2.514166557949479e-19
-6.895644596367677e-03 -1.459347833199074e-04 -2.498961025255005e-19
-6.993684502535875e-03 -1.480096339395141e-04 -2.508999648563929e-19
-6.935222174524135e-03  1.254907277005169e-04 -2.470571633765019e-19
-6.849934991151843e-03  8.922479824645201e-04 -2.406047574878982e-19
-6.756379140472906e-03 -4.081031691153645e-04 -2.214777889877871e-19
-6.844894066516864e-03 -3.190453788258734e-05 -2.260150544556409e-19
-6.920845464751113e-03  5.375275795934368e-05 -2.225880433544223e-19
-6.889076901046932e-03  2.684863150486919e-05 -2.116270868612975e-19
-6.879462002605375e-03 -1.373248616974361e-04 -2.029207484370415e-19
-6.872727805978098e-03  1.822780352916719e-05 -1.971238397486505e-19
-6.877184073806604e-03  5.185714002759694e-06 -1.880122748309220e-19
-6.865762311275174e-03  2.265502688134823e-05 -1.794251884869437e-19
-6.873195258577105e-03  2.267955345440718e-05 -1.682280982150757e-19
-6.858872018020194e-03 -2.472210494655166e-05 -1.561540036264945e-19
-6.878034862504070e-03  9.166315544720271e-05 -1.451050075188171e-19
-6.822695569094125e-03 -1.241179581889780e-04 -1.276482701875935e-19
-6.840991078952779e-03  2.197001879584333e-04 -1.233508999178617e-19
-6.854610569053197e-03 -7.548292454519743e-05 -1.010526915249618e-19
-6.899202104165923e-03  3.635313995204378e-04 -9.100610111276362e-20
-6.868181629529390e-03 -1.646361839702807e-04 -6.105688309839873e-20
-6.835919970499418e-03  3.354690116061900e-04 -4.185548204342607e-20
-6.806299050667528e-03 -1.808353530771640e-04  1.967967522629140e-21
-6.818974593733868e-03  1.070025655411795e-03 -3.513293932609312e-21
-6.941302183887032e-03 -2.329908026630864e-04  4.802427809778047e-20
-6.883028162198992e-03  3.168129522494905e-04  9.397020050121721e-20
-6.892990924690969e-03 -2.641335772445135e-04  1.767402758587175e-19
-6.939417763123767e-03  2.722352065728349e-04  2.577793452924854e-19
-6.727012988677762e-03 -8.854590552267568e-04  3.633025889394693e-19
-6.755211551915039e-03  3.740435281836071e-04  4.017018303236819e-19
-6.814486573861411e-03 -3.339337221449024e-04  5.575233426531032e-19
-6.806136197533252e-03  4.356845770736502e-04  6.815416728372446e-19
-6.875906693889128e-03 -2.221411659361741e-04  8.192147430933996e-19
-6.910627719280007e-03  2.305069762991490e-04  1.233073624177547e-18
-6.857789298643144e-03 -5.799426289954789e-04  1.813171085671745e-18
-6.795088343288093e-03  1.703265563620002e-04  2.354377444352542e-18
-6.780763040443433e-03 -1.622316552566630e-04  3.393174890401788e-18
-6.766488840060337e-03  1.870778369554195e-04  4.151901429948214e-18
-6.854780924208706e-03 -1.005522231948490e-04  4.918215661563642e-18
-6.873470045489868e-03  3.923792954968927e-06  6.669994963328534e-18
-6.872345280717731e-03  3.923150871121945e-06  9.764724674252830e-18
-6.865348962280223e-03 -6.740349201940916e-05  1.345720495501545e-17
-6.861584213478998e-03  9.066159306177488e-06  2.010871024176424e-17
-6.869536815634542e-03 -8.769876860686553e-05  2.684058022500935e-17
-6.842149830470772e-03 -1.683548861427229e-05  3.819571433132130e-17
-6.847024213802116e-03 -5.482408633105409e-05  7.159150100929221e-17
-6.853478400672570e-03 -4.265488762189419e-05  1.353468864288098e-16
-6.856436864936065e-03 -4.267330060188990e-05  1.318517060721007e-16
-6.857767305924442e-03 -4.169973090430233e-05 -1.239716413294993e-15
-6.854625942159217e-03 -4.929302569444705e-05  6.256322325478918e-15
-6.852040014250567e-03 -7.327101399589245e-05  1.610883573168081e-17
-6.847540066075441e-03 -4.924206970036175e-05  6.550004428496990e-15
-6.865701295650966e-03 -1.237163871325903e-05  1.404595100366879e-16
-6.822335800320403e-03 -1.941569418244593e-04  8.968413446869623e-17
-6.832352302045526e-03  5.503013145511807e-05  6.770914997499056e-17
-6.841153667687926e-03 -1.250445076810531e-04  4.416393530015212e-17
-6.883925073664843e-03  1.262912900736720e-04  3.060508703647558e-17
-6.893250150116564e-03 -1.919025417585339e-04  2.425050324879057e-17
-6.854734425914475e-03 -1.440673585336285e-05  1.476542590940205e-17
-6.847815084637581e-03 -2.118180303459601e-04  9.050644756681242e-18
-6.856717012171707e-03  3.674303127603665e-05  6.437033798134946e-18
-6.859238549235906e-03 -1.778510312132248e-04  4.539711878203533e-18
-6.904075524108933e-03  7.836191054773239e-05  3.238842771006774e-18
-6.864849938481267e-03 -3.232065845796192e-04  2.873485390165449e-18
-6.860614726205018e-03  8.843216130251306e-05  2.278160099557779e-18
-6.878581838076134e-03 -2.590913138966384e-04  1.974070961122294e-18
-6.885937390336889e-03  5.246400441323845e-05  1.505211483584163e-18
-6.897629760290501e-03 -2.732011795222403e-04  1.316879033625223e-18
-6.875446111262155e-03  1.412416668376110e-05  1.023210681808379e-18
-6.903710535505030e-03 -1.913358160028581e-04  8.655049306619383e-19
-6.888801885945936e-03 -4.265560321010152e-05  6.931949436838883e-19
-6.913105323819321e-03 -1.672769961251693e-04  5.892924229971556e-19
-6.892547222465209e-03 -6.179228150668523e-05  4.820281234916769e-19
-6.926745698011676e-03 -4.560740187831493e-05  3.833825245523417e-19
-6.907196352092550e-03 -1.099920953235169e-04  3.169441099266214e-19
-6.895715744563156e-03 -2.491977553641452e-05  2.151068686716787e-19
-6.936059536817913e-03 -1.650208213799468e-04  1.257392243739550e-19
-6.969993296493824e-03 -7.982370452681579e-06  1.999006736942800e-20
-6.962617993004899e-03 -7.973923901566649e-06 -2.537484132787831e-20
-6.943116782353577e-03 -1.038242869711377e-04 -3.494830082383000e-20
-6.963203958641608e-03  1.862154529099786e-04 -7.567229614120082e-20
-6.898211271327935e-03 -2.627435575812615e-04 -7.992082227208080e-20
-6.918503965330727e-03  5.335528368684197e-04 -1.233289825220116e-19
-7.020977209383436e-03 -2.120640961435495e-04 -1.148174242995548e-19
-6.964007138304347e-03  2.369150979464832e-04 -1.462199296840664e-19
-7.225254083384300e-03 -1.395720507346500e-04 -1.579146726518264e-19
-5.867819463122649e-03 -3.520007624912256e-03 -3.741725933638668e-20
-6.838455466519242e-03  1.182931508656219e-04 -1.681595747577104e-19
-7.054433944198761e-03  2.716158234348351e-04 -1.870138451007774e-19
-7.028740031036969e-03  4.817839444599975e-05 -1.874428545110509e-19
-6.916299146933151e-03  1.050681407503030e-04 -1.930767049486398e-19
-6.924856036664502e-03  1.051981317289432e-04 -2.018491205850561e-19
-6.921155587741856e-03 -1.827198275555618e-04 -2.010452282633557e-19
-6.897611725901373e-03  7.828653633005726e-05 -2.112726642109081e-19
-6.902828223113364e-03  1.090448695227411e-04 -2.190195959617681e-19
-6.892745722144724e-03  7.707627087460503e-05 -2.233388188640398e-19
-6.887521937276371e-03  9.288206363516018e-05 -2.285955680274872e-19
-6.885812478149572e-03  7.146537631474259e-05 -2.322051453123945e-19
-6.878584582252275e-03  7.671843367122193e-05 -2.368365577066594e-19
-6.876574023295422e-03  7.669600944540491e-05 -2.417908901222589e-19
-6.871667902887550e-03  9.645058803329270e-05 -2.467915722790186e-19
-6.867867320804402e-03  7.874519109064603e-05 -2.500057406554622e-19
-6.867668495801272e-03  6.300456682215885e-05 -2.529730954001364e-19
-6.867164286036615e-03  7.103169106995013e-05 -2.572839248518391e-19
-6.865110176830776e-03  8.675672026566354e-05 -2.612879727512326e-19
-6.859494635817430e-03  6.556169562595939e-05 -2.646041334819140e-19
-6.858025163394189e-03  7.273309083284047e-05 -2.684524016821976e-19
-6.861370616398364e-03  7.276857118344178e-05 -2.706063483499545e-19
-6.855307888830045e-03  3.471958747031745e-05 -2.721375695995253e-19
-6.847527406968903e-03  9.055363035168896e-05 -2.740394430499648e-19
-6.844061578200547e-03  3.767472375702965e-05 -2.763294801428564e-19
-6.845850082810015e-03  1.428247083355222e-04 -2.791056233773273e-19
-6.858909880043991e-03  4.383029038963435e-05 -2.795904277849298e-19
-6.840084391444382e-03  4.370999042266026e-05 -2.806156444706990e-19
-6.855924231098161e-03  1.058942169207165e-04 -2.825785149365851e-19
-6.858067907333766e-03 -8.005503748122713e-05 -2.827783175997772e-19
-6.842235663000497e-03  6.634915591373917e-05 -2.841140160649160e-19
-6.833521243709423e-03 -5.560731915152773e-05 -2.841158916497064e-19
-6.853741123582493e-03  1.557215199414218e-04 -2.870481953347487e-19
-6.883117947430661e-03 -4.673557490691279e-05 -2.870278325236594e-19
-6.838224989361322e-03  5.621374473189185e-05 -2.871333759565396e-19
-6.849840629447774e-03  1.188309101737890e-06 -2.881895458691288e-19
-6.851326889326265e-03  1.188566937830247e-06 -2.893734651662523e-19
-6.827488927482638e-03  1.184431532562002e-06 -2.896084026825950e-19
-6.893407841621033e-03  1.134930075525291e-04 -2.923717479455970e-19
-6.892265101682226e-03 -2.444928149730084e-04 -2.919279590537459e-19
-6.988108504754820e-03  8.047967217873144e-05 -2.989869131183732e-19
-6.999576762088411e-03 -3.550583688880363e-04 -2.972249073247021e-19
-6.908185355793070e-03  1.652925383867525e-04 -2.992594390323013e-19
-7.061787963406438e-03  1.166480636058624e-05 -3.034611094531231e-19
-7.023998630279915e-03  1.522695441835784e-04 -3.028276030356442e-19
-7.010258031992731e-03 -7.540945335522457e-05 -3.012690660579916e-19
-6.939494453342895e-03  2.589186556287470e-05 -3.005629955035596e-19
-6.928744165152582e-03  2.585175528993520e-05 -3.005329233961694e-19
-6.893610333495129e-03  4.636205480537987e-05 -2.999261090296996e-19
-6.894128876800062e-03  5.581497924974553e-05 -3.002308803375374e-19
-6.836301420062589e-03 -3.550208648994000e-05 -2.987623248969504e-19
-6.825975462643756e-03  2.717662616391911e-04 -3.003928182340321e-19
-7.285131288376599e-03  1.135754036727939e-04 -3.130528791939617e-19
-5.082550141057655e-03 -4.653196056886995e-03 -2.067252752669513e-19
-6.440915949640459e-03  7.497277739593139e-05 -2.894721695810542e-19
-6.916318150320812e-03  6.886840766817643e-04 -3.056048644436829e-19
-7.052794861329809e-03 -8.492789142348895e-05 -3.064709217026858e-19
-6.851053157284250e-03  2.423152434261425e-05 -3.011768864475437e-19
-6.870970158546349e-03  7.415888639360637e-05 -3.024080675737777e-19
-6.872818157298627e-03  2.699371946418720e-05 -3.023706477857273e-19
-6.857269048780889e-03  2.693264869763415e-05 -3.021834708025298e-19
-6.839914566791633e-03  2.060073319275413e-05 -3.023279010864696e-19
-6.786570243752416e-03  4.547600819652421e-05 -3.008560087393327e-19
-6.765606346732224e-03  4.533553159074545e-05 -2.989934465220386e-19
-6.972053817346025e-03 -1.353268641648009e-04 -3.042698542400193e-19
-7.019986738368239e-03 -6.058062130249570e-04 -3.110629898303022e-19
-6.927723707207296e-03  6.337046472300174e-04 -3.145283419335121e-19
-7.145693881728949e-03  4.819041533447740e-04 -3.132119673977381e-19
-6.782082992012791e-03 -5.098204808956537e-05 -2.998516551641689e-19
-6.746552350842017e-03 -5.071495833867987e-05 -3.009260506276694e-19
-6.811333004865115e-03 -7.122658301554464e-05 -3.040499293727791e-19
-6.857406741796349e-03 -6.811279822972373e-07 -3.063331649226728e-19
-6.834730534916159e-03 -1.157390416909781e-04 -3.057866955929419e-19
-6.825269670937861e-03  1.278678559718670e-04 -3.068198127122303e-19
-6.885662927650446e-03 -5.546126486389898e-05 -3.069037956973021e-19
-6.836750033291002e-03 -8.955350994701742e-05 -3.062363459799717e-19
-6.871304227727632e-03 -9.000612988779691e-05 -3.079584395878289e-19
-6.894856785464229e-03 -9.031464112533976e-05 -3.089954416196176e-19
-6.928612077871175e-03 -1.307172441031989e-04 -3.107217355014870e-19
-6.976931669221407e-03 -1.277609734827765e-04 -3.128009041112558e-19
-7.089991659546857e-03 -1.693076171865167e-04 -3.178280622489582e-19
-7.143381515404715e-03 -2.392380011019476e-04 -3.201633233586152e-19
-7.202785409610167e-03  8.322952760924966e-05 -3.242729644172772e-19
-7.204743226105528e-03  3.832101476273636e-05 -3.237203865573705e-19
-7.122006883939499e-03  1.380441559561141e-04 -3.219812373934610e-19
-7.077039019345364e-03  1.849283777260175e-04 -3.196771620351043e-19
-6.997010602111977e-03  1.828371747058709e-04 -3.161909536312722e-19
-6.915726382965013e-03  8.546110669822771e-05 -3.134501088644686e-19
-6.897190052376634e-03  1.228944503363465e-04 -3.131094108279945e-19
-6.857563294865506e-03  1.075102782312627e-05 -3.111623214283074e-19
-6.910263280913455e-03  1.029300877207113e-04 -3.127644313367982e-19
-7.468785783979022e-03  1.278036775289058e-04 -3.311704297399384e-19
-4.688051148389739e-03 -5.064827047211919e-03 -1.833103830213117e-19
-6.058703161813816e-03  1.797896674470783e-05 -2.895038475553102e-19
3.829652298637811e-03 5.599721938739618e-03 1.409202951989354e-19
-7.433003556696326e-03  8.631702262078211e-05 -3.308902965173051e-19
-6.963784181792957e-03 -1.757990533814990e-04 -3.146946703375862e-19
-6.880787163618868e-03  1.855414892799347e-04 -3.143507848558233e-19
-6.940356867929440e-03  4.207213187993889e-05 -3.146960936594447e-19
-6.882281578801001e-03  4.172008208341216e-05 -3.126501540874417e-19
-6.836337339519528e-03  2.425124641364574e-05 -3.109466732824694e-19
-6.826345764387121e-03 -5.787448002380760e-05 -3.101022605518552e-19
-6.811771133184987e-03 -4.353250572655502e-05 -3.102567538232864e-19
-6.809225616098692e-03 -4.777260574814709e-05 -3.097751821930395e-19
-6.813489889721015e-03 -8.766372196154673e-05 -3.096631090895997e-19
-6.805754507993429e-03 -1.009912636260308e-04 -3.097806930075032e-19
-6.821577447206502e-03 -8.601225479136061e-05 -3.104977610734146e-19
-6.821038681740579e-03 -1.210990508662690e-04 -3.101982729912489e-19
-6.832463309273651e-03 -1.213018809065763e-04 -3.107529714396342e-19
-6.844869546626044e-03 -1.051401656217258e-04 -3.115289189573604e-19
-6.847962126010650e-03 -1.217316103861922e-04 -3.116851884950439e-19
-6.854027053188297e-03 -1.218394225117011e-04 -3.119469657822144e-19
-6.859663944921074e-03 -1.219396257394026e-04 -3.121541669555989e-19
-6.861686409742428e-03 -1.219755777343351e-04 -3.122356210057496e-19
-6.862854477511350e-03 -1.178574514958270e-04 -3.123894476440446e-19
-6.871721462058952e-03 -1.421225366358837e-04 -3.128195857187439e-19
-6.895681446434286e-03 -1.426180825883763e-04 -3.136270478793916e-19
-6.952632980191019e-03 -1.635225053537281e-04 -3.157946986071644e-19
-6.998750014575793e-03 -1.646071553019662e-04 -3.191905670233262e-19
-6.802393759295674e-03  2.936049649147011e-04 -3.134507439727867e-19
-6.519894064338139e-03  2.814117111923513e-04 -2.966969367822156e-19
-6.566165905446307e-03 -1.253450549862033e-03 -2.976062870259785e-19
-6.851923517893675e-03 -9.033703435600782e-05 -3.166147041118540e-19
-7.022278334329800e-03 -9.258302394782286e-05 -3.193341614163568e-19
-6.979635836531460e-03 -7.408186405451156e-04 -3.150229594113404e-19
-6.970810039650705e-03 -1.195591361947375e-04 -3.181537775584558e-19
-6.968389377434432e-03  5.418207368003361e-05 -3.181637212825302e-19
-6.954075905531459e-03 -9.083183656137489e-05 -3.169939606115879e-19
-6.895658093582946e-03 -3.342515368237361e-05 -3.158382007089796e-19
-7.026887489700411e-03  6.834708647627979e-05 -3.197289222965257e-19
-6.972529754213877e-03 -4.515635739698588e-04 -3.165454699362032e-19
-6.963790712441260e-03  8.709171508174071e-06 -3.185814032438717e-19
-7.009157998828234e-03 -4.578026504286077e-05 -3.198705040072258e-19
-7.013007206143545e-03  8.328357931811270e-05 -3.210595906258888e-19
-6.862992312014661e-03 -7.324708976969354e-05 -3.163535113752218e-19
-6.882115235643551e-03  5.093071376582128e-04 -3.148603145439383e-19
-6.888910601719221e-03 -3.762877870201720e-04 -3.117059494674400e-19
-6.906709273506510e-03  3.495213196927324e-06 -3.171248311115082e-19
-7.051390156454993e-03 -8.426295041177128e-06 -3.213718714340082e-19
-7.073742891621414e-03 -8.453006191363183e-06 -3.238256639658239e-19
-6.811085325814280e-03  3.442266307322664e-04 -3.181291506758758e-19
-6.347224071297996e-03  7.774946684766639e-04 -2.961675345440651e-19
-6.381944879415274e-03 -9.902876459614448e-04 -2.883645284226845e-19
-7.031796722945617e-03 -6.553786466823893e-05 -3.237178942225362e-19
-7.019209360894006e-03  1.384933257276164e-04 -3.217356518350765e-19
-6.943285031184528e-03  1.369952919200358e-04 -3.176092525445893e-19
-6.883976057268015e-03  4.254301468772382e-05 -3.151806374497929e-19
-6.909356013040867e-03  1.264215590713540e-04 -3.164607117673146e-19
-6.896174385715988e-03 -1.758821920785370e-05 -3.161821607819663e-19
-6.896555945463958e-03  1.353861704366260e-04 -3.164763770549000e-19
-6.896162444644957e-03 -3.824787585448462e-05 -3.161526637480001e-19
-6.876671253754271e-03 -8.676504362634975e-05 -3.317221751088944e-19
-6.906366695958143e-03 -8.713972001311404e-05 -3.343974870386770e-19
-6.875027259162173e-03 -2.440825886978015e-05 -3.299284271179240e-19
-6.896477451618234e-03 -2.448441301878027e-05 -3.304869730358728e-19
-6.966857818643073e-03 -1.341013039002122e-04 -3.379146610190759e-19
-7.106677288537070e-03 -1.367926137721098e-04 -3.389492003926216e-19
-6.025604814977528e-03 -3.197913842301879e-03 -1.544852414698068e-19
-7.024088149896630e-03  2.001540529754118e-04 -3.298804984203265e-19
-6.949280990503813e-03 -3.118989728142656e-05 -3.329065677128486e-19
-6.913222342596201e-03  3.875340814876854e-05 -3.316154733722354e-19
-6.902878614729636e-03  3.869542437681275e-05 -3.311753657314962e-19
-6.898787643576446e-03 -6.645421654635134e-05 -3.308842917336593e-19
-6.872131268705724e-03  4.348945931386590e-06 -3.293729411732448e-19
-6.851178868006432e-03  1.716309260484697e-05 -3.286415560464404e-19
-6.843299125441755e-03 -3.547269512240111e-05 -3.282032523210203e-19
-6.824683815329692e-03 -3.537620142716585e-05 -3.273529668387678e-19
-6.867636918171480e-03  4.357076282426967e-05 -3.277865650494310e-19
-6.797324847034237e-03 -1.658846891518413e-04 -3.336993575471549e-19
-6.823083746374792e-03  1.785376470463921e-04 -3.273129059040862e-19
-6.829964750118362e-03 -1.485744168692941e-04 -3.240458743887249e-19
-6.932770679536706e-03  3.860491700871912e-04 -3.056279863561645e-19
-6.903444248581161e-03 -3.173911095053214e-04 -3.227251995007699e-19
-6.828951550290146e-03  2.060134340432340e-04 -3.239089697574716e-19
-6.804045548237939e-03 -4.198338786125456e-04 -3.176500125167880e-19
-6.841213480946893e-03  2.315811678696773e-04 -3.266766100825150e-19
-6.760489930263371e-03 -3.424158908945152e-04 -3.218183082981462e-19
-6.843282888849989e-03  6.424265505554155e-04 -3.251864946072421e-19
-6.944021440301299e-03 -4.110260960049747e-04 -3.315387725227977e-19
-6.891806419744611e-03  1.220304767174060e-04 -3.275585327761746e-19
-6.846251902357946e-03 -5.435791012873145e-04 -3.206820037195079e-19
-6.843495186851375e-03  1.398363219926227e-04 -3.274539269658353e-19
-6.752281119626215e-03 -3.016397450536224e-04 -3.383680693326465e-19
-6.804828606654591e-03  6.703496516670569e-04 -3.455899184231678e-19
-6.899743893228135e-03 -3.297593291900205e-04 -3.265407164081326e-19
-6.948491465307374e-03  9.679866232548146e-05 -3.278435604612994e-19
-6.764129533689643e-03 -7.174973535991150e-04 -3.190918047887907e-19
-6.870459098189338e-03  3.108947784590830e-04 -3.416351128096922e-19
-6.838684826848047e-03 -3.804724377015503e-04 -3.204984696114208e-19
-6.481089379588288e-03  1.114021245265579e-03 -2.642693918238242e-19
-7.185384755700201e-03  1.797821237645531e-04 -3.367545734029451e-19
-6.997206627125563e-03 -6.402532111455912e-04 -3.219738017627287e-19
-6.750677372918516e-03 -2.760563832362037e-04 -3.280319633416646e-19
-6.939778987174901e-03  6.209729924552194e-04 -3.248856146095103e-19
-7.178369269291060e-03 -4.164227571050101e-04 -3.098981756630516e-19
-6.900773635447802e-03  2.864608075561348e-05 -3.295133662302695e-19
-6.885598476037226e-03 -1.434262314258069e-05 -3.307148780508552e-19
-6.884516442970591e-03  4.383473921365054e-05 -3.318354563153990e-19
-6.866084473172615e-03 -5.402101434417599e-05 -3.295501169014103e-19
-6.871960931343116e-03 -6.079146716161071e-07 -3.303133195205899e-19
-6.854349870892917e-03 -9.439620942167698e-05 -3.267618962803945e-19
-6.892080072512428e-03  2.981475099421809e-05 -3.308068119595640e-19
-6.849768223447526e-03 -1.526463997713521e-04 -3.301784201163817e-19
-6.795734180426695e-03  3.996527283544751e-04 -3.277811188673903e-19
-6.938008893618132e-03 -3.326219857523612e-05 -3.315810669957809e-19
-6.868720875123006e-03 -4.463615599492461e-05 -3.292480348723356e-19
-6.822013529945561e-03 -3.780120517620178e-04 -3.243919937417765e-19
-6.814530721613161e-03  1.620725311723487e-04 -3.368534481542293e-19
-7.080484596795662e-03  1.443113108138032e-04 -3.309113622013654e-19
-6.114447990981263e-03 -3.835092834306170e-03 -3.821365331481996e-19
-6.710218435462150e-03 -2.818688436594797e-04 -3.322607985849954e-19
-6.889074900137546e-03  5.321066564403570e-04 -3.230257333124106e-19
-7.201696084463856e-03  9.999444877397887e-05 -3.334589448088892e-19
-6.935765336787214e-03 -6.240342505058138e-04 -3.174976334249797e-19
-6.814558980502055e-03 -4.836260927314655e-05 -3.300679162126515e-19
-6.862683185265827e-03  6.672108618181990e-05 -3.286453771147399e-19
-6.900447715709539e-03  4.185264226800127e-05 -3.322699466752306e-19
-6.887393010516358e-03 -1.541627977982728e-04 -3.335128670035126e-19
-6.850817071304622e-03 -1.300152273093272e-05 -3.309545320301703e-19
-6.882557328019960e-03 -1.306175958514660e-05 -3.315666262423814e-19
-6.873128496483212e-03 -6.124538094882168e-05 -3.299604462581651e-19
-6.918914040858982e-03  1.810919529099877e-04 -3.213331522544958e-19
-6.908873172330693e-03 -9.683118465871748e-05 -3.317319036785508e-19
-6.929845854047227e-03  1.753317197844384e-04 -3.319973395745707e-19
-6.869653847683604e-03 -2.529803637224826e-04 -3.317723080832886e-19
-6.878647877648139e-03  2.404681715381089e-04 -3.303979239022316e-19
-6.903884375581463e-03 -1.612748891280147e-04 -3.387837277143146e-19
-6.926506819774589e-03  2.839958052914885e-04 -3.255392851838457e-19
-6.838768313571284e-03 -3.996161237026804e-04 -3.388820985803840e-19
-6.889745853477577e-03  5.441885839871339e-04 -3.403241306273841e-19
-6.853138427290479e-03 -3.098357608670665e-04 -3.311073345127669e-19
-6.868468171611434e-03  6.777303393871758e-04 -3.585906721733412e-19
-6.945175276376275e-03 -2.666720054051857e-04 -3.322891866450615e-19
-6.969389571937035e-03  4.745968979636413e-04 -3.431919411501610e-19
-6.865166447225404e-03 -7.321005931890101e-04 -2.943048880855503e-19
-6.811390868727139e-03  4.268708623740661e-04 -3.182191305059933e-19
-6.740334329814092e-03 -4.779771729000642e-04 -3.209234786022415e-19
-6.768928515235675e-03  9.282028579111957e-04 -3.809134258731488e-19
-6.985391118168464e-03 -4.136216506112821e-04 -3.463766414053877e-19
-6.839196207107901e-03  2.849438542261064e-04 -3.370280453748193e-19
-6.789725337412737e-03 -2.026946946837725e-04 -3.276329838217945e-19
-6.876968843648557e-03  6.748301826978489e-04 -2.778957338202696e-19
-6.887909142469706e-03 -3.387163041333936e-04 -3.537827671609571e-19
-6.925029815396375e-03  4.657328415481586e-04 -3.794785804722305e-19
-6.885077054984571e-03 -9.601276171474924e-04 -3.462852006368566e-19
-6.809501661238025e-03  2.819859855461358e-04 -3.530694367561676e-19
-6.790216965446258e-03 -5.514161706806872e-04 -2.986232838419932e-19
-6.800927193526322e-03  3.417568500917531e-04 -3.205461120687330e-19
-6.926889176726277e-03 -3.412326069141813e-04 -3.218419627061000e-19
-6.849898441179342e-03  1.489302428484305e-04 -3.287231576795289e-19
-6.929950026733269e-03  6.341175220795034e-05 -3.309933455238697e-19
-6.903797016625177e-03 -4.804145583502100e-04 -3.348637942325037e-19
-6.985060387842100e-03  2.491627139615262e-05 -3.424298544213977e-19
-6.848546183417326e-03  3.012748409407414e-04 -3.407850897701689e-19
-6.656173535634623e-03  2.928121632701994e-04 -3.347162186999349e-19
-6.665953320181892e-03 -6.124460282216003e-05 -3.291675884869924e-19
-6.726727232091441e-03 -3.412049237827515e-04 -3.160753580162253e-19
-6.752613007149286e-03  4.542038110638440e-05 -3.384909336626125e-19
-6.930202125612742e-03 -1.551893652634372e-04 -3.407609594239952e-19
-6.892704121750380e-03  3.053809126334962e-04 -3.347064961573316e-19
-6.788648278745562e-03 -4.513952813903864e-06 -3.364353815329067e-19
-6.810525574134366e-03 -1.879054175532490e-05 -3.358809692308878e-19
-6.770204318472820e-03 -2.508702407670508e-04 -3.352665329257886e-19
-6.823961158775598e-03  1.191434586693599e-04 -3.346307301319186e-19
-6.854425099833029e-03 -2.770704357074798e-04 -3.135429516831515e-19
-6.775466956500590e-03  4.689294534342449e-05 -3.410366010407357e-19
-6.835382219090336e-03 -3.820563558878243e-06 -3.392571664500942e-19
-6.827119111867216e-03 -1.209361225512527e-04 -3.383253864445337e-19
-6.783958779450573e-03 -1.201341474185285e-04 -3.366145678735977e-19
-6.814945980638567e-03 -5.489514490938111e-05 -3.390335132105509e-19
-6.819061969988625e-03 -7.380621893803967e-05 -3.423644193084004e-19
-6.803610183018973e-03 -7.363897629131125e-05 -3.450205776519423e-19
-6.812133772929716e-03 -7.373123149383895e-05 -3.475998598064458e-19
-6.940452910308667e-03 -3.301122887649600e-04 -3.413401826588874e-19
-5.738727034106442e-03 -3.248484860772469e-03 -7.155425411949346e-19
-6.920283822862881e-03  1.384567353660528e-04 -3.483531339615527e-19
-6.916965158296313e-03 -6.541794758858541e-05 -3.486749561164754e-19
-6.918600597434680e-03 -3.057672931243237e-05 -3.479815288832025e-19
-6.877366437611672e-03  1.049856878893157e-04 -3.515680048656810e-19
-6.814097354486295e-03  1.040198605956415e-04 -3.485197450978419e-19
-6.765846957150386e-03  1.032832994132186e-04 -3.463341908677203e-19
-6.752513695633025e-03  1.030797619625233e-04 -3.448240348796390e-19
-6.787751862673824e-03 -2.873958242643990e-05 -3.514009144019606e-19
-6.809861957938163e-03  2.035701286694051e-04 -3.373276216174338e-19
-6.761209103177255e-03 -2.248655691746901e-04 -3.217516491788594e-19
-6.955382166942694e-03  7.409073019462467e-04 -3.635150866183510e-19
-6.966956369835655e-03 -6.334994267984020e-04 -4.254651288546979e-19
-6.822881953887679e-03  2.824933500770130e-04 -3.563207978688410e-19
-6.876316777831305e-03 -3.091248584270726e-04 -3.642540496815566e-19
-6.860373173818705e-03  1.183047142535931e-04 -3.621514924955051e-19
-6.820609768662653e-03  1.859230383759466e-05 -3.588945889385577e-19
-6.770235278296561e-03  1.845498798720640e-05 -3.596941648124236e-19
-6.904171221618593e-03  1.882213053151421e-04 -3.472492602228025e-19
-6.646081059706922e-03 -5.576847894276309e-04 -3.133651153589813e-19
-6.711589542227172e-03  9.157211317225440e-04 -4.022867219691517e-19
-6.845552950250589e-03 -7.095074933137059e-04 -3.798819052443876e-19
-6.843462851828049e-03  6.516516571162108e-04 -3.645054067555279e-19
-6.841661222650501e-03 -7.248702260911398e-04 -3.878856423189707e-19
-6.766740766208707e-03  3.014117645773675e-04 -3.704656398146723e-19
-6.767832574653605e-03 -5.886380154629631e-04 -3.500011336712596e-19
-6.749137769681830e-03  5.698444149239690e-04 -3.951750612146530e-19
-6.687123484632552e-03 -2.180400665640287e-04 -3.720454096879081e-19
-6.788598494908093e-03  8.981324074912672e-04 -3.835591558870421e-19
-6.896191811488779e-03 -3.168868045060141e-04 -3.822809067768456e-19
-6.856597563210598e-03  1.300569935313680e-04 -4.066691014205007e-19
-6.838427520015365e-03 -2.228065618048565e-04 -3.960330405961460e-19
-6.830790942983389e-03 -2.574618171848275e-05 -4.079966219404870e-19
-6.838553914641218e-03 -2.577544141631952e-05 -4.154056004152043e-19
-6.860134543526536e-03  4.014640249158556e-05 -4.219154735561913e-19
-6.854825989787487e-03 -7.671115331982589e-05 -4.203005932992936e-19
-6.820707946575407e-03 -5.208306142906023e-05 -4.256820401494404e-19
-6.840944364420963e-03  3.156371797025015e-05 -4.359492328075935e-19
-6.839046192474389e-03 -9.951005774487285e-05 -4.522596643616543e-19
-6.822819122667061e-03 -2.484775932248977e-05 -4.550894805705938e-19
-6.823065999170782e-03 -2.484865841241676e-05 -4.689546890151254e-19
-6.803951058734870e-03 -8.031150699623319e-05 -4.863889406483286e-19
-6.862032270716066e-03  1.626536789397333e-04 -4.912842633211723e-19
-6.796264836763829e-03 -2.408305567603101e-04 -5.063912498767306e-19
-6.795186692076085e-03  1.477374442730735e-04 -5.226970773455919e-19
-6.722108262500404e-03 -2.829282720177136e-04 -5.145951314952688e-19
-6.741557459681515e-03  5.041437981986157e-04 -5.712552409764697e-19
-6.800137445406944e-03 -2.535126652484504e-04 -5.482414299373295e-19
-6.816277777950402e-03  4.291129550747953e-04 -6.217415541999680e-19
-6.799912520640304e-03 -3.086251493067577e-04 -5.668743608592553e-19
-6.857863826781115e-03  4.569129088332876e-04 -6.723653782247288e-19
-6.944142962753934e-03 -3.943390631127811e-04 -5.957197063731294e-19
-6.870242444865349e-03  1.061430092519366e-04 -6.829594438735792e-19
-6.705628102243039e-03 -6.503315540501844e-04 -6.141244993338425e-19
-6.783591848593239e-03  3.351578765990973e-04 -7.455044427334605e-19
-6.906362051510366e-03 -2.275671196439405e-04 -8.044748439220198e-19
-6.886438540120462e-03  1.164678136380140e-04 -8.686948434886386e-19
-6.867979944951570e-03 -2.177636845998197e-04 -9.271197581678214e-19
-6.821404716568549e-03  1.773934432391099e-04 -1.011395074172463e-18
-6.903128100940149e-03 -7.290763949341205e-06 -1.106226274477159e-18
-7.070940892687455e-03 -7.468000042083411e-06 -1.256354306903378e-18
-4.447631143413100e-03 -5.215063847677147e-03  4.927268817148426e-19
-6.871541502454449e-03  1.630910243048029e-04 -1.509606789269714e-18
-6.982151618043640e-03  1.657162747007251e-04 -1.783689054871331e-18
-6.884739803483175e-03  7.605101332065203e-05 -2.276423893769536e-18
-6.873329981579120e-03  7.112707111456378e-05 -2.914263049032936e-18
-6.859711451896916e-03  7.541821314751596e-05 -3.752833436678214e-18
-6.836350611222514e-03 -5.555005534309099e-05 -4.710801382711166e-18
-6.846367815118580e-03  1.001781230105464e-04 -5.670459851202949e-18
-6.859930770877088e-03  5.281744261918585e-06 -7.417189240658853e-18
-6.844799173866796e-03  8.628723764613160e-05 -1.200879787954322e-17
-6.881993319445045e-03 -5.220048293539922e-05 -1.837951368214154e-17
-6.846770744411396e-03 -1.275873183187481e-05 -2.417194236141672e-17
-6.795061568896137e-03  7.868416244831898e-05 -3.543738804569086e-17
-6.850916369927846e-03  5.425659696636328e-04 -4.892699914411242e-17
-6.999135532267594e-03 -1.277034671668702e-04 -6.539272328588165e-17
-6.352394039502268e-03 -1.906268960982799e-03 -8.183395873448793e-17
-6.744750768184864e-03  2.454266709400285e-04 -1.187192844489787e-16
-6.886103181763996e-03  8.230796878532529e-05  3.065236550909266e-16
-6.867735072054571e-03  3.056436803598686e-05 -6.302091197379050e-15
-6.871474170071426e-03 -9.100914943169584e-06  9.079860726554716e-16
-6.841193098365861e-03  3.044624485363828e-05 -6.641327249720089e-15
-6.866285239676485e-03 -1.883933140324534e-05 -1.351540535731457e-16
-6.822392726448845e-03  1.085978722005447e-04 -8.658620183752723e-17
-6.897721766379795e-03  9.467019542381782e-05 -6.756173032594253e-17
-6.832534537159003e-03 -3.572526189827133e-05 -4.571944812497211e-17
-6.847908019903624e-03 -5.939477588054157e-06 -2.429911040130000e-17
-6.843544548310772e-03  9.262408695040610e-06 -1.372363853078788e-17
-6.834466217875661e-03  9.250121611035377e-06 -9.114208970867213e-18
-6.836322728475553e-03 -2.424452646147917e-05 -5.762788386858989e-18
-6.851733600448735e-03 -2.087051530179335e-05 -3.631956390871938e-18
-6.849161491668196e-03  3.068619890826784e-05 -2.816842593611544e-18
-6.849117712090544e-03 -2.025130354850970e-05 -2.420999689216781e-18
-6.843135536546154e-03 -3.111632477523347e-05 -1.930860618714505e-18
-6.855653688728584e-03 -3.117324588790382e-05 -1.537177474557744e-18
-6.857375640124457e-03 -1.450792237923865e-05 -1.178225397402442e-18
-6.849059363377561e-03 -1.895403803423467e-05 -1.042133958534220e-18
-6.845004169207478e-03 -1.894281571881031e-05 -9.191121268124232e-19
-6.845006523176663e-03 -2.385207472533305e-05 -8.254612322855346e-19
-6.842092248701486e-03 -2.170694159567306e-05 -7.481822000444007e-19
-6.842281339415656e-03 -2.170754149712711e-05 -6.894809112054829e-19
-6.840109012921821e-03 -2.170064966307776e-05 -6.416490802032440e-19
-6.826230552664582e-03  7.642438803523144e-06 -6.120330903361601e-19
-6.822762129384029e-03  2.046897463230628e-05 -5.814885120349477e-19
-6.849000086956905e-03 -1.070006594934570e-04 -5.527953152733157e-19
-6.810221510523080e-03 -2.230629725858663e-05 -5.379395018244387e-19
-6.816036455131208e-03  1.082987892196381e-04 -5.174315297654850e-19
-6.830228911392923e-03 -9.225023575964612e-05 -4.955280483154840e-19
-6.868453699984481e-03 -9.276650626905055e-05 -4.816216111203632e-19
-6.886325530864139e-03  9.340044184815859e-05 -4.713785205473051e-19
-6.873913582742263e-03  4.191450670333080e-05 -4.579991080027985e-19
-6.834544068281512e-03  2.561956323410030e-05 -4.452164587995153e-19
-6.954062326457957e-03  2.606758223030394e-05 -4.374226545559858e-19
-5.722303488717894e-03 -3.772342240608505e-03 -3.185211015206222e-19
-6.835889670096352e-03  8.890584359433961e-05 -4.281535559620663e-19
-6.926428000151686e-03  9.008336210321837e-05 -4.211516716949869e-19
-6.871145353827246e-03  1.457504649366194e-05 -4.130719941971480e-19
-6.896736435357092e-03  1.844670269143607e-04 -4.106762253618741e-19
-6.863409418393132e-03 -4.617767696127370e-05 -4.034664363003481e-19
-6.880103489416336e-03  2.369401714336666e-04 -4.013582170009297e-19
-6.845784443309797e-03 -1.095542926752867e-04 -3.950380565255607e-19
-6.876091012688200e-03  3.450182847041184e-04 -3.928068144111988e-19
-6.864208332300536e-03 -1.823037879464517e-04 -3.891375160477224e-19
-6.786599881880051e-03  3.047889521073477e-04 -3.848222088105944e-19
-6.732195278619144e-03 -8.768422197897913e-05 -3.776891030453758e-19
-6.771240531830121e-03  1.884160699559046e-03 -3.778538044513086e-19
-6.842945320625422e-03 -4.519404924565902e-04 -3.728372919547021e-19
-6.764865728746869e-03  6.772585474056933e-04 -3.736113756065405e-19
-6.738237177870280e-03 -3.663485731962049e-04 -3.701184683127057e-19
-6.535580319641240e-03  2.859320367128454e-03 -3.752563915373562e-19
-7.071796060196697e-03 -8.108908746785207e-04 -3.686175245601948e-19
-6.889919391608983e-03  4.275701606341937e-04 -3.723361263465678e-19
-6.676948231717873e-03 -9.433921350116833e-04 -3.513469884934347e-19
-6.736701968973178e-03  6.662184064342281e-04 -3.639315083717944e-19
-6.603142495072472e-03 -6.764797140041694e-04 -3.544604285873081e-19
-6.462038055932380e-03  1.503169512386262e-03 -3.652905781419921e-19
-6.783932154618437e-03 -4.186219557665581e-04 -3.520847357196435e-19
-6.731981242625411e-03  1.353569795728694e-03 -3.651893050116746e-19
-6.711655791286580e-03 -6.525223380093975e-04 -3.492412773669450e-19
-6.434549367364220e-03  1.123837667813325e-03 -3.513514977339071e-19
-6.561825703922522e-03 -2.617951531420030e-04 -3.457072493752079e-19
-6.694154975348101e-03  1.347751750007140e-03 -3.529316906296921e-19
-6.897750292579415e-03 -1.615417524642768e-03 -3.334382368672051e-19
-6.479052188902055e-03  6.215522359377575e-06 -3.441890102245002e-19
-6.587777679466957e-03 -4.880439057348815e-04 -3.401545667021030e-19
-6.610629406502598e-03 -1.590932019631996e-05 -3.464751979195032e-19
-6.766167377628501e-03 -2.740097960537883e-04 -3.482467382323404e-19
-6.717654993781858e-03 -1.762155353542131e-04 -3.469082804654828e-19
-6.832931113092045e-03 -6.314895936065655e-06 -3.488442999142041e-19
-6.797113261554758e-03 -2.970706338000622e-04 -3.468503942443817e-19
-6.812399259742331e-03 -5.349247587479538e-05 -3.474844757862383e-19
-6.787693181489962e-03 -3.856871447320218e-04 -3.464486732889476e-19
-6.816193139371712e-03  3.535787778976236e-06 -3.471688330253483e-19
-6.794228490382699e-03 -3.388148752602803e-04 -3.391617886583932e-19
-6.817535746183036e-03  3.354802053796868e-04 -3.518660831765478e-19
-6.877833063990097e-03 -2.869745505578199e-04 -3.416647155968051e-19
-6.933372269709603e-03  1.665721048071097e-04 -3.488063035701706e-19
-6.849323659306915e-03 -6.032142905154674e-04 -3.460567122346031e-19
-6.800367150404290e-03  1.098198078240909e-04 -3.455517286765218e-19
-6.834264297046109e-03 -2.781315192129778e-04 -3.446825880114320e-19
-6.908528083699609e-03  1.850618325755644e-04 -3.463993499010493e-19
-6.922622890255662e-03 -4.034522253531883e-04 -3.440923609849378e-19
-6.883813238175792e-03 -3.503619485075554e-05 -3.446931891746852e-19
-6.865750488733711e-03 -4.334062493525484e-04 -3.433924878334559e-19
-6.886277290121742e-03 -3.653945990297333e-06 -3.442290031830169e-19
-6.874125623725463e-03 -3.182296044809772e-04 -3.444374555943500e-19
-6.954847858202626e-03  3.158041731562294e-04 -3.497200338463612e-19
-6.981766892449838e-03 -3.424491180199006e-04 -3.391550357919414e-19
-6.937086750050886e-03  2.139912143983562e-04 -3.451532960704932e-19
-6.898293700594002e-03 -2.785898021002809e-04 -3.425719640072116e-19
-6.902302092859162e-03  3.411857281904787e-04 -3.458572601686793e-19
-6.935536286464239e-03 -2.204932517911775e-04 -3.418313705092465e-19
-6.842450724942900e-03 -7.635544723506182e-05 -3.420001524856083e-19
-6.916148166861234e-03  3.763997179078309e-05 -3.433664375534142e-19
-6.865924228703771e-03  9.410960383438319e-05 -3.401202496010041e-19
-6.833406176144588e-03 -8.972412667261006e-05 -3.388503360308945e-19
-6.851977410967184e-03 -8.996797107212881e-05 -3.397703833080972e-19
-6.880743199019163e-03 -7.545952339944990e-06 -3.390323683621863e-19
-6.907426423643795e-03  5.669327182294737e-05 -3.381698452049153e-19
-6.834389579603250e-03 -1.214828945702897e-04 -3.350552755302975e-19
-6.857792182294984e-03  1.525909946727288e-04 -3.384492394886032e-19
-6.840329324755685e-03 -1.245190919650931e-04 -3.374974557501464e-19
-6.880161198443231e-03  3.707584455549373e-04 -3.408839983427720e-19
-6.934102125121342e-03 -1.852247347749660e-04 -3.373728735000444e-19
-6.874065451383497e-03  5.273853694753392e-05 -3.378181599498729e-19
-6.861366534251049e-03 -1.666799530192298e-04 -3.368048991088241e-19
-6.857182210596313e-03  8.158715336743131e-05 -3.365313085432530e-19
-6.855194529757852e-03 -7.830789638556885e-05 -3.361601293897974e-19
-6.861963337899695e-03  1.422549688482594e-04 -3.379758593171655e-19
-6.877817820495851e-03 -5.936854213031599e-05 -3.357586351161089e-19
-6.875254771951553e-03  1.006912926326696e-04 -3.372591999197427e-19
-6.883858248603656e-03 -6.588496227781920e-05 -3.353515687444275e-19
-6.859072238379314e-03  7.344337030990566e-05 -3.362433458471335e-19
-6.868271657256788e-03 -1.265661002833434e-05 -3.353404000115880e-19
-6.861116622449638e-03  7.507052635985228e-05 -3.348961826717889e-19
-6.885757519461237e-03 -2.579829285302930e-06 -3.355674651937156e-19
-6.867915902103887e-03  1.878286393994169e-05 -3.349022486875500e-19
-6.888075926784146e-03  5.924069136250375e-05 -3.352137607694525e-19
-6.871642439994310e-03 -1.122502172127625e-05 -3.348893278965897e-19
-6.891918451904990e-03  1.006584667934082e-04 -3.347633092383210e-19
-6.847337295572647e-03 -1.239839070546027e-04 -3.350801569354112e-19
-6.865653328241406e-03  1.282952398621039e-04 -3.347069635593767e-19
-6.854388181532091e-03 -1.646152646739555e-04 -3.362664562795781e-19
-6.862267027080191e-03  2.661167965058051e-04 -3.350997655663589e-19
-6.884322881606213e-03 -1.300220155107852e-04 -3.351537209263281e-19
-6.906388807405190e-03  2.340984423221850e-04 -3.344073710956414e-19
-6.769303459549035e-03 -5.858381130711645e-04 -3.217705259327109e-19
-6.758106434989329e-03  3.518781788690164e-04 -3.363670191846954e-19
-6.855816598839598e-03 -1.287908686596475e-04 -3.304676569911156e-19
-6.924529434640916e-03  5.993993966280101e-04 -3.308757009224480e-19
-6.942300254375659e-03 -2.851675675377043e-04 -3.317467646901165e-19
-6.947136581152250e-03  3.948535921132022e-04 -3.406457163295862e-19
-6.782408680879202e-03 -9.057535448485923e-04 -3.210656892210412e-19
-6.865558924707139e-03  4.547688439384391e-04 -3.351186406336550e-19
-6.719832218692915e-03 -7.492136164961526e-04 -3.337187697526712e-19
-6.793567102812302e-03  7.029048604215618e-04 -3.308624389032242e-19
-6.908742190378017e-03 -6.276103515667475e-04 -3.301947091640707e-19
-6.888077709493186e-03  5.209286976620149e-04 -3.343438432132436e-19
-6.612984438643671e-03 -9.941683771844199e-04 -3.268460332399014e-19
-6.548094748586127e-03  8.812078174143303e-04 -3.217260979865995e-19
-6.803609864977706e-03 -1.804488346170942e-04 -3.300080089006535e-19
-6.808192186858127e-03  1.000426622206492e-03 -3.325916210191414e-19
-6.841367431374143e-03 -2.980771827678489e-04 -3.306486137506652e-19
-6.894072064605773e-03  7.537604018273967e-04 -3.282950919726082e-19
-6.874657290632558e-03 -8.122666294071903e-04 -3.238072545988786e-19
-6.750666369161992e-03  4.553645059579985e-04 -3.275118146433391e-19
-6.734064967164156e-03 -5.531433334955522e-04 -3.238070471638201e-19
-6.757534761965363e-03  5.465278759211033e-04 -3.309621342013876e-19
-6.864610614832616e-03 -4.902004469520652e-04 -3.300099877487125e-19
-6.826739154875762e-03  3.302734313992578e-04 -3.344191334720071e-19
-6.805962576841688e-03 -6.386014595234286e-04 -3.264523596389874e-19
-6.789516082405538e-03  2.989103036940105e-04 -3.290135024387431e-19
-6.802409530390598e-03 -3.960081881022174e-04 -3.276823629605067e-19
-6.740292708254167e-03  3.007917497121107e-04 -3.298231580732377e-19
-6.830979749792650e-03 -8.397442398298643e-05 -3.288933650811007e-19
-6.946445141456621e-03  3.495016802041496e-04 -3.294796616474359e-19
-6.930983245680886e-03 -2.678622737866584e-04 -3.283344831601015e-19
-6.624134765415532e-03  1.771243565657973e-04 -3.315848561838784e-19
-6.834878960485847e-03  1.372223306704252e-03 -3.537546924523466e-19
-7.084433130818266e-03  1.557131298105231e-05 -3.330578469978826e-19
-6.852642417669690e-03 -6.223649922196308e-05 -3.302333924414667e-19
-6.894679814373927e-03  7.311856817630829e-05 -3.309900674990046e-19
-6.883981322295262e-03  4.065133721188817e-05 -3.307845492344988e-19
-6.881578453128896e-03  4.063714777118739e-05 -3.306455066244969e-19
-6.889112774118983e-03  3.229222096568907e-05 -3.304145807174966e-19
-6.891088676671605e-03  3.751031242178413e-05 -3.304521695408997e-19
-6.891391612977259e-03  6.120192358475627e-05 -3.310968727755162e-19
-6.888017588770489e-03  6.193708833913077e-05 -3.303936958584924e-19
-6.870021802928181e-03  7.396172761848516e-05 -3.293407735883677e-19
-6.873731807810410e-03  8.221236006251663e-05 -3.297058085083387e-19
-6.883768443728006e-03  8.233240191881020e-05 -3.293762601583989e-19
-6.866235203639317e-03 -1.040469943321546e-05 -3.296220083049391e-19
-6.859757555031565e-03  1.846214762276007e-04 -3.304298039070241e-19
-6.831090838447163e-03 -4.980575793277735e-05 -3.279604540055597e-19
-6.899284822109327e-03  3.606006526010466e-04 -3.325061030518082e-19
-6.855829301705794e-03 -1.845599872465086e-04 -3.301798876705069e-19
-6.827679085378899e-03  3.860761784724158e-04 -3.275979166881759e-19
-6.889140816890811e-03 -9.301214910450391e-05 -3.318441902417671e-19
-6.893022494908784e-03  2.469185961300608e-04 -3.293930264936432e-19
-6.908042949101376e-03 -3.999368913994367e-04 -3.273282721499461e-19
-6.819913591106909e-03  1.449154009782006e-04 -3.236505244317753e-19
-6.842833268860106e-03  2.812298276725481e-05 -3.285162776636150e-19
-6.845088753229598e-03  7.972720089270524e-05 -3.291834463952025e-19
-6.827032148740459e-03  7.951688915162422e-05 -3.271369444713802e-19
-6.840887861276735e-03  4.983318362451956e-05 -3.281634160136330e-19
-6.825430777907173e-03  3.699074398968661e-05 -3.271927253218334e-19
-6.830783110616220e-03  3.701975120922046e-05 -3.277483774629739e-19
-6.808432282881497e-03  8.050808670903743e-05 -3.267719291148922e-19
-6.869930533617314e-03  8.123528884559119e-05 -3.260262891695633e-19
-6.754405402236378e-03 -3.603786939692644e-04 -3.155262513150922e-19
-6.533059388953021e-03  4.271175619640273e-04 -3.021599077874274e-19
-7.138684315858211e-03  7.274731587100055e-04 -2.895085601836859e-19
-6.956525644513568e-03 -1.000617267218672e-03 -3.017102585063444e-19
-6.581486960327162e-03 -6.100968671132693e-05 -3.236583540543481e-19
-6.841102263857126e-03 -8.064835798762403e-05 -3.263688725560639e-19
-6.879318988909024e-03 -8.109888715737248e-05 -3.298543633074225e-19
 6.853113777967487e-03 -9.530978100255975e-05  3.292623116849435e-19
 6.846888732509036e-03 -8.900108294945923e-05  3.291710791134654e-19
 6.845529638930889e-03 -1.039342615831563e-04  3.291470780684224e-19
 6.845987716129587e-03 -1.187878494960261e-04  3.293155837257666e-19
 6.852485340530619e-03 -1.189005927350496e-04  3.295285850917755e-19
 6.858488743674166e-03 -1.184154575314714e-04  3.297550328741955e-19
 6.864688216608911e-03 -1.185224947304022e-04  3.299230798260912e-19
 6.869760302405979e-03 -1.186100669905234e-04  3.300885171408140e-19
 6.873797438002935e-03 -1.116313799695162e-04  3.302272079269640e-19
 6.872533007155184e-03 -1.116108454452326e-04  3.302343117899042e-19
 6.861061956478799e-03 -9.006706020869432e-05  3.299317496524173e-19
 6.901114703338438e-03 -9.059284370778144e-05  3.302178152616127e-19
 6.660635732817623e-03 -1.735151829953760e-03  3.259437401799513e-19
 6.902742662093089e-03 -8.374787011987251e-05  3.312778307787818e-19
 6.906326459145713e-03 -6.580855354813988e-05  3.310299596237604e-19
 6.891115947669637e-03 -6.566361661750253e-05  3.305856874433976e-19
 6.883380965753345e-03 -7.400733984792546e-05  3.304467593296633e-19
 6.889652213475555e-03 -7.933154432986604e-05  3.307031749256298e-19
 6.894008398829032e-03 -7.938170403325462e-05  3.309853333579000e-19
 6.874333316640863e-03 -5.070570789047975e-06  3.301751663250973e-19
 6.825937802099218e-03 -3.720434234155401e-05  3.289778139380289e-19
 6.904342406054260e-03 -9.064571062537285e-05  3.303055515811459e-19
 6.805950231900186e-03 -3.679845949608299e-04  3.311041799067751e-19
6.872366043141192e-03 3.070862439455353e-04 3.297660022991618e-19
 6.921157885894240e-03 -2.011639380326904e-04  3.318924640426863e-19
6.900189956606184e-03 1.351444715476715e-04 3.302655486488599e-19
 6.847796453679271e-03 -2.929576122963968e-04  3.311151716287415e-19
6.903559154604504e-03 3.227539317836460e-04 3.300825943990428e-19
 6.926762262836532e-03 -3.206015380611662e-04  3.328518647564299e-19
6.909508218553693e-03 2.022695185368963e-04 3.306741463062011e-19
 6.928870696739499e-03 -3.598420511288898e-04  3.331953977289639e-19
6.866125845560695e-03 1.128846390715193e-04 3.301592678974792e-19
 6.844099782214977e-03 -2.351751428907316e-04  3.310893495911433e-19
6.831196041669372e-03 2.120885826030175e-04 3.300220177280103e-19
 6.909572221701705e-03 -1.083710890565713e-04  3.320425111541944e-19
6.877836598121229e-03 6.326686539456742e-05 3.309570964155496e-19
 6.863408753216374e-03 -9.774843110240911e-05  3.313498984488848e-19
6.875434137971698e-03 1.028479166370882e-04 3.315370586738123e-19
 6.880502289281698e-03 -5.505402467563241e-05  3.320323964314572e-19
6.878066924308487e-03 2.219917987881542e-04 3.307103188653548e-19
 6.868705199023501e-03 -9.618574492894572e-05  3.315437667976594e-19
6.877047324182286e-03 2.697793940471347e-05 3.319948993598065e-19
 6.883229015636991e-03 -5.737858267120332e-05  3.325656009261967e-19
6.872876694731783e-03 5.114566699456496e-05 3.317844710603897e-19
 6.862418776831833e-03 -6.253788536251381e-05  3.321474466682732e-19
6.870968851529192e-03 1.291375019766845e-04 3.318048110081270e-19
 6.894373071691807e-03 -5.834129960204358e-05  3.330155348797857e-19
6.889991722727513e-03 1.178871504040318e-05 3.328999613253179e-19
 6.870827964168959e-03 -8.036412037925422e-05  3.331714462068432e-19
6.869498154698710e-03 6.770474195629446e-05 3.332859596939856e-19
 6.883320527980127e-03 -3.885178070567146e-05  3.332892790868119e-19
6.885748330930845e-03 1.176389722125920e-05 3.331970022902548e-19
 6.887167381867006e-03 -4.937612753839646e-05  3.336398390444968e-19
 6.881875846908145e-03 -3.624763709453005e-06  3.333887217005651e-19
 6.888616207914753e-03 -2.978585788473104e-05  3.337842908794076e-19
 6.886377118466342e-03 -2.408728843723661e-06  3.339019009182216e-19
6.844693885857621e-03 4.132557864329746e-05 3.329278582237081e-19
6.937617256401420e-03 4.188661352977239e-05 3.337303684405699e-19
 6.243961592649856e-03 -2.935060481671825e-03  3.133161567675695e-19
 6.902491811150844e-03 -4.156453388819279e-07  3.352557587875231e-19
6.888634137824588e-03 3.237282295388414e-05 3.345883844583212e-19
 6.861349002814730e-03 -5.829800507017285e-06  3.345956261339423e-19
 6.867856062635112e-03 -5.835329282863624e-06  3.348652923746486e-19
 6.872648348140574e-03 -5.839401086886132e-06  3.351142994859920e-19
6.871792302279666e-03 3.799053507646664e-05 3.351662897955133e-19
 6.867209247513902e-03 -1.802566323510296e-05  3.355242157820615e-19
6.884741936314518e-03 4.239834952449630e-05 3.359967501177800e-19
 6.852725432775053e-03 -5.886178565182833e-05  3.361471445920521e-19
6.855168985277670e-03 1.064269008139123e-04 3.352636741437106e-19
 6.873393410193124e-03 -9.901645909355621e-05  3.371097560441720e-19
6.892082282665352e-03 9.618993501781245e-05 3.372488249951755e-19
 6.696321964095841e-03 -1.141079443555183e-04  3.349038010509821e-19
7.032018066454846e-03 8.977043938257260e-04 3.337533851177601e-19
 6.865597955006859e-03 -7.848533454870979e-04  3.393142829225753e-19
6.810164880023849e-03 3.971244214490721e-04 3.340025057885519e-19
 7.040336963173220e-03 -9.188093473532601e-04  3.417830518947986e-19
 6.832376137113677e-03 -1.056389447619870e-04  3.393059101769949e-19
6.967763323796635e-03 9.880479999335875e-05 3.407681280986297e-19
7.013350524228368e-03 2.568947604905404e-06 3.417127557901535e-19
 6.882377078091385e-03 -1.738620735409406e-05  3.407376507859186e-19
6.629150060234539e-03 4.077199913572654e-04 3.305213119612084e-19
 6.781983908410297e-03 -1.061016248108708e-03  3.421250298218028e-19
7.152905080010959e-03 1.816361866651835e-04 3.492702388725508e-19
6.885149762610098e-03 8.323202943386326e-04 3.328964813828840e-19
 6.919251768127921e-03 -9.968006400754249e-04  3.400555025145211e-19
 7.065478302032274e-03 -2.323474553476198e-04  3.495034155683787e-19
7.030961632376972e-03 4.253184901711216e-04 3.443466747587200e-19
 6.878962786885658e-03 -7.899950503658588e-05  3.432339528242613e-19
6.885482892499526e-03 1.306448140062001e-04 3.434263927114956e-19
6.852508487436923e-03 2.305844391741187e-05 3.435301147826054e-19
6.848435217447968e-03 2.304473751080574e-05 3.439136213305490e-19
6.856204975014332e-03 2.307088246479221e-05 3.443560888970797e-19
6.860405512109022e-03 2.809821729816111e-05 3.451178868322963e-19
6.859048141502205e-03 1.522994367385055e-05 3.459696727385759e-19
6.865216303476273e-03 1.524363956247799e-05 3.467835495602680e-19
6.867752982236634e-03 2.501000337474480e-05 3.477927427507690e-19
6.868167612355975e-03 1.104610310803925e-05 3.485796856871755e-19
6.867781044222171e-03 3.196813111109471e-05 3.492991555488302e-19
6.877507505768774e-03 1.465877818733475e-05 3.498867917174961e-19
6.872370209871170e-03 2.037325187577419e-05 3.505450094466213e-19
6.880290422557977e-03 3.719355864206568e-05 3.513121188818099e-19
6.878340107410434e-03 4.202184131603092e-07 3.522340161147426e-19
6.871515803822359e-03 3.068184986041117e-05 3.527241804534690e-19
6.869419134936931e-03 2.447318458398024e-05 3.538105450891020e-19
6.866138312181784e-03 2.446149623314638e-05 3.546508127983864e-19
6.874037612826293e-03 3.129231418782366e-05 3.559955270785373e-19
6.865899059973666e-03 2.036248769192869e-05 3.566504610922672e-19
6.864343351311206e-03 2.778033075463467e-05 3.583247370846823e-19
6.858409245846799e-03 2.441511980248461e-05 3.599880814316174e-19
6.855475129577133e-03 2.440467469813601e-05 3.612486648304444e-19
6.855726912870577e-03 2.291789734610927e-05 3.628096996827698e-19
6.862724932894150e-03 2.760373050088576e-05 3.648211551624768e-19
6.874764771448217e-03 1.744102975905869e-05 3.672448115633861e-19
 6.890341953362610e-03 -1.336500211584970e-05  3.699547064193775e-19
6.903480809402440e-03 2.503505851029146e-05 3.713205220184973e-19
6.917454509928245e-03 2.508573329594341e-05 3.734959008696051e-19
6.912549267042781e-03 2.714227938785059e-05 3.755781723597520e-19
6.893073792576377e-03 2.065272137919278e-05 3.783391696462116e-19
6.870504409850371e-03 5.799299627648705e-06 3.796213331337085e-19
6.871703153605389e-03 3.325127322540143e-05 3.812918891325675e-19
6.858321228542966e-03 2.359511855733940e-06 3.841759112353967e-19
6.869849958790654e-03 6.313593436484297e-05 3.872006043727537e-19
 6.889447994310105e-03 -1.144260647199520e-04  3.915679770763798e-19
 6.866856305951395e-03 -7.771053015645168e-06  3.932428275727762e-19
6.872979393084903e-03 1.917561523863150e-05 3.983101518282139e-19
6.846628500891122e-03 3.160610614131534e-05 4.027547238078382e-19
6.816157885279706e-03 3.146544457174423e-05 4.072987660560699e-19
 6.834037436056369e-03 -2.576419958562164e-05  4.157897915062805e-19
 6.771405072092258e-03 -4.533140809751924e-04  4.288215059793901e-19
6.416247663088242e-03 2.893037605537321e-04 4.207860788559431e-19
6.807860013612541e-03 2.610196649888257e-03 3.778337184516397e-19
 7.375855609760246e-03 -5.153085390326032e-04  4.417080899729506e-19
 6.801948372724781e-03 -1.858188185402259e-05  4.361106520081476e-19
 6.841939652920029e-03 -1.869113191048568e-05  4.451913899273767e-19
6.843142352810839e-03 3.014091771096747e-05 4.500161207934119e-19
 6.843917484422401e-03 -6.501479330275102e-06  4.600983159021875e-19
6.895860757054401e-03 3.848331661596832e-05 4.736930808316502e-19
 6.845117901886803e-03 -4.024244188064239e-04  4.838035011430179e-19
 6.594545186895196e-03 -5.821898969942078e-05  4.840731135672927e-19
6.791708662816660e-03 7.657113849963104e-04 4.776746991969387e-19
 6.945582411572370e-03 -9.395474809732316e-05  5.000255220948885e-19
 6.819741682049198e-03 -8.372504785581179e-05  5.090420078865102e-19
 6.853634760956072e-03 -3.883328011459490e-05  5.268105992240760e-19
 6.863411501343797e-03 -2.060024138575029e-05  5.598785316129673e-19
 6.866022233469644e-03 -3.668465707527763e-05  5.956947276926747e-19
 6.869138717240791e-03 -3.670130822124504e-05  6.275560006755718e-19
 6.876767753370699e-03 -9.512686259094891e-06  6.648938570028686e-19
 6.875607002145931e-03 -5.284274411970100e-05  7.188218841273145e-19
6.897371900127187e-03 5.680963307944631e-05 7.586549141388313e-19
 6.900687047230081e-03 -7.516685693558734e-05  8.071938735104168e-19
6.887303946997869e-03 2.859151684680355e-05 9.108377434242160e-19
 6.859666466627693e-03 -1.791976063568767e-04  1.006966087660033e-18
6.823412829349351e-03 5.734554502446277e-05 1.042441061760335e-18
 6.968619637437844e-03 -3.451570292463491e-04  1.409762733854215e-18
 7.037451778732364e-03 -1.761301350165940e-05  1.761973989438024e-18
3.668370045418225e-03 6.039761263462849e-03 1.059360288708702e-18
 6.700888764505883e-03 -3.702659113218797e-04  2.417678558720317e-18
 6.835925882478176e-03 -1.370755233546564e-04  3.266757661546245e-18
6.941737261296212e-03 4.325975725571437e-05 4.296820072734691e-18
6.913614559166706e-03 8.994908529209053e-06 6.097102766873973e-18
6.922883394351590e-03 6.228727194108062e-05 8.282329960264227e-18
 6.869720172198484e-03 -6.572003445461653e-05  1.007186831571155e-17
6.791293438708055e-03 1.315934636783702e-04 1.172463884301448e-17
6.909320493761631e-03 1.118530165605063e-04 1.456493104195695e-17
 6.922733144787066e-03 -1.869327802330596e-04  2.060162368381107e-17
6.968452639753171e-03 8.837110252337858e-07 3.309966358988322e-17
6.866399995568764e-03 5.583604753216513e-04 4.844065815164291e-17
 6.828546539985079e-03 -1.443781559950652e-04  7.594797593981631e-17
 7.008846810499903e-03 -1.481903026107342e-04  1.260429242553484e-16
 6.329609651496739e-03 -1.890364092581100e-04 -4.221113883410044e-16
2.143044875229327e-03 6.608680580997084e-03 4.208302204835699e-16
 7.253601462755425e-03 -3.421467424327063e-04  6.458971826023623e-15
 6.714967989037580e-03 -1.443044344961047e-04 -1.837161972773516e-15
 6.660633766520844e-03 -3.141769171430913e-04  6.849578953154044e-15
6.930127909352529e-03 7.807319866222265e-05 1.010028430254691e-16
 6.939637200657477e-03 -6.796354295922519e-05  1.318027380805368e-16
6.913375508666707e-03 8.308093325477435e-05 1.022536582901615e-16
6.899900664844256e-03 8.291900040463068e-05 6.649750088868690e-17
6.879234601238080e-03 6.551524298456008e-05 4.126876811100247e-17
6.895169127634069e-03 8.537742023553159e-05 2.862406223275973e-17
6.884171671614359e-03 3.704459871015217e-05 2.317481419989325e-17
6.876188192581582e-03 7.985446246179202e-05 1.558172904428648e-17
6.879804522679424e-03 7.477057723359829e-05 1.120344069498591e-17
6.877805339661296e-03 7.212515664511140e-05 9.243754929574348e-18
6.873878562219372e-03 5.144894184542551e-05 6.737165279572933e-18
6.874189016080839e-03 8.432814431661963e-05 4.963098911581178e-18
6.873614086287647e-03 6.061075491960118e-05 3.841860004578077e-18
6.868752381637018e-03 8.321153319937295e-05 3.220049261475218e-18
6.868457838015176e-03 6.090263037323963e-05 2.612123928782500e-18
6.874277125696869e-03 8.936336609514443e-05 2.208732799191114e-18
6.876932369042668e-03 6.517126245818229e-05 1.992077985071545e-18
6.868779491393526e-03 7.010082234422399e-05 1.690700049398763e-18
6.871019052204115e-03 7.012367866894794e-05 1.421821748656233e-18
6.875470068980585e-03 6.194869510032284e-05 1.241294527248466e-18
6.870460749515964e-03 7.015974576189362e-05 1.132969943527838e-18
6.865854753625475e-03 8.376824877463768e-05 1.043915717189484e-18
6.835304606140866e-03 8.243826559917473e-05 9.164858902066995e-19
6.851833058545960e-03 8.263760959740570e-05 7.993380559542436e-19
 3.099073854986605e-03 -6.124945406176472e-03  7.590113645937221e-19
6.780361797840796e-03 9.285067085024544e-05 7.265527552738974e-19
6.913257731456232e-03 9.467055553448051e-05 6.804071245367627e-19
6.901110960999827e-03 9.146122883441352e-05 6.457249619688414e-19
6.858682488799841e-03 1.502937759628845e-05 6.216661684275187e-19
6.856526641487074e-03 1.502465350483847e-05 5.891275539481427e-19
6.865694473097633e-03 4.639044317304662e-06 5.606544798234173e-19
 6.870585808351789e-03 -5.121958786355346e-06  5.352057270721892e-19
 6.877172423932766e-03 -2.201565992646246e-05  5.130490732859565e-19
 6.876640857452187e-03 -4.653565507839751e-06  4.949229186906907e-19
 6.871741509041778e-03 -3.748701124912383e-05  4.793417404373282e-19
 6.871048582050636e-03 -4.761637527729225e-05  4.638518956344346e-19
 6.867855300638395e-03 -4.759424583310690e-05  4.491485602687948e-19
 6.868152086767170e-03 -5.892367241702171e-05  4.380496760389667e-19
 6.862587353511164e-03 -6.148248102547942e-05  4.304730387790334e-19
 6.860197128536492e-03 -6.146106680456217e-05  4.230264157577082e-19
 6.867634321085139e-03 -5.652657822327606e-05  4.182074186061686e-19
 6.854878966247996e-03 -6.841186612562527e-05  4.126960928891355e-19
 6.862452136765370e-03 -6.848744655966827e-05  4.063448148724735e-19
 6.855674878215501e-03 -2.956200084948520e-04  4.055264755584880e-19
 6.861747153511451e-03 -6.901338726193365e-05  3.997634793384639e-19
 6.868925249728449e-03 -6.908558239284481e-05  3.945556005262854e-19
 6.869688849219324e-03 -9.786425539143661e-05  3.906828506417905e-19
 6.873435314503930e-03 -4.175236463857516e-05  3.864019027981044e-19
 6.874104193174360e-03 -1.435034901797992e-04  3.843397185114225e-19
 6.862306776316130e-03 -8.758732146784734e-06  3.789289431005921e-19
 6.879133426115190e-03 -1.882278010780267e-04  3.774494695183955e-19
6.908824817302796e-03 2.362130735127996e-06 3.730712440243258e-19
 6.830381355758678e-03 -4.594063774202959e-04  3.734143605944506e-19
6.848773804044286e-03 6.212485612809068e-05 3.676201821868366e-19
 6.859751095180729e-03 -2.352473457399834e-04  3.682854708785827e-19
6.925258077583083e-03 2.467643128415945e-04 3.636418509198678e-19
 6.865250111504769e-03 -3.576386653162270e-04  3.664240096565290e-19
6.833138684343766e-03 2.977539064280098e-04 3.595772330710632e-19
 6.956696460457551e-03 -3.902531062118458e-04  3.653888515011298e-19
6.984811047507032e-03 5.782314523918084e-05 3.617620036038952e-19
 6.460133356077486e-03 -7.839951998984723e-04  3.597514750640755e-19
6.032439262736139e-03 2.541321756522218e-03 3.097808217991459e-19
 7.332444026882896e-03 -2.147453730390411e-04  3.663712152109811e-19
 6.944872791213269e-03 -5.825573873087110e-04  3.631833532703041e-19
 6.795137941435396e-03 -2.129691731430504e-04  3.608969833449126e-19
6.950884336298277e-03 1.238167314063480e-03 3.442937959390618e-19
 6.990999323546655e-03 -7.540134826566115e-04  3.602689313100718e-19
6.775182653401242e-03 2.051401397653140e-04 3.530999619308278e-19
 6.960450204322954e-03 -2.335897339527387e-04  3.583858211418406e-19
7.005038660229283e-03 2.192565140997620e-04 3.548237930230772e-19
 6.417851526740637e-03 -2.379256122257014e-03  3.466585495579747e-19
6.699407579874531e-03 2.788519921487590e-04 3.484396870218469e-19
6.694577369863397e-03 1.241149905601658e-04 3.452007219996635e-19
 6.887806631114680e-03 -1.088535171016934e-04  3.475153677710033e-19
 7.407151781593387e-03 -2.074671521014105e-03  3.750707922587992e-19
6.256386566274526e-03 3.595200876286960e-03 2.990676778688653e-19
 6.856337444047600e-03 -9.994993212922819e-05  3.437774347194768e-19
 6.661681700171549e-03 -3.289146896394465e-05  3.437308367426260e-19
 6.791706991649762e-03 -3.353345743347380e-05  3.457691528826082e-19
 6.847282078971672e-03 -3.380785455151233e-05  3.463314530510032e-19
 6.865395639480173e-03 -3.970413843574665e-05  3.464153348167926e-19
 6.875593295540269e-03 -5.416255194569936e-06  3.454203086207141e-19
 6.872430391665110e-03 -5.413763614017190e-06  3.447681226966965e-19
 6.874290143133284e-03 -2.167053932516547e-05  3.440665807861210e-19
 6.882785648102932e-03 -3.003352378384249e-05  3.437372682789938e-19
 6.909061712045719e-03 -3.014818125419232e-05  3.439058487418799e-19
 6.883964271837816e-03 -6.405219774664405e-05  3.437862607589760e-19
-2.569887543708098e-03  6.370065832027956e-03 -1.604828887793897e-19
 6.966776125448364e-03 -3.006697778971575e-05  3.428354487106140e-19
 6.882156971857711e-03 -6.686623176361398e-05  3.421137699278051e-19
6.918200715017640e-03 2.792465077522691e-05 3.420868473164142e-19
6.912256586747823e-03 5.613385936368640e-06 3.414969739465790e-19
6.899596085388109e-03 1.370747057666444e-05 3.406852697295882e-19
6.891712904476478e-03 1.369180901197872e-05 3.401832636318528e-19
6.887336749759433e-03 1.991110006067171e-05 3.393227355650334e-19
6.888552325299089e-03 1.991461425593771e-05 3.392006287966777e-19
6.893180856184964e-03 1.992799521071763e-05 3.392611698629219e-19
6.901428896613540e-03 2.794563224728692e-05 3.390654500937888e-19
6.903509976103697e-03 2.730434216812790e-05 3.388228351483078e-19
6.912709728989268e-03 2.734072847038854e-05 3.391203402492455e-19
6.916859855075495e-03 2.735714279630265e-05 3.394483608849034e-19
6.929657381146387e-03 6.953831942815218e-05 3.393776960964470e-19
6.930321286915160e-03 2.314195741043895e-05 3.393075342862220e-19
6.944003719886423e-03 2.318764624187740e-05 3.399961035663939e-19
6.962102430310161e-03 2.324808205263856e-05 3.406960582388221e-19
6.966770480273517e-03 1.348811640127260e-05 3.408187983015245e-19
6.961388370079148e-03 3.426225491586216e-05 3.404653777280418e-19
 6.975488930191158e-03 -5.650312973100392e-05  3.410837096579828e-19
 6.992697050853761e-03 -2.914473157313779e-05  3.413353644405200e-19
6.984328834669964e-03 9.413611585800103e-06 3.408073468853333e-19
 6.986784453973168e-03 -1.765979926127790e-05  3.405135146638659e-19
 6.974776242221251e-03 -5.115875308174123e-05  3.399280205908346e-19
 6.990688153572566e-03 -5.127546414394748e-05  3.401046644498820e-19
 6.993158281724326e-03 -5.078875800269387e-05  3.399887575243346e-19
6.995886798148330e-03 4.273673317966636e-05 3.393954689821303e-19
7.101006619650096e-03 1.621472601008159e-05 3.413263612871805e-19
 7.015842622517531e-03 -1.819802208949557e-04  3.406235481148270e-19
7.010013189975541e-03 4.318677578943691e-05 3.393965558933520e-19
7.006881724489104e-03 4.316748368624250e-05 3.381999727568795e-19
 7.034567576371481e-03 -1.765364506725038e-04  3.402801957275021e-19
7.056078776872837e-03 3.170474951933212e-04 3.367081292483120e-19
 6.891489036733781e-03 -5.967787744575287e-04  3.386612667063365e-19
6.826304675274957e-03 1.108345080643758e-03 3.278131888876874e-19
 6.977164689518531e-03 -2.063912273885884e-04  3.350006267614353e-19
6.220637490566605e-03 2.632426789894065e-03 2.963790225522850e-19
6.955603259430086e-03 2.142489480885040e-05 3.355672141413842e-19
6.810632905403304e-03 4.093022736038302e-04 3.286417144776757e-19
 6.825993439907924e-03 -3.106732360231430e-04  3.307906284295176e-19
6.845813911532555e-03 1.128888323513339e-04 3.316025795187658e-19
6.896294639374766e-03 1.137212695890380e-04 3.317308854830924e-19
6.899373188245030e-03 4.873953450930675e-05 3.321478815421675e-19
6.889513565382522e-03 1.762949307849126e-04 3.310431383701684e-19
6.881373858389581e-03 3.441043616003098e-05 3.312482883367981e-19
6.872953131382047e-03 1.653323011334806e-04 3.305220237294739e-19
6.863668129628382e-03 1.108157827242827e-04 3.301669476127588e-19
6.856761345027912e-03 1.586607825919742e-04 3.298258966374680e-19
6.849354440408342e-03 1.264119444987959e-04 3.293081287044533e-19
6.837964542234496e-03 1.262017321074931e-04 3.289398394818624e-19
6.825833637872263e-03 1.259778436779628e-04 3.284299385610909e-19
6.788683956829275e-03 1.252922077601530e-04 3.275206158218242e-19
6.776559463680470e-03 2.283387293333564e-04 3.259308216303184e-19
6.752274460231866e-03 5.798919850224585e-05 3.261630756476806e-19
6.715079436155702e-03 2.031639550799130e-04 3.246335702235805e-19
 6.741803859234650e-03 -7.622317173385482e-05  3.267168467477985e-19
6.856115241785332e-03 3.256140678599644e-04 3.282117502162823e-19
 6.871004781732921e-03 -1.485202711417557e-04  3.303419431696603e-19
6.836309682129090e-03 3.033164916335984e-04 3.285567108428051e-19
 6.873592380223051e-03 -1.357630325593332e-05  3.293572903824701e-19
 6.832747174798920e-03 -1.349562828064901e-05  3.296207604249266e-19
6.963930516599846e-03 2.925321466551287e-04 3.293998928424082e-19
 6.636018693665285e-03 -7.620567680776014e-04  3.271451410352436e-19
6.721719345036561e-03 6.207350204155096e-04 3.238802516500333e-19
 6.916802339982237e-03 -4.257818054699118e-04  3.306996535079526e-19
6.804492214856990e-03 1.482739001213664e-04 3.274216771096649e-19
 6.796585762600237e-03 -3.475330800829373e-04  3.285331230829668e-19
6.794587092392811e-03 1.358821917092560e-04 3.271914373501329e-19
 6.836719010639378e-03 -2.011911670668509e-04  3.286491450076145e-19
6.793295073646720e-03 8.271471091873483e-05 3.271156809191094e-19
 6.817882922547298e-03 -5.508681178723491e-05  3.272368435524991e-19
6.792860013185205e-03 2.096535996479457e-05 3.262706419909750e-19
6.763481201157040e-03 2.087468573209835e-05 3.254139068735610e-19
6.704502106566282e-03 2.069265372406451e-05 3.244249282507877e-19
6.825670862626955e-03 1.963168409931350e-04 3.245498935133682e-19
 6.628230662119704e-03 -6.539008198421240e-04  3.243665197086993e-19
6.666160515062240e-03 1.992905354928185e-04 3.228509749003641e-19
 6.822120860490389e-03 -5.421714015380264e-04  3.277529736684669e-19
 6.777060986228204e-03 -1.117395169622606e-04  3.278393537517789e-19
 6.860633304144026e-03 -1.131174491447076e-04  3.292868548993684e-19
 6.854462588018101e-03 -5.980047298185699e-05  3.294777945007046e-19
 6.865007265984094e-03 -8.545288715634483e-05  3.291686835522793e-19
 6.851524309028603e-03 -1.297773719572086e-04  3.292898357724806e-19

VECTORS velocity double
0.000000000000000e+00 0.000000000000000e+00 0.000000000000000e+00
0.000000000000000e+00 0.000000000000000e+00 0.000000000000000e+00
0.000000000000000e+00 0.000000000000000e+00 0.000000000000000e+00
0.000000000000000e+00 0.000000000000000e+00 0.000000000000000e+00
0.000000000000000e+00 0.000000000000000e+00 0.000000000000000e+00
0.000000000000000e+00 0.000000000000000e+00 0.000000000000000e+00
0.000000000000000e+00 0.000000000000000e+00 0.000000000000000e+00
0.000000000000000e+00 0.000000000000000e+00 0.000000000000000e+00
0.000000000000000e+00 0.000000000000000e+00 0.000000000000000e+00
0.000000000000000e+00 0.000000000000000e+00 0.000000000000000e+00
0.000000000000000e+00 0.000000000000000e+00 0.000000000000000e+00
0.000000000000000e+00 0.000000000000000e+00 0.000000000000000e+00
0.000000000000000e+00 0.000000000000000e+00 0.000000000000000e+00
0.000000000000000e+00 0.000000000000000e+00 0.000000000000000e+00
0.000000000000000e+00 0.000000000000000e+00 0.000000000000000e+00
0.000000000000000e+00 0.000000000000000e+00 0.000000000000000e+00
0.000000000000000e+00 0.000000000000000e+00 0.000000000000000e+00
0.000000000000000e+00 0.000000000000000e+00 0.000000000000000e+00
0.000000000000000e+00 0.000000000000000e+00 0.000000000000000e+00
0.000000000000000e+00 0.000000000000000e+00 0.000000000000000e+00
0.000000000000000e+00 0.000000000000000e+00 0.000000000000000e+00
0.000000000000000e+00 0.000000000000000e+00 0.000000000000000e+00
0.000000000000000e+00 0.000000000000000e+00 0.000000000000000e+00
0.000000000000000e+00 0.000000000000000e+00 0.000000000000000e+00
0.000000000000000e+00 0.000000000000000e+00 0.000000000000000e+00
0.000000000000000e+00 0.000000000000000e+00 0.000000000000000e+00
0.000000000000000e+00 0.000000000000000e+00 0.000000000000000e+00
0.000000000000000e+00 0.000000000000000e+00 0.000000000000000e+00
0.000000000000000e+00 0.000000000000000e+00 0.000000000000000e+00
0.000000000000000e+00 0.000000000000000e+00 0.000000000000000e+00
0.000000000000000e+00 0.000000000000000e+00 0.000000000000000e+00
0.000000000000000e+00 0.000000000000000e+00 0.000000000000000e+00
0.000000000000000e+00 0.000000000000000e+00 0.000000000000000e+00
0.000000000000000e+00 0.000000000000000e+00 0.000000000000000e+00
0.000000000000000e+00 0.000000000000000e+00 0.000000000000000e+00
0.000000000000000e+00 0.000000000000000e+00 0.000000000000000e+00
0.000000000000000e+00 0.000000000000000e+00 0.000000000000000e+00
0.000000000000000e+00 0.000000000000000e+00 0.000000000000000e+00
0.000000000000000e+00 0.000000000000000e+00 0.000000000000000e+00
0.000000000000000e+00 0.000000000000000e+00 0.000000000000000e+00
0.000000000000000e+00 0.000000000000000e+00 0.000000000000000e+00
0.000000000000000e+00 0.000000000000000e+00 0.000000000000000e+00
0.000000000000000e+00 0.000000000000000e+00 0.000000000000000e+00
0.000000000000000e+00 0.000000000000000e+00 0.000000000000000e+00
0.000000000000000e+00 0.000000000000000e+00 0.000000000000000e+00
0.000000000000000e+00 0.000000000000000e+00 0.000000000000000e+00
0.000000000000000e+00 0.000000000000000e+00 0.000000000000000e+00
0.000000000000000e+00 0.000000000000000e+00 0.000000000000000e+00
0.000000000000000e+00 0.000000000000000e+00 0.000000000000000e+00
0.000000000000000e+00 0.000000000000000e+00 0.000000000000000e+00
0.000000000000000e+00 0.000000000000000e+00 0.000000000000000e+00
0.000000000000000e+00 0.000000000000000e+00 0.000000000000000e+00
0.000000000000000e+00 0.000000000000000e+00 0.000000000000000e+00
0.000000000000000e+00 0.000000000000000e+00 0.000000000000000e+00
0.000000000000000e+00 0.000000000000000e+00 0.000000000000000e+00
0.000000000000000e+00 0.000000000000000e+00 0.000000000000000e+00
0.000000000000000e+00 0.000000000000000e+00 0.000000000000000e+00
0.000000000000000e+00 0.000000000000000e+00 0.000000000000000e+00
0.000000000000000e+00 0.000000000000000e+00 0.000000000000000e+00
0.000000000000000e+00 0.000000000000000e+00 0.000000000000000e+00
0.000000000000000e+00 0.000000000000000e+00 0.000000000000000e+00
0.000000000000000e+00 0.000000000000000e+00 0.000000000000000e+00
0.000000000000000e+00 0.000000000000000e+00 0.000000000000000e+00
0.000000000000000e+00 0.000000000000000e+00 0.000000000000000e+00
0.000000000000000e+00 0.000000000000000e+00 0.000000000000000e+00
0.000000000000000e+00 0.000000000000000e+00 0.000000000000000e+00
0.000000000000000e+00 0.000000000000000e+00 0.000000000000000e+00
0.000000000000000e+00 0.000000000000000e+00 0.000000000000000e+00
0.000000000000000e+00 0.000000000000000e+00 0.000000000000000e+00
0.000000000000000e+00 0.000000000000000e+00 0.000000000000000e+00
0.000000000000000e+00 0.000000000000000e+00 0.000000000000000e+00
0.000000000000000e+00 0.000000000000000e+00 0.000000000000000e+00
0.000000000000000e+00 0.000000000000000e+00 0.000000000000000e+00
0.000000000000000e+00 0.000000000000000e+00 0.000000000000000e+00
0.000000000000000e+00 0.000000000000000e+00 0.000000000000000e+00
0.000000000000000e+00 0.000000000000000e+00 0.000000000000000e+00
0.000000000000000e+00 0.000000000000000e+00 0.000000000000000e+00
0.000000000000000e+00 0.000000000000000e+00 0.000000000000000e+00
0.000000000000000e+00 0.000000000000000e+00 0.000000000000000e+00
0.000000000000000e+00 0.000000000000000e+00 0.000000000000000e+00
0.000000000000000e+00 0.000000000000000e+00 0.000000000000000e+00
0.000000000000000e+00 0.000000000000000e+00 0.000000000000000e+00
0.000000000000000e+00 0.000000000000000e+00 0.000000000000000e+00
0.000000000000000e+00 0.000000000000000e+00 0.000000000000000e+00
0.000000000000000e+00 0.000000000000000e+00 0.000000000000000e+00
0.000000000000000e+00 0.000000000000000e+00 0.000000000000000e+00
0.000000000000000e+00 0.000000000000000e+00 0.000000000000000e+00
0.000000000000000e+00 0.000000000000000e+00 0.000000000000000e+00
0.000000000000000e+00 0.000000000000000e+00 0.000000000000000e+00
0.000000000000000e+00 0.000000000000000e+00 0.000000000000000e+00
0.000000000000000e+00 0.000000000000000e+00 0.000000000000000e+00
0.000000000000000e+00 0.000000000000000e+00 0.000000000000000e+00
0.000000000000000e+00 0.000000000000000e+00 0.000000000000000e+00
0.000000000000000e+00 0.000000000000000e+00 0.000000000000000e+00
0.000000000000000e+00 0.000000000000000e+00 0.000000000000000e+00
0.000000000000000e+00 0.000000000000000e+00 0.000000000000000e+00
0.000000000000000e+00 0.000000000000000e+00 0.000000000000000e+00
0.000000000000000e+00 0.000000000000000e+00 0.000000000000000e+00
0.000000000000000e+00 0.000000000000000e+00 0.000000000000000e+00
0.000000000000000e+00 0.000000000000000e+00 0.000000000000000e+00
0.000000000000000e+00 0.000000000000000e+00 0.000000000000000e+00
0.000000000000000e+00 0.000000000000000e+00 0.000000000000000e+00
0.000000000000000e+00 0.000000000000000e+00 0.000000000000000e+00
0.000000000000000e+00 0.000000000000000e+00 0.000000000000000e+00
0.000000000000000e+00 0.000000000000000e+00 0.000000000000000e+00
0.000000000000000e+00 0.000000000000000e+00 0.000000000000000e+00
0.000000000000000e+00 0.000000000000000e+00 0.000000000000000e+00
0.000000000000000e+00 0.000000000000000e+00 0.000000000000000e+00
0.000000000000000e+00 0.000000000000000e+00 0.000000000000000e+00
0.000000000000000e+00 0.000000000000000e+00 0.000000000000000e+00
0.000000000000000e+00 0.000000000000000e+00 0.000000000000000e+00
0.000000000000000e+00 0.000000000000000e+00 0.000000000000000e+00
0.000000000000000e+00 0.000000000000000e+00 0.000000000000000e+00
0.000000000000000e+00 0.000000000000000e+00 0.000000000000000e+00
0.000000000000000e+00 0.000000000000000e+00 0.000000000000000e+00
0.000000000000000e+00 0.000000000000000e+00 0.000000000000000e+00
0.000000000000000e+00 0.000000000000000e+00 0.000000000000000e+00
0.000000000000000e+00 0.000000000000000e+00 0.000000000000000e+00
0.000000000000000e+00 0.000000000000000e+00 0.000000000000000e+00
0.000000000000000e+00 0.000000000000000e+00 0.000000000000000e+00
0.000000000000000e+00 0.000000000000000e+00 0.000000000000000e+00
0.000000000000000e+00 0.000000000000000e+00 0.000000000000000e+00
0.000000000000000e+00 0.000000000000000e+00 0.000000000000000e+00
0.000000000000000e+00 0.000000000000000e+00 0.000000000000000e+00
0.000000000000000e+00 0.000000000000000e+00 0.000000000000000e+00
0.000000000000000e+00 0.000000000000000e+00 0.000000000000000e+00
0.000000000000000e+00 0.000000000000000e+00 0.000000000000000e+00
0.000000000000000e+00 0.000000000000000e+00 0.000000000000000e+00
0.000000000000000e+00 0.000000000000000e+00 0.000000000000000e+00
0.000000000000000e+00 0.000000000000000e+00 0.000000000000000e+00
0.000000000000000e+00 0.000000000000000e+00 0.000000000000000e+00
0.000000000000000e+00 0.000000000000000e+00 0.000000000000000e+00
0.000000000000000e+00 0.000000000000000e+00 0.000000000000000e+00
0.000000000000000e+00 0.000000000000000e+00 0.000000000000000e+00
0.000000000000000e+00 0.000000000000000e+00 0.000000000000000e+00
0.000000000000000e+00 0.000000000000000e+00 0.000000000000000e+00
0.000000000000000e+00 0.000000000000000e+00 0.000000000000000e+00
0.000000000000000e+00 0.000000000000000e+00 0.000000000000000e+00
0.000000000000000e+00 0.000000000000000e+00 0.000000000000000e+00
0.000000000000000e+00 0.000000000000000e+00 0.000000000000000e+00
0.000000000000000e+00 0.000000000000000e+00 0.000000000000000e+00
0.000000000000000e+00 0.000000000000000e+00 0.000000000000000e+00
0.000000000000000e+00 0.000000000000000e+00 0.000000000000000e+00
0.000000000000000e+00 0.000000000000000e+00 0.000000000000000e+00
0.000000000000000e+00 0.000000000000000e+00 0.000000000000000e+00
0.000000000000000e+00 0.000000000000000e+00 0.000000000000000e+00
0.000000000000000e+00 0.000000000000000e+00 0.000000000000000e+00
0.000000000000000e+00 0.000000000000000e+00 0.000000000000000e+00
0.000000000000000e+00 0.000000000000000e+00 0.000000000000000e+00
0.000000000000000e+00 0.000000000000000e+00 0.000000000000000e+00
0.000000000000000e+00 0.000000000000000e+00 0.000000000000000e+00
0.000000000000000e+00 0.000000000000000e+00 0.000000000000000e+00
0.000000000000000e+00 0.000000000000000e+00 0.000000000000000e+00
0.000000000000000e+00 0.000000000000000e+00 0.000000000000000e+00
0.000000000000000e+00 0.000000000000000e+00 0.000000000000000e+00
0.000000000000000e+00 0.000000000000000e+00 0.000000000000000e+00
0.000000000000000e+00 0.000000000000000e+00 0.000000000000000e+00
0.000000000000000e+00 0.000000000000000e+00 0.000000000000000e+00
0.000000000000000e+00 0.000000000000000e+00 0.000000000000000e+00
0.000000000000000e+00 0.000000000000000e+00 0.000000000000000e+00
0.000000000000000e+00 0.000000000000000e+00 0.000000000000000e+00
0.000000000000000e+00 0.000000000000000e+00 0.000000000000000e+00
0.000000000000000e+00 0.000000000000000e+00 0.000000000000000e+00
0.000000000000000e+00 0.000000000000000e+00 0.000000000000000e+00
0.000000000000000e+00 0.000000000000000e+00 0.000000000000000e+00
0.000000000000000e+00 0.000000000000000e+00 0.000000000000000e+00
0.000000000000000e+00 0.000000000000000e+00 0.000000000000000e+00
0.000000000000000e+00 0.000000000000000e+00 0.000000000000000e+00
0.000000000000000e+00 0.000000000000000e+00 0.000000000000000e+00
0.000000000000000e+00 0.000000000000000e+00 0.000000000000000e+00
0.000000000000000e+00 0.000000000000000e+00 0.000000000000000e+00
0.000000000000000e+00 0.000000000000000e+00 0.000000000000000e+00
0.000000000000000e+00 0.000000000000000e+00 0.000000000000000e+00
0.000000000000000e+00 0.000000000000000e+00 0.000000000000000e+00
0.000000000000000e+00 0.000000000000000e+00 0.000000000000000e+00
0.000000000000000e+00 0.000000000000000e+00 0.000000000000000e+00
0.000000000000000e+00 0.000000000000000e+00 0.000000000000000e+00
0.000000000000000e+00 0.000000000000000e+00 0.000000000000000e+00
0.000000000000000e+00 0.000000000000000e+00 0.000000000000000e+00
0.000000000000000e+00 0.000000000000000e+00 0.000000000000000e+00
0.000000000000000e+00 0.000000000000000e+00 0.000000000000000e+00
0.000000000000000e+00 0.000000000000000e+00 0.000000000000000e+00
0.000000000000000e+00 0.000000000000000e+00 0.000000000000000e+00
0.000000000000000e+00 0.000000000000000e+00 0.000000000000000e+00
0.000000000000000e+00 0.000000000000000e+00 0.000000000000000e+00
0.000000000000000e+00 0.000000000000000e+00 0.000000000000000e+00
0.000000000000000e+00 0.000000000000000e+00 0.000000000000000e+00
0.000000000000000e+00 0.000000000000000e+00 0.000000000000000e+00
0.000000000000000e+00 0.000000000000000e+00 0.000000000000000e+00
0.000000000000000e+00 0.000000000000000e+00 0.000000000000000e+00
0.000000000000000e+00 0.000000000000000e+00 0.000000000000000e+00
0.000000000000000e+00 0.000000000000000e+00 0.000000000000000e+00
0.000000000000000e+00 0.000000000000000e+00 0.000000000000000e+00
0.000000000000000e+00 0.000000000000000e+00 0.000000000000000e+00
0.000000000000000e+00 0.000000000000000e+00 0.000000000000000e+00
0.000000000000000e+00 0.000000000000000e+00 0.000000000000000e+00
0.000000000000000e+00 0.000000000000000e+00 0.000000000000000e+00
0.000000000000000e+00 0.000000000000000e+00 0.000000000000000e+00
0.000000000000000e+00 0.000000000000000e+00 0.000000000000000e+00
0.000000000000000e+00 0.000000000000000e+00 0.000000000000000e+00
0.000000000000000e+00 0.000000000000000e+00 0.000000000000000e+00
0.000000000000000e+00 0.000000000000000e+00 0.000000000000000e+00
0.000000000000000e+00 0.000000000000000e+00 0.000000000000000e+00
0.000000000000000e+00 0.000000000000000e+00 0.000000000000000e+00
0.000000000000000e+00 0.000000000000000e+00 0.000000000000000e+00
0.000000000000000e+00 0.000000000000000e+00 0.000000000000000e+00
0.000000000000000e+00 0.000000000000000e+00 0.000000000000000e+00
0.000000000000000e+00 0.000000000000000e+00 0.000000000000000e+00
0.000000000000000e+00 0.000000000000000e+00 0.000000000000000e+00
0.000000000000000e+00 0.000000000000000e+00 0.000000000000000e+00
0.000000000000000e+00 0.000000000000000e+00 0.000000000000000e+00
0.000000000000000e+00 0.000000000000000e+00 0.000000000000000e+00
0.000000000000000e+00 0.000000000000000e+00 0.000000000000000e+00
0.000000000000000e+00 0.000000000000000e+00 0.000000000000000e+00
0.000000000000000e+00 0.000000000000000e+00 0.000000000000000e+00
0.000000000000000e+00 0.000000000000000e+00 0.000000000000000e+00
0.000000000000000e+00 0.000000000000000e+00 0.000000000000000e+00
0.000000000000000e+00 0.000000000000000e+00 0.000000000000000e+00
0.000000000000000e+00 0.000000000000000e+00 0.000000000000000e+00
0.000000000000000e+00 0.000000000000000e+00 0.000000000000000e+00
0.000000000000000e+00 0.000000000000000e+00 0.000000000000000e+00
0.000000000000000e+00 0.000000000000000e+00 0.000000000000000e+00
0.000000000000000e+00 0.000000000000000e+00 0.000000000000000e+00
0.000000000000000e+00 0.000000000000000e+00 0.000000000000000e+00
0.000000000000000e+00 0.000000000000000e+00 0.000000000000000e+00
0.000000000000000e+00 0.000000000000000e+00 0.000000000000000e+00
0.000000000000000e+00 0.000000000000000e+00 0.000000000000000e+00
0.000000000000000e+00 0.000000000000000e+00 0.000000000000000e+00
0.000000000000000e+00 0.000000000000000e+00 0.000000000000000e+00
0.000000000000000e+00 0.000000000000000e+00 0.000000000000000e+00
0.000000000000000e+00 0.000000000000000e+00 0.000000000000000e+00
0.000000000000000e+00 0.000000000000000e+00 0.000000000000000e+00
0.000000000000000e+00 0.000000000000000e+00 0.000000000000000e+00
0.000000000000000e+00 0.000000000000000e+00 0.000000000000000e+00
0.000000000000000e+00 0.000000000000000e+00 0.000000000000000e+00
0.000000000000000e+00 0.000000000000000e+00 0.000000000000000e+00
0.000000000000000e+00 0.000000000000000e+00 0.000000000000000e+00
0.000000000000000e+00 0.000000000000000e+00 0.000000000000000e+00
0.000000000000000e+00 0.000000000000000e+00 0.000000000000000e+00
0.000000000000000e+00 0.000000000000000e+00 0.000000000000000e+00
0.000000000000000e+00 0.000000000000000e+00 0.000000000000000e+00
0.000000000000000e+00 0.000000000000000e+00 0.000000000000000e+00
0.000000000000000e+00 0.000000000000000e+00 0.000000000000000e+00
0.000000000000000e+00 0.000000000000000e+00 0.000000000000000e+00
0.000000000000000e+00 0.000000000000000e+00 0.000000000000000e+00
0.000000000000000e+00 0.000000000000000e+00 0.000000000000000e+00
0.000000000000000e+00 0.000000000000000e+00 0.000000000000000e+00
0.000000000000000e+00 0.000000000000000e+00 0.000000000000000e+00
0.000000000000000e+00 0.000000000000000e+00 0.000000000000000e+00
0.000000000000000e+00 0.000000000000000e+00 0.000000000000000e+00
0.000000000000000e+00 0.000000000000000e+00 0.000000000000000e+00
0.000000000000000e+00 0.000000000000000e+00 0.000000000000000e+00
0.000000000000000e+00 0.000000000000000e+00 0.000000000000000e+00
0.000000000000000e+00 0.000000000000000e+00 0.000000000000000e+00
0.000000000000000e+00 0.000000000000000e+00 0.000000000000000e+00
0.000000000000000e+00 0.000000000000000e+00 0.000000000000000e+00
0.000000000000000e+00 0.000000000000000e+00 0.000000000000000e+00
0.000000000000000e+00 0.000000000000000e+00 0.000000000000000e+00
0.000000000000000e+00 0.000000000000000e+00 0.000000000000000e+00
0.000000000000000e+00 0.000000000000000e+00 0.000000000000000e+00
0.000000000000000e+00 0.000000000000000e+00 0.000000000000000e+00
0.000000000000000e+00 0.000000000000000e+00 0.000000000000000e+00
0.000000000000000e+00 0.000000000000000e+00 0.000000000000000e+00
0.000000000000000e+00 0.000000000000000e+00 0.000000000000000e+00
0.000000000000000e+00 0.000000000000000e+00 0.000000000000000e+00
0.000000000000000e+00 0.000000000000000e+00 0.000000000000000e+00
0.000000000000000e+00 0.000000000000000e+00 0.000000000000000e+00
0.000000000000000e+00 0.000000000000000e+00 0.000000000000000e+00
0.000000000000000e+00 0.000000000000000e+00 0.000000000000000e+00
0.000000000000000e+00 0.000000000000000e+00 0.000000000000000e+00
0.000000000000000e+00 0.000000000000000e+00 0.000000000000000e+00
0.000000000000000e+00 0.000000000000000e+00 0.000000000000000e+00
0.000000000000000e+00 0.000000000000000e+00 0.000000000000000e+00
0.000000000000000e+00 0.000000000000000e+00 0.000000000000000e+00
0.000000000000000e+00 0.000000000000000e+00 0.000000000000000e+00
0.000000000000000e+00 0.000000000000000e+00 0.000000000000000e+00
0.000000000000000e+00 0.000000000000000e+00 0.000000000000000e+00
0.000000000000000e+00 0.000000000000000e+00 0.000000000000000e+00
0.000000000000000e+00 0.000000000000000e+00 0.000000000000000e+00
0.000000000000000e+00 0.000000000000000e+00 0.000000000000000e+00
0.000000000000000e+00 0.000000000000000e+00 0.000000000000000e+00
0.000000000000000e+00 0.000000000000000e+00 0.000000000000000e+00
0.000000000000000e+00 0.000000000000000e+00 0.000000000000000e+00
0.000000000000000e+00 0.000000000000000e+00 0.000000000000000e+00
0.000000000000000e+00 0.000000000000000e+00 0.000000000000000e+00
0.000000000000000e+00 0.000000000000000e+00 0.000000000000000e+00
0.000000000000000e+00 0.000000000000000e+00 0.000000000000000e+00
0.000000000000000e+00 0.000000000000000e+00 0.000000000000000e+00
0.000000000000000e+00 0.000000000000000e+00 0.000000000000000e+00
0.000000000000000e+00 0.000000000000000e+00 0.000000000000000e+00
0.000000000000000e+00 0.000000000000000e+00 0.000000000000000e+00
0.000000000000000e+00 0.000000000000000e+00 0.000000000000000e+00
0.000000000000000e+00 0.000000000000000e+00 0.000000000000000e+00
0.000000000000000e+00 0.000000000000000e+00 0.000000000000000e+00
0.000000000000000e+00 0.000000000000000e+00 0.000000000000000e+00
0.000000000000000e+00 0.000000000000000e+00 0.000000000000000e+00
0.000000000000000e+00 0.000000000000000e+00 0.000000000000000e+00
0.000000000000000e+00 0.000000000000000e+00 0.000000000000000e+00
0.000000000000000e+00 0.000000000000000e+00 0.000000000000000e+00
0.000000000000000e+00 0.000000000000000e+00 0.000000000000000e+00
0.000000000000000e+00 0.000000000000000e+00 0.000000000000000e+00
0.000000000000000e+00 0.000000000000000e+00 0.000000000000000e+00
0.000000000000000e+00 0.000000000000000e+00 0.000000000000000e+00
0.000000000000000e+00 0.000000000000000e+00 0.000000000000000e+00
0.000000000000000e+00 0.000000000000000e+00 0.000000000000000e+00
0.000000000000000e+00 0.000000000000000e+00 0.000000000000000e+00
0.000000000000000e+00 0.000000000000000e+00 0.000000000000000e+00
0.000000000000000e+00 0.000000000000000e+00 0.000000000000000e+00
0.000000000000000e+00 0.000000000000000e+00 0.000000000000000e+00
0.000000000000000e+00 0.000000000000000e+00 0.000000000000000e+00
0.000000000000000e+00 0.000000000000000e+00 0.000000000000000e+00
0.000000000000000e+00 0.000000000000000e+00 0.000000000000000e+00
0.000000000000000e+00 0.000000000000000e+00 0.000000000000000e+00
0.000000000000000e+00 0.000000000000000e+00 0.000000000000000e+00
0.000000000000000e+00 0.000000000000000e+00 0.000000000000000e+00
0.000000000000000e+00 0.000000000000000e+00 0.000000000000000e+00
0.000000000000000e+00 0.000000000000000e+00 0.000000000000000e+00
0.000000000000000e+00 0.000000000000000e+00 0.000000000000000e+00
0.000000000000000e+00 0.000000000000000e+00 0.000000000000000e+00
0.000000000000000e+00 0.000000000000000e+00 0.000000000000000e+00
0.000000000000000e+00 0.000000000000000e+00 0.000000000000000e+00
0.000000000000000e+00 0.000000000000000e+00 0.000000000000000e+00
0.000000000000000e+00 0.000000000000000e+00 0.000000000000000e+00
0.000000000000000e+00 0.000000000000000e+00 0.000000000000000e+00
0.000000000000000e+00 0.000000000000000e+00 0.000000000000000e+00
0.000000000000000e+00 0.000000000000000e+00 0.000000000000000e+00
0.000000000000000e+00 0.000000000000000e+00 0.000000000000000e+00
0.000000000000000e+00 0.000000000000000e+00 0.000000000000000e+00
0.000000000000000e+00 0.000000000000000e+00 0.000000000000000e+00
0.000000000000000e+00 0.000000000000000e+00 0.000000000000000e+00
0.000000000000000e+00 0.000000000000000e+00 0.000000000000000e+00
0.000000000000000e+00 0.000000000000000e+00 0.000000000000000e+00
0.000000000000000e+00 0.000000000000000e+00 0.000000000000000e+00
0.000000000000000e+00 0.000000000000000e+00 0.000000000000000e+00
0.000000000000000e+00 0.000000000000000e+00 0.000000000000000e+00
0.000000000000000e+00 0.000000000000000e+00 0.000000000000000e+00
0.000000000000000e+00 0.000000000000000e+00 0.000000000000000e+00
0.000000000000000e+00 0.000000000000000e+00 0.000000000000000e+00
0.000000000000000e+00 0.000000000000000e+00 0.000000000000000e+00
0.000000000000000e+00 0.000000000000000e+00 0.000000000000000e+00
0.000000000000000e+00 0.000000000000000e+00 0.000000000000000e+00
0.000000000000000e+00 0.000000000000000e+00 0.000000000000000e+00
0.000000000000000e+00 0.000000000000000e+00 0.000000000000000e+00
0.000000000000000e+00 0.000000000000000e+00 0.000000000000000e+00
0.000000000000000e+00 0.000000000000000e+00 0.000000000000000e+00
0.000000000000000e+00 0.000000000000000e+00 0.000000000000000e+00
0.000000000000000e+00 0.000000000000000e+00 0.000000000000000e+00
0.000000000000000e+00 0.000000000000000e+00 0.000000000000000e+00
0.000000000000000e+00 0.000000000000000e+00 0.000000000000000e+00
0.000000000000000e+00 0.000000000000000e+00 0.000000000000000e+00
0.000000000000000e+00 0.000000000000000e+00 0.000000000000000e+00
0.000000000000000e+00 0.000000000000000e+00 0.000000000000000e+00
0.000000000000000e+00 0.000000000000000e+00 0.000000000000000e+00
0.000000000000000e+00 0.000000000000000e+00 0.000000000000000e+00
0.000000000000000e+00 0.000000000000000e+00 0.000000000000000e+00
0.000000000000000e+00 0.000000000000000e+00 0.000000000000000e+00
0.000000000000000e+00 0.000000000000000e+00 0.000000000000000e+00
0.000000000000000e+00 0.000000000000000e+00 0.000000000000000e+00
0.000000000000000e+00 0.000000000000000e+00 0.000000000000000e+00
0.000000000000000e+00 0.000000000000000e+00 0.000000000000000e+00
0.000000000000000e+00 0.000000000000000e+00 0.000000000000000e+00
0.000000000000000e+00 0.000000000000000e+00 0.000000000000000e+00
0.000000000000000e+00 0.000000000000000e+00 0.000000000000000e+00
0.000000000000000e+00 0.000000000000000e+00 0.000000000000000e+00
0.000000000000000e+00 0.000000000000000e+00 0.000000000000000e+00
0.000000000000000e+00 0.000000000000000e+00 0.000000000000000e+00
0.000000000000000e+00 0.000000000000000e+00 0.000000000000000e+00
0.000000000000000e+00 0.000000000000000e+00 0.000000000000000e+00
0.000000000000000e+00 0.000000000000000e+00 0.000000000000000e+00
0.000000000000000e+00 0.000000000000000e+00 0.000000000000000e+00
0.000000000000000e+00 0.000000000000000e+00 0.000000000000000e+00
0.000000000000000e+00 0.000000000000000e+00 0.000000000000000e+00
0.000000000000000e+00 0.000000000000000e+00 0.000000000000000e+00
0.000000000000000e+00 0.000000000000000e+00 0.000000000000000e+00
0.000000000000000e+00 0.000000000000000e+00 0.000000000000000e+00
0.000000000000000e+00 0.000000000000000e+00 0.000000000000000e+00
0.000000000000000e+00 0.000000000000000e+00 0.000000000000000e+00
0.000000000000000e+00 0.000000000000000e+00 0.000000000000000e+00
0.000000000000000e+00 0.000000000000000e+00 0.000000000000000e+00
0.000000000000000e+00 0.000000000000000e+00 0.000000000000000e+00
0.000000000000000e+00 0.000000000000000e+00 0.000000000000000e+00
0.000000000000000e+00 0.000000000000000e+00 0.000000000000000e+00
0.000000000000000e+00 0.000000000000000e+00 0.000000000000000e+00
0.000000000000000e+00 0.000000000000000e+00 0.000000000000000e+00
0.000000000000000e+00 0.000000000000000e+00 0.000000000000000e+00
0.000000000000000e+00 0.000000000000000e+00 0.000000000000000e+00
0.000000000000000e+00 0.000000000000000e+00 0.000000000000000e+00
0.000000000000000e+00 0.000000000000000e+00 0.000000000000000e+00
0.000000000000000e+00 0.000000000000000e+00 0.000000000000000e+00
0.000000000000000e+00 0.000000000000000e+00 0.000000000000000e+00
0.000000000000000e+00 0.000000000000000e+00 0.000000000000000e+00
0.000000000000000e+00 0.000000000000000e+00 0.000000000000000e+00
0.000000000000000e+00 0.000000000000000e+00 0.000000000000000e+00
0.000000000000000e+00 0.000000000000000e+00 0.000000000000000e+00
0.000000000000000e+00 0.000000000000000e+00 0.000000000000000e+00
0.000000000000000e+00 0.000000000000000e+00 0.000000000000000e+00
0.000000000000000e+00 0.000000000000000e+00 0.000000000000000e+00
0.000000000000000e+00 0.000000000000000e+00 0.000000000000000e+00
0.000000000000000e+00 0.000000000000000e+00 0.000000000000000e+00
0.000000000000000e+00 0.000000000000000e+00 0.000000000000000e+00
0.000000000000000e+00 0.000000000000000e+00 0.000000000000000e+00
0.000000000000000e+00 0.000000000000000e+00 0.000000000000000e+00
0.000000000000000e+00 0.000000000000000e+00 0.000000000000000e+00
0.000000000000000e+00 0.000000000000000e+00 0.000000000000000e+00
0.000000000000000e+00 0.000000000000000e+00 0.000000000000000e+00
0.000000000000000e+00 0.000000000000000e+00 0.000000000000000e+00
0.000000000000000e+00 0.000000000000000e+00 0.000000000000000e+00
0.000000000000000e+00 0.000000000000000e+00 0.000000000000000e+00
0.000000000000000e+00 0.000000000000000e+00 0.000000000000000e+00
0.000000000000000e+00 0.000000000000000e+00 0.000000000000000e+00
0.000000000000000e+00 0.000000000000000e+00 0.000000000000000e+00
0.000000000000000e+00 0.000000000000000e+00 0.000000000000000e+00
0.000000000000000e+00 0.000000000000000e+00 0.000000000000000e+00
0.000000000000000e+00 0.000000000000000e+00 0.000000000000000e+00
0.000000000000000e+00 0.000000000000000e+00 0.000000000000000e+00
0.000000000000000e+00 0.000000000000000e+00 0.000000000000000e+00
0.000000000000000e+00 0.000000000000000e+00 0.000000000000000e+00
0.000000000000000e+00 0.000000000000000e+00 0.000000000000000e+00
0.000000000000000e+00 0.000000000000000e+00 0.000000000000000e+00
0.000000000000000e+00 0.000000000000000e+00 0.000000000000000e+00
0.000000000000000e+00 0.000000000000000e+00 0.000000000000000e+00
0.000000000000000e+00 0.000000000000000e+00 0.000000000000000e+00
0.000000000000000e+00 0.000000000000000e+00 0.000000000000000e+00
0.000000000000000e+00 0.000000000000000e+00 0.000000000000000e+00
0.000000000000000e+00 0.000000000000000e+00 0.000000000000000e+00
0.000000000000000e+00 0.000000000000000e+00 0.000000000000000e+00
0.000000000000000e+00 0.000000000000000e+00 0.000000000000000e+00
0.000000000000000e+00 0.000000000000000e+00 0.000000000000000e+00
0.000000000000000e+00 0.000000000000000e+00 0.000000000000000e+00
0.000000000000000e+00 0.000000000000000e+00 0.000000000000000e+00
0.000000000000000e+00 0.000000000000000e+00 0.000000000000000e+00
0.000000000000000e+00 0.000000000000000e+00 0.000000000000000e+00
0.000000000000000e+00 0.000000000000000e+00 0.000000000000000e+00
0.000000000000000e+00 0.000000000000000e+00 0.000000000000000e+00
0.000000000000000e+00 0.000000000000000e+00 0.000000000000000e+00
0.000000000000000e+00 0.000000000000000e+00 0.000000000000000e+00
0.000000000000000e+00 0.000000000000000e+00 0.000000000000000e+00
0.000000000000000e+00 0.000000000000000e+00 0.000000000000000e+00
0.000000000000000e+00 0.000000000000000e+00 0.000000000000000e+00
0.000000000000000e+00 0.000000000000000e+00 0.000000000000000e+00
0.000000000000000e+00 0.000000000000000e+00 0.000000000000000e+00
0.000000000000000e+00 0.000000000000000e+00 0.000000000000000e+00
0.000000000000000e+00 0.000000000000000e+00 0.000000000000000e+00
0.000000000000000e+00 0.000000000000000e+00 0.000000000000000e+00
0.000000000000000e+00 0.000000000000000e+00 0.000000000000000e+00
0.000000000000000e+00 0.000000000000000e+00 0.000000000000000e+00
0.000000000000000e+00 0.000000000000000e+00 0.000000000000000e+00
0.000000000000000e+00 0.000000000000000e+00 0.000000000000000e+00
0.000000000000000e+00 0.000000000000000e+00 0.000000000000000e+00
0.000000000000000e+00 0.000000000000000e+00 0.000000000000000e+00
0.000000000000000e+00 0.000000000000000e+00 0.000000000000000e+00
0.000000000000000e+00 0.000000000000000e+00 0.000000000000000e+00
0.000000000000000e+00 0.000000000000000e+00 0.000000000000000e+00
0.000000000000000e+00 0.000000000000000e+00 0.000000000000000e+00
0.000000000000000e+00 0.000000000000000e+00 0.000000000000000e+00
0.000000000000000e+00 0.000000000000000e+00 0.000000000000000e+00
0.000000000000000e+00 0.000000000000000e+00 0.000000000000000e+00
0.000000000000000e+00 0.000000000000000e+00 0.000000000000000e+00
0.000000000000000e+00 0.000000000000000e+00 0.000000000000000e+00
0.000000000000000e+00 0.000000000000000e+00 0.000000000000000e+00
0.000000000000000e+00 0.000000000000000e+00 0.000000000000000e+00
0.000000000000000e+00 0.000000000000000e+00 0.000000000000000e+00
0.000000000000000e+00 0.000000000000000e+00 0.000000000000000e+00
0.000000000000000e+00 0.000000000000000e+00 0.000000000000000e+00
0.000000000000000e+00 0.000000000000000e+00 0.000000000000000e+00
0.000000000000000e+00 0.000000000000000e+00 0.000000000000000e+00
0.000000000000000e+00 0.000000000000000e+00 0.000000000000000e+00
0.000000000000000e+00 0.000000000000000e+00 0.000000000000000e+00
0.000000000000000e+00 0.000000000000000e+00 0.000000000000000e+00
0.000000000000000e+00 0.000000000000000e+00 0.000000000000000e+00
0.000000000000000e+00 0.000000000000000e+00 0.000000000000000e+00
0.000000000000000e+00 0.000000000000000e+00 0.000000000000000e+00
0.000000000000000e+00 0.000000000000000e+00 0.000000000000000e+00
0.000000000000000e+00 0.000000000000000e+00 0.000000000000000e+00
0.000000000000000e+00 0.000000000000000e+00 0.000000000000000e+00
0.000000000000000e+00 0.000000000000000e+00 0.000000000000000e+00
0.000000000000000e+00 0.000000000000000e+00 0.000000000000000e+00
0.000000000000000e+00 0.000000000000000e+00 0.000000000000000e+00
0.000000000000000e+00 0.000000000000000e+00 0.000000000000000e+00
0.000000000000000e+00 0.000000000000000e+00 0.000000000000000e+00
0.000000000000000e+00 0.000000000000000e+00 0.000000000000000e+00
0.000000000000000e+00 0.000000000000000e+00 0.000000000000000e+00
0.000000000000000e+00 0.000000000000000e+00 0.000000000000000e+00
0.000000000000000e+00 0.000000000000000e+00 0.000000000000000e+00
0.000000000000000e+00 0.000000000000000e+00 0.000000000000000e+00
0.000000000000000e+00 0.000000000000000e+00 0.000000000000000e+00
0.000000000000000e+00 0.000000000000000e+00 0.000000000000000e+00
0.000000000000000e+00 0.000000000000000e+00 0.000000000000000e+00
0.000000000000000e+00 0.000000000000000e+00 0.000000000000000e+00
0.000000000000000e+00 0.000000000000000e+00 0.000000000000000e+00
0.000000000000000e+00 0.000000000000000e+00 0.000000000000000e+00
0.000000000000000e+00 0.000000000000000e+00 0.000000000000000e+00
0.000000000000000e+00 0.000000000000000e+00 0.000000000000000e+00
0.000000000000000e+00 0.000000000000000e+00 0.000000000000000e+00
0.000000000000000e+00 0.000000000000000e+00 0.000000000000000e+00
0.000000000000000e+00 0.000000000000000e+00 0.000000000000000e+00
0.000000000000000e+00 0.000000000000000e+00 0.000000000000000e+00
0.000000000000000e+00 0.000000000000000e+00 0.000000000000000e+00
0.000000000000000e+00 0.000000000000000e+00 0.000000000000000e+00
0.000000000000000e+00 0.000000000000000e+00 0.000000000000000e+00
0.000000000000000e+00 0.000000000000000e+00 0.000000000000000e+00
0.000000000000000e+00 0.000000000000000e+00 0.000000000000000e+00
0.000000000000000e+00 0.000000000000000e+00 0.000000000000000e+00
0.000000000000000e+00 0.000000000000000e+00 0.000000000000000e+00
0.000000000000000e+00 0.000000000000000e+00 0.000000000000000e+00
0.000000000000000e+00 0.000000000000000e+00 0.000000000000000e+00
0.000000000000000e+00 0.000000000000000e+00 0.000000000000000e+00
0.000000000000000e+00 0.000000000000000e+00 0.000000000000000e+00
0.000000000000000e+00 0.000000000000000e+00 0.000000000000000e+00
0.000000000000000e+00 0.000000000000000e+00 0.000000000000000e+00
0.000000000000000e+00 0.000000000000000e+00 0.000000000000000e+00
0.000000000000000e+00 0.000000000000000e+00 0.000000000000000e+00
0.000000000000000e+00 0.000000000000000e+00 0.000000000000000e+00
0.000000000000000e+00 0.000000000000000e+00 0.000000000000000e+00
0.000000000000000e+00 0.000000000000000e+00 0.000000000000000e+00
0.000000000000000e+00 0.000000000000000e+00 0.000000000000000e+00
0.000000000000000e+00 0.000000000000000e+00 0.000000000000000e+00
0.000000000000000e+00 0.000000000000000e+00 0.000000000000000e+00
0.000000000000000e+00 0.000000000000000e+00 0.000000000000000e+00
0.000000000000000e+00 0.000000000000000e+00 0.000000000000000e+00
0.000000000000000e+00 0.000000000000000e+00 0.000000000000000e+00
0.000000000000000e+00 0.000000000000000e+00 0.000000000000000e+00
0.000000000000000e+00 0.000000000000000e+00 0.000000000000000e+00
0.000000000000000e+00 0.000000000000000e+00 0.000000000000000e+00
0.000000000000000e+00 0.000000000000000e+00 0.000000000000000e+00
0.000000000000000e+00 0.000000000000000e+00 0.000000000000000e+00
0.000000000000000e+00 0.000000000000000e+00 0.000000000000000e+00
0.000000000000000e+00 0.000000000000000e+00 0.000000000000000e+00
0.000000000000000e+00 0.000000000000000e+00 0.000000000000000e+00
0.000000000000000e+00 0.000000000000000e+00 0.000000000000000e+00
0.000000000000000e+00 0.000000000000000e+00 0.000000000000000e+00
0.000000000000000e+00 0.000000000000000e+00 0.000000000000000e+00
0.000000000000000e+00 0.000000000000000e+00 0.000000000000000e+00
0.000000000000000e+00 0.000000000000000e+00 0.000000000000000e+00
0.000000000000000e+00 0.000000000000000e+00 0.000000000000000e+00
0.000000000000000e+00 0.000000000000000e+00 0.000000000000000e+00
0.000000000000000e+00 0.000000000000000e+00 0.000000000000000e+00
0.000000000000000e+00 0.000000000000000e+00 0.000000000000000e+00
0.000000000000000e+00 0.000000000000000e+00 0.000000000000000e+00
0.000000000000000e+00 0.000000000000000e+00 0.000000000000000e+00
0.000000000000000e+00 0.000000000000000e+00 0.000000000000000e+00
0.000000000000000e+00 0.000000000000000e+00 0.000000000000000e+00
0.000000000000000e+00 0.000000000000000e+00 0.000000000000000e+00
0.000000000000000e+00 0.000000000000000e+00 0.000000000000000e+00
0.000000000000000e+00 0.000000000000000e+00 0.000000000000000e+00
0.000000000000000e+00 0.000000000000000e+00 0.000000000000000e+00
0.000000000000000e+00 0.000000000000000e+00 0.000000000000000e+00
0.000000000000000e+00 0.000000000000000e+00 0.000000000000000e+00
0.000000000000000e+00 0.000000000000000e+00 0.000000000000000e+00
0.000000000000000e+00 0.000000000000000e+00 0.000000000000000e+00
0.000000000000000e+00 0.000000000000000e+00 0.000000000000000e+00
0.000000000000000e+00 0.000000000000000e+00 0.000000000000000e+00
0.000000000000000e+00 0.000000000000000e+00 0.000000000000000e+00
0.000000000000000e+00 0.000000000000000e+00 0.000000000000000e+00
0.000000000000000e+00 0.000000000000000e+00 0.000000000000000e+00
0.000000000000000e+00 0.000000000000000e+00 0.000000000000000e+00
0.000000000000000e+00 0.000000000000000e+00 0.000000000000000e+00
0.000000000000000e+00 0.000000000000000e+00 0.000000000000000e+00
0.000000000000000e+00 0.000000000000000e+00 0.000000000000000e+00
0.000000000000000e+00 0.000000000000000e+00 0.000000000000000e+00
0.000000000000000e+00 0.000000000000000e+00 0.000000000000000e+00
0.000000000000000e+00 0.000000000000000e+00 0.000000000000000e+00
0.000000000000000e+00 0.000000000000000e+00 0.000000000000000e+00
0.000000000000000e+00 0.000000000000000e+00 0.000000000000000e+00
0.000000000000000e+00 0.000000000000000e+00 0.000000000000000e+00
0.000000000000000e+00 0.000000000000000e+00 0.000000000000000e+00
0.000000000000000e+00 0.000000000000000e+00 0.000000000000000e+00
0.000000000000000e+00 0.000000000000000e+00 0.000000000000000e+00
0.000000000000000e+00 0.000000000000000e+00 0.000000000000000e+00
0.000000000000000e+00 0.000000000000000e+00 0.000000000000000e+00
0.000000000000000e+00 0.000000000000000e+00 0.000000000000000e+00
0.000000000000000e+00 0.000000000000000e+00 0.000000000000000e+00
0.000000000000000e+00 0.000000000000000e+00 0.000000000000000e+00
0.000000000000000e+00 0.000000000000000e+00 0.000000000000000e+00
0.000000000000000e+00 0.000000000000000e+00 0.000000000000000e+00
0.000000000000000e+00 0.000000000000000e+00 0.000000000000000e+00
0.000000000000000e+00 0.000000000000000e+00 0.000000000000000e+00
0.000000000000000e+00 0.000000000000000e+00 0.000000000000000e+00
0.000000000000000e+00 0.000000000000000e+00 0.000000000000000e+00
0.000000000000000e+00 0.000000000000000e+00 0.000000000000000e+00
0.000000000000000e+00 0.000000000000000e+00 0.000000000000000e+00
0.000000000000000e+00 0.000000000000000e+00 0.000000000000000e+00
0.000000000000000e+00 0.000000000000000e+00 0.000000000000000e+00
0.000000000000000e+00 0.000000000000000e+00 0.000000000000000e+00
0.000000000000000e+00 0.000000000000000e+00 0.000000000000000e+00
0.000000000000000e+00 0.000000000000000e+00 0.000000000000000e+00
0.000000000000000e+00 0.000000000000000e+00 0.000000000000000e+00
0.000000000000000e+00 0.000000000000000e+00 0.000000000000000e+00
0.000000000000000e+00 0.000000000000000e+00 0.000000000000000e+00
0.000000000000000e+00 0.000000000000000e+00 0.000000000000000e+00
0.000000000000000e+00 0.000000000000000e+00 0.000000000000000e+00
0.000000000000000e+00 0.000000000000000e+00 0.000000000000000e+00
0.000000000000000e+00 0.000000000000000e+00 0.000000000000000e+00
0.000000000000000e+00 0.000000000000000e+00 0.000000000000000e+00
0.000000000000000e+00 0.000000000000000e+00 0.000000000000000e+00
0.000000000000000e+00 0.000000000000000e+00 0.000000000000000e+00
0.000000000000000e+00 0.000000000000000e+00 0.000000000000000e+00
0.000000000000000e+00 0.000000000000000e+00 0.000000000000000e+00
0.000000000000000e+00 0.000000000000000e+00 0.000000000000000e+00
0.000000000000000e+00 0.000000000000000e+00 0.000000000000000e+00
0.000000000000000e+00 0.000000000000000e+00 0.000000000000000e+00
0.000000000000000e+00 0.000000000000000e+00 0.000000000000000e+00
0.000000000000000e+00 0.000000000000000e+00 0.000000000000000e+00
0.000000000000000e+00 0.000000000000000e+00 0.000000000000000e+00
0.000000000000000e+00 0.000000000000000e+00 0.000000000000000e+00
0.000000000000000e+00 0.000000000000000e+00 0.000000000000000e+00
0.000000000000000e+00 0.000000000000000e+00 0.000000000000000e+00
0.000000000000000e+00 0.000000000000000e+00 0.000000000000000e+00
0.000000000000000e+00 0.000000000000000e+00 0.000000000000000e+00
0.000000000000000e+00 0.000000000000000e+00 0.000000000000000e+00
0.000000000000000e+00 0.000000000000000e+00 0.000000000000000e+00
0.000000000000000e+00 0.000000000000000e+00 0.000000000000000e+00
0.000000000000000e+00 0.000000000000000e+00 0.000000000000000e+00
0.000000000000000e+00 0.000000000000000e+00 0.000000000000000e+00
0.000000000000000e+00 0.000000000000000e+00 0.000000000000000e+00
0.000000000000000e+00 0.000000000000000e+00 0.000000000000000e+00
0.000000000000000e+00 0.000000000000000e+00 0.000000000000000e+00
0.000000000000000e+00 0.000000000000000e+00 0.000000000000000e+00
0.000000000000000e+00 0.000000000000000e+00 0.000000000000000e+00
0.000000000000000e+00 0.000000000000000e+00 0.000000000000000e+00
0.000000000000000e+00 0.000000000000000e+00 0.000000000000000e+00
0.000000000000000e+00 0.000000000000000e+00 0.000000000000000e+00
0.000000000000000e+00 0.000000000000000e+00 0.000000000000000e+00
0.000000000000000e+00 0.000000000000000e+00 0.000000000000000e+00
0.000000000000000e+00 0.000000000000000e+00 0.000000000000000e+00
0.000000000000000e+00 0.000000000000000e+00 0.000000000000000e+00
0.000000000000000e+00 0.000000000000000e+00 0.000000000000000e+00
0.000000000000000e+00 0.000000000000000e+00 0.000000000000000e+00
0.000000000000000e+00 0.000000000000000e+00 0.000000000000000e+00
0.000000000000000e+00 0.000000000000000e+00 0.000000000000000e+00
0.000000000000000e+00 0.000000000000000e+00 0.000000000000000e+00
0.000000000000000e+00 0.000000000000000e+00 0.000000000000000e+00
0.000000000000000e+00 0.000000000000000e+00 0.000000000000000e+00
0.000000000000000e+00 0.000000000000000e+00 0.000000000000000e+00
0.000000000000000e+00 0.000000000000000e+00 0.000000000000000e+00
0.000000000000000e+00 0.000000000000000e+00 0.000000000000000e+00
0.000000000000000e+00 0.000000000000000e+00 0.000000000000000e+00
0.000000000000000e+00 0.000000000000000e+00 0.000000000000000e+00
0.000000000000000e+00 0.000000000000000e+00 0.000000000000000e+00
0.000000000000000e+00 0.000000000000000e+00 0.000000000000000e+00
0.000000000000000e+00 0.000000000000000e+00 0.000000000000000e+00
0.000000000000000e+00 0.000000000000000e+00 0.000000000000000e+00
0.000000000000000e+00 0.000000000000000e+00 0.000000000000000e+00
0.000000000000000e+00 0.000000000000000e+00 0.000000000000000e+00
0.000000000000000e+00 0.000000000000000e+00 0.000000000000000e+00
0.000000000000000e+00 0.000000000000000e+00 0.000000000000000e+00
0.000000000000000e+00 0.000000000000000e+00 0.000000000000000e+00
0.000000000000000e+00 0.000000000000000e+00 0.000000000000000e+00
0.000000000000000e+00 0.000000000000000e+00 0.000000000000000e+00
0.000000000000000e+00 0.000000000000000e+00 0.000000000000000e+00
0.000000000000000e+00 0.000000000000000e+00 0.000000000000000e+00
0.000000000000000e+00 0.000000000000000e+00 0.000000000000000e+00
0.000000000000000e+00 0.000000000000000e+00 0.000000000000000e+00
0.000000000000000e+00 0.000000000000000e+00 0.000000000000000e+00
0.000000000000000e+00 0.000000000000000e+00 0.000000000000000e+00
0.000000000000000e+00 0.000000000000000e+00 0.000000000000000e+00
0.000000000000000e+00 0.000000000000000e+00 0.000000000000000e+00
0.000000000000000e+00 0.000000000000000e+00 0.000000000000000e+00
0.000000000000000e+00 0.000000000000000e+00 0.000000000000000e+00
0.000000000000000e+00 0.000000000000000e+00 0.000000000000000e+00
0.000000000000000e+00 0.000000000000000e+00 0.000000000000000e+00
0.000000000000000e+00 0.000000000000000e+00 0.000000000000000e+00
0.000000000000000e+00 0.000000000000000e+00 0.000000000000000e+00
0.000000000000000e+00 0.000000000000000e+00 0.000000000000000e+00
0.000000000000000e+00 0.000000000000000e+00 0.000000000000000e+00
0.000000000000000e+00 0.000000000000000e+00 0.000000000000000e+00
0.000000000000000e+00 0.000000000000000e+00 0.000000000000000e+00
0.000000000000000e+00 0.000000000000000e+00 0.000000000000000e+00
0.000000000000000e+00 0.000000000000000e+00 0.000000000000000e+00
0.000000000000000e+00 0.000000000000000e+00 0.000000000000000e+00
0.000000000000000e+00 0.000000000000000e+00 0.000000000000000e+00
0.000000000000000e+00 0.000000000000000e+00 0.000000000000000e+00
0.000000000000000e+00 0.000000000000000e+00 0.000000000000000e+00
0.000000000000000e+00 0.000000000000000e+00 0.000000000000000e+00
0.000000000000000e+00 0.000000000000000e+00 0.000000000000000e+00
0.000000000000000e+00 0.000000000000000e+00 0.000000000000000e+00
0.000000000000000e+00 0.000000000000000e+00 0.000000000000000e+00
0.000000000000000e+00 0.000000000000000e+00 0.000000000000000e+00
0.000000000000000e+00 0.000000000000000e+00 0.000000000000000e+00
0.000000000000000e+00 0.000000000000000e+00 0.000000000000000e+00
0.000000000000000e+00 0.000000000000000e+00 0.000000000000000e+00
0.000000000000000e+00 0.000000000000000e+00 0.000000000000000e+00
0.000000000000000e+00 0.000000000000000e+00 0.000000000000000e+00
0.000000000000000e+00 0.000000000000000e+00 0.000000000000000e+00
0.000000000000000e+00 0.000000000000000e+00 0.000000000000000e+00
0.000000000000000e+00 0.000000000000000e+00 0.000000000000000e+00
0.000000000000000e+00 0.000000000000000e+00 0.000000000000000e+00
0.000000000000000e+00 0.000000000000000e+00 0.000000000000000e+00
0.000000000000000e+00 0.000000000000000e+00 0.000000000000000e+00
0.000000000000000e+00 0.000000000000000e+00 0.000000000000000e+00
0.000000000000000e+00 0.000000000000000e+00 0.000000000000000e+00
0.000000000000000e+00 0.000000000000000e+00 0.000000000000000e+00
0.000000000000000e+00 0.000000000000000e+00 0.000000000000000e+00
0.000000000000000e+00 0.000000000000000e+00 0.000000000000000e+00
0.000000000000000e+00 0.000000000000000e+00 0.000000000000000e+00
0.000000000000000e+00 0.000000000000000e+00 0.000000000000000e+00
0.000000000000000e+00 0.000000000000000e+00 0.000000000000000e+00
0.000000000000000e+00 0.000000000000000e+00 0.000000000000000e+00
0.000000000000000e+00 0.000000000000000e+00 0.000000000000000e+00
0.000000000000000e+00 0.000000000000000e+00 0.000000000000000e+00
0.000000000000000e+00 0.000000000000000e+00 0.000000000000000e+00
0.000000000000000e+00 0.000000000000000e+00 0.000000000000000e+00
0.000000000000000e+00 0.000000000000000e+00 0.000000000000000e+00
0.000000000000000e+00 0.000000000000000e+00 0.000000000000000e+00
0.000000000000000e+00 0.000000000000000e+00 0.000000000000000e+00
0.000000000000000e+00 0.000000000000000e+00 0.000000000000000e+00
0.000000000000000e+00 0.000000000000000e+00 0.000000000000000e+00
0.000000000000000e+00 0.000000000000000e+00 0.000000000000000e+00
0.000000000000000e+00 0.000000000000000e+00 0.000000000000000e+00
0.000000000000000e+00 0.000000000000000e+00 0.000000000000000e+00
0.000000000000000e+00 0.000000000000000e+00 0.000000000000000e+00
0.000000000000000e+00 0.000000000000000e+00 0.000000000000000e+00
0.000000000000000e+00 0.000000000000000e+00 0.000000000000000e+00
0.000000000000000e+00 0.000000000000000e+00 0.000000000000000e+00
0.000000000000000e+00 0.000000000000000e+00 0.000000000000000e+00
0.000000000000000e+00 0.000000000000000e+00 0.000000000000000e+00
0.000000000000000e+00 0.000000000000000e+00 0.000000000000000e+00
0.000000000000000e+00 0.000000000000000e+00 0.000000000000000e+00
0.000000000000000e+00 0.000000000000000e+00 0.000000000000000e+00
0.000000000000000e+00 0.000000000000000e+00 0.000000000000000e+00
0.000000000000000e+00 0.000000000000000e+00 0.000000000000000e+00
0.000000000000000e+00 0.000000000000000e+00 0.000000000000000e+00
0.000000000000000e+00 0.000000000000000e+00 0.000000000000000e+00
0.000000000000000e+00 0.000000000000000e+00 0.000000000000000e+00
0.000000000000000e+00 0.000000000000000e+00 0.000000000000000e+00
0.000000000000000e+00 0.000000000000000e+00 0.000000000000000e+00
0.000000000000000e+00 0.000000000000000e+00 0.000000000000000e+00
0.000000000000000e+00 0.000000000000000e+00 0.000000000000000e+00
0.000000000000000e+00 0.000000000000000e+00 0.000000000000000e+00
0.000000000000000e+00 0.000000000000000e+00 0.000000000000000e+00
0.000000000000000e+00 0.000000000000000e+00 0.000000000000000e+00
0.000000000000000e+00 0.000000000000000e+00 0.000000000000000e+00
0.000000000000000e+00 0.000000000000000e+00 0.000000000000000e+00
0.000000000000000e+00 0.000000000000000e+00 0.000000000000000e+00
0.000000000000000e+00 0.000000000000000e+00 0.000000000000000e+00
0.000000000000000e+00 0.000000000000000e+00 0.000000000000000e+00
0.000000000000000e+00 0.000000000000000e+00 0.000000000000000e+00
0.000000000000000e+00 0.000000000000000e+00 0.000000000000000e+00
0.000000000000000e+00 0.000000000000000e+00 0.000000000000000e+00
0.000000000000000e+00 0.000000000000000e+00 0.000000000000000e+00
0.000000000000000e+00 0.000000000000000e+00 0.000000000000000e+00
0.000000000000000e+00 0.000000000000000e+00 0.000000000000000e+00
0.000000000000000e+00 0.000000000000000e+00 0.000000000000000e+00
0.000000000000000e+00 0.000000000000000e+00 0.000000000000000e+00
0.000000000000000e+00 0.000000000000000e+00 0.000000000000000e+00
0.000000000000000e+00 0.000000000000000e+00 0.000000000000000e+00
0.000000000000000e+00 0.000000000000000e+00 0.000000000000000e+00
0.000000000000000e+00 0.000000000000000e+00 0.000000000000000e+00
0.000000000000000e+00 0.000000000000000e+00 0.000000000000000e+00
0.000000000000000e+00 0.000000000000000e+00 0.000000000000000e+00
0.000000000000000e+00 0.000000000000000e+00 0.000000000000000e+00
0.000000000000000e+00 0.000000000000000e+00 0.000000000000000e+00
0.000000000000000e+00 0.000000000000000e+00 0.000000000000000e+00
0.000000000000000e+00 0.000000000000000e+00 0.000000000000000e+00
0.000000000000000e+00 0.000000000000000e+00 0.000000000000000e+00
0.000000000000000e+00 0.000000000000000e+00 0.000000000000000e+00
0.000000000000000e+00 0.000000000000000e+00 0.000000000000000e+00
0.000000000000000e+00 0.000000000000000e+00 0.000000000000000e+00
0.000000000000000e+00 0.000000000000000e+00 0.000000000000000e+00
0.000000000000000e+00 0.000000000000000e+00 0.000000000000000e+00
0.000000000000000e+00 0.000000000000000e+00 0.000000000000000e+00
0.000000000000000e+00 0.000000000000000e+00 0.000000000000000e+00
0.000000000000000e+00 0.000000000000000e+00 0.000000000000000e+00
0.000000000000000e+00 0.000000000000000e+00 0.000000000000000e+00
0.000000000000000e+00 0.000000000000000e+00 0.000000000000000e+00
0.000000000000000e+00 0.000000000000000e+00 0.000000000000000e+00
0.000000000000000e+00 0.000000000000000e+00 0.000000000000000e+00
0.000000000000000e+00 0.000000000000000e+00 0.000000000000000e+00
0.000000000000000e+00 0.000000000000000e+00 0.000000000000000e+00
0.000000000000000e+00 0.000000000000000e+00 0.000000000000000e+00
0.000000000000000e+00 0.000000000000000e+00 0.000000000000000e+00
0.000000000000000e+00 0.000000000000000e+00 0.000000000000000e+00
0.000000000000000e+00 0.000000000000000e+00 0.000000000000000e+00
0.000000000000000e+00 0.000000000000000e+00 0.000000000000000e+00
0.000000000000000e+00 0.000000000000000e+00 0.000000000000000e+00
0.000000000000000e+00 0.000000000000000e+00 0.000000000000000e+00
0.000000000000000e+00 0.000000000000000e+00 0.000000000000000e+00
0.000000000000000e+00 0.000000000000000e+00 0.000000000000000e+00
0.000000000000000e+00 0.000000000000000e+00 0.000000000000000e+00
0.000000000000000e+00 0.000000000000000e+00 0.000000000000000e+00
0.000000000000000e+00 0.000000000000000e+00 0.000000000000000e+00
0.000000000000000e+00 0.000000000000000e+00 0.000000000000000e+00
0.000000000000000e+00 0.000000000000000e+00 0.000000000000000e+00
0.000000000000000e+00 0.000000000000000e+00 0.000000000000000e+00
0.000000000000000e+00 0.000000000000000e+00 0.000000000000000e+00
0.000000000000000e+00 0.000000000000000e+00 0.000000000000000e+00
0.000000000000000e+00 0.000000000000000e+00 0.000000000000000e+00
0.000000000000000e+00 0.000000000000000e+00 0.000000000000000e+00
0.000000000000000e+00 0.000000000000000e+00 0.000000000000000e+00
0.000000000000000e+00 0.000000000000000e+00 0.000000000000000e+00
0.000000000000000e+00 0.000000000000000e+00 0.000000000000000e+00
0.000000000000000e+00 0.000000000000000e+00 0.000000000000000e+00
0.000000000000000e+00 0.000000000000000e+00 0.000000000000000e+00
0.000000000000000e+00 0.000000000000000e+00 0.000000000000000e+00
0.000000000000000e+00 0.000000000000000e+00 0.000000000000000e+00
0.000000000000000e+00 0.000000000000000e+00 0.000000000000000e+00
0.000000000000000e+00 0.000000000000000e+00 0.000000000000000e+00
0.000000000000000e+00 0.000000000000000e+00 0.000000000000000e+00
0.000000000000000e+00 0.000000000000000e+00 0.000000000000000e+00
0.000000000000000e+00 0.000000000000000e+00 0.000000000000000e+00
0.000000000000000e+00 0.000000000000000e+00 0.000000000000000e+00
0.000000000000000e+00 0.000000000000000e+00 0.000000000000000e+00
0.000000000000000e+00 0.000000000000000e+00 0.000000000000000e+00
0.000000000000000e+00 0.000000000000000e+00 0.000000000000000e+00
0.000000000000000e+00 0.000000000000000e+00 0.000000000000000e+00
0.000000000000000e+00 0.000000000000000e+00 0.000000000000000e+00
0.000000000000000e+00 0.000000000000000e+00 0.000000000000000e+00
0.000000000000000e+00 0.000000000000000e+00 0.000000000000000e+00
0.000000000000000e+00 0.000000000000000e+00 0.000000000000000e+00
0.000000000000000e+00 0.000000000000000e+00 0.000000000000000e+00
0.000000000000000e+00 0.000000000000000e+00 0.000000000000000e+00
0.000000000000000e+00 0.000000000000000e+00 0.000000000000000e+00
0.000000000000000e+00 0.000000000000000e+00 0.000000000000000e+00
0.000000000000000e+00 0.000000000000000e+00 0.000000000000000e+00
0.000000000000000e+00 0.000000000000000e+00 0.000000000000000e+00
0.000000000000000e+00 0.000000000000000e+00 0.000000000000000e+00
0.000000000000000e+00 0.000000000000000e+00 0.000000000000000e+00
0.000000000000000e+00 0.000000000000000e+00 0.000000000000000e+00
0.000000000000000e+00 0.000000000000000e+00 0.000000000000000e+00
0.000000000000000e+00 0.000000000000000e+00 0.000000000000000e+00
0.000000000000000e+00 0.000000000000000e+00 0.000000000000000e+00
0.000000000000000e+00 0.000000000000000e+00 0.000000000000000e+00
0.000000000000000e+00 0.000000000000000e+00 0.000000000000000e+00
0.000000000000000e+00 0.000000000000000e+00 0.000000000000000e+00
0.000000000000000e+00 0.000000000000000e+00 0.000000000000000e+00
0.000000000000000e+00 0.000000000000000e+00 0.000000000000000e+00
0.000000000000000e+00 0.000000000000000e+00 0.000000000000000e+00
0.000000000000000e+00 0.000000000000000e+00 0.000000000000000e+00
0.000000000000000e+00 0.000000000000000e+00 0.000000000000000e+00
0.000000000000000e+00 0.000000000000000e+00 0.000000000000000e+00
0.000000000000000e+00 0.000000000000000e+00 0.000000000000000e+00
0.000000000000000e+00 0.000000000000000e+00 0.000000000000000e+00
0.000000000000000e+00 0.000000000000000e+00 0.000000000000000e+00
0.000000000000000e+00 0.000000000000000e+00 0.000000000000000e+00
0.000000000000000e+00 0.000000000000000e+00 0.000000000000000e+00
0.000000000000000e+00 0.000000000000000e+00 0.000000000000000e+00
0.000000000000000e+00 0.000000000000000e+00 0.000000000000000e+00
0.000000000000000e+00 0.000000000000000e+00 0.000000000000000e+00
0.000000000000000e+00 0.000000000000000e+00 0.000000000000000e+00
0.000000000000000e+00 0.000000000000000e+00 0.000000000000000e+00
0.000000000000000e+00 0.000000000000000e+00 0.000000000000000e+00
0.000000000000000e+00 0.000000000000000e+00 0.000000000000000e+00
0.000000000000000e+00 0.000000000000000e+00 0.000000000000000e+00
0.000000000000000e+00 0.000000000000000e+00 0.000000000000000e+00
0.000000000000000e+00 0.000000000000000e+00 0.000000000000000e+00
0.000000000000000e+00 0.000000000000000e+00 0.000000000000000e+00
0.000000000000000e+00 0.000000000000000e+00 0.000000000000000e+00
0.000000000000000e+00 0.000000000000000e+00 0.000000000000000e+00
0.000000000000000e+00 0.000000000000000e+00 0.000000000000000e+00
0.000000000000000e+00 0.000000000000000e+00 0.000000000000000e+00
0.000000000000000e+00 0.000000000000000e+00 0.000000000000000e+00
0.000000000000000e+00 0.000000000000000e+00 0.000000000000000e+00
0.000000000000000e+00 0.000000000000000e+00 0.000000000000000e+00
0.000000000000000e+00 0.000000000000000e+00 0.000000000000000e+00
0.000000000000000e+00 0.000000000000000e+00 0.000000000000000e+00
0.000000000000000e+00 0.000000000000000e+00 0.000000000000000e+00
0.000000000000000e+00 0.000000000000000e+00 0.000000000000000e+00
0.000000000000000e+00 0.000000000000000e+00 0.000000000000000e+00
0.000000000000000e+00 0.000000000000000e+00 0.000000000000000e+00
0.000000000000000e+00 0.000000000000000e+00 0.000000000000000e+00
0.000000000000000e+00 0.000000000000000e+00 0.000000000000000e+00
0.000000000000000e+00 0.000000000000000e+00 0.000000000000000e+00
0.000000000000000e+00 0.000000000000000e+00 0.000000000000000e+00
0.000000000000000e+00 0.000000000000000e+00 0.000000000000000e+00
0.000000000000000e+00 0.000000000000000e+00 0.000000000000000e+00
0.000000000000000e+00 0.000000000000000e+00 0.000000000000000e+00
0.000000000000000e+00 0.000000000000000e+00 0.000000000000000e+00
0.000000000000000e+00 0.000000000000000e+00 0.000000000000000e+00
0.000000000000000e+00 0.000000000000000e+00 0.000000000000000e+00
0.000000000000000e+00 0.000000000000000e+00 0.000000000000000e+00
0.000000000000000e+00 0.000000000000000e+00 0.000000000000000e+00
0.000000000000000e+00 0.000000000000000e+00 0.000000000000000e+00
0.000000000000000e+00 0.000000000000000e+00 0.000000000000000e+00
0.000000000000000e+00 0.000000000000000e+00 0.000000000000000e+00
0.000000000000000e+00 0.000000000000000e+00 0.000000000000000e+00
0.000000000000000e+00 0.000000000000000e+00 0.000000000000000e+00
0.000000000000000e+00 0.000000000000000e+00 0.000000000000000e+00
0.000000000000000e+00 0.000000000000000e+00 0.000000000000000e+00
0.000000000000000e+00 0.000000000000000e+00 0.000000000000000e+00
0.000000000000000e+00 0.000000000000000e+00 0.000000000000000e+00
0.000000000000000e+00 0.000000000000000e+00 0.000000000000000e+00
0.000000000000000e+00 0.000000000000000e+00 0.000000000000000e+00
0.000000000000000e+00 0.000000000000000e+00 0.000000000000000e+00
0.000000000000000e+00 0.000000000000000e+00 0.000000000000000e+00
0.000000000000000e+00 0.000000000000000e+00 0.000000000000000e+00
0.000000000000000e+00 0.000000000000000e+00 0.000000000000000e+00
0.000000000000000e+00 0.000000000000000e+00 0.000000000000000e+00
0.000000000000000e+00 0.000000000000000e+00 0.000000000000000e+00
0.000000000000000e+00 0.000000000000000e+00 0.000000000000000e+00
0.000000000000000e+00 0.000000000000000e+00 0.000000000000000e+00
0.000000000000000e+00 0.000000000000000e+00 0.000000000000000e+00
0.000000000000000e+00 0.000000000000000e+00 0.000000000000000e+00
0.000000000000000e+00 0.000000000000000e+00 0.000000000000000e+00
0.000000000000000e+00 0.000000000000000e+00 0.000000000000000e+00
0.000000000000000e+00 0.000000000000000e+00 0.000000000000000e+00
0.000000000000000e+00 0.000000000000000e+00 0.000000000000000e+00
0.000000000000000e+00 0.000000000000000e+00 0.000000000000000e+00
0.000000000000000e+00 0.000000000000000e+00 0.000000000000000e+00
0.000000000000000e+00 0.000000000000000e+00 0.000000000000000e+00
0.000000000000000e+00 0.000000000000000e+00 0.000000000000000e+00
0.000000000000000e+00 0.000000000000000e+00 0.000000000000000e+00
0.000000000000000e+00 0.000000000000000e+00 0.000000000000000e+00
0.000000000000000e+00 0.000000000000000e+00 0.000000000000000e+00
0.000000000000000e+00 0.000000000000000e+00 0.000000000000000e+00
0.000000000000000e+00 0.000000000000000e+00 0.000000000000000e+00
0.000000000000000e+00 0.000000000000000e+00 0.000000000000000e+00
0.000000000000000e+00 0.000000000000000e+00 0.000000000000000e+00
0.000000000000000e+00 0.000000000000000e+00 0.000000000000000e+00
0.000000000000000e+00 0.000000000000000e+00 0.000000000000000e+00
0.000000000000000e+00 0.000000000000000e+00 0.000000000000000e+00
0.000000000000000e+00 0.000000000000000e+00 0.000000000000000e+00
0.000000000000000e+00 0.000000000000000e+00 0.000000000000000e+00
0.000000000000000e+00 0.000000000000000e+00 0.000000000000000e+00
0.000000000000000e+00 0.000000000000000e+00 0.000000000000000e+00
0.000000000000000e+00 0.000000000000000e+00 0.000000000000000e+00
0.000000000000000e+00 0.000000000000000e+00 0.000000000000000e+00
0.000000000000000e+00 0.000000000000000e+00 0.000000000000000e+00
0.000000000000000e+00 0.000000000000000e+00 0.000000000000000e+00
0.000000000000000e+00 0.000000000000000e+00 0.000000000000000e+00
0.000000000000000e+00 0.000000000000000e+00 0.000000000000000e+00
0.000000000000000e+00 0.000000000000000e+00 0.000000000000000e+00
0.000000000000000e+00 0.000000000000000e+00 0.000000000000000e+00
0.000000000000000e+00 0.000000000000000e+00 0.000000000000000e+00
0.000000000000000e+00 0.000000000000000e+00 0.000000000000000e+00
0.000000000000000e+00 0.000000000000000e+00 0.000000000000000e+00
0.000000000000000e+00 0.000000000000000e+00 0.000000000000000e+00
0.000000000000000e+00 0.000000000000000e+00 0.000000000000000e+00
0.000000000000000e+00 0.000000000000000e+00 0.000000000000000e+00
0.000000000000000e+00 0.000000000000000e+00 0.000000000000000e+00
0.000000000000000e+00 0.000000000000000e+00 0.000000000000000e+00
0.000000000000000e+00 0.000000000000000e+00 0.000000000000000e+00
0.000000000000000e+00 0.000000000000000e+00 0.000000000000000e+00
0.000000000000000e+00 0.000000000000000e+00 0.000000000000000e+00
0.000000000000000e+00 0.000000000000000e+00 0.000000000000000e+00
0.000000000000000e+00 0.000000000000000e+00 0.000000000000000e+00
0.000000000000000e+00 0.000000000000000e+00 0.000000000000000e+00
0.000000000000000e+00 0.000000000000000e+00 0.000000000000000e+00
0.000000000000000e+00 0.000000000000000e+00 0.000000000000000e+00
0.000000000000000e+00 0.000000000000000e+00 0.000000000000000e+00
0.000000000000000e+00 0.000000000000000e+00 0.000000000000000e+00
0.000000000000000e+00 0.000000000000000e+00 0.000000000000000e+00
0.000000000000000e+00 0.000000000000000e+00 0.000000000000000e+00
0.000000000000000e+00 0.000000000000000e+00 0.000000000000000e+00
0.000000000000000e+00 0.000000000000000e+00 0.000000000000000e+00
0.000000000000000e+00 0.000000000000000e+00 0.000000000000000e+00
0.000000000000000e+00 0.000000000000000e+00 0.000000000000000e+00
0.000000000000000e+00 0.000000000000000e+00 0.000000000000000e+00
0.000000000000000e+00 0.000000000000000e+00 0.000000000000000e+00
0.000000000000000e+00 0.000000000000000e+00 0.000000000000000e+00
0.000000000000000e+00 0.000000000000000e+00 0.000000000000000e+00
0.000000000000000e+00 0.000000000000000e+00 0.000000000000000e+00
0.000000000000000e+00 0.000000000000000e+00 0.000000000000000e+00
0.000000000000000e+00 0.000000000000000e+00 0.000000000000000e+00
0.000000000000000e+00 0.000000000000000e+00 0.000000000000000e+00
0.000000000000000e+00 0.000000000000000e+00 0.000000000000000e+00
0.000000000000000e+00 0.000000000000000e+00 0.000000000000000e+00
0.000000000000000e+00 0.000000000000000e+00 0.000000000000000e+00
0.000000000000000e+00 0.000000000000000e+00 0.000000000000000e+00
0.000000000000000e+00 0.000000000000000e+00 0.000000000000000e+00
0.000000000000000e+00 0.000000000000000e+00 0.000000000000000e+00
0.000000000000000e+00 0.000000000000000e+00 0.000000000000000e+00
0.000000000000000e+00 0.000000000000000e+00 0.000000000000000e+00
0.000000000000000e+00 0.000000000000000e+00 0.000000000000000e+00
0.000000000000000e+00 0.000000000000000e+00 0.000000000000000e+00
0.000000000000000e+00 0.000000000000000e+00 0.000000000000000e+00
0.000000000000000e+00 0.000000000000000e+00 0.000000000000000e+00
0.000000000000000e+00 0.000000000000000e+00 0.000000000000000e+00
0.000000000000000e+00 0.000000000000000e+00 0.000000000000000e+00
0.000000000000000e+00 0.000000000000000e+00 0.000000000000000e+00
0.000000000000000e+00 0.000000000000000e+00 0.000000000000000e+00
0.000000000000000e+00 0.000000000000000e+00 0.000000000000000e+00
0.000000000000000e+00 0.000000000000000e+00 0.000000000000000e+00
0.000000000000000e+00 0.000000000000000e+00 0.000000000000000e+00
0.000000000000000e+00 0.000000000000000e+00 0.000000000000000e+00
0.000000000000000e+00 0.000000000000000e+00 0.000000000000000e+00
0.000000000000000e+00 0.000000000000000e+00 0.000000000000000e+00
0.000000000000000e+00 0.000000000000000e+00 0.000000000000000e+00
0.000000000000000e+00 0.000000000000000e+00 0.000000000000000e+00
0.000000000000000e+00 0.000000000000000e+00 0.000000000000000e+00
0.000000000000000e+00 0.000000000000000e+00 0.000000000000000e+00
0.000000000000000e+00 0.000000000000000e+00 0.000000000000000e+00
0.000000000000000e+00 0.000000000000000e+00 0.000000000000000e+00
0.000000000000000e+00 0.000000000000000e+00 0.000000000000000e+00
0.000000000000000e+00 0.000000000000000e+00 0.000000000000000e+00
0.000000000000000e+00 0.000000000000000e+00 0.000000000000000e+00
0.000000000000000e+00 0.000000000000000e+00 0.000000000000000e+00
0.000000000000000e+00 0.000000000000000e+00 0.000000000000000e+00
0.000000000000000e+00 0.000000000000000e+00 0.000000000000000e+00
0.000000000000000e+00 0.000000000000000e+00 0.000000000000000e+00
0.000000000000000e+00 0.000000000000000e+00 0.000000000000000e+00
0.000000000000000e+00 0.000000000000000e+00 0.000000000000000e+00
0.000000000000000e+00 0.000000000000000e+00 0.000000000000000e+00
0.000000000000000e+00 0.000000000000000e+00 0.000000000000000e+00
0.000000000000000e+00 0.000000000000000e+00 0.000000000000000e+00
0.000000000000000e+00 0.000000000000000e+00 0.000000000000000e+00
0.000000000000000e+00 0.000000000000000e+00 0.000000000000000e+00
0.000000000000000e+00 0.000000000000000e+00 0.000000000000000e+00
0.000000000000000e+00 0.000000000000000e+00 0.000000000000000e+00
0.000000000000000e+00 0.000000000000000e+00 0.000000000000000e+00
0.000000000000000e+00 0.000000000000000e+00 0.000000000000000e+00
0.000000000000000e+00 0.000000000000000e+00 0.000000000000000e+00
0.000000000000000e+00 0.000000000000000e+00 0.000000000000000e+00
0.000000000000000e+00 0.000000000000000e+00 0.000000000000000e+00
0.000000000000000e+00 0.000000000000000e+00 0.000000000000000e+00
0.000000000000000e+00 0.000000000000000e+00 0.000000000000000e+00
0.000000000000000e+00 0.000000000000000e+00 0.000000000000000e+00
0.000000000000000e+00 0.000000000000000e+00 0.000000000000000e+00
0.000000000000000e+00 0.000000000000000e+00 0.000000000000000e+00
0.000000000000000e+00 0.000000000000000e+00 0.000000000000000e+00
0.000000000000000e+00 0.000000000000000e+00 0.000000000000000e+00
0.000000000000000e+00 0.000000000000000e+00 0.000000000000000e+00
0.000000000000000e+00 0.000000000000000e+00 0.000000000000000e+00
0.000000000000000e+00 0.000000000000000e+00 0.000000000000000e+00
0.000000000000000e+00 0.000000000000000e+00 0.000000000000000e+00
0.000000000000000e+00 0.000000000000000e+00 0.000000000000000e+00
0.000000000000000e+00 0.000000000000000e+00 0.000000000000000e+00
0.000000000000000e+00 0.000000000000000e+00 0.000000000000000e+00
0.000000000000000e+00 0.000000000000000e+00 0.000000000000000e+00
0.000000000000000e+00 0.000000000000000e+00 0.000000000000000e+00
0.000000000000000e+00 0.000000000000000e+00 0.000000000000000e+00
0.000000000000000e+00 0.000000000000000e+00 0.000000000000000e+00
0.000000000000000e+00 0.000000000000000e+00 0.000000000000000e+00
0.000000000000000e+00 0.000000000000000e+00 0.000000000000000e+00
0.000000000000000e+00 0.000000000000000e+00 0.000000000000000e+00
0.000000000000000e+00 0.000000000000000e+00 0.000000000000000e+00
0.000000000000000e+00 0.000000000000000e+00 0.000000000000000e+00
0.000000000000000e+00 0.000000000000000e+00 0.000000000000000e+00
0.000000000000000e+00 0.000000000000000e+00 0.000000000000000e+00
0.000000000000000e+00 0.000000000000000e+00 0.000000000000000e+00
0.000000000000000e+00 0.000000000000000e+00 0.000000000000000e+00
0.000000000000000e+00 0.000000000000000e+00 0.000000000000000e+00
0.000000000000000e+00 0.000000000000000e+00 0.000000000000000e+00
0.000000000000000e+00 0.000000000000000e+00 0.000000000000000e+00
0.000000000000000e+00 0.000000000000000e+00 0.000000000000000e+00
0.000000000000000e+00 0.000000000000000e+00 0.000000000000000e+00
0.000000000000000e+00 0.000000000000000e+00 0.000000000000000e+00
0.000000000000000e+00 0.000000000000000e+00 0.000000000000000e+00
0.000000000000000e+00 0.000000000000000e+00 0.000000000000000e+00
0.000000000000000e+00 0.000000000000000e+00 0.000000000000000e+00
0.000000000000000e+00 0.000000000000000e+00 0.000000000000000e+00
0.000000000000000e+00 0.000000000000000e+00 0.000000000000000e+00
0.000000000000000e+00 0.000000000000000e+00 0.000000000000000e+00
0.000000000000000e+00 0.000000000000000e+00 0.000000000000000e+00
0.000000000000000e+00 0.000000000000000e+00 0.000000000000000e+00
0.000000000000000e+00 0.000000000000000e+00 0.000000000000000e+00
0.000000000000000e+00 0.000000000000000e+00 0.000000000000000e+00
0.000000000000000e+00 0.000000000000000e+00 0.000000000000000e+00
0.000000000000000e+00 0.000000000000000e+00 0.000000000000000e+00
0.000000000000000e+00 0.000000000000000e+00 0.000000000000000e+00
0.000000000000000e+00 0.000000000000000e+00 0.000000000000000e+00
0.000000000000000e+00 0.000000000000000e+00 0.000000000000000e+00
0.000000000000000e+00 0.000000000000000e+00 0.000000000000000e+00
0.000000000000000e+00 0.000000000000000e+00 0.000000000000000e+00
0.000000000000000e+00 0.000000000000000e+00 0.000000000000000e+00
0.000000000000000e+00 0.000000000000000e+00 0.000000000000000e+00
0.000000000000000e+00 0.000000000000000e+00 0.000000000000000e+00
0.000000000000000e+00 0.000000000000000e+00 0.000000000000000e+00
0.000000000000000e+00 0.000000000000000e+00 0.000000000000000e+00
0.000000000000000e+00 0.000000000000000e+00 0.000000000000000e+00
0.000000000000000e+00 0.000000000000000e+00 0.000000000000000e+00
0.000000000000000e+00 0.000000000000000e+00 0.000000000000000e+00
0.000000000000000e+00 0.000000000000000e+00 0.000000000000000e+00
0.000000000000000e+00 0.000000000000000e+00 0.000000000000000e+00
0.000000000000000e+00 0.000000000000000e+00 0.000000000000000e+00
0.000000000000000e+00 0.000000000000000e+00 0.000000000000000e+00
0.000000000000000e+00 0.000000000000000e+00 0.000000000000000e+00
0.000000000000000e+00 0.000000000000000e+00 0.000000000000000e+00
0.000000000000000e+00 0.000000000000000e+00 0.000000000000000e+00
0.000000000000000e+00 0.000000000000000e+00 0.000000000000000e+00
0.000000000000000e+00 0.000000000000000e+00 0.000000000000000e+00
0.000000000000000e+00 0.000000000000000e+00 0.000000000000000e+00
0.000000000000000e+00 0.000000000000000e+00 0.000000000000000e+00
0.000000000000000e+00 0.000000000000000e+00 0.000000000000000e+00
0.000000000000000e+00 0.000000000000000e+00 0.000000000000000e+00
0.000000000000000e+00 0.000000000000000e+00 0.000000000000000e+00
0.000000000000000e+00 0.000000000000000e+00 0.000000000000000e+00
0.000000000000000e+00 0.000000000000000e+00 0.000000000000000e+00
0.000000000000000e+00 0.000000000000000e+00 0.000000000000000e+00
0.000000000000000e+00 0.000000000000000e+00 0.000000000000000e+00
0.000000000000000e+00 0.000000000000000e+00 0.000000000000000e+00
0.000000000000000e+00 0.000000000000000e+00 0.000000000000000e+00
0.000000000000000e+00 0.000000000000000e+00 0.000000000000000e+00
0.000000000000000e+00 0.000000000000000e+00 0.000000000000000e+00
0.000000000000000e+00 0.000000000000000e+00 0.000000000000000e+00
0.000000000000000e+00 0.000000000000000e+00 0.000000000000000e+00
0.000000000000000e+00 0.000000000000000e+00 0.000000000000000e+00
0.000000000000000e+00 0.000000000000000e+00 0.000000000000000e+00
0.000000000000000e+00 0.000000000000000e+00 0.000000000000000e+00
0.000000000000000e+00 0.000000000000000e+00 0.000000000000000e+00
0.000000000000000e+00 0.000000000000000e+00 0.000000000000000e+00
0.000000000000000e+00 0.000000000000000e+00 0.000000000000000e+00
0.000000000000000e+00 0.000000000000000e+00 0.000000000000000e+00
0.000000000000000e+00 0.000000000000000e+00 0.000000000000000e+00
0.000000000000000e+00 0.000000000000000e+00 0.000000000000000e+00
0.000000000000000e+00 0.000000000000000e+00 0.000000000000000e+00
0.000000000000000e+00 0.000000000000000e+00 0.000000000000000e+00
0.000000000000000e+00 0.000000000000000e+00 0.000000000000000e+00
0.000000000000000e+00 0.000000000000000e+00 0.000000000000000e+00
0.000000000000000e+00 0.000000000000000e+00 0.000000000000000e+00
0.000000000000000e+00 0.000000000000000e+00 0.000000000000000e+00
0.000000000000000e+00 0.000000000000000e+00 0.000000000000000e+00
0.000000000000000e+00 0.000000000000000e+00 0.000000000000000e+00
0.000000000000000e+00 0.000000000000000e+00 0.000000000000000e+00
0.000000000000000e+00 0.000000000000000e+00 0.000000000000000e+00
0.000000000000000e+00 0.000000000000000e+00 0.000000000000000e+00
0.000000000000000e+00 0.000000000000000e+00 0.000000000000000e+00
0.000000000000000e+00 0.000000000000000e+00 0.000000000000000e+00
0.000000000000000e+00 0.000000000000000e+00 0.000000000000000e+00
0.000000000000000e+00 0.000000000000000e+00 0.000000000000000e+00
0.000000000000000e+00 0.000000000000000e+00 0.000000000000000e+00
0.000000000000000e+00 0.000000000000000e+00 0.000000000000000e+00
0.000000000000000e+00 0.000000000000000e+00 0.000000000000000e+00
0.000000000000000e+00 0.000000000000000e+00 0.000000000000000e+00
0.000000000000000e+00 0.000000000000000e+00 0.000000000000000e+00
0.000000000000000e+00 0.000000000000000e+00 0.000000000000000e+00
0.000000000000000e+00 0.000000000000000e+00 0.000000000000000e+00
0.000000000000000e+00 0.000000000000000e+00 0.000000000000000e+00
0.000000000000000e+00 0.000000000000000e+00 0.000000000000000e+00
0.000000000000000e+00 0.000000000000000e+00 0.000000000000000e+00
0.000000000000000e+00 0.000000000000000e+00 0.000000000000000e+00
0.000000000000000e+00 0.000000000000000e+00 0.000000000000000e+00
0.000000000000000e+00 0.000000000000000e+00 0.000000000000000e+00
0.000000000000000e+00 0.000000000000000e+00 0.000000000000000e+00
0.000000000000000e+00 0.000000000000000e+00 0.000000000000000e+00
0.000000000000000e+00 0.000000000000000e+00 0.000000000000000e+00
0.000000000000000e+00 0.000000000000000e+00 0.000000000000000e+00
0.000000000000000e+00 0.000000000000000e+00 0.000000000000000e+00
0.000000000000000e+00 0.000000000000000e+00 0.000000000000000e+00
0.000000000000000e+00 0.000000000000000e+00 0.000000000000000e+00
0.000000000000000e+00 0.000000000000000e+00 0.000000000000000e+00
0.000000000000000e+00 0.000000000000000e+00 0.000000000000000e+00
0.000000000000000e+00 0.000000000000000e+00 0.000000000000000e+00
0.000000000000000e+00 0.000000000000000e+00 0.000000000000000e+00
0.000000000000000e+00 0.000000000000000e+00 0.000000000000000e+00
0.000000000000000e+00 0.000000000000000e+00 0.000000000000000e+00
0.000000000000000e+00 0.000000000000000e+00 0.000000000000000e+00
0.000000000000000e+00 0.000000000000000e+00 0.000000000000000e+00
0.000000000000000e+00 0.000000000000000e+00 0.000000000000000e+00
0.000000000000000e+00 0.000000000000000e+00 0.000000000000000e+00
0.000000000000000e+00 0.000000000000000e+00 0.000000000000000e+00
0.000000000000000e+00 0.000000000000000e+00 0.000000000000000e+00
0.000000000000000e+00 0.000000000000000e+00 0.000000000000000e+00
0.000000000000000e+00 0.000000000000000e+00 0.000000000000000e+00
0.000000000000000e+00 0.000000000000000e+00 0.000000000000000e+00
0.000000000000000e+00 0.000000000000000e+00 0.000000000000000e+00
0.000000000000000e+00 0.000000000000000e+00 0.000000000000000e+00
0.000000000000000e+00 0.000000000000000e+00 0.000000000000000e+00
0.000000000000000e+00 0.000000000000000e+00 0.000000000000000e+00
0.000000000000000e+00 0.000000000000000e+00 0.000000000000000e+00
0.000000000000000e+00 0.000000000000000e+00 0.000000000000000e+00
0.000000000000000e+00 0.000000000000000e+00 0.000000000000000e+00
0.000000000000000e+00 0.000000000000000e+00 0.000000000000000e+00
0.000000000000000e+00 0.000000000000000e+00 0.000000000000000e+00
0.000000000000000e+00 0.000000000000000e+00 0.000000000000000e+00
0.000000000000000e+00 0.000000000000000e+00 0.000000000000000e+00
0.000000000000000e+00 0.000000000000000e+00 0.000000000000000e+00
0.000000000000000e+00 0.000000000000000e+00 0.000000000000000e+00
0.000000000000000e+00 0.000000000000000e+00 0.000000000000000e+00
0.000000000000000e+00 0.000000000000000e+00 0.000000000000000e+00
0.000000000000000e+00 0.000000000000000e+00 0.000000000000000e+00
0.000000000000000e+00 0.000000000000000e+00 0.000000000000000e+00
0.000000000000000e+00 0.000000000000000e+00 0.000000000000000e+00
0.000000000000000e+00 0.000000000000000e+00 0.000000000000000e+00
0.000000000000000e+00 0.000000000000000e+00 0.000000000000000e+00
0.000000000000000e+00 0.000000000000000e+00 0.000000000000000e+00
0.000000000000000e+00 0.000000000000000e+00 0.000000000000000e+00
0.000000000000000e+00 0.000000000000000e+00 0.000000000000000e+00
0.000000000000000e+00 0.000000000000000e+00 0.000000000000000e+00
0.000000000000000e+00 0.000000000000000e+00 0.000000000000000e+00
0.000000000000000e+00 0.000000000000000e+00 0.000000000000000e+00
0.000000000000000e+00 0.000000000000000e+00 0.000000000000000e+00
0.000000000000000e+00 0.000000000000000e+00 0.000000000000000e+00
0.000000000000000e+00 0.000000000000000e+00 0.000000000000000e+00
0.000000000000000e+00 0.000000000000000e+00 0.000000000000000e+00
0.000000000000000e+00 0.000000000000000e+00 0.000000000000000e+00
0.000000000000000e+00 0.000000000000000e+00 0.000000000000000e+00
0.000000000000000e+00 0.000000000000000e+00 0.000000000000000e+00
0.000000000000000e+00 0.000000000000000e+00 0.000000000000000e+00
0.000000000000000e+00 0.000000000000000e+00 0.000000000000000e+00
0.000000000000000e+00 0.000000000000000e+00 0.000000000000000e+00
0.000000000000000e+00 0.000000000000000e+00 0.000000000000000e+00
0.000000000000000e+00 0.000000000000000e+00 0.000000000000000e+00
0.000000000000000e+00 0.000000000000000e+00 0.000000000000000e+00
0.000000000000000e+00 0.000000000000000e+00 0.000000000000000e+00
0.000000000000000e+00 0.000000000000000e+00 0.000000000000000e+00
0.000000000000000e+00 0.000000000000000e+00 0.000000000000000e+00
0.000000000000000e+00 0.000000000000000e+00 0.000000000000000e+00
0.000000000000000e+00 0.000000000000000e+00 0.000000000000000e+00
0.000000000000000e+00 0.000000000000000e+00 0.000000000000000e+00
0.000000000000000e+00 0.000000000000000e+00 0.000000000000000e+00
0.000000000000000e+00 0.000000000000000e+00 0.000000000000000e+00
0.000000000000000e+00 0.000000000000000e+00 0.000000000000000e+00
0.000000000000000e+00 0.000000000000000e+00 0.000000000000000e+00
0.000000000000000e+00 0.000000000000000e+00 0.000000000000000e+00
0.000000000000000e+00 0.000000000000000e+00 0.000000000000000e+00
0.000000000000000e+00 0.000000000000000e+00 0.000000000000000e+00
0.000000000000000e+00 0.000000000000000e+00 0.000000000000000e+00
0.000000000000000e+00 0.000000000000000e+00 0.000000000000000e+00
0.000000000000000e+00 0.000000000000000e+00 0.000000000000000e+00
0.000000000000000e+00 0.000000000000000e+00 0.000000000000000e+00
0.000000000000000e+00 0.000000000000000e+00 0.000000000000000e+00
0.000000000000000e+00 0.000000000000000e+00 0.000000000000000e+00
0.000000000000000e+00 0.000000000000000e+00 0.000000000000000e+00
0.000000000000000e+00 0.000000000000000e+00 0.000000000000000e+00
0.000000000000000e+00 0.000000000000000e+00 0.000000000000000e+00
0.000000000000000e+00 0.000000000000000e+00 0.000000000000000e+00
0.000000000000000e+00 0.000000000000000e+00 0.000000000000000e+00
0.000000000000000e+00 0.000000000000000e+00 0.000000000000000e+00
0.000000000000000e+00 0.000000000000000e+00 0.000000000000000e+00
0.000000000000000e+00 0.000000000000000e+00 0.000000000000000e+00
0.000000000000000e+00 0.000000000000000e+00 0.000000000000000e+00
0.000000000000000e+00 0.000000000000000e+00 0.000000000000000e+00
0.000000000000000e+00 0.000000000000000e+00 0.000000000000000e+00
0.000000000000000e+00 0.000000000000000e+00 0.000000000000000e+00
0.000000000000000e+00 0.000000000000000e+00 0.000000000000000e+00
0.000000000000000e+00 0.000000000000000e+00 0.000000000000000e+00
0.000000000000000e+00 0.000000000000000e+00 0.000000000000000e+00
0.000000000000000e+00 0.000000000000000e+00 0.000000000000000e+00
0.000000000000000e+00 0.000000000000000e+00 0.000000000000000e+00
0.000000000000000e+00 0.000000000000000e+00 0.000000000000000e+00
0.000000000000000e+00 0.000000000000000e+00 0.000000000000000e+00
0.000000000000000e+00 0.000000000000000e+00 0.000000000000000e+00
0.000000000000000e+00 0.000000000000000e+00 0.000000000000000e+00
0.000000000000000e+00 0.000000000000000e+00 0.000000000000000e+00
0.000000000000000e+00 0.000000000000000e+00 0.000000000000000e+00
0.000000000000000e+00 0.000000000000000e+00 0.000000000000000e+00
0.000000000000000e+00 0.000000000000000e+00 0.000000000000000e+00
0.000000000000000e+00 0.000000000000000e+00 0.000000000000000e+00
0.000000000000000e+00 0.000000000000000e+00 0.000000000000000e+00
0.000000000000000e+00 0.000000000000000e+00 0.000000000000000e+00
0.000000000000000e+00 0.000000000000000e+00 0.000000000000000e+00
0.000000000000000e+00 0.000000000000000e+00 0.000000000000000e+00
0.000000000000000e+00 0.000000000000000e+00 0.000000000000000e+00
0.000000000000000e+00 0.000000000000000e+00 0.000000000000000e+00
0.000000000000000e+00 0.000000000000000e+00 0.000000000000000e+00
0.000000000000000e+00 0.000000000000000e+00 0.000000000000000e+00
0.000000000000000e+00 0.000000000000000e+00 0.000000000000000e+00
0.000000000000000e+00 0.000000000000000e+00 0.000000000000000e+00
0.000000000000000e+00 0.000000000000000e+00 0.000000000000000e+00
0.000000000000000e+00 0.000000000000000e+00 0.000000000000000e+00
0.000000000000000e+00 0.000000000000000e+00 0.000000000000000e+00
0.000000000000000e+00 0.000000000000000e+00 0.000000000000000e+00
0.000000000000000e+00 0.000000000000000e+00 0.000000000000000e+00
0.000000000000000e+00 0.000000000000000e+00 0.000000000000000e+00
0.000000000000000e+00 0.000000000000000e+00 0.000000000000000e+00
0.000000000000000e+00 0.000000000000000e+00 0.000000000000000e+00
0.000000000000000e+00 0.000000000000000e+00 0.000000000000000e+00
0.000000000000000e+00 0.000000000000000e+00 0.000000000000000e+00
0.000000000000000e+00 0.000000000000000e+00 0.000000000000000e+00
0.000000000000000e+00 0.000000000000000e+00 0.000000000000000e+00
0.000000000000000e+00 0.000000000000000e+00 0.000000000000000e+00
0.000000000000000e+00 0.000000000000000e+00 0.000000000000000e+00
0.000000000000000e+00 0.000000000000000e+00 0.000000000000000e+00
0.000000000000000e+00 0.000000000000000e+00 0.000000000000000e+00
0.000000000000000e+00 0.000000000000000e+00 0.000000000000000e+00
0.000000000000000e+00 0.000000000000000e+00 0.000000000000000e+00
0.000000000000000e+00 0.000000000000000e+00 0.000000000000000e+00
0.000000000000000e+00 0.000000000000000e+00 0.000000000000000e+00
0.000000000000000e+00 0.000000000000000e+00 0.000000000000000e+00
0.000000000000000e+00 0.000000000000000e+00 0.000000000000000e+00
0.000000000000000e+00 0.000000000000000e+00 0.000000000000000e+00
0.000000000000000e+00 0.000000000000000e+00 0.000000000000000e+00
0.000000000000000e+00 0.000000000000000e+00 0.000000000000000e+00
0.000000000000000e+00 0.000000000000000e+00 0.000000000000000e+00
0.000000000000000e+00 0.000000000000000e+00 0.000000000000000e+00
0.000000000000000e+00 0.000000000000000e+00 0.000000000000000e+00
0.000000000000000e+00 0.000000000000000e+00 0.000000000000000e+00
0.000000000000000e+00 0.000000000000000e+00 0.000000000000000e+00
0.000000000000000e+00 0.000000000000000e+00 0.000000000000000e+00
0.000000000000000e+00 0.000000000000000e+00 0.000000000000000e+00
0.000000000000000e+00 0.000000000000000e+00 0.000000000000000e+00
0.000000000000000e+00 0.000000000000000e+00 0.000000000000000e+00
0.000000000000000e+00 0.000000000000000e+00 0.000000000000000e+00
0.000000000000000e+00 0.000000000000000e+00 0.000000000000000e+00
0.000000000000000e+00 0.000000000000000e+00 0.000000000000000e+00
0.000000000000000e+00 0.000000000000000e+00 0.000000000000000e+00
0.000000000000000e+00 0.000000000000000e+00 0.000000000000000e+00
0.000000000000000e+00 0.000000000000000e+00 0.000000000000000e+00
0.000000000000000e+00 0.000000000000000e+00 0.000000000000000e+00
0.000000000000000e+00 0.000000000000000e+00 0.000000000000000e+00
0.000000000000000e+00 0.000000000000000e+00 0.000000000000000e+00
0.000000000000000e+00 0.000000000000000e+00 0.000000000000000e+00
0.000000000000000e+00 0.000000000000000e+00 0.000000000000000e+00
0.000000000000000e+00 0.000000000000000e+00 0.000000000000000e+00
0.000000000000000e+00 0.000000000000000e+00 0.000000000000000e+00
0.000000000000000e+00 0.000000000000000e+00 0.000000000000000e+00
0.000000000000000e+00 0.000000000000000e+00 0.000000000000000e+00
0.000000000000000e+00 0.000000000000000e+00 0.000000000000000e+00
0.000000000000000e+00 0.000000000000000e+00 0.000000000000000e+00
0.000000000000000e+00 0.000000000000000e+00 0.000000000000000e+00
0.000000000000000e+00 0.000000000000000e+00 0.000000000000000e+00
0.000000000000000e+00 0.000000000000000e+00 0.000000000000000e+00
0.000000000000000e+00 0.000000000000000e+00 0.000000000000000e+00
0.000000000000000e+00 0.000000000000000e+00 0.000000000000000e+00
0.000000000000000e+00 0.000000000000000e+00 0.000000000000000e+00
0.000000000000000e+00 0.000000000000000e+00 0.000000000000000e+00
0.000000000000000e+00 0.000000000000000e+00 0.000000000000000e+00
0.000000000000000e+00 0.000000000000000e+00 0.000000000000000e+00
0.000000000000000e+00 0.000000000000000e+00 0.000000000000000e+00
0.000000000000000e+00 0.000000000000000e+00 0.000000000000000e+00
0.000000000000000e+00 0.000000000000000e+00 0.000000000000000e+00
0.000000000000000e+00 0.000000000000000e+00 0.000000000000000e+00
0.000000000000000e+00 0.000000000000000e+00 0.000000000000000e+00
0.000000000000000e+00 0.000000000000000e+00 0.000000000000000e+00
0.000000000000000e+00 0.000000000000000e+00 0.000000000000000e+00
0.000000000000000e+00 0.000000000000000e+00 0.000000000000000e+00
0.000000000000000e+00 0.000000000000000e+00 0.000000000000000e+00
0.000000000000000e+00 0.000000000000000e+00 0.000000000000000e+00
0.000000000000000e+00 0.000000000000000e+00 0.000000000000000e+00
0.000000000000000e+00 0.000000000000000e+00 0.000000000000000e+00
0.000000000000000e+00 0.000000000000000e+00 0.000000000000000e+00
0.000000000000000e+00 0.000000000000000e+00 0.000000000000000e+00
0.000000000000000e+00 0.000000000000000e+00 0.000000000000000e+00
0.000000000000000e+00 0.000000000000000e+00 0.000000000000000e+00
0.000000000000000e+00 0.000000000000000e+00 0.000000000000000e+00
0.000000000000000e+00 0.000000000000000e+00 0.000000000000000e+00
0.000000000000000e+00 0.000000000000000e+00 0.000000000000000e+00
0.000000000000000e+00 0.000000000000000e+00 0.000000000000000e+00
0.000000000000000e+00 0.000000000000000e+00 0.000000000000000e+00
0.000000000000000e+00 0.000000000000000e+00 0.000000000000000e+00
0.000000000000000e+00 0.000000000000000e+00 0.000000000000000e+00
0.000000000000000e+00 0.000000000000000e+00 0.000000000000000e+00
0.000000000000000e+00 0.000000000000000e+00 0.000000000000000e+00
0.000000000000000e+00 0.000000000000000e+00 0.000000000000000e+00
0.000000000000000e+00 0.000000000000000e+00 0.000000000000000e+00
0.000000000000000e+00 0.000000000000000e+00 0.000000000000000e+00
0.000000000000000e+00 0.000000000000000e+00 0.000000000000000e+00
0.000000000000000e+00 0.000000000000000e+00 0.000000000000000e+00
0.000000000000000e+00 0.000000000000000e+00 0.000000000000000e+00
0.000000000000000e+00 0.000000000000000e+00 0.000000000000000e+00
0.000000000000000e+00 0.000000000000000e+00 0.000000000000000e+00
0.000000000000000e+00 0.000000000000000e+00 0.000000000000000e+00
0.000000000000000e+00 0.000000000000000e+00 0.000000000000000e+00
0.000000000000000e+00 0.000000000000000e+00 0.000000000000000e+00
0.000000000000000e+00 0.000000000000000e+00 0.000000000000000e+00
0.000000000000000e+00 0.000000000000000e+00 0.000000000000000e+00
0.000000000000000e+00 0.000000000000000e+00 0.000000000000000e+00
0.000000000000000e+00 0.000000000000000e+00 0.000000000000000e+00
0.000000000000000e+00 0.000000000000000e+00 0.000000000000000e+00
0.000000000000000e+00 0.000000000000000e+00 0.000000000000000e+00
0.000000000000000e+00 0.000000000000000e+00 0.000000000000000e+00
0.000000000000000e+00 0.000000000000000e+00 0.000000000000000e+00
0.000000000000000e+00 0.000000000000000e+00 0.000000000000000e+00
0.000000000000000e+00 0.000000000000000e+00 0.000000000000000e+00
0.000000000000000e+00 0.000000000000000e+00 0.000000000000000e+00
0.000000000000000e+00 0.000000000000000e+00 0.000000000000000e+00
0.000000000000000e+00 0.000000000000000e+00 0.000000000000000e+00
0.000000000000000e+00 0.000000000000000e+00 0.000000000000000e+00
0.000000000000000e+00 0.000000000000000e+00 0.000000000000000e+00
0.000000000000000e+00 0.000000000000000e+00 0.000000000000000e+00
0.000000000000000e+00 0.000000000000000e+00 0.000000000000000e+00
0.000000000000000e+00 0.000000000000000e+00 0.000000000000000e+00
 2.195625935517428e+00  3.137476227775404e-02 -3.939614686151778e-17
 1.724606666371901e+00 -8.536366252037882e-03 -3.060372475112357e-17
-6.258377903214521e+00  2.252084162105978e-01  1.090613653715813e-16
 5.632483957190940e+00  3.643841274638591e-03 -1.002742098397636e-16
 2.821772693127010e+01  5.128721121933075e-01 -5.074376847064890e-16
-1.916564752100868e+01 -3.885586705961679e+00  3.809985511248179e-16
-1.397409686171402e+01  2.860228019669337e+00  2.192979186890610e-16
 9.367887725907114e+00  3.002981877519527e-02 -1.670212819844559e-16
 5.759057452382943e-01 -9.294932742668752e-03 -1.015342758558201e-17
 1.146551875904113e+00 -7.251201819437616e-03 -2.032975482201963e-17
 8.643876761525620e-01  2.060586715640367e-02 -1.559452758332869e-17
-1.453862987726458e-01  7.876430342001218e-03  2.506395130820224e-18
 5.736605455157168e-01  1.055329858362828e-02 -1.031740500217632e-17
-2.204856972351961e+00  8.797358354777275e-02  3.833416328925139e-17
 2.251391244714558e+00  1.131774398383805e-02 -4.018247846546683e-17
 1.038566695475786e+00  9.778675091458765e-03 -1.858300552753095e-17
 1.084589607172862e+00  2.612603880177465e-02 -1.957000135783184e-17
-5.712847346266153e-01 -2.278859227883289e-03  1.019010776579571e-17
 2.040366523656429e-01  1.321334436737011e-03 -3.644651843220877e-18
 6.474603191471774e-01  4.578175548537386e-03 -1.156936778256108e-17
 9.315756906123784e-01  1.112651807970678e-02 -1.669282156696729e-17
-2.130943056845814e-01 -1.919096705457066e-03  3.811985384452102e-18
-6.680958787053853e-03 -6.221611257003293e-05  1.195348882804106e-19
 1.112901980179059e-01  1.194780896356155e-03 -1.992817762765957e-18
-1.325040337851825e+00 -1.023226533648647e-02  2.368580618677642e-17
 2.421490425786792e+00 -2.234884675767186e-02 -4.286368430073693e-17
-3.012643850708351e+00 -1.681695385068414e-01  5.534147187020834e-17
 4.256800288916453e+00 -2.759958918838583e-01 -7.291908133381069e-17
-2.594912508464908e+00 -1.699603821916392e-01  4.792584461027939e-17
 4.278065639050042e+00 -5.061144251897444e-01 -7.093313918549415e-17
-1.511217934540504e+00 -1.274742024074148e-01  2.820367694358826e-17
 3.179110695788777e+00 -4.340608349427263e-01 -5.211624957406178e-17
-1.515307525838111e+00 -1.276213651759079e-01  2.827796811263774e-17
 9.396225806726013e-01 -3.464489397581553e-01 -1.316206774504487e-17
 3.718766499420556e-01  1.114338402547701e-01 -7.762930795571899e-18
 6.695550243014879e-01 -7.588743016296647e-02 -1.113581459083404e-17
-1.871522258117963e+00 -4.102243180094620e-01  3.752087689373175e-17
 3.016383255958670e-02  3.081852787073661e-02 -8.534505545731244e-19
 7.779384888009179e-01  1.208792335301607e-01 -1.508633357938119e-17
-6.057087891734432e-02 -2.617257044969445e-02  1.346844703742739e-18
-2.187731200770442e+00 -3.805398108251156e-01  4.284319458470320e-17
-9.899771782221025e-01  1.170089579298853e-01  1.641560022490187e-17
 5.075510391752565e+00  5.268815670652067e-01 -9.573827840702723e-17
 7.464868958011259e-01 -5.679763841750340e-02 -1.270104965430972e-17
-8.252201668262584e+00 -8.987997677379707e-01  1.560926133765978e-16
-7.008048111126457e+00  1.714631353355342e+00  1.070993613612994e-16
 1.079921725882696e+01  1.258366706141909e+00 -2.051142136572386e-16
 2.350434003651796e+00 -1.182519751600617e-01 -4.061378070539778e-17
-1.107281450145267e+01 -2.643935970537081e+00  2.242194238281207e-16
-1.446552492701200e+00  1.118870603880227e-01  2.459352821966596e-17
 2.469165152226918e+00  2.010926544046525e-01 -4.600789318864047e-17
-2.185409577645089e+00  2.821403995781708e-01  3.599308019322249e-17
-1.758076161957938e+00 -1.596476063651574e-01  3.292738358097666e-17
-1.926436267379976e-01  3.156698647034979e-02  3.103983804776065e-18
 2.062699344581855e+00  1.770827611748173e-01 -3.852765635787775e-17
-2.855960358249994e+00  3.296298352933095e-01  4.743839447510808e-17
-1.822625001618109e-01 -3.759050261629110e-03  3.282201483600239e-18
 7.588034671461842e+00 -1.042782978966028e+00 -1.243239120360342e-16
 2.040175954623300e+00  2.664918763392692e-01 -3.904547195516963e-17
-2.677169464297268e+01 -7.228697744999772e-01  4.838614649764124e-16
 6.873047550976026e+00  2.678120238534274e+01 -3.974812052567945e-16
 2.598627783955910e+01  2.244340737193158e+00 -4.855165974661349e-16
-3.463179442002044e+00 -1.269538239687113e-01  6.293581362263321e-17
-4.453137547410829e+00  1.101653392499400e-01  7.811698571020657e-17
 8.225574027737521e-01  2.554118841898677e-02 -1.490081659160260e-17
-1.830971282860149e+00  2.030523401347210e-02  3.237568913693049e-17
 2.323748602575288e-01  1.504732355292741e-03 -4.150848395956776e-18
-1.088877281471214e+00  1.183972550488564e-02  1.925622121333957e-17
 7.806075802819370e+00 -9.820960658875853e-03 -1.388175235573168e-16
 2.873794808274280e+01  5.857639984109493e+00 -5.716111893694808e-16
-5.664028252317072e+00  9.881800413946321e-02  9.978281992378716e-17
 5.140708482299195e+00 -1.203544981354226e-01 -9.024844074359096e-17
 2.792693152648254e+01  4.351565504444308e+00 -5.417038134735811e-16
-1.139577825576824e+01  8.335756637812489e-02  2.019449987230495e-16
-8.953097616508537e-01  1.191703644921072e-02  1.581066193638385e-17
 2.466649075978951e+00 -2.365015957968473e-02 -4.365396584098133e-17
 7.711484114328380e-01  4.874773440785713e-03 -1.377359236547575e-17
-1.106995355933913e+00  7.010119296539170e-03  1.962827640104504e-17
-2.430196336113407e+00  1.149158188368143e-02  4.313017094067586e-17
 5.289766452666133e-01 -7.136294749404240e-03 -9.340447583635438e-18
 1.916140013311417e+00  6.465033409755356e-03 -3.416642294379412e-17
-2.354728287071204e-01  1.566877151470215e-03  4.174420762338196e-18
-3.322748499219591e+00 -3.809183339373267e-03  5.917141103903458e-17
 5.822702179219884e-01 -8.144453609216373e-03 -1.027851175007923e-17
 2.253159174748144e-01  3.648025424500255e-04 -4.013513734781691e-18
-5.419006351376537e-01  3.635638041316130e-03  9.606413344546292e-18
 4.016796370409744e-01 -2.796771059817776e-03 -7.119632480004249e-18
 7.300899637405895e-01 -3.825243155527534e-04 -1.298889154486094e-17
 1.239957333270108e-01 -8.908069294677336e-04 -2.197499249911047e-18
 4.992051755604316e-01 -9.208716653631817e-04 -8.874489939117848e-18
-1.497121145249323e-01  6.518925558078423e-04  2.657607701471568e-18
 8.866595191737382e-02 -4.089453287502306e-04 -1.573714613180832e-18
 2.571747909307209e-01 -1.191921983874795e-03 -4.564485606135580e-18
 3.943335004603585e-02 -1.767742696548924e-04 -6.999472076453041e-19
 1.132206902382900e-01 -6.696830062536328e-04 -2.008016487705948e-18
 1.816266096276490e+00 -7.417608450435534e-03 -3.224640847393508e-17
-1.775766271596962e+00 -2.312995816574726e-02  3.183953097280845e-17
-2.030730485254334e+00  1.979501422644479e-02  3.593588475750045e-17
 1.675835759085221e+00 -1.602854943086796e-02 -2.965880881948713e-17
 4.514862265803167e-01 -2.042816049015012e-03 -8.013746765685279e-18
 5.956593092687694e+00  7.125054345482026e-03 -1.060778867071335e-16
 1.157501144465357e+01  1.131929551065895e+00 -2.176213008269916e-16
-3.648055508543186e+00  7.538994688126102e-02  6.414689498842059e-17
-3.187670505018079e+00 -4.527058003545634e-02  5.719353779797712e-17
 1.857505082415573e+01 -2.137672792813744e+00 -3.086013751478291e-16
 1.753519766517169e+00  7.350843323801481e-02 -3.196124834731762e-17
 8.572770543034165e-01 -9.604158720219122e-03 -1.515758853520647e-17
-1.806053478852949e+00 -1.660217470104141e-01  3.384668906603312e-17
 1.619226737371454e+00 -6.490709235941063e-02 -2.814917450503901e-17
 1.544444820918923e+00  1.384158909351613e-01 -2.890741088888159e-17
 6.807237365120747e-01 -2.409764022977208e-02 -1.186669638163119e-17
 1.588555457502282e+00  1.524704045374765e-01 -2.983681741905428e-17
 1.413187492210960e-01 -1.193555633122291e-03 -2.502672356561157e-18
 7.972272486593779e-01  6.708769846944410e-02 -1.487691158093996e-17
 5.540118842671440e-01 -3.347706059650468e-03 -9.824905869609510e-18
 1.376017991128528e+00  5.914695091267670e-02 -2.509559495546894e-17
-1.245887319853941e+00  8.674379441142330e-03  2.208292490207839e-17
-1.186433011607951e+00 -5.465558272620033e-02  2.167555694329194e-17
 1.906293601192246e+00 -7.944829686157882e-02 -3.310846621644060e-17
 2.413833686941590e+00  1.182309747099137e-01 -4.417183009516324e-17
-1.145925285663248e+00  5.604641292927101e-03  2.033552170105391e-17
 1.396426799228177e+00  3.232677289171054e-02 -2.518322645496272e-17
-1.815647307437082e+00 -4.632330987809259e-02  3.278756480393086e-17
 1.208527889031972e+01  2.292827638638084e-01 -2.174277507522018e-16
 2.092523135155231e+00  1.014857250613901e-01 -3.828167416334041e-17
-2.300573890309158e+01 -2.914535390356303e+00  4.393603583926498e-16
-5.163668327545232e-02 -1.213553305334904e+01  1.256071293766778e-16
 2.602510537528722e+01 -1.026916832981175e+00 -4.525965966147900e-16
-2.069255717262259e+00  3.681983285800678e-02  3.644656337917136e-17
-2.052441089015020e+00  1.304221558664402e-01  3.518559714699548e-17
-1.283989726106719e+00 -2.302987511359450e-02  2.308675234617288e-17
 3.192429508820684e+00 -2.778989380150461e-01 -5.395778054488625e-17
-8.186163409701884e-01 -5.606095672393729e-02  1.514426022609104e-17
-1.686371481665598e+01  5.956471807658286e-01  2.939898625312437e-16
 4.552209550752688e+00  2.463227401377300e+01 -3.340996647317099e-16
 1.566817937026507e+01  6.285488868626782e-01 -2.852920530517800e-16
 2.236714102583028e+00  1.082474436062269e-01 -4.091719868214575e-17
-1.669549301699304e+01  1.194414395756329e-01  2.958889959603711e-16
 2.112913830313754e+00 -2.217861714414772e-02 -3.737394474665872e-17
 2.529389562650502e+00  5.812854583937875e-02 -4.561075412045204e-17
-6.419778163895695e+00 -5.708962478814596e-02  1.148341853810877e-16
-8.215615950300155e+00  1.549686168817970e+00  1.302842236645096e-16
 5.206069923460973e+00  1.635927425649929e-02 -9.281630990893307e-17
 3.177258421918163e-01  9.023477076860374e-03 -5.747023426965856e-18
-2.124121306753501e+00  4.535369035687880e-03  3.775467309368260e-17
-4.560745256531083e-01  2.742527831168695e-03  8.088211731700478e-18
 1.164494161106341e-01 -4.840407067908204e-04 -2.067382921106417e-18
-1.941691370823387e-01  5.406838424165199e-04  3.449916078691668e-18
 1.114374353725756e-01 -2.039638128899963e-04 -1.981066418484447e-18
-6.370679497071028e-01 -1.225874416980896e-03  1.134997951095016e-17
-6.127159312383053e-01  2.464076056074001e-03  1.087869339075203e-17
 1.360429474294086e-01 -1.250341626627065e-04 -2.419761846773085e-18
 1.588275325946448e-01 -3.684494559071512e-05 -2.826146832788707e-18
-1.566161019510699e-01 -8.583199451893393e-04  2.795989277715622e-18
-4.211974837457390e-01  8.215550233002632e-04  7.487270473637481e-18
 1.175708553279325e-01 -4.691991616326536e-06 -2.092265407272615e-18
 4.802105885263902e-02  1.043820622772963e-04 -8.556645123865185e-19
 1.825403209051129e-01  5.647685711608864e-04 -3.254325544871074e-18
 1.308398083804226e-01  7.095825727180509e-04 -2.335741163265552e-18
 3.192342826586420e-01  4.606346336205188e-04 -5.685887709812192e-18
 3.465030494290525e-01  2.088267831383888e-03 -6.187891277208981e-18
 4.048895781352039e+00  2.534514575980329e-02 -7.231534226496818e-17
-4.046959877964416e-01 -4.236431189489866e-03  7.245575639695499e-18
-2.551067295428693e-01 -1.349641823498384e-03  4.553795634360149e-18
 2.163223380105521e-01  2.289379768497312e-03 -3.873236588861554e-18
 3.549002107883553e-01  2.786545309172189e-03 -6.344503332069097e-18
 7.772569902264977e-02 -8.748509058092982e-04 -1.374232753432597e-18
 2.339813683321250e-01  8.775273526345911e-03 -4.254140296487066e-18
 6.949235365917796e-01  2.704226461157057e-03 -1.239477821778851e-17
-2.066754536874351e+01  2.513846642810286e+01  1.095150121854251e-16
-1.564741241882920e+00  5.977230246671969e-02  2.723229818000198e-17
 1.171287633641011e+00  3.071197586790971e-02 -2.116001499651381e-17
-5.661292007342600e+00  4.646628932712658e-01  9.597520186779181e-17
 1.305942684849965e+00  6.711969698408625e-03 -2.330977091047206e-17
-1.464188629562379e+00  1.121547434289936e-02  2.594174828593492e-17
 3.275473859274654e-01 -3.060867165490251e-03 -5.797647144780018e-18
 1.150133131755063e-01 -7.138926022645411e-04 -2.039464108979326e-18
 1.118161230605750e-01 -9.060319118796374e-04 -1.980592140203730e-18
 3.710502471788774e-01 -2.422291187575247e-03 -6.578393589379231e-18
 1.824042920050827e-01 -1.187341257532914e-03 -3.233902462600752e-18
-2.128395749571804e-02  1.133143319812522e-04  3.776091484634423e-19
 1.973113017108400e-01 -1.449493522366803e-03 -3.496496955932140e-18
 1.072598145721543e-01 -7.085319105594975e-04 -1.901536432139265e-18
 3.703280642224716e-02 -2.845500950431745e-04 -6.561193155003317e-19
 3.508653411780706e-02 -2.615886905468000e-04 -6.217189979558786e-19
-2.652817916294519e-02  2.698393588571527e-04  4.693280904866998e-19
-2.321071632849822e-01  2.240961723701927e-03  4.107598770483447e-18
 3.569053013863768e+00 -5.159714239768195e-02 -6.298541381237099e-17
 1.508719874129475e+01  1.448003669611287e+00 -2.833724098500820e-16
-4.115655265609261e+00  3.959750655758293e-02  7.283614475784557e-17
 1.524157216185947e+00 -2.363602988221770e-02 -2.688134409351552e-17
 2.698470505825507e+00 -7.606722625558650e-03 -4.794434519774235e-17
-2.243807627272751e+00 -8.141808570220636e-02  4.076777485666445e-17
-1.039319077525840e+00  5.107833699859796e-03  1.844344159312440e-17
-8.254976095723915e-04 -1.762366696666263e-05  1.487179497462120e-20
-3.637137708115039e+00  1.707400099442680e-02  6.455177507765341e-17
 1.266358542776660e+00 -4.020198960807136e-03 -2.249505475316752e-17
-3.300870651268188e+00  3.044823642890989e-02  5.843008608908315e-17
 3.797129509225552e-01 -1.635291471280009e-03 -6.740642876389669e-18
 1.348549663769848e+01 -9.946382000908005e-01 -2.297709525793480e-16
 1.934880209877258e+01  3.860199909186304e+00 -3.839971652578286e-16
-1.142227156303870e+01 -3.204095554261858e-01  2.065650392281692e-16
-7.601436850939701e+00  1.082917343977290e-01  1.341639778525371e-16
 3.003985992320256e+00 -5.778383741500887e-02 -5.286580608052926e-17
 1.813601021723320e+00 -1.384903560934967e-03 -3.226096414278375e-17
 8.030982712214048e-01  2.334213322288399e-03 -1.431607490088404e-17
 2.877070919892062e-01  1.203162417631300e-03 -5.132452948035341e-18
 1.141975339977116e-01  8.813733451474362e-04 -2.041337123735440e-18
 3.650160391124145e-01 -3.225305012883185e-04 -6.492581932427370e-18
-1.454582211776450e+00 -2.740503859911986e-02  2.616760234558168e-17
-1.401020000129856e+00  2.951526364201981e-02  2.462956348759099e-17
 1.850408727005999e+00  1.187810961436964e-02 -3.305227380968543e-17
 2.937983909090442e+00 -6.988600881680820e-03 -5.221312287897900e-17
-3.023538972750888e+00 -1.450748599229955e-01  5.529807404049842e-17
-2.421580032189958e+00  3.296606033849490e-02  4.275619094429255e-17
 6.344317698639626e+00  9.091027551321119e-02 -1.138387713139799e-16
 2.745367476908617e-01  8.194767326935978e-04 -4.894128737949067e-18
 1.425304778000145e-01  7.910826249106865e-04 -2.544627954521644e-18
-5.024891998947454e-02 -4.058156482054786e-04  8.984090798435296e-19
 2.229663424337748e-01  2.417598833760898e-03 -3.992791981411937e-18
 2.079142688967455e+00  3.025703536006484e-02 -3.731170429405757e-17
 8.020409342037286e-01  1.838309557280062e-02 -1.446215475830989e-17
-1.636398008377988e+01 -9.567180891097823e-01  3.010464760671248e-16
-4.884088423320646e+00 -1.960158308487643e+01  2.883173261435370e-16
 1.668780032085716e+01  2.511153298926188e-01 -2.995594314287745e-16
-4.061427653512460e+00 -2.878094499209752e-01  7.523508736137029e-17
-2.875007205198598e+00  7.157428618345399e-02  5.042878286064305e-17
 4.080789990523770e-01  5.997030553665004e-04 -7.268414300378648e-18
 2.674857083791800e-01 -2.814734676085839e-03 -4.731306872938485e-18
-1.772874956642935e-01 -8.774430839393848e-04  3.164057889512168e-18
-9.206880567549268e-01  1.299443779627155e-02  1.625122907331329e-17
 8.906513067980943e-01  8.993162827008486e-04 -1.585944256709905e-17
-2.948578910302338e-01  1.658597521563537e-03  5.230306400293769e-18
 1.177720677472246e-01 -4.710239861750694e-04 -2.091054828258820e-18
 4.635939059608336e-02 -1.743736302148521e-04 -8.232290291717519e-19
-3.959178925514592e-03  1.878276092907426e-05  7.026532341966829e-20
-8.286259531863825e-02  2.813858214538205e-04  1.471747587212124e-18
 4.261846481925535e-01 -1.240604194179950e-03 -7.571717445923084e-18
-5.479710838318531e+00 -2.705945338027472e-02  9.779601685592398e-17
 4.145374258291952e-01 -4.349076561472943e-03 -7.332502783105965e-18
-1.428802726359757e-01  7.343885645108099e-07  2.542717339631025e-18
-9.328119910582727e-02  3.028850627577264e-04  1.656938320696469e-18
-4.897138160523475e-01 -1.675888850975687e-03  8.732260661117812e-18
-1.411806970669407e+00  1.546001101865027e-02  2.496594308386575e-17
 3.372195844671308e+00 -3.429710240072108e-02 -5.965985728760353e-17
 9.074606454018005e+00  3.846070810705751e-01 -1.654451443963355e-16
-3.585302097568307e+00  3.793220752603150e-03  6.376575361697928e-17
-1.208013552890387e+00  4.757142782489424e-03  2.144916423031579e-17
 1.031683320304674e+00 -2.042205308576441e-02 -1.815020612027850e-17
 1.457775489854762e+00  8.615686114324066e-04 -2.595170603928542e-17
 5.098605569138918e-01 -1.070002163406535e-03 -9.062582910726340e-18
-2.323548739453322e+00 -2.597818385822442e-02  4.161723782904582e-17
 1.324883730546484e-01 -2.229712107634031e-03 -2.334879153563455e-18
 7.600157981470467e-01  9.761215867293810e-03 -1.362568067153699e-17
-1.781867354252980e+00  1.117816938737872e-02  3.159560341978964e-17
-4.212079236281104e-01 -1.113515668786934e-03  7.507338422527145e-18
-1.489583984255026e+00  3.232696231926056e-03  2.647570906079457e-17
-7.701157781260689e-01 -2.843297349925075e-05  1.370542103710307e-17
 1.918915926056110e+00  5.555138159035375e-03 -3.420647489675154e-17
-4.297108508569123e+00 -1.866387436155265e-01  7.838981699110479e-17
 7.450144065412259e+00 -5.692513506852113e-01 -1.267353496685410e-16
-3.852437865484213e+00 -1.727549895555563e-01  7.033372193138421e-17
 3.264637480812681e+00 -3.232481487366431e-01 -5.477686085232680e-17
 3.900775388106310e-01  1.620506095993426e-02 -7.108396213355379e-18
 1.692943609398004e+01 -4.922050341107822e+00 -2.507072301752106e-16
 4.941176752795236e+00  3.137156826834645e-01 -9.115744903920676e-17
-1.347293123653587e+01  2.531206265471586e-01  2.371661599295750e-16
-9.137886280328692e+00 -4.405773507244038e-01  1.671463586514165e-16
 8.829367599943664e+00 -7.699384222979176e-01 -1.492182909016853e-16
-2.432042925100603e+00 -4.606902938208517e-01  4.801453036222477e-17
-1.478273537911747e+01  7.304693995393755e-01  2.555711018479601e-16
 1.056659477625826e+01 -5.954274804386823e-01 -1.819273572817298e-16
 1.221678265751820e+01  6.872384556059237e-01 -2.244733455734975e-16
-8.367669277490018e+00 -5.437289411605101e-01  1.544992734598091e-16
-6.797551274696229e+00  3.042639370635213e-01  1.178443319210964e-16
-1.535445736126097e+00 -7.844662850325568e-02  2.813109903450251e-17
-6.132489018288636e-01 -6.510037738903308e-03  1.098038399727808e-17
-7.864233269451356e+00 -1.393354116689435e+00  1.542696192930280e-16
 4.226599641068757e+00 -2.691140544505658e-01 -7.245233316802980e-17
 1.241234253544958e+01  3.222299930667442e+00 -2.540004025952273e-16
-8.258041013720854e+00  5.026351356849414e-01  1.417972969620901e-16
 9.998121762427390e-01  6.552092530819785e-02 -1.846605400510326e-17
-6.740891161847751e+00  4.623177256771692e-01  1.152120523408841e-16
 1.164371361280380e+00  6.206006608550966e-02 -2.135902192327046e-17
-2.942229112086995e+00  5.340130228721513e-03  5.230560877040773e-17
 2.440519925392195e-01  2.825074114793742e-03 -4.372222933129475e-18
-1.634184177104678e+00 -1.615969034604709e-02  2.924829170409787e-17
-4.135125405215351e-01 -8.310706967461387e-04  7.367487859723007e-18
-6.992598850627221e-01 -8.120055187593588e-03  1.252759437995498e-17
-6.863444600929093e+00 -4.278354845933700e-02  1.225827691140048e-16
 9.288519917944562e+00 -7.004626888417741e-01 -1.581032919726637e-16
 7.869867540497092e+00  4.684926305528688e-01 -1.448672720188433e-16
-1.504083601972354e+01 -3.281043296483201e-01  2.710407711126196e-16
-6.782602608210785e+00  9.593787129845856e-02  1.197187772369876e-16
 5.570120805143586e+00 -1.624440262749042e-01 -9.745789062563229e-17
-2.402040939976783e-02  3.462310259075222e-03  3.918978577397719e-19
-1.082885345170802e+00  1.415615580341294e-02  1.912578706904978e-17
 7.240998172650940e-01  3.212652327219912e-02 -1.321630834011940e-17
-1.901459345856269e+00  1.628152728928397e-02  3.367145040809225e-17
-4.136074221385144e-02  4.248343010728255e-04  7.316987243456257e-19
-7.643889056145504e-01  2.121316107899382e-03  1.358141663101814e-17
 1.102459361203838e+00 -4.983982603657199e-03 -1.956837078594534e-17
-1.231828613524359e+00 -1.331031063751766e-02  2.205861813683011e-17
-3.421747376962075e+00  2.647986430959462e-02  6.062200516920610e-17
 1.151041026463696e+00 -1.345975024504415e-02 -2.034585403422337e-17
 1.660139845645579e+00 -5.324513783863016e-03 -2.948946139829723e-17
-2.765529610081084e+00 -8.251335804220439e-02  5.006369297671755e-17
-2.318883863679280e+00  8.763457694319642e-03  4.117726308140350e-17
 6.729095245802212e-01 -1.718891154587490e-02 -1.179861777949107e-17
 9.327981977128482e-01  1.377702604711822e-03 -1.661441200289633e-17
-4.701155555468345e-01  8.401052722601777e-04  8.357635306752584e-18
-8.427492429675328e-02  2.050048837840821e-04  1.497666450941721e-18
-1.177974210679726e+00 -3.669128563495005e-03  2.100115518341917e-17
-3.622226525239258e+00  2.324466534446097e-02  6.422301131344400e-17
 3.475937345994744e+00 -9.293813958788383e-02 -6.090354573467766e-17
 1.672202994651543e+00  8.276923836128049e-03 -2.984388935141595e-17
-2.015490569566907e+00 -1.510037219047310e-03  3.588357392019936e-17
-5.502052478837414e+00 -8.164586150231464e-03  9.799947508705811e-17
 1.338885998102723e+00 -8.806793013574245e-02 -2.292220742714547e-17
 8.333547535457248e+00 -5.424185099097135e-02 -1.477481036971640e-16
 7.825627698757175e+00  1.967356130827595e+00 -1.594802492059593e-16
-9.435148089777304e+00  6.654197161755782e-02  1.672260203237273e-16
-2.495174815849309e+00  1.038920053671385e-01  4.333715952994811e-17
 1.726169168342304e+01  4.306931264978167e-01 -3.116176091389062e-16
-1.209718474709263e+00  1.138301047049401e-02  2.141142698721000e-17
-2.326927628247498e+00  7.737258238417516e-03  4.133095531717067e-17
-5.216112510771806e-01  6.791554072219617e-03  9.212913647917119e-18
-3.210226225201106e-02  6.255483724847658e-04  5.648707602402711e-19
-5.080101272741081e-01  6.591969085112352e-03  8.972916103445827e-18
-2.006091668690079e-01  1.994327613009389e-03  3.549588427065602e-18
-6.651139649060364e-01  8.126203624901554e-03  1.175300258966537e-17
 1.429090561866818e+00 -1.483001371935736e-02 -2.527999822298008e-17
-4.718437250132355e+00 -6.663675333535482e-02  8.465488769658238e-17
 1.840019817961831e+00 -6.291124606667603e-02 -3.209895731165167e-17
-1.552075723449658e+00 -2.509305588909861e-02  2.787886091523443e-17
 1.805641385842789e+00 -1.217927004756849e-01 -3.088216656780051e-17
-3.863447263854735e+00 -3.919221681114480e-01  7.278151032229960e-17
 1.693911734997008e+00 -1.872198598201678e-01 -2.822156387565583e-17
-4.184084580194436e+00 -4.709358979749841e-01  7.929947135173686e-17
-5.155147231808174e-01  3.274593433063230e-02  8.837746850977419e-18
 3.355173138606821e+00  3.740374174074473e-01 -6.355240678495528e-17
 3.994716069698260e+00 -4.559733956281010e-01 -6.640577653212765e-17
-3.892523054810741e+00 -4.145486731043385e-01  7.353142792340158e-17
-3.483789558667052e+00  2.597095910114789e-01  5.932976910539492e-17
 5.076020754944326e+00  4.415946571384130e-01 -9.487106892133739e-17
 2.986406368221224e+00 -2.676765629914908e-01 -5.039638417903433e-17
-3.309561270498165e-01 -1.734787262031308e-02  6.068002149023701e-18
-2.229554686060057e+00  1.659068325792286e-01  3.797295271630266e-17
 6.644338255554746e-01  1.657654097682531e-02 -1.199471043532818e-17
-3.180868496786001e+00  1.088710820557551e-01  5.548873834940864e-17
 3.004189299843957e+00 -3.373485699620241e-02 -5.311651872722901e-17
 2.869000023838357e+00 -2.569854543552407e-03 -5.103087336943169e-17
-1.399343902665060e+01 -1.132115777084106e+00  2.606620177997986e-16
 1.233182912238948e+01  1.139727463499698e+01 -3.365624657853319e-16
 1.369406997630723e+01  1.694956219264461e+00 -2.611173695285340e-16
-7.129671779165457e+00 -8.626688717484664e-02  1.277673748235169e-16
-8.480573718220841e+00 -3.681656215718785e-02  1.513002021340054e-16
 1.833184366480583e+00 -9.986848126214821e-02 -3.159759013740267e-17
 1.998628912750083e-01  7.057899914057779e-03 -3.629315920219192e-18
-5.470570192045226e+00  3.965690887477010e-01  9.328071877512175e-17
 8.052734675844585e-01  1.825098397484095e-02 -1.451832412522734e-17
-1.575127816819473e+00  2.641838128880474e-02  2.775983910724275e-17
 1.338650346184214e-01 -1.800071630607176e-03 -2.363792890031305e-18
 8.604377187786956e-01 -9.963991866991257e-03 -1.521013916849756e-17
 5.683314414811498e+00 -4.816981880789920e-02 -1.006464319248694e-16
-1.001192527524387e+01 -5.121132947744053e-01  1.834359309998709e-16
-5.105563018247635e+00  6.075853300746057e-01  8.461686549529686e-17
 6.390167777128011e+00  4.870454104528826e-02 -1.142210795300902e-16
 4.680852053184805e-02  3.617065144750935e-05 -8.333850716181628e-19
-1.894118139347629e-01  8.085316262668286e-04  3.362501800633417e-18
 5.136250032239995e-01 -1.033753225265410e-02 -9.034355215285134e-18
-1.321760481210039e-02 -2.794834025051217e-04  2.380946445925690e-19
-3.256177630557522e-01  5.386430283116654e-03  5.739412896540257e-18
 7.962911076127760e-01 -7.134963174230271e-03 -1.409764094898034e-17
 1.998709848518940e-02 -2.912242888470395e-04 -3.527020237296410e-19
-2.923039339152154e-01  3.501516849384539e-03  5.165920363103569e-18
 2.359558049851585e+00 -2.109453077305651e-02 -4.177441145623906e-17
-1.054324406112783e+01 -4.589660130778775e-01  1.923453135200079e-16
 2.548465212427823e+00 -8.859985255103903e-02 -4.444264706335150e-17
 8.108563464528421e+00  2.720614626956580e-01 -1.470968917929368e-16
-8.604951449940981e-01  9.219434179377621e-03  1.521881120397383e-17
-3.995252866717768e-02 -1.144601357469973e-03  7.227632687421217e-19
 6.230398029426281e-01 -5.011932510637870e-03 -1.103624070064789e-17
 1.189802183499328e+00 -1.119790006837225e-03 -2.116244366691122e-17
 4.790159109226591e-01 -5.708307072467805e-04 -8.518794443863576e-18
 2.393686495207348e+00 -1.199693430265212e-02 -4.247524233345837e-17
-1.959418798236021e+00 -3.905872530010507e-02  3.527150895690526e-17
-3.012837002352142e-01  7.441678768033641e-04  5.354056660867124e-18
-1.084075927900000e+00  2.799909056933994e-02  1.900474378167984e-17
-3.378201722342710e-01  7.465258042115938e-03  5.935210109939314e-18
-1.009153255149149e+00 -9.465043110662550e-03  1.805633581580683e-17
-1.931428217381274e+00  3.804938597004116e-02  3.398112540169282e-17
 3.086063212209901e+00 -1.688930801431540e-01 -5.318486102451492e-17
 3.093169149474838e+00 -9.136795870657683e-03 -5.495275738868489e-17
-3.233538465719043e+00  2.213660637688524e-02  5.731722849958447e-17
-6.678827582178436e-01  1.417679315129785e-02  1.174010896208769e-17
 4.673663672077660e-01 -8.170904363359629e-03 -8.233388925754976e-18
 3.724373703178423e-02 -6.892481284145432e-04 -6.557149491563295e-19
 6.718209976786490e-01 -1.206994031324265e-02 -1.183184177496592e-17
-3.442428791593117e-01  3.573124392869992e-03  6.089500089837342e-18
-3.185919647338813e-02  1.977815896967357e-03  5.466510547218067e-19
 4.331340194056790e+00 -7.586447154549032e-02 -7.630188546999669e-17
 5.541407460741591e+00  2.637315467998533e-01 -1.013257015415578e-16
-3.563090500618327e+00  5.818941565848354e-02  6.281157055674362e-17
 1.612122544271377e+00 -3.141630330879467e-02 -2.836685253232320e-17
 1.056989453814205e+00 -1.224238868513941e-02 -1.868460205789664e-17
 1.210949257540051e+00 -1.145087604485181e-02 -2.143263292684497e-17
-1.164808171799058e+00 -4.357122737090728e-03  2.077391870619524e-17
 4.597155872161748e-01 -8.457755023204842e-03 -8.094286882822879e-18
-1.121742289156091e+00 -5.900894322921417e-03  2.002337164496049e-17
 2.975870891700624e+00 -1.934217197983318e-01 -5.097183439328549e-17
 1.974176547338582e+00  2.654735761101447e-02 -3.540559101146366e-17
-7.886500693378914e-02  2.811052939622174e-03  1.374614322239394e-18
-6.656640846479408e-01 -2.449072218980078e-03  1.187144974645453e-17
 1.358909546802793e+00 -5.259138833634127e-02 -2.364305893420540e-17
 4.299780244476327e-01  4.453567669518848e-03 -7.697730629758151e-18
 5.299245027708401e-01 -1.902202034155327e-02 -9.235194307927690e-18
-3.020083695947077e-01 -1.665694690615620e-02  5.545743256691237e-18
 1.291346673984201e+00 -7.809697278415687e-02 -2.217863642601858e-17
 1.237270378685874e+01  6.383713519668474e-01 -2.267460563266213e-16
-1.474542679786615e+01  2.314005877740334e-01  2.600349018437747e-16
-1.353898533877906e+00 -9.128913049994697e-03  2.418803568469528e-17
 9.214966496470010e-01 -1.604668610381035e-02 -1.623425818573493e-17
 2.286435051902839e+00  2.292370448910044e-02 -4.092537186704668e-17
-6.513444200186941e-01  2.565246646599877e-04  1.158881520858137e-17
 3.686450750342765e-01 -5.312958111363194e-04 -6.555019974829502e-18
 2.294428970132215e-02 -2.667609290741979e-05 -4.080469260508545e-19
 2.168082282748957e-01 -6.606237755248414e-04 -3.851573347890743e-18
 7.199310636881672e-01  1.754877347669737e-03 -1.283006273650724e-17
-9.698985749348903e-01 -2.238161025504936e-03  1.728349839573196e-17
-4.018174776562209e+00  1.899074934312536e-02  7.131309015462554e-17
 4.500502613216321e+00 -7.935493908759597e-02 -7.927646920800940e-17
 2.275287641516877e+00  3.805065893430352e-02 -4.088241436427571e-17
-2.162879351734849e+00  2.889224997325595e-03  3.846133230909842e-17
-5.472935301547863e-01  1.844704493334304e-03  9.720787581607530e-18
-1.016410316310713e-02  4.220956168024626e-06  1.808389681480604e-19
-4.808571732411460e-02  1.005362284974549e-04  8.547097283848078e-19
 7.480176699859338e-02 -1.285155918221358e-04 -1.329866219983758e-18
-3.750723984676522e-01  2.384588546782302e-05  6.674615735809017e-18
 5.584972802966766e+00 -7.111450492257887e-02 -9.866057731594108e-17
 1.364824091407422e+01  1.386337156187672e+00 -2.571308379239716e-16
-3.003876327150963e+01 -2.998479206398218e+00  5.653839085347568e-16
-3.252917409993260e+00 -1.202960662932209e+01  1.814893836165433e-16
 3.052189000651528e+01  1.734012858446169e+00 -5.609897927046952e-16
 9.843516269727610e+00  1.389730381880533e+00 -1.894560886155019e-16
-1.940886674163692e+01 -3.357489347466756e-01  3.488536337183695e-16
-1.378040333087610e+01 -2.087356832137336e-01  2.473833984336416e-16
 2.098929440243952e+01 -2.484162357276811e+01 -1.182908728940532e-16
 2.517617474599298e+01 -2.572740296118314e-01 -4.453966636387899e-16
-3.819435433944731e+00 -1.263966128136053e-01  6.927008881422309e-17
-1.094217550899082e+00  1.217878713830990e-04  1.947165522187282e-17
 3.244041679696807e-02 -1.390893283753148e-04 -5.758868259284107e-19
-2.309316169886158e-01  5.040561157379819e-04  4.104524612270843e-18
-3.462154210772696e-03  7.949052924470958e-06  6.153149125959814e-20
 1.209494893775211e-01 -2.435519102673017e-04 -2.149938021942760e-18
 1.118506182565955e-01 -1.456561733128507e-04 -1.989018604695645e-18
 3.144150797519867e-01 -6.029081628402468e-04 -5.589196721345272e-18
 2.275235456895650e-01 -1.234655209872773e-04 -4.047784331960102e-18
-6.548730983228933e-02  3.020683999857094e-05  1.165114432444530e-18
 1.522382018293526e-01 -2.319141287480824e-04 -2.706877573624386e-18
 2.961940259208521e-01  4.841627387497998e-04 -5.276100609080540e-18
 1.029225117480582e-01 -6.092164839086269e-05 -1.831002925500196e-18
 2.025867800343920e-01  2.183825696726916e-04 -3.607517200322474e-18
 9.044503388843239e-03  1.054422241564531e-05 -1.610660689951122e-19
 1.695541421810663e-01  7.395779222363305e-05 -3.018178100206840e-18
 3.008734252366730e-02  1.716526890889751e-05 -5.356165311071904e-19
 4.140476885584225e-02  1.966293639551638e-05 -7.370492785309421e-19
 1.288109023895239e-01  5.641225551361708e-05 -2.292923275026154e-18
 3.429296357583674e-02  3.501790982786356e-05 -6.106439877355240e-19
 3.047108173333169e-01 -3.514057413834764e-05 -5.422331413177104e-18
-2.327239053821062e+00 -1.424110713386507e-02  4.156231719638884e-17
-2.732450837270174e-02  3.953736945829386e-04  4.822099082508245e-19
 1.455210428497626e+01 -2.253531575643000e-02 -2.587405119387369e-16
-2.011403185595542e+01 -2.916128157296449e+00  3.879153473699788e-16
-1.084082105647202e+01  2.637795203374343e-01  1.902151033484680e-16
 4.147822076148700e+00 -9.357765738219605e-02 -7.285396511086000e-17
 2.005665322002303e+00  3.611935510378116e-02 -3.606432011583446e-17
-1.473819035661742e+00  1.692650719348732e-03  2.621097640498791e-17
 1.001453770998324e+00 -1.813239988108080e-03 -1.780343404565932e-17
 1.146033330435936e-02  1.190134582885597e-04 -2.051731259971048e-19
 2.862925361892700e+00 -3.044552022349089e-02 -5.063635517392952e-17
-1.097188913839998e+01 -5.182976996677141e-01  2.005831755699699e-16
-4.585405576007115e+00 -1.570729432901832e-03  8.161890057028065e-17
-1.249455348025761e+01  6.148237138018716e-01  2.160383929156515e-16
 2.453925214653270e+01 -9.588706189360810e+00 -3.381847906253297e-16
 6.003215541203095e-01 -1.996746309790103e+00  9.832404828120380e-18
-5.816103628042123e+00  4.914370599795673e+00  5.301112910117148e-17
 2.491911034821526e+01 -1.169221596354791e+00 -4.314519660795174e-16
-2.648530720071295e+00 -1.748010320956418e-01  4.892978054847229e-17
 3.159278194814482e+00  4.272130385712983e-02 -5.666206987876396e-17
-9.479884471672105e-01 -1.096412927071900e-02  1.698323766494602e-17
-6.588038884668158e-01  1.852384606902923e-03  1.170516846560023e-17
 1.981559615980969e+00  1.409608732336976e-02 -3.540904923745823e-17
-1.784684795277605e+00 -1.677431015491892e-02  3.193294472073035e-17
-1.086683820186024e+00 -6.421124427656239e-04  1.934543229565362e-17
 3.910838369796967e-01 -1.455623781141183e-04 -6.958307775687793e-18
 5.523399909200419e-01  1.527459410444231e-03 -9.845243067258817e-18
 6.861067929565628e-01  1.771733866517962e-03 -1.222829271922552e-17
 3.436865611563775e-01  1.983029935383675e-03 -6.136687234416595e-18
-1.228438707475739e+00 -5.314461053520671e-03  2.191613629122681e-17
-1.033495941652097e+00  9.831475567854124e-03  1.829127824031784e-17
 1.020645910721897e+00  3.058465539141085e-03 -1.819503607194040e-17
 1.125828697520610e+00  1.363002047858670e-02 -2.017550811939282e-17
-5.977141486030924e-01 -3.042822453158067e-03  1.066830014801745e-17
-1.779035836589617e+00 -5.314278675440087e-03  3.171466711632868e-17
 1.242616487249255e-01 -1.213821258426923e-04 -2.210137113053915e-18
 2.266477542722084e-01  1.332371515355100e-03 -4.047156738861118e-18
-3.019827817613275e-02 -4.187053203213377e-05  5.378445825903789e-19
 3.558222713103248e-02  1.747439882132135e-04 -6.350236054077791e-19
-3.005996575737998e-01 -8.933944052476889e-04  5.358708786111354e-18
-4.553662693240475e+00 -1.773805511075379e-02  8.122011150422878e-17
-8.250328850999037e-01  3.524147108029921e-03  1.464623499321804e-17
 1.179104483355206e+00 -4.703709529792529e-03 -2.093524186059554e-17
 2.593086427403162e-01  1.237101459481544e-02 -4.741814291774141e-18
 9.268425161294807e+00  5.611265076041321e-02 -1.655192186259893e-16
 1.316482477698370e+01  1.337410089462240e+00 -2.480251633040320e-16
-2.219197830023917e+01 -1.831905865801012e+00  4.137548926925587e-16
-1.492301890089254e+01  1.947680082616910e+00  2.455612168542286e-16
 2.759187364969272e+01 -1.022220295902161e+00 -4.805273621749246e-16
 2.728664357718886e+00  4.856293198757673e-02 -4.905880359789515e-17
-1.185051598275299e+01  5.322465035741965e-01  2.054254284232589e-16
 3.701283266656329e+00 -2.662426588131621e-03 -6.584139529937701e-17
 3.634729063976982e+00  2.196423909802310e-02 -6.491001393265897e-17
 2.437001605528275e+00  6.360710200394114e-02 -4.402289039838919e-17
-6.704516599172035e+00 -1.347600139228697e-01  1.206994805077323e-16
-1.089353595959407e+01  1.404776992181330e-01  1.924201093469757e-16
 1.507212303902095e+01 -2.729213770804079e+00 -2.401847281089436e-16
 9.737705993230355e+00  8.084268354682171e-01 -1.816003857654211e-16
-8.136048297469680e+00  1.002211110399135e-02  1.446877109337143e-16
-2.083677948395937e+00  1.952534272168374e-02  3.688091880566576e-17
 4.827736490966927e-01 -2.409346938451863e-03 -8.566777797146022e-18
 4.852209094230966e+00  1.623648168772551e-01 -8.801908894485708e-17
-5.178486442461397e-01  1.847029477712922e-03  9.196756780534388e-18
-6.077738182514042e-01  3.950203987703822e-05  1.081565420759328e-17
-3.772615679941369e-01  1.500492867268043e-03  6.698402592495081e-18
 7.943501763287033e-01 -2.417922212712121e-03 -1.411156565190562e-17
-1.555607539657462e+00 -1.139234078607617e-02  2.780094392701503e-17
 1.172812119443214e+00 -2.249237596802937e-02 -2.064048964871746e-17
-1.950570343149564e+00 -6.195880084656281e-02  3.534933015265371e-17
 2.176523296540247e+00 -9.682048147654579e-02 -3.773903305440629e-17
-1.044126454358722e+00 -2.211888450679103e-02  1.880873924022189e-17
 2.903144412593124e+00 -2.349583725621494e-01 -4.925080582916191e-17
-1.215209105351374e+00 -4.671187924597346e-02  2.210604317391620e-17
 1.157821582974118e+00 -7.579480623089233e-02 -1.982605207762772e-17
-6.857307547310036e-01 -4.295649595841339e-02  1.264475914345114e-17
 7.129458953582533e+00 -1.795469564576091e+00 -1.084294288711059e-16
-5.986611737138667e-01 -1.304646083318203e-02  1.078793734168747e-17
 5.794493019995401e-01 -4.462372742892752e-02 -9.853498941006820e-18
-1.961728601773487e-01 -3.643428831777174e-03  3.528564958010908e-18
 3.875690282572017e-01 -4.245419036745042e-02 -6.461051783277754e-18
 5.638858390715781e-02 -3.984869004434033e-02 -5.940712939567554e-19
 8.110652741144695e-01 -3.487647030158960e-02 -1.407553095686913e-17
 5.664061033991428e-01  2.921218262249941e-02 -1.038001680015853e-17
 6.669818957664748e-02  1.016381445569140e-02 -1.291403344075669e-18
 7.021464112634750e-01  3.757062238635058e-02 -1.288155743573317e-17
-4.037522762063684e-01  1.042578892752654e-02  7.078132179066684e-18
 1.927175581260279e+00  2.589136362044426e-01 -3.695663184177208e-17
-6.388460156416842e-01  3.473567487712750e-02  1.101213045308033e-17
 4.971164447724346e+00  1.557826431429328e-01 -9.006841123295229e-17
-2.166189929820846e+01  1.118152904766909e+00  3.740107222802554e-16
-3.255979962176951e-01 -6.937510929941184e-03  5.865685127878474e-18
-1.939857379629831e+00  1.252978577551627e-03  3.450920211543979e-17
 1.279557973702368e+00 -2.227895290712313e-03 -2.274836963278088e-17
 3.822664787850572e-01  5.123327028076056e-03 -6.855528297082882e-18
-2.810195711825528e-01  9.694361631044601e-04  4.991117869181256e-18
 7.578826367402501e+00  1.441131236805256e-01 -1.363549650486698e-16
 3.707422429157747e-01  8.135737025950667e-04 -6.606159633879278e-18
 7.266610689658720e-01  6.361101548767622e-03 -1.299715850356055e-17
-5.253505588853428e-02 -3.534587904057136e-04  9.385556436728178e-19
 1.021702618286805e-01  6.374804575186325e-04 -1.824791559534546e-18
 1.395437992352586e+00  8.089719466658887e-03 -2.491660243440270e-17
 1.856126809233249e-01  1.339040093163119e-03 -3.316957210233185e-18
-2.112138244086023e-01 -2.804430630234311e-03  3.787616453552612e-18
 1.253252289177816e+00  8.411036653372577e-03 -2.238953974808332e-17
 9.543354704056316e-01 -1.698113969307818e-03 -1.696609056382132e-17
-1.472313800904308e+00 -6.157250128444591e-02  2.683421538835708e-17
 8.408895521552781e-01 -1.034343528253591e-02 -1.485835759677947e-17
 5.295456549489273e-02 -2.665762162879036e-04 -9.396506865541594e-19
 1.174860576045453e+00 -4.144160661984569e-02 -2.048224764495532e-17
-3.178518116712832e-01 -8.472810575783416e-03  5.743607191435905e-18
 3.771186499984935e-01 -4.182370392274528e-04 -6.706978986787756e-18
-3.156667467111753e-01 -1.456688191451801e-02  5.767335708046843e-18
 1.390458988852773e-01 -1.017065966496588e-03 -2.464037642522161e-18
-7.716925805227792e-02 -2.967304852066519e-03  1.403806981413538e-18
 1.568883346902537e-01 -8.908924093849928e-03 -2.700479068743510e-18
-2.539446997024083e-01 -1.502996423172638e-02  4.673676330175825e-18
 1.792289972817705e-01 -3.892103640315895e-03 -3.149603823515288e-18
 1.630834018146578e-01  1.078778665421348e-02 -3.013104241597741e-18
-6.513424736215125e-01  9.131898306352741e-03  1.149758932978166e-17
 6.961263446724401e-01  4.290508873307854e-02 -1.282923286550150e-17
-1.277354734479071e+00  1.085804926960146e-02  2.262048867065097e-17
 2.344571626608241e+00  8.702559846552645e-02 -4.261860520939885e-17
-8.222826712091572e-01 -2.954301512679548e-03  1.466385536946901e-17
 7.327289672276501e-01  2.471944409821284e-02 -1.329376930179934e-17
-2.338454327802696e+00 -1.843471992871150e-02  4.180499422880567e-17
 6.980404690269788e-01  2.414572473812873e-03 -1.244727164988475e-17
-1.820794117850685e+00 -3.310931426315833e-02  3.274338942422370e-17
 4.636926216356290e-01 -1.184568980994015e-03 -8.239792297466409e-18
-1.529529319848955e+00 -4.058652100246100e-02  2.763681049479502e-17
-4.008433805883614e+00 -4.756285046327383e-03  7.138373010837931e-17
 9.110891162827435e-01 -2.989478483088038e-03 -1.618320180750527e-17
-3.334858012109510e+00 -6.742784181063914e-02  6.004057286800985e-17
 1.819835569511644e+00 -8.998476592018706e-02 -3.146158395500387e-17
-1.947544099579476e+00 -1.007246304801312e-01  3.569377934875983e-17
-2.022091781952644e+00  2.047470852654176e-01  3.388183328420513e-17
-1.899272984313180e+00 -5.835655894655188e-02  3.439942073702240e-17
-3.148992549741786e+00  1.337594637782948e-01  5.466574878150359e-17
 2.169018026059191e+01 -3.781578455288133e-02 -3.856140872905127e-16
-2.283332646443541e+01 -2.316138214424523e+01  6.443210684369774e-16
-1.822922071738907e+01  7.285848155643606e-01  3.169247829696861e-16
-1.322282476058330e+00  4.511600350976890e-02  2.306804339824292e-17
 4.151300017011523e+00  9.086111203262392e-03 -7.397069214145031e-17
-1.653972772198410e+00  2.696916312277134e-02  2.915732005467225e-17
 2.638602435917004e+00 -3.803795232653064e-02 -4.656625164767453e-17
 1.878886841429419e+01  9.195147736491599e-01 -3.438180055877114e-16
-1.868727873679918e+00  2.335791472606974e-02  3.301624752593367e-17
-5.349727075662950e-01  8.569212288084728e-03  9.432431920472247e-18
-7.257608919733424e-02  9.995447896250513e-04  1.281308123172427e-18
-1.296341345404501e-01  1.645344063586032e-03  2.290088672022631e-18
 1.015218797333427e-01 -8.727363934357978e-04 -1.797735900929471e-18
-2.155563372522060e-01  2.381093675279348e-03  3.811617275527054e-18
-4.864354421909133e-01  5.529314820628992e-03  8.599887238716146e-18
-2.743501287435107e-01  4.005558531187397e-03  4.841232162096955e-18
 6.134618522769799e-01 -6.996333507664836e-03 -1.084540065544867e-17
 1.972632146013404e-01 -1.690041509285791e-03 -3.493169640724194e-18
-2.218794658891436e-01  2.271339314090099e-03  3.925272574883633e-18
 1.783948878213531e-01 -2.405640223786280e-03 -3.150032745759668e-18
 1.648167787297959e-01 -1.533512752589652e-03 -2.917354886843270e-18
-1.607321738945509e-01  1.818958329699876e-03  2.841731626934719e-18
 8.347703403081453e-01 -8.686690552216608e-03 -1.476648136654054e-17
-5.177560298229015e-01  1.066117122889391e-03  9.203132167548258e-18
 4.990574477143351e-01 -7.126331574740053e-03 -8.808102111950567e-18
 2.991187768008277e-01 -1.576447915995711e-03 -5.306978007118277e-18
-3.923271601756264e-01  1.279982710273527e-02  6.850416450805382e-18
 1.477333491002687e+00 -8.742755769806328e-03 -2.620108306087275e-17
-8.219487708647588e-01  4.855030295524334e-03  1.457767516136506e-17
 1.368648870765052e+00 -2.640909008124963e-02 -2.408539540957037e-17
 3.121713832714471e+00  5.975299351376429e-02 -5.616856168469837e-17
 2.154024531037275e-01 -1.834740347894390e-03 -3.814492311607505e-18
-1.767999016757862e+00 -2.725519812661995e-02  3.174368869083494e-17
-6.551510287346619e-01  2.094214235162951e-02  1.144402111869465e-17
 2.872214674656604e+00  3.728031718389068e-02 -5.149752797006862e-17
 2.672359698764385e-01 -2.008653653013067e-03 -4.735144681686632e-18
 1.411256412593121e+00  2.294021823183002e-05 -2.511522697255082e-17
 9.574355402310924e-03 -2.705983368925203e-04 -1.676067754930635e-19
-1.559855738455289e+00  3.507686379222243e-03  2.772345332683424e-17
 6.525891509177749e+00 -1.850145703882016e-01 -1.142350662470458e-16
-9.997103553739174e-01 -4.278106422880201e-02  1.823059816523803e-17
-1.486055107072226e+00  1.768150533922538e-02  2.626445223408295e-17
 2.776825882544361e+00  2.231731514774170e-01 -5.170995196102115e-17
-1.465449784919298e+01  5.618697687191216e-01  2.550212619890668e-16
-2.561117811993338e+00  3.012412297810444e-03  4.554719504822457e-17
-8.902127302768110e-01  1.278896905189200e-02  1.571099540766621e-17
 1.791954301311727e+00  4.467864267154743e-02 -3.234902113549874e-17
-2.741949855767398e+00  7.540107663793126e-03  4.871879653570911e-17
-9.230782618692025e-01  3.759814454139133e-03  1.638864801919881e-17
-8.333920722689014e-01  5.739211012834595e-03  1.477223772080719e-17
 2.591412700206030e+00 -2.741990358556852e-02 -4.583555060065409e-17
-1.942201658266820e+00 -2.236209824401127e-02  3.479355769996186e-17
-9.161604423103009e+00  4.689365035273349e-01  1.582235268439532e-16
 2.559379148269056e+01 -1.396323355883204e+00 -4.411253335909208e-16
 2.200858496447045e-01  5.190585435833196e-01 -9.249828220712703e-18
-2.671289398796262e+01  1.159808619345720e+00  4.634712005736514e-16
 1.238183367659168e+01 -1.673152597216735e+00 -2.031584647436044e-16
 9.342818065188824e+00  2.514167368329539e-01 -1.688498076404815e-16
-4.080017918453459e+00  1.934318598000665e-02  7.241004147216167e-17
 1.567634178218380e+00 -2.130537156985246e-02 -2.767901517439011e-17
 6.692393495687732e-01 -3.018365981338722e-03 -1.187889990938108e-17
 1.363094737470160e-01 -5.127910372119784e-04 -2.420520940249237e-18
-1.972165967638811e-02 -1.546136685173960e-04  3.525590551358261e-19
-1.620667018759009e-01  3.977280920020739e-03  2.843305154740139e-18
 4.893506789022833e+00 -2.765195982935286e-02 -8.680167665213589e-17
 1.716261435042423e+01  2.267888556462740e-01 -3.077593677588554e-16
-1.178735957615665e+01 -1.290154338837673e+00  2.230259912830020e-16
-1.710252367249504e+01  1.975236118000240e+00  2.840649757965121e-16
 2.498106045116464e+01 -1.969779908194486e+00 -4.243289962416277e-16
 8.754193235122717e+00  2.575150645541485e-02 -1.560558983761775e-16
 7.956640570333938e-01  1.641518223847069e-03 -1.417665700303560e-17
 1.423429050275649e-01  7.370445860427994e-04 -2.540734652929890e-18
 1.223864361942918e+00 -4.302522078304095e-03 -2.173591935842891e-17
-1.476678276252240e+00 -3.495874054630980e-02  2.663843974976812e-17
-3.649467879141048e+00  1.067710555747206e-01  6.384960035270593e-17
 6.115993754352951e+00  6.409171156435801e-02 -1.094999233359798e-16
 7.016472895783252e-01  8.743825503321765e-03 -1.257649010300553e-17
 9.709597665955066e-02  1.254261516839637e-03 -1.740825806023534e-18
 9.498573293927635e-02  1.795150675331158e-03 -1.708828941109649e-18
 4.571564871026191e-01  1.001661047380384e-02 -8.238562029837633e-18
-8.560743906981069e-01 -1.603064000709645e-02  1.539957394714943e-17
-1.617710642255657e+00 -3.887749006307963e-02  2.918854263792726e-17
-1.016318253440867e+01 -4.005000917985943e-01  1.849809492306230e-16
-7.848557708558194e+00  1.157836940764999e-01  1.384848111267643e-16
-4.590942782743676e+00  2.249181872672586e-02  8.147020783011808e-17
-8.190672747564081e+00  1.639047734541001e-01  1.440787297038246e-16
-3.581712128246817e+00  9.539818441249392e-02  6.276065805701471e-17
 5.612824850279613e-01 -1.383790809748993e-02 -9.846511868330911e-18
 5.383975853890343e-01 -3.921049518569791e-03 -9.541139892514851e-18
 1.977293247282191e+00 -4.278516833993989e-02 -3.474868989076820e-17
 6.109837320747188e-01  5.963999821433325e-04 -1.087931212791635e-17
-5.679979098744605e+00  9.376392137661205e-02  1.001186131401762e-16
 2.796764151631113e+01 -1.947995640219930e+00 -4.777025942570216e-16
-8.462298624950113e-01 -1.445752629609764e+00  2.991425227666414e-17
-3.090066022456929e+01  1.481685918531521e-01  5.483917298761172e-16
-1.258503660892000e+01 -1.165656299796255e+01  3.437326886203925e-16
 2.568991281266312e+01  7.681084292625033e-01 -4.650746776174323e-16
-3.293553841152180e+00 -1.046688965571578e-01  5.968815418874014e-17
-6.347612792333296e+00  2.418124593380295e-01  1.104788061830480e-16
 1.946818719649129e+00 -1.690386975163398e-02 -3.447228024149631e-17
-2.022640731223732e-01  1.219957293418155e-03  3.586995832101439e-18
 1.392364585311309e+00 -5.902713053150556e-03 -2.471814043346302e-17
 2.599504017171022e+00  2.629574744355885e-02 -4.653145403901881e-17
 1.447360895667917e-01  1.132001790561779e-03 -2.587382286096060e-18
 1.325204413513798e+00  8.921286248250936e-03 -2.367525627481940e-17
 2.329525506122527e+00  3.091743838284742e-02 -4.177435057973690e-17
 6.937301443994874e-01  1.029196319590704e-02 -1.245150161932414e-17
 1.758299277314503e+00  2.049236166128110e-02 -3.150158459865724e-17
 1.126290001605616e+00  1.996414165018890e-02 -2.024879837336264e-17
 4.261037989308619e-02  6.297485020749431e-04 -7.647729735695953e-19
 4.171854371008625e-01  6.237503028413072e-03 -7.488400555717252e-18
 4.927731857417788e-01  8.636119412092125e-03 -8.858219633179831e-18
 1.821434268953685e-01  3.244195238261090e-03 -3.274792477419968e-18
 5.351537402757475e-02  9.501760352627461e-04 -9.621326301611881e-19
-7.996550817071742e-02 -1.425017299375287e-03  1.437723144085961e-18
 3.651255250297702e-01  6.053305476110937e-03 -6.560039765687477e-18
 4.396245925973052e-01  8.671502015664712e-03 -7.912740560872845e-18
 1.274093740107812e-02  5.571104922854660e-04 -2.324642838259277e-19
 1.184573378487611e+00  5.113983215181911e-02 -2.160633947667040e-17
-9.439072512811334e+00 -1.752097355356165e-01  1.697797710830035e-16
-8.755675296271718e+00  5.461896422331863e-01  1.502057858847524e-16
 2.009677812529869e+01 -7.720685941061137e-01 -3.497134147067986e-16
 1.531930655272006e+01  3.987896416308763e+00 -3.135995206245865e-16
-1.243119239903732e+01 -2.567786321239759e-01  2.238662043699952e-16
 1.037057005801576e+00 -4.275757124330928e-02 -1.801634795777212e-17
 3.203943339500622e+01  5.393981274036105e+00 -6.256011333577840e-16
-5.380901739891182e+00 -8.996788107473218e-02  9.668395232931119e-17
-1.979257167754668e+00  2.031335609683585e-02  3.501452987904600e-17
 5.210152494101089e-01  1.177482553629582e-02 -9.393069916765055e-18
-6.492071578521291e+00 -3.623628520994975e-02  1.159064724300072e-16
 5.213379055566833e+00 -1.109748878266579e-01 -9.163807238062515e-17
-4.580693503453107e+00 -3.796246422838941e-01  8.541941048790320e-17
-4.006579435813492e+00  2.143888403190666e-02  7.108158353427469e-17
-1.940695466041713e+00 -1.338921309647819e-02  3.467456007290284e-17
 3.673196420601093e+00 -8.616062758760645e-02 -6.448364282674841e-17
-1.095451256269010e+01 -2.501493164439879e-01  1.975188114074497e-16
 6.286823246200783e+00 -6.392155047441535e-01 -1.053138117521115e-16
 8.854993208595776e+00  6.945367154073460e-01 -1.647212792071549e-16
-7.280620441637478e+00  5.421479197582214e-02  1.290102881051290e-16
-1.123111042369623e+00  4.979175774302227e-03  1.993594147202480e-17
-8.233730106848736e+00  1.147605320932675e-02  1.464111365223609e-16
-1.889887300721895e+01  9.034791448121551e-01  3.270450685504328e-16
 1.528953922306107e+01 -2.301838248880536e+00 -2.484450366805831e-16
 1.542551980260766e+01  3.070057162920520e+00 -3.060592472009041e-16
-1.450261234051228e+01  4.436379230693221e-02  2.576354640939526e-16
-5.897658518486865e+00  1.133022574558682e-01  1.037917287824565e-16
 1.683397302142044e+00 -4.135876587238179e-02 -2.953311672587179e-17
 9.909652776420216e-01 -2.197081250978337e-03 -1.761283497009436e-17
 2.370806613316473e+00 -5.809711955929021e-02 -4.159440484878320e-17
-2.277886960852556e+00 -1.651841252491940e-02  4.070743632931947e-17
-2.250569336897396e-01  3.699610258766789e-03  3.967144439903771e-18
-6.793176341494822e-01 -6.409201920953482e-03  1.215511984055387e-17
 7.020298831010519e-01  7.433485906891947e-03 -1.256983554845568e-17
 4.639607206820237e-02  1.647419739629652e-03 -8.426000826777895e-19
 1.120494927632299e+00  3.623586225321428e-03 -1.997777484456944e-17
-1.530830576282571e+00 -4.540125938685332e-03  2.728960428992695e-17
-2.923108826585641e+00 -2.860593623540264e-02  5.231412398369259e-17
 2.134213968997689e+01  7.641874307062988e-01 -3.876605818628244e-16
-2.286981724850062e+01 -2.231830718238893e+01  6.363081762809720e-16
-7.127001138330016e+00  3.051365626873633e-01  1.236983193139330e-16
 1.807828187707858e+00  2.501334112190043e-02 -3.242946204712767e-17
-1.865461852842013e+00  1.096519668439885e-02  3.308545546193709e-17
 1.212761497416467e+00 -7.854562661021117e-03 -2.150183469952098e-17
 6.234706990890203e+00  9.958925317639222e-02 -1.119772912959502e-16
-5.561212309141302e-01  5.725564897816409e-04  9.890957859006204e-18
 1.036625461059911e+00 -3.812829770998219e-03 -1.840881116210434e-17
 1.560098459928541e+00  8.955722835574099e-03 -2.785582984781293e-17
-1.290014458296428e+00 -7.136364573170188e-03  2.303066962438970e-17
 3.009271947825408e+00 -3.751399938554851e-02 -5.316814118847938e-17
-1.979162298450479e+00 -7.431352693588461e-02  3.598509842503473e-17
 4.009119802301099e+00 -1.605678115268711e-01 -6.969729316533577e-17
-6.846755067528648e-01 -2.530618769451523e-02  1.244462923727373e-17
 5.725674518792279e+00 -5.346848877548568e-01 -9.640151490776843e-17
-3.357508161341762e-01 -1.190841616582450e-02  6.097440923784615e-18
-4.980064901587774e+00  2.367046331447660e-01  8.619414124187122e-17
-6.273659273044548e+00 -6.530903241881663e-01  1.183575161073643e-16
 6.715575065135823e+00 -3.413308230851869e-01 -1.160046186915862e-16
-1.492952443140496e-01 -3.369480212587779e-02  3.003088811310137e-18
-5.754871671064846e+00  8.496772254225560e-01  9.368468124074967e-17
 7.495942980727353e-01  9.028647971890835e-02 -1.426758547686768e-17
 3.483095359238823e-03 -3.681522034582871e-03 -2.415953132201696e-20
 1.666092420656879e+00  1.901630658065224e-01 -3.160395843291894e-17
-1.391173142664646e+00  5.513605255723818e-02  2.419108261574480e-17
-4.104515643369878e+00 -3.035723739850914e-01  7.616384778932164e-17
 4.915148502086229e+00 -7.065218184847322e-01 -8.021167553932825e-17
 5.831621571638464e+00  4.030830981692587e-01 -1.079221944829803e-16
 4.792077487959698e+00 -1.892062525772520e-01 -8.333670955322042e-17
-1.276950068460047e+01 -1.914639417710306e+00  2.469207211921307e-16
-4.264915516880090e-01  2.765142511382645e-02  7.305817541158086e-18
-4.695563679307810e+00 -3.967865031937510e-01  8.763999392633860e-17
-2.944320939726417e+01  7.204105266726812e+00  4.499574678033596e-16
 2.182127662192197e+01 -5.267329903905517e-01 -3.829236567162709e-16
 1.313463916395790e+01  1.559329704352302e+00 -2.497681177330538e-16
-1.312858443949131e+01 -6.346455722560017e-01  2.401595731457498e-16
-1.412461100625027e+01  1.760457165249715e+00  2.332762434598569e-16
 2.235774235460761e+01  2.102240222896385e+00 -4.194824490864098e-16
-5.733059972541144e+00  5.679688511612443e-02  1.014430735211281e-16
-2.666430322777645e-01 -6.015098833979402e-04  4.751411117502044e-18
 3.160219744301060e+00 -3.291177174926468e-02 -5.590172348146972e-17
 4.572926783864113e-01  4.561899414522472e-03 -8.184940547401089e-18
 7.551252766228117e-01 -2.217575889429060e-03 -1.341557026528656e-17
-1.281030508309200e+00 -2.368035747601888e-02  2.304077304702631e-17
 3.100328650783461e+00 -3.382329300728915e-02 -5.482652450097965e-17
-2.755471399406143e+00 -8.702332883403059e-02  4.993103348939760e-17
-1.644850148828060e+01  1.422796905283229e+00  2.781019830286238e-16
 7.274307894704282e+00  8.159478098599848e-02 -1.302933428263981e-16
 2.827142610632285e+00  7.031479906797006e-03 -5.038462099366105e-17
-8.655033914917528e+00 -6.773727264383124e-01  1.609864112024869e-16
-5.452795125565221e+00  1.770623129404571e-01  9.521974265050107e-17
 1.745749513334600e+01 -9.240934839371563e-01 -3.011822250912201e-16
 2.107559395459701e+01  2.222426471622283e+01 -6.034115809616136e-16
-2.137897489484224e+01 -5.752522905181174e-01  3.863748683311355e-16
-1.198092951691883e+01  1.197245608308479e+00  2.009136684188691e-16
 1.941502625742854e+01 -3.097309090548488e-01 -3.423311787511642e-16
 2.011983929776266e+00  2.893899241481403e-01 -3.877903064011581e-17
-5.877858017857334e+00 -1.316659988379558e-02  1.047387768219778e-16
-4.104473865432221e+00  5.287049580688717e-02  7.250078329094287e-17
 2.417194083143812e+00 -2.002881181938946e-02 -4.281106328181528e-17
 1.996091479300785e+00  6.824133305450041e-02 -3.622398387418805e-17
-1.901526606985460e+00 -3.877712121511023e-03  3.387977627794264e-17
 7.665964500824660e-01  4.549649641145094e-04 -1.364717286114911e-17
-2.101483593668840e+00 -2.741325668372440e-02  3.768006850545617e-17
 2.735596752882965e+00 -1.166615571027249e-01 -4.748455220255720e-17
-1.507130695102286e+00 -2.872330091507725e-02  2.711630999013119e-17
 3.997141146027158e-01 -2.425870688406314e-02 -6.864140064872468e-18
-2.589207279514935e+00 -1.446208581113667e-01  4.756395879112302e-17
 2.449989028058395e+00 -1.301206866554397e-01 -4.226353442113443e-17
-1.629448390847249e+00 -5.276832675661630e-02  2.954015318252244e-17
-8.397413237620508e-01  3.541732591902795e-02  1.458029838949217e-17
-2.754533263479368e+00 -2.598104982795287e-01  5.168966363791629e-17
 9.806445629146962e+00 -1.160509629495200e+00 -1.625935826481432e-16
-3.059029861379510e+00 -2.169135408883530e-01  5.666779316875822e-17
 7.028354307535739e-01 -1.210215078093163e-01 -1.126434283441550e-17
-1.025306696619295e+00 -4.011121563499011e-02  1.865868386775517e-17
 1.200753268731267e+00 -1.619380983934475e-01 -1.970498161096154e-17
-1.511377535209306e+00 -2.222238019752461e-01  2.918003491316728e-17
-1.551411402118128e-01  2.852947460348857e-02  2.467791663576184e-18
-1.001462268630995e+00 -1.616255117937287e-01  1.948285908513947e-17
 2.146987085445591e+00 -4.093291145290132e-01 -3.400248814002113e-17
 1.280724020666835e-01  6.209904335579865e-02 -2.917246276739417e-18
-3.289651040467532e-01  2.392757069371073e-02  5.608479332633018e-18
 5.125875258405866e-02 -1.420119649244704e-02 -7.662985108160848e-19
 7.006567986869942e-01 -1.255056027692097e-01 -1.117949896883815e-17
 5.784403415017295e-01  5.413368300575755e-02 -1.085023980463995e-17
-4.228516021122362e-01  1.333109777790281e-02  7.388176506545968e-18
 7.130456246271650e+00  1.595551996268624e+00 -1.432886915608163e-16
-1.209402219003174e+00  9.325536022020164e-02  2.056459016400442e-17
 4.083048545232272e+00  4.703136432475787e-01 -7.749502114294387e-17
-2.099293820205834e+00  1.776900454382412e-01  3.553373698652753e-17
 1.959458638776703e+00  1.620000517184068e-01 -3.653539550184824e-17
-4.616753231137504e+00  1.418175867210357e-01  8.070350662103224e-17
 6.924459479774463e+00 -1.037464010285643e-01 -1.221630596522605e-16
-4.935568669645225e+00 -4.731249077688339e-01  9.269551839118552e-17
-6.884534392048019e+00  2.607429280595902e-02  1.222505977893452e-16
-5.903593782392731e+00  2.762751705829412e-01  1.022228664031173e-16
 9.044167401253423e+00 -4.124086423395906e-01 -1.567143981939568e-16
 1.628711736944934e+01  1.908439635540587e-01 -2.918095339632448e-16
 2.837708651935942e+00  1.543687012418182e-01 -5.208649274003720e-17
-2.829487279991269e+01  7.846251805294884e-01  4.954792739904342e-16
-5.897235191599735e+00 -1.781696452725579e-01  1.067789630900729e-16
-2.978531899429518e+00  1.720773860554422e-01  5.123849541196691e-17
 4.225081647294629e+00  1.805499612478300e-02 -7.537587629831612e-17
 3.956948544618184e+00  3.665236634888420e-04 -7.042238526766319e-17
-3.885823880673160e+00 -2.100780801806539e-01  7.131134707735508e-17
-9.713422226945240e-01  3.226193127564810e-02  1.695471388777455e-17
 5.319900434827686e+00  3.189064255183842e-01 -9.795062154261086e-17
-1.651815528834107e+00  2.314486346610434e-02  2.915822261562531e-17
 6.302501736639028e+00 -2.482854066690792e-03 -1.121350258481944e-16
 5.647833153058971e+00  1.123142182852708e-01 -1.016639157356254e-16
-8.479809511076727e-01 -1.728730384607283e-02  1.526845329394318e-17
-3.445249697140542e-02  7.966811306148199e-04  6.049376656106284e-19
 9.181018236025533e-02  2.773096753433334e-03 -1.662364272578010e-18
 1.501307004113146e+00  1.420025322437001e-02 -2.686345140592024e-17
 4.067358493378158e+00  6.459455040152923e-02 -7.304718165232746e-17
 1.175486644943103e+01  4.468387750430691e-01 -2.137829762827515e-16
-2.253521663447184e+01 -2.347879448396157e+01  6.422771452634330e-16
-7.306449943744489e+00  2.729191030903567e-01  1.272228475580696e-16
 1.220018410495905e+00  1.862862515074773e-02 -2.190308526180219e-17
-4.257383284056734e+00 -2.903525771127215e-02  7.606354065298612e-17
-2.567544939506571e+00  3.277092823272304e-02  4.535581549418524e-17
 1.761272087155762e-01 -1.632090562472903e-03 -3.117624633047282e-18
 1.567912377179981e+00 -2.495803131174935e-02 -2.764643632137727e-17
 3.635981289034741e+00 -4.936691849138313e-02 -6.419939704436126e-17
 6.861220122668548e-01  1.076607166832629e-03 -1.222142140079122e-17
 3.455923778225842e+00 -1.381890456315794e-01 -6.008244377398543e-17
-3.327347311276312e+00 -2.060953413505685e-01  6.133166917337342e-17
 5.309740235825289e+00 -8.957412316850001e-01 -8.528974556183052e-17
 6.162226739472445e-01  1.531454965480502e-01 -1.253993189056201e-17
-2.136113965097792e+00  1.414880000658619e-01  3.656095825577196e-17
 3.871899546911783e+00  2.710327768304210e-01 -7.168983433786485e-17
-2.122452201787308e+00  5.320958047259455e-02  3.722485957135596e-17
 3.205748682042653e+00 -4.340952501416214e-03 -5.700552004916941e-17
-2.928529476181481e+00  6.436930696226827e-03  5.205053819535258e-17
 9.523350901624084e+00 -4.327134895080924e-01 -1.650334152504682e-16
-9.360758974962334e+00 -1.233100715134363e+00  1.792555337714359e-16
-8.490083615963247e+00  1.703518266625867e+00  1.335881340497561e-16
 8.499625404443000e+00  1.436219645819974e+00 -1.660176078737269e-16
 9.521018884007256e+00 -1.350840476496948e+00 -1.555584929378077e-16
-2.832760125675477e+00 -4.325102334508316e-01  5.485623104089517e-17
 1.286623018419267e+00 -6.287472211320851e-02 -2.225097642546788e-17
-1.384391346318123e+00 -2.128560857158399e-01  2.682391431215941e-17
-2.455026530403146e+00  3.435084332239181e-01  4.016070120617839e-17
 3.533218787937626e+00  1.474056456340467e-01 -6.439238236175876e-17
-7.483680350527152e+00  1.587775752626018e+00  1.168671996063475e-16
 1.370100339709009e+00  1.014223510995152e-01 -2.542464767113006e-17
-1.338781749667339e+00  4.165143018379323e-02  2.339726487503274e-17
 5.537168255312817e+00  2.579110945131047e-01 -1.011904568731929e-16
-1.768150429745188e+00 -1.185445929975953e-02  3.158814628460955e-17
-2.959949383385594e-01  1.029761130563342e-03  5.257002579916277e-18
 2.880331301935514e+00 -3.223573437741803e-02 -5.092772073914915e-17
 1.232087020391069e+00  1.583584835752006e-02 -2.208916580351532e-17
-3.314819540452291e+00 -3.020242028977892e-02  5.930148668115340e-17
 1.102717060245765e+00 -7.838889367439438e-03 -1.954362371504000e-17
 1.373102286487789e+00  2.515091629031797e-02 -2.469440956080448e-17
-7.131782071978406e-01 -2.227900955605599e-03  1.271474777972202e-17
 1.469359698839730e+00  4.811336169193939e-03 -2.619844328787124e-17
-1.159778090445557e+00 -2.275258532581235e-02  2.087340910408508e-17
 3.341597081871019e+00 -1.233291222835639e-01 -5.820054412927726e-17
-1.233039428176762e+00 -7.510608262725323e-02  2.271509515990117e-17
 3.073559760154009e+00 -9.848416599829823e-02 -5.368577317230994e-17
-1.924372367469520e+00 -1.479816193039351e-01  3.576695913069580e-17
-4.808568067044683e-01  1.014068379004270e-01  7.515501880611799e-18
 1.994831536839567e+00  9.906887864664826e-02 -3.651830349322869e-17
 6.017459556508483e+00 -5.776248626194056e-01 -1.011529850936616e-16
-1.251469188538602e+00 -9.700617065445241e-02  2.326809018724480e-17
-1.121055231532261e+00  1.099301740630330e-01  1.882102244985253e-17
 1.954954263068428e+00  1.908925966223709e-01 -3.675209513269250e-17
 3.336555317875534e-01 -1.040587347306298e-02 -5.830881614641623e-18
 3.835504076965510e+00  4.905049216595003e-01 -7.329713003550707e-17
-1.874342470951084e+00  1.614352639614523e-01  3.169747135857368e-17
 1.611295453989219e+00  8.764284739718617e-02 -2.957542304539244e-17
-8.611206296145241e-01  2.055289115693405e-02  1.511349527841248e-17
 1.358548834811965e+00  6.428573485103381e-02 -2.483750962389570e-17
-3.939046833851546e+00  1.582192499186497e-01  6.847439176222133e-17
 2.915339005435279e-02 -1.243928058331116e-02 -3.910102644837840e-19
 2.449384279966318e+01  6.294770339527882e-01 -4.423647977825923e-16
-7.577106258648127e+00 -2.403357908829577e+01  3.817799385883123e-16
-2.645803240871222e+01  1.038096058074659e-01  4.697856410142597e-16
 3.319064869566040e+00 -1.935258919018012e-01 -5.707831024053369e-17
 7.152558719860714e-01 -6.518988800304671e-03 -1.266185120388972e-17
-5.174603810515415e-02  5.468347579990979e-04  9.152639348149357e-19
 7.431685550094446e-01 -9.017671675611235e-03 -1.313291763142536e-17
 8.169421284495125e-01  1.061222245003475e-02 -1.464749639065982e-17
 3.332864735487263e-01 -5.301010217973539e-03 -5.876764393130579e-18
-1.289335429987755e-01 -5.473740982037186e-04  2.300150258730726e-18
 5.339152232852701e-01 -7.606544564251296e-03 -9.423503795599530e-18
 4.596908230637836e+00  5.458470787093311e-02 -8.236830338603943e-17
-3.728978923509843e+00 -1.162928410874306e-02  6.648111471786435e-17
-5.163990119540257e+00  3.398653810198850e-02  9.155016466802401e-17
 1.298348892862001e+01 -1.413154458609665e+00 -2.165370240701562e-16
 1.546862729346558e+01  1.376410634311553e-01 -2.766968862456406e-16
-2.480616710590676e+01 -1.126122725170190e+01  5.571603528999784e-16
-1.307516458636730e+01  8.391044879073634e-01  2.240666566564659e-16
 1.939700277288615e+00 -1.957810986776762e-02 -3.431812222649047e-17
 1.974146145065128e+01 -4.669650157056784e-02 -3.508430656038383e-16
 3.711205778758611e+00  7.998894976277128e-03 -6.612751945972698e-17
 6.126508557505693e-01 -2.868713615628090e-03 -1.087337778346583e-17
-8.165738640812482e-01 -3.490094725252007e-03  1.456776541365330e-17
-6.837458393627381e+00  1.345704335629274e-01  1.202980658225948e-16
 8.032436761307288e+00 -1.343328161371143e-01 -1.415665727156589e-16
 1.171230235994149e+00  7.901305608713258e-03 -2.092462219196507e-17
-2.745192681235200e-01 -1.392132032378635e-04  4.886828198746822e-18
-1.693044534341402e-01  4.503949593343778e-04  3.008347058196504e-18
 1.102536757118137e+00 -1.417868454330480e-03 -1.960638866300932e-17
 7.464552014205260e-01  2.938693374716155e-03 -1.331425472387980e-17
-2.515140936791616e-01 -1.006959964281413e-03  4.486339459049840e-18
-4.274550701481728e-01  3.483570719040086e-03  7.571280442277182e-18
 1.473410454688110e+00  5.086744438529576e-03 -2.627336104735605e-17
 4.613538855022650e-01  2.141496289425837e-03 -8.232345811187686e-18
-1.573779041854068e-01 -7.114395523168918e-04  2.808037313010491e-18
-1.017779032965198e-01 -1.238750516408855e-04  1.812531966092199e-18
 2.685013049719926e-01  7.328785177426628e-04 -4.785831060882070e-18
 3.257753842728678e-01  9.134929506566375e-04 -5.806947376098124e-18
 3.086016376186707e-01  1.086305516934003e-03 -5.503095657755643e-18
 3.171439079603228e-01  1.019279874788225e-03 -5.654426876463570e-18
 1.997438971695016e-01  6.152107386383031e-04 -3.561001979689041e-18
-1.736525147460019e-01 -2.608384635223470e-04  3.093033661732735e-18
-2.758311597853398e+00  4.922801297597125e-03  4.903686512655809e-17
 1.398433252453099e+00 -5.689241956912978e-03 -2.482833294034110e-17
 3.724893886842531e+00  7.698386946439000e-02 -6.707991134569365e-17
-3.681302371760210e+00 -1.725046074667885e-02  6.569040914180452e-17
 2.826938061140160e+00 -5.997710749900059e-02 -4.969249190539394e-17
 4.412652457182340e+00  6.313808749676447e-02 -7.917713498985971e-17
-3.826105790522897e+00 -5.901065952282270e-02  6.869642957571214e-17
-5.131039887835469e+00  9.723090640445403e-02  9.031396309768307e-17
 9.620517655278835e-01 -5.319935080656922e-03 -1.706619834507659e-17
-1.449170439343978e+00  4.061125955351686e-02  2.537245067045799e-17
 2.092273026131311e+01  2.632353756464453e-01 -3.750495903815020e-16
-1.285649844383071e+01 -1.662413952993211e+01  3.996037201042382e-16
-2.082232899170307e+01 -2.149809092452559e-02  3.707790672562562e-16
 2.162780421317758e+00 -8.242455072330161e-02 -3.764237513751889e-17
-6.431050057095891e-01 -1.029738695638786e-03  1.145540087334049e-17
 3.446521794866628e+00 -1.287996395005819e-01 -6.001159700481991e-17
-1.088348838043890e+00 -1.541738880806497e-02  1.952687386986268e-17
 1.640897034458003e+00 -8.137685410506054e-02 -2.836560245266377e-17
-1.316673125204343e+00 -4.015360115521308e-02  2.384433251285872e-17
 1.925491807983322e+00 -1.410984880265923e-01 -3.281668782540939e-17
-1.522605961725429e+00 -6.756582943620992e-02  2.779080367933143e-17
 1.140817747205682e+00 -5.616857886851308e-02 -1.972510087918521e-17
-2.209463379193839e+00 -1.030615076664290e-01  4.037895592356846e-17
 1.051536879408619e+01 -4.869009533433105e+00 -1.371062271536292e-16
 2.450513723976802e+00  2.487807248059704e-01 -4.616594638445220e-17
-2.850681425779789e+00  4.597665124884239e-01  4.600734252790531e-17
-7.479193040840289e+00 -7.829879885764455e-01  1.411460788115570e-16
 1.169249200256466e+01 -8.669736103283499e+00 -1.190034533021694e-16
 3.192944528387607e+00  7.434368585108829e-01 -6.446080021675458e-17
-4.584476335481907e-01  2.891969864293841e-02  7.861483097249196e-18
-8.137334198793360e-01 -2.801046040212474e-01  1.735932991542658e-17
 3.172020003297753e-01  6.083064692340034e-03 -5.707489243545838e-18
 2.184217419129890e-01 -9.980253649362324e-02 -2.861640617120585e-18
-3.709690441084240e+00  1.559657158517176e+00  4.999345575383586e-17
 1.861648609479311e+00  1.633546781377725e-01 -3.480866763755401e-17
-1.760873949671337e-01  5.074068201915474e-02  2.612343151696705e-18
 1.319898276084756e+00  1.220788530827610e-01 -2.474348012430108e-17
-3.118006713654927e+00  1.055776723732034e+00  4.464092644102738e-17
 3.471539219951000e+00  1.423091313503043e-01 -6.324235606178412e-17
 2.009286285781541e+00 -5.476780604307113e-01 -3.013045318361168e-17
 2.277814443270534e+01  8.213682050319028e+00 -4.897568502023119e-16
-9.688992168455488e-01  1.198520462643343e-01  1.601128108255035e-17
 7.165304675342050e+00  6.267880601716678e-01 -1.339551634606522e-16
-3.115122607957029e+00  6.836928671620351e-02  5.473485304133675e-17
 7.002423288577725e+00  3.292030963465389e-01 -1.279989174086303e-16
-1.864775606353662e+00 -5.175003392569903e-02  3.371761909214508e-17
 7.151756334491528e+00 -6.984667959635991e-02 -1.265563855765569e-16
-1.713847354044823e+00 -9.877432350317529e-02  3.151482830860415e-17
 1.197567050469152e+00  5.014293267849385e-03 -2.136365420863281e-17
-1.235502157214520e+00 -1.065930020378033e-01  2.308243908649766e-17
 8.710354101328029e-01 -3.582264291007259e-03 -1.546430766907177e-17
-3.999349956546296e-01 -3.726397995766778e-02  7.500194175990264e-18
-2.895859560456963e+00  2.618012786063232e-01  4.884536209551332e-17
-7.373170942256282e-02 -1.126633113113948e-03  1.323719465250523e-18
 2.322376024193572e+00 -1.230115805031781e-01 -4.006555230421861e-17
-2.761115386743556e-02  6.910188851068520e-04  4.842734433126193e-19
-1.474386428396740e+00  6.476047799155155e-02  2.557307481508740e-17
 3.636871952556469e-01  1.548419878249553e-02 -6.631341968218624e-18
-4.390626656109001e-01  9.443903740671802e-03  7.716611316236620e-18
 7.144332122083894e-01  6.988871351213463e-02 -1.343227237743995e-17
-3.067985157297598e-01 -6.998368135486086e-04  5.467036118723339e-18
-4.662269775934405e-01 -3.584925789787471e-02  8.665403302271060e-18
-5.255844559295935e-01  2.770626588022250e-03  9.324935151560609e-18
-2.629548121059731e+00 -1.574417787933927e-01  4.841360252110737e-17
 1.797077591332825e+00 -1.738174397412836e-01 -3.019522830696267e-17
-2.523080509252884e+00 -1.428987586672195e-01  4.636946013577478e-17
-5.811864861530589e+00  2.665364231901973e-01  1.006905029309843e-16
-1.147228123198762e+00 -6.221457462813126e-02  2.105552507355965e-17
 7.978556681738752e+00 -6.066255563741161e-01 -1.357550761118072e-16
 3.328830120328874e+00  1.413410157658066e-01 -6.069273034117922e-17
-1.448027287064963e+01 -1.482295199190819e-01  2.592167328975430e-16
-4.284171940587551e+00  2.540703906564467e-02  7.598090192516094e-17
 2.498653455108643e+00 -4.580351085253935e-02 -4.399590429426204e-17
 4.343691241238721e+00  5.479654974868095e-02 -7.786418162326410e-17
-2.180857552663520e+00 -3.491179665431075e-02  3.916966760268806e-17
-2.269756485092125e+00 -9.705283938905939e-04  4.040299595131136e-17
 2.744470088020787e+00 -3.822798630338266e-02 -4.844834025830902e-17
-2.919342629959195e+00 -7.904083065818901e-02  5.276530022285439e-17
 2.241054205250620e+00 -7.377313354620416e-02 -3.912424067721383e-17
-9.840559088887240e-01 -3.012565723916034e-02  1.782197890842930e-17
-3.368433925562178e+00  2.649490149705270e-01  5.722304483839759e-17
 2.043262936794081e+00  9.351345029599217e-02 -3.732311798090290e-17
-4.719386249356441e-01  5.642697388323937e-03  8.340734120701180e-18
-2.323931891487762e-01 -8.814311669158328e-03  4.226277880020941e-18
-4.913395621424499e-01  9.272338000644659e-03  8.648703709641543e-18
 2.605284342844089e-01  3.875125070677805e-03 -4.676229773879189e-18
-7.458103867884306e-01  2.306672697575477e-02  1.303558324187657e-17
 1.391563193951798e-01  2.705676050851811e-03 -2.504252534104645e-18
-1.166271389992160e+00  2.352204460424154e-02  2.051351007157508e-17
 9.847732981881697e-01  1.661001987603698e-02 -1.769587743645591e-17
-7.635089939651029e-01  1.176446813245682e-02  1.346667765055540e-17
 1.906106387365875e-01  8.619398658939310e-04 -3.400999807552059e-18
-1.882958604230050e+00  2.846625189081937e-02  3.321701418299144e-17
 8.101317985885576e-01  2.037828984576347e-03 -1.443819966415691e-17
-6.803833102163751e-01  1.712156197176802e-03  1.209064081164102e-17
 1.307796118698223e+00 -1.546638911456344e-02 -2.311488036270254e-17
-8.160172386329891e-01 -3.338785634567483e-03  1.455630494407349e-17
 6.754845651513675e-01 -1.524778749089112e-02 -1.186438811909388e-17
-3.654588582064971e+00 -1.119149981742367e-01  6.618764910542430e-17
 1.520165941101406e+00 -4.006746118344650e-02 -2.664148763326051e-17
 6.221380297485499e-02  8.884196039853883e-04 -1.116297003960618e-18
-2.974363652187788e+00  1.701996869931008e-01  5.118360920899351e-17
-3.943586246609459e+00 -1.254564461166714e-01  7.146984078307534e-17
 3.175700847968137e+00 -1.625877546384730e-01 -5.484485459495726e-17
 2.204428099419558e+00  2.526987374902843e-01 -4.182681529947843e-17
-2.132385124674840e+00  1.918810381213164e-01  3.597682889652307e-17
-1.530963526786590e+00 -5.462094687279916e-02  2.780653254697064e-17
 4.781645500317600e+00 -6.394466560502633e-01 -7.852500335817024e-17
-8.395670253729624e-01 -3.135528526053337e-02  1.526326085152126e-17
-1.727495532280269e+00  1.144185602365445e-01  2.956723445606627e-17
-8.892948101969358e+00 -1.955332928663111e+00  1.783509548920559e-16
 4.611052522170003e+00 -4.507811824972315e-01 -7.742756694629290e-17
-1.491682402374804e+00 -3.177662134621198e-01  2.981120009484237e-17
-2.951964530183958e+00  4.666861991871390e-01  4.773869888764790e-17
-2.624652900445971e-01  5.752445696266815e-03  4.611778641091346e-18
 2.647592693376340e+00 -3.151924723608769e-01 -4.387858192462180e-17
-2.616537839063964e+00 -7.613264678766983e-01  5.438676490072165e-17
-1.587651972673410e+00  4.843241124733160e-01  2.327790642895305e-17
 1.066232775080401e+00  3.799539079972810e-02 -1.936527292640934e-17
-7.378456172771347e-01  1.456968319180955e-01  1.163386088831303e-17
 1.379722618463812e+00  9.676855397827018e-02 -2.554807152564978e-17
-1.268604255586502e-01 -1.859226816201178e-02  2.448661446250180e-18
 3.102226667108321e+00  6.077905812540516e-01 -6.145265145132833e-17
-2.774462345558961e-03  1.160289103121641e-02 -6.984062340926896e-20
 3.042728763070415e+00  3.288025737409703e-01 -5.752731483769078e-17
-2.540256066104667e-01  6.857317298674795e-02  3.816124240578494e-18
 2.634458802796562e+00  2.928637698635929e-01 -4.989240573828182e-17
-7.871191162157876e-01  6.567292847257086e-02  1.333295810036785e-17
 4.276668079441387e+00  6.027554032510047e-01 -8.230150276092707e-17
-1.147259898774965e-01  2.536602629422070e-02  1.781059135108724e-18
 2.132604236264001e+00  1.702968478627005e-01 -3.970197449937893e-17
-1.183394041250350e+00  1.063262988613986e-01  1.996744447155066e-17
 5.808006477778804e-01  8.916206721502267e-03 -1.042765111514022e-17
 1.713551865445166e+00 -1.544042587252328e-01 -2.890825171928918e-17
 2.214051284163715e+00  1.354121930458053e-01 -4.079299471616760e-17
-2.245930894706246e+01  4.878334635310230e-01  3.946778815357835e-16
 2.742045759028488e+01 -7.722347727965240e+00 -4.086354337669590e-16
 1.596713337203901e+01  1.954886874279184e-01 -2.861627599423688e-16
-1.538674435781358e+00 -2.048921369894305e-02  2.759306619984351e-17
-1.376875491706226e+00  1.760182033069837e-02  2.432228946642792e-17
 3.094807139104806e-01 -2.091998888253458e-03 -5.486083937126326e-18
-1.188510858624287e-01  7.559235585084235e-04  2.107330000635397e-18
-1.087317346647254e-01  5.648945270239468e-04  1.929206815010041e-18
-7.544174674060152e-01  3.971049443488629e-03  1.338495765680992e-17
-1.019181755982689e+00  9.390004351872724e-03  1.804107616893714e-17
-3.365046618346407e-01  3.019024449625054e-03  5.957482474816217e-18
-3.407658481406534e+00  3.710813693060554e-02  6.026207479212788e-17
-3.156786918727938e-01  4.123724476724110e-03  5.575509108252688e-18
 1.399513959770891e+00 -1.542809275143727e-02 -2.474750226348374e-17
-2.540061930060689e+00 -2.015171437391090e-02  4.541048348535392e-17
 1.001738339262878e+00 -3.387742188292175e-02 -1.747905046090267e-17
-7.373118273914646e-01 -1.691122629088532e-02  1.329510016407729e-17
 2.727800790091373e+00 -2.096067848422456e-01 -4.639083534866703e-17
-8.222201511711239e-01 -3.862000224626459e-02  1.502919486355934e-17
-1.193393468118869e+00  1.012265727146576e-01  2.019779403197754e-17
 8.581590140331854e-01  2.632438918822995e-02 -1.554243683985714e-17
-1.940524335360616e-01  4.530283793762231e-03  3.406847513018710e-18
 8.221674450455353e+00  7.924461537104861e-01 -1.544566003784618e-16
-1.907400199413120e+00  5.863319471478081e-02  3.334202699435647e-17
 1.064421954206080e+00 -1.669629712374924e-03 -1.892550352532271e-17
-4.791185244634819e-01  5.471889473270982e-03  8.470263980050088e-18
 8.646788978119655e-01 -1.036807938331896e-02 -1.528146416204328e-17
 3.967926359147951e+00 -2.684708881174763e-02 -7.033813859773824e-17
 7.769787257079387e-01 -3.933149027875745e-03 -1.378685156063955e-17
-4.088134608803854e-01  2.511269774118763e-03  7.249520803119907e-18
-1.685484871795824e+00  3.516538144998579e-02  2.963390229326447e-17
 8.728888965465156e+00 -7.012843673170227e-02 -1.546204471212823e-16
-2.969852841383097e+00 -2.666584937815381e-01  5.559189303159073e-17
-1.894117512648541e+01  1.469502174406468e+00  3.219822042228222e-16
 2.462720841079734e+01 -3.405402842835730e+00 -4.032812729444402e-16
 1.923106418607007e+01  3.904378095904744e+00 -3.823557934031027e-16
-1.201663665553130e+01  1.039125414180773e-01  2.127827196315802e-16
 9.537298465823162e-01  1.212921574196933e-02 -1.709738355505491e-17
-1.571905288441702e+00 -1.783143996836392e-02  2.815714121208622e-17
-3.067066676001884e+00  4.242169297163138e-02  5.414624275244021e-17
 3.156765924322655e-01 -3.755651287613211e-03 -5.579253553432769e-18
-6.277797205588462e-01  9.449943780077146e-03  1.107499422173674e-17
-5.839374430970327e-01  1.007156644599835e-02  1.028838165883326e-17
-7.078030463863090e-02  1.208917651856470e-03  1.247198762548295e-18
-9.994301972044094e-02  1.729090204593571e-03  1.760839478732201e-18
 4.072959669989727e-02 -7.072108051886020e-04 -7.175654239121639e-19
 1.931675604748002e-01 -3.308176721145811e-03 -3.403656842124954e-18
 1.673343332161122e-01 -2.753536582998104e-03 -2.949622475240509e-18
 6.230820170503144e-01 -9.857138202247397e-03 -1.098720921147109e-17
 1.263297599850181e+00 -5.653743292745162e-03 -2.242379754704318e-17
-1.178215554255707e+01  2.350986224334493e-01  2.072619591978316e-16
-2.960193869509665e+01  1.273585109817049e+01  3.959455668211978e-16
 4.914410588716860e+00 -2.164187439773367e-02 -8.723543615420073e-17
 9.250494098040545e-01 -8.839287442893721e-03 -1.637153721715741e-17
 4.258699138055692e-02 -4.793652524436381e-04 -7.529610100242067e-19
-5.101621443641383e-02  5.658935093981169e-04  9.020800400027613e-19
-3.029906769605994e-02  7.917083559040623e-04  5.310735401081859e-19
 1.789079490971483e+00 -1.949530037532758e-02 -3.163849650151254e-17
 1.015951949664479e+00  1.267634336320784e-03 -1.809310129195012e-17
-1.528535422773892e+00  8.050322796047740e-03  2.711939700864529e-17
-6.459029061662801e+00  5.819119148213448e-02  1.143482334163083e-16
 8.180081597512828e+00 -5.943487559903204e-01 -1.394675920258479e-16
 3.179352924699274e+00  2.141846404043973e-01 -5.878104713746346e-17
-1.183362302647207e+00  5.967835375438557e-02  2.044617034223613e-17
-6.592591470522230e-01 -2.769229309430759e-02  1.201683117342476e-17
 1.551032173140639e+00 -9.659587773552952e-02 -2.660998010452173e-17
 6.121565716514834e-01  3.055688047348993e-02 -1.120801726620553e-17
 3.372939352471079e-01 -5.855486673048704e-03 -5.942384918057295e-18
 1.495365008873349e+00  5.978801479510468e-02 -2.722610419926653e-17
-1.315279877276184e-01  3.118248905187378e-02  2.020308722691775e-18
 5.438626899231606e-01  1.460657547764911e-02 -9.828762548578814e-18
-1.583106021389538e+00  7.488336030429166e-02  2.740386072311217e-17
 3.365158351902022e+00  1.691332119161782e-01 -6.162478929937508e-17
-9.518831894526680e-02  6.377453341474734e-03  1.628463666069876e-18
 2.282906548980284e-01  2.523810224441007e-03 -4.088635744518380e-18
-6.628876100463803e-01  1.320509944217149e-02  1.166119814690341e-17
 2.407517668938038e+00  5.655212659906697e-02 -4.342570124153101e-17
 1.444566352764454e+00 -1.858680043252705e-02 -2.551680875712397e-17
-2.021253178275766e+00 -9.753971416880589e-02  3.697279642246075e-17
-1.781039019922096e+00  3.592685976331850e-02  3.132657842809304e-17
 1.870318205172322e+00  1.454671668952360e-02 -3.343400569017922e-17
 1.259740628106435e+00 -1.448455661223606e-02 -2.226976361716985e-17
-3.973208455853401e-01 -4.847836979700529e-03  7.120608156617609e-18
-2.075227829840298e-01  2.529583198256646e-03  3.667124924592120e-18
 1.431699657950601e+00  4.306038317004965e-02 -2.592123311791747e-17
 8.967769878188370e-03  9.895366136883513e-04 -1.697592787839396e-19
 2.536140485837085e-01  3.477839370658302e-04 -4.516937878258482e-18
 1.773893952305627e-01 -2.576995431552996e-03 -3.130378200579324e-18
 8.528305806774649e-01  1.321279182708715e-02 -1.531289409731140e-17
-2.077253476891837e-01  2.003924364163536e-03  3.676130763916633e-18
 2.461503685609963e-01  4.360056517686695e-04 -4.385019236548842e-18
 6.412539682194549e-02 -6.388901884031319e-05 -1.140531489748896e-18
 4.336924095724261e-01  6.352342591234253e-05 -7.718726416657525e-18
 3.456750590573300e-01 -1.566600102115494e-03 -6.135603767940612e-18
 1.330681989537791e+00 -9.016071460759506e-04 -2.367180962008824e-17
 2.437548889594028e+00  5.583630313829782e-02 -4.395278783455088e-17
-1.994003812554301e+01  1.231235362357953e-01  3.535917141712491e-16
-2.438590167337776e+01  2.053694355960004e+01  2.229665745582290e-16
 6.402487467064085e+00  7.846203599935878e-02 -1.147460705528874e-16
 4.232597516195614e-02 -1.523372655905151e-04 -7.516760139553979e-19
-6.208106411709406e-01  2.865827674347763e-04  1.104512135607371e-17
 5.737988063939591e-03  1.346835312624388e-05 -1.022527248964584e-19
 7.722074896204320e-01 -4.554012778633926e-04 -1.373767431083299e-17
 1.150811336368825e-01  7.477276346798404e-04 -2.055688679264161e-18
 4.816496125644097e-02 -1.714578077428402e-04 -8.553912733140772e-19
-2.092628057889124e-01 -2.718100116267497e-03  3.752008752036898e-18
 2.046912596484575e+00 -2.903595747557202e-02 -3.612891743656907e-17
-2.123678979979451e+00 -4.723472305885158e-02  3.827872028641618e-17
 1.418232766745653e-01 -2.301730385549116e-03 -2.500264936846070e-18
 1.217812915726918e+00  2.319668728340775e-02 -2.191077103167859e-17
 1.359288251643426e+01 -5.416035431762629e-01 -2.363367788430084e-16
-2.117029358348215e+01 -3.987465866997304e+00  4.177203903750753e-16
 8.016009300140082e-01 -1.063434465764431e-01 -1.317280445144615e-17
 7.295392857651729e-01  8.427745834503610e-02 -1.384894211545342e-17
-2.324882478374472e+01  4.381528324323656e+00  3.687219573804300e-16
 1.054049102818477e+01 -9.225770846607090e-02 -1.866326965593548e-16
 4.297190616943356e+00  7.871544932183823e-02 -7.728240555601015e-17
-1.787608566549907e+00  4.338185654622394e-03  3.176805346629140e-17
 9.552738396101622e+00 -1.137641463342960e-01 -1.688334894090003e-16
-1.031847568466576e+01 -8.700874561170531e-01  1.925694156676511e-16
-6.005939329750862e+00  1.291617297539398e+00  9.361195599893358e-17
 1.682262334111252e+01  5.627753748483358e-01 -3.051609616495608e-16
-1.180302592670068e+01 -1.976538788470910e+00  2.303571435714658e-16
-1.957207396316366e+01  3.975355549130890e+00  3.074630684626819e-16
 1.365553323461102e+01 -4.487096362479019e-01 -2.384061743068140e-16
 4.137726428105014e+00  2.978241111389004e-01 -7.669581198898173e-17
-3.009599102733276e+00  7.243969322691894e-02  5.281511447654351e-17
 1.357516567941387e+00  3.325135745391360e-02 -2.450027224909898e-17
-1.899187588105160e+00 -1.078528010331336e-02  3.390912339919822e-17
-5.852237896594804e-01 -1.433746765999767e-03  1.042948664511324e-17
 3.791112741102242e-01  5.348765647689466e-04 -6.752233008728755e-18
-3.161662385092074e-01 -1.416730281763176e-03  5.641111746661084e-18
-2.556212258213637e-01 -5.608266784529778e-04  4.554846921665454e-18
 1.372867568607856e-01  2.889895977942761e-04 -2.446150862788578e-18
 6.641428712681804e-03  1.438769776399094e-05 -1.183399740940639e-19
 1.062276937484507e-02  2.597417495336680e-05 -1.893117261540097e-19
 7.976771319324588e-01  4.499547831855185e-03 -1.424184717217563e-17
-1.649566048226049e-02  2.386536334908980e-05  2.933147736181527e-19
 3.222238285290497e-01  9.175498385047661e-04 -5.743784884049284e-18
-2.461135753183991e-01 -1.769406818291781e-03  4.398064652690313e-18
 1.425764597520388e-01  2.075304311117888e-05 -2.537531395990958e-18
 3.422845977100789e-01  1.690114067761639e-03 -6.108728013411533e-18
-7.250660129026024e-02 -2.554341815579853e-04  1.292965953120690e-18
 1.267354083125369e-01  4.440868690523306e-04 -2.259970596840680e-18
-1.807912075536250e-01 -9.680348358647168e-04  3.227341388088964e-18
 5.824791034804155e-03  1.664409098361783e-05 -1.038301168706924e-19
 5.045002228115483e-02  2.187554207398775e-04 -9.000659591103899e-19
-1.466916891727499e-01 -5.262412885490746e-04  2.615960524889234e-18
-1.405920287812935e-01 -4.988731775933416e-04  2.507128590211531e-18
-8.059983702099072e-02 -2.735598978311854e-04  1.437180984036160e-18
-2.454666906772604e-01 -1.057553504709651e-03  4.379238549769753e-18
-1.515583822149238e-01 -4.245007161842215e-04  2.701523784918438e-18
 1.865415388857313e+00 -7.234662445430575e-03 -3.312295844403066e-17
 1.114356777974673e+00  3.809814182347104e-03 -1.987045257091595e-17
 5.902687871241894e-01  2.129828455134044e-03 -1.052642037486171e-17
 4.856920121342752e-01  1.895277431872122e-03 -8.662941998164168e-18
 1.121967213220038e-01  3.224054773244680e-04 -1.999987088478071e-18
 1.048257547186068e+00 -2.249626971613214e-04 -1.865268201543843e-17
-3.179772059458523e-01 -1.923437655311240e-03  5.678546282978413e-18
 2.557951084721441e-01 -3.894731193626431e-04 -4.548177383970487e-18
-9.793526693398295e-01 -1.265768984205598e-02  1.755880210429051e-17
-5.114010452258600e+00  1.273900131579765e-01  8.970102998547809e-17
 1.039924902037105e+00 -4.679770764550156e-04 -1.850189580142461e-17
 9.233162610062080e-01  2.797761454629151e-03 -1.646026023548927e-17
 1.763690091666361e-01  1.240048612866267e-03 -3.151437948269147e-18
-1.681213363592720e+00 -7.248574298990699e-03  2.999367369673468e-17
-4.409045967762790e+00 -2.510024583930999e-03  7.849002188800118e-17
 1.349981431227909e+00 -1.437924785134783e-01 -2.254711440381613e-17
 3.036807664808214e+01  9.801087721078622e-01 -5.505064098812561e-16
-2.781534755945944e+01 -1.537417657987076e+01  6.529713684323798e-16
-2.467204551093688e+01  3.151930870017830e+00  4.066835350732476e-16
 5.714823521632148e+00 -4.254807506016794e-02 -1.012649354407307e-16
 1.849571535449087e-01  2.651787695517352e-03 -3.318779318403554e-18
 2.580959640225408e+00  1.973081957760257e-02 -4.613398241648727e-17
-4.894608469956798e-02 -1.518622933815313e-04  8.726142942747510e-19
-4.284728955721986e+00 -5.401433447925687e-02  7.680684044217821e-17
-1.477628161434185e+01  1.154399803143802e+00  2.511005184419968e-16
 1.965951258566881e+01 -3.021808159069261e-01 -3.467596790660369e-16
-1.763449768203624e+01 -2.788139368679012e+00  3.424740407483054e-16
-9.115137135197221e+00  2.190713319403066e-01  1.599638598997495e-16
 2.785249746200599e+00 -3.732567283398874e-02 -4.918333388797240e-17
 5.493961122008625e-01 -2.935204730337894e-03 -9.747000993821222e-18
-2.993644614162856e-02  8.768864331322183e-05  5.318537908298023e-19
-4.455214411405200e-01  2.517424745837747e-03  7.902719858817524e-18
 7.041266010204805e-01 -3.783472577785120e-03 -1.249189896527444e-17
-9.797089852619785e-02 -2.010452559103223e-04  1.745574670162351e-18
 5.088310140619599e-01 -4.685351817363576e-03 -9.007114565145336e-18
-1.193628983383902e+00 -2.004895271129711e-02  2.144804727740348e-17
 1.000042816955093e+00 -1.302808554142974e-02 -1.766309597648599e-17
-1.796142141241270e-01 -2.490110859861931e-03  3.222034177940652e-18
 2.807669821925888e+00 -1.091401365038279e-01 -4.884445833617259e-17
-2.491076244554012e+00 -3.824883445025763e-02  4.472466611250023e-17
-1.971005814531360e-01  3.229691999094073e-02  3.175800836680276e-18
 1.786351646009053e+01 -6.872055788877089e-01 -3.108417961081327e-16
 1.230222568591487e+00  2.122983452052705e+00 -4.370616188162876e-17
-1.665557630600753e+01  1.676178094625900e+00  2.791837268409651e-16
 7.972751586870576e+00 -1.474875100679105e-01 -1.403692441447323e-16
 2.900499183992888e+00  2.563997922355067e-02 -5.188128429720333e-17
 6.745067165190999e-01  7.322356096507119e-04 -1.201117505597394e-17
-8.706719535907828e-01 -1.312460283911959e-02  1.562949650623733e-17
 1.287827367269853e+00 -1.931377760425967e-02 -2.271998212791000e-17
 9.193780051183882e+00  2.259534419886152e-01 -1.659358723873924e-16
-5.934059971630852e+00 -1.278685311742906e-01  1.069174783009976e-16
-8.185595241994598e-01  3.618703434829344e-02  1.419543451394893e-17
 7.771987125944093e+00 -3.295148460666276e-02 -1.379732171327241e-16
-8.538387418378457e+00 -9.762132958692133e-01  1.619810260480690e-16
-9.284653389475624e+00  1.275997935279316e-01  1.639204406737622e-16
 1.825384473870485e+00 -4.024241770576008e-02 -3.207141788846783e-17
 2.505739265565675e+01 -2.595140738613614e+00 -4.192620634944977e-16
 5.727349585495934e-01 -2.935806118306542e+01  2.914509119401338e-16
-2.288372175685640e+01  2.509715154832171e+00  3.814567138435015e-16
 1.563441466011648e+01 -3.502941064830917e-01 -2.746339135921851e-16
 5.037858972236993e+00 -2.624947795633772e-01 -8.695767129697159e-17
 2.343853744217807e+00  3.328306791296372e-02 -4.205364466601854e-17
 7.623949865006489e+00 -1.453310881480396e-01 -1.341840579024589e-16
 2.796056677855615e+00  3.213762730820545e-02 -5.008936629062951e-17
-1.015393216183715e-01 -1.843455431187170e-03  1.825954179515952e-18
 7.036617519739326e-02  7.244367858005599e-04 -1.259693344840475e-18
-8.973376209150353e-01 -1.305042278545449e-02  1.610328173328905e-17
 7.143522736590480e-01  2.960631451559789e-03 -1.274317022646610e-17
 4.764738173742652e-01  5.745579713910950e-03 -8.538453681326988e-18
-3.694014423967794e-01 -3.974858293812807e-03  6.614779493558094e-18
-5.180407624761134e-01 -5.668943469703559e-03  9.277399642256454e-18
 4.928029171062274e-01  3.292553061261537e-03 -8.803845534074299e-18
 2.557034761280496e-01  3.259669065191297e-03 -4.584040289498804e-18
-1.101870819009193e-01 -7.578159410217162e-04  1.968696861788252e-18
-6.389998221426706e-02 -8.614182167477311e-04  1.146027131232922e-18
 2.710071999162414e-02  2.471509552641705e-04 -4.848290281168569e-19
 6.332088947506050e-01  8.888389112495284e-03 -1.136003263514059e-17
-2.026005940286262e-01 -1.744223623539098e-03  3.623440491613937e-18
 1.372991438885727e-01  1.410240026456703e-03 -2.457891745723150e-18
-7.616725265641602e-02 -7.767297632855036e-04  1.363467728648707e-18
 1.580057930226348e-02  1.754697486402035e-04 -2.829930442210126e-19
 1.216235557840264e+00  1.227836302117435e-02 -2.177051824024241e-17
 2.152425289915948e-01  2.676227000981415e-03 -3.857994828936682e-18
 7.240755197270466e-01  3.373533658704102e-02 -1.323240591481742e-17
-1.873596323647469e+01  1.121449128992366e-01  3.322765666261498e-16
-1.085852479523314e+00  3.242226966761161e+01 -3.138030026350587e-16
 2.509388920502609e+01 -2.072160692068451e-01 -4.444466216402600e-16
-1.332801230526284e+00 -7.183258195932461e-02  2.445684140830481e-17
-4.601073845412442e+00 -7.144571219761005e-02  8.261567617730781e-17
-1.349435179920134e+00 -4.097093109030036e-03  2.405690483449851e-17
-1.568046430420561e-01 -2.857938932042173e-04  2.793462095255512e-18
-4.993915559412300e-01 -3.186943825658276e-04  8.890542906921147e-18
-3.109428583216063e-01  1.865628915451625e-04  5.531682199769194e-18
 1.224717256155302e-01 -3.822079310412944e-04 -2.175603396433436e-18
-1.979389565181553e-01 -1.772508837749994e-04  3.524381030243858e-18
-6.723130275480688e-01  3.941843225380995e-03  1.192411128281462e-17
-5.213367457943945e-02  3.283502218752209e-04  9.244072468966183e-19
-1.055831219099850e-01  7.704604075686376e-04  1.871061394797866e-18
-5.179884465284267e-01  4.575386134201590e-03  9.171211833409816e-18
-8.515143010245586e-02  7.650432733460158e-04  1.507510728486510e-18
 2.298897303946703e-02 -2.061881405292960e-04 -4.069976900924978e-19
-6.396037104655514e-01  4.912259205393903e-03  1.133203929722664e-17
-1.844510903018357e-01  1.744719433363938e-03  3.264600814005859e-18
-1.758919735800288e+00  1.962279512956115e-02  3.110045774143616e-17
 1.316759577222276e+00 -8.512168690272613e-02 -2.255871220756148e-17
 1.663877828957149e+00 -1.768328898501230e-02 -2.942900134107639e-17
-3.672990764816182e-01  3.200817604214962e-03  6.503637967285444e-18
 6.587132733647184e-01 -1.058214553037165e-02 -1.161386071380470e-17
-5.304123887326209e-01  1.672009810275878e-03  9.422141860726208e-18
 1.407765065797290e+00 -3.606863109473282e-02 -2.468226649007104e-17
-6.111497927874376e-01 -1.922592071156924e-03  1.089589350367185e-17
 4.299058003293790e-01 -1.360477677269173e-02 -7.510902386768222e-18
 2.779769406704685e-02 -3.342642004664541e-03 -4.603486918722115e-19
 5.066895993695540e+00 -5.121470473112874e-01 -8.490933322078128e-17
-4.739112744868157e-01 -7.040019518054004e-03  8.506150075802327e-18
 1.299828584865848e+00 -6.164702920276570e-02 -2.249859932884933e-17
 2.647611190898994e-01 -1.180151049394579e-03 -4.699614309382260e-18
 1.024715235138716e+00 -7.431382676333788e-02 -1.747248235494310e-17
 4.219053285407273e+00  2.799409260886293e-01 -7.795937726170908e-17
-1.476797264545472e+01  1.265600985215802e+00  2.498100987348967e-16
-9.506871464628981e+00 -2.969956380103131e-01  1.722376402261885e-16
 1.863782636378302e+01 -3.523071033970124e+00 -2.954840771043007e-16
 1.874644135985865e+01  1.218300225695429e+01 -4.587912080187000e-16
-2.258810905668071e+01  1.375307940281762e+00  3.878515552625449e-16
 2.810327375334907e+00 -2.669550353636167e-01 -4.727026189391754e-17
 1.642050073147857e+01 -7.819542054370636e-01 -2.841881021997093e-16
-8.182441391519331e+00 -2.199872591641293e+00  1.682191966598756e-16
-1.379145185309380e+01  2.240050523329313e+00  2.224196313860291e-16
 9.434296590715361e+00  5.568298956362659e-01 -1.736157863597429e-16
 2.758260930748448e+00 -1.184610257724193e-01 -4.786939942802582e-17
-5.063698588910088e+00 -3.285548008059430e-01  9.349033781210444e-17
 1.864027287635703e+01 -1.136124751556982e+01 -2.149931998148671e-16
 7.817390605044988e+00  5.207006622840565e-01 -1.444698008919147e-16
-1.564585765188408e+01 -3.116787346433166e-01  2.816390857623424e-16
-2.448755706860296e+01 -3.789921197316325e-01  4.396792942057793e-16
 2.160494839844973e+01 -7.765333336813746e+00 -3.046998489548316e-16
 1.496709217648814e+01  1.186464668942237e+01 -3.882621933191913e-16
-2.241630339465696e+01  1.597964796221640e+00  3.825063502586618e-16
-1.324106108068610e+00  4.938247437626295e-03  2.351330894428906e-17
-6.332129852773040e-01  3.338427486831076e-03  1.123447926817206e-17
-5.593487541765181e-01  2.418209154891155e-03  9.929432074593681e-18
 2.606790323069726e+00 -1.848674866517038e-02 -4.620099869399526e-17
 5.773699360119074e-01 -4.466979414616644e-04 -1.027039706443110e-17
-1.853163235265995e-01  7.565558312432786e-05  3.297147696868773e-18
-5.039664511668138e-01  1.706840433542013e-03  8.951146986016609e-18
 1.398963461823457e-01 -6.606326299882151e-04 -2.482834594396320e-18
-1.051758542315939e-01  8.021787073591267e-04  1.863487691502196e-18
 1.006116276582662e+01 -3.323118522774815e-01 -1.756360092462418e-16
-1.726982509507221e+01  2.052958415711683e+01  9.640311753814128e-17
-1.314147650945988e+01  4.113918058179259e-01  2.296413488544147e-16
 1.550915470576843e+00 -1.860635874628165e-02 -2.740921722993688e-17
 1.444984861903613e+00  7.366698551355151e-03 -2.579091941719170e-17
 2.252138082995473e-01  4.093705331190953e-04 -4.012154515453357e-18
 5.278004606109127e-01  1.016951078363270e-03 -9.403287582878319e-18
 3.981750421109667e-01  8.097496374887259e-04 -7.094319717935518e-18
 3.315887575976120e-01  9.402101072704548e-04 -5.910677792025868e-18
 3.236113736611448e-01  9.361455196701946e-04 -5.768668967102133e-18
 4.365155054667710e-01  1.294453420571219e-03 -7.781614152526114e-18
 8.230362256181986e-01  3.436653230861437e-03 -1.468222176560734e-17
 3.243472827140995e-01  1.343413835484482e-03 -5.785949880347775e-18
 6.731775473828774e-01  2.615787277616336e-03 -1.200687371529208e-17
 1.304896569721722e+00  5.749560549186993e-03 -2.328126563989792e-17
 3.890041415644740e-01  2.863341129382203e-03 -6.952212510165426e-18
 1.044229904360435e-01 -3.173939053736125e-04 -1.855070565802176e-18
 7.921738011410553e-01  2.689381082403309e-03 -1.412531014626586e-17
 1.094442264399359e+00  3.683261039717936e-03 -1.951474976453621e-17
 1.657000873429741e+00  2.799816161011276e-03 -2.951707418681762e-17
 2.076012046839405e-01 -6.464951136898671e-04 -3.687868572544975e-18
 3.910292473061305e-01 -1.286432705424523e-03 -6.945614264104735e-18
 2.337190155293036e+00 -9.644383644185798e-03 -4.149399418043983e-17
 3.691400525822975e+00  9.848761903557639e-03 -6.579406760987542e-17
 4.637668138431394e-01 -1.583103232646859e-03 -8.237017850617554e-18
 8.000446803036622e-01 -6.032386274426607e-03 -1.417576883594438e-17
 1.522048697659859e+00 -1.119877119319081e-02 -2.697160883143688e-17
 3.095439308481926e+00 -2.495691404468586e-02 -5.483061162711234e-17
 4.321656849771895e+00  3.315110568832044e-02 -7.724965430358468e-17
-7.621522463987198e+00 -5.112455690277894e-02  1.361593698113620e-16
 7.902365426274465e+00 -2.645188966944800e-01 -1.379141834740770e-16
 4.796505033078748e+00  3.610026376176861e-02 -8.573044563773092e-17
-1.804220119918164e+00 -1.385394204830412e-02  3.225059340693001e-17
 5.623828292584597e+00 -1.954169489245008e-01 -9.807489464820551e-17
-1.998676412235671e+00 -1.857190807049536e-01  3.747702694884645e-17
 1.043968603760939e+01 -1.380807599246279e+00 -1.715993694732443e-16
 6.968113610144732e+00  1.537858112471235e+00 -1.398068269874499e-16
-4.184698268912092e+00  2.963544721861230e-01  7.142676284359970e-17
 2.616633814069925e+01  1.932894884009020e+01 -6.642591272248035e-16
-2.516787624156119e+00  6.665084149932164e-02  4.410442472941780e-17
-3.052501140506852e+00 -2.257458312732427e-01  5.664235536129052e-17
-7.705300141608439e+00  5.612337417798470e-01  1.313585344188557e-16
 5.571897583204727e+00  7.482039381384348e-02 -9.992731626065043e-17
-1.186102036609977e+00 -2.881297283825434e-02  2.140414340058157e-17
 1.803992869450799e+00  6.439932276220349e-03 -3.217037294414572e-17
 2.963858448927378e-01  7.529745308372257e-03 -5.351905066544920e-18
-4.791125294911431e-01  1.798843425016674e-03  8.507896505683589e-18
 8.352950977574110e-01  2.218190941574304e-02 -1.509298370681408e-17
-2.964767156540053e-01 -4.299223870431612e-03  5.320329766036165e-18
-9.988540003468067e-02 -2.344747750263710e-03  1.801671245358272e-18
-9.366822486044193e-01 -1.715823049973533e-02  1.684567251605223e-17
-3.328994681942060e-01 -6.121940476086428e-03  5.987243846670842e-18
-1.724376763937262e-01 -3.369596330798005e-03  3.103355522756356e-18
 7.787771180349767e-01  1.844133151539210e-02 -1.404874574842081e-17
-2.237604396742401e+00 -8.516941495505714e-02  4.069592415476596e-17
-1.124352003953385e+00 -1.064452877674075e-02  2.011855374811473e-17
-3.753882138921874e+00 -1.312658663261066e-01  6.815351954799183e-17
-1.857852355451366e+00  2.474180151781568e-02  3.280848576455230e-17
-1.967324132303316e+00 -1.416337350998413e-01  3.646611482016817e-17
 9.115300470278541e-01 -2.972310456545722e-02 -1.591637039706275e-17
 2.052388705617469e+00  1.354805015622768e-01 -3.791671813123339e-17
-4.773064068560417e+00  1.855960056302416e-02  8.475167546374212e-17
 4.358853875335162e+00 -1.795206065359697e-02 -7.738655323863206e-17
-7.703627573401293e+00 -5.340305710337233e-01  1.425822119882589e-16
 1.198213722848016e+01 -2.143535885269377e+00 -1.912123722163365e-16
 6.653062800952888e-01  1.465055578737723e-01 -1.334521024597195e-17
-5.798169285046616e+00  5.649988411857707e-01  9.738018088737570e-17
 1.178567773411602e-01  1.418889850065826e-02 -2.243187707757277e-18
-4.585340476868665e+00  3.236347540426320e-01  7.827637381569271e-17
 1.225213044509626e+00  5.178867282670024e-02 -2.233623742630733e-17
-2.437724587239279e+00  9.681581375823319e-02  4.238746952429592e-17
 2.416597191443450e+00  5.691542424743318e-02 -4.359101493445507e-17
-5.279954084607887e-01  4.118996409691970e-03  9.353986916811348e-18
-2.319108526091100e-01 -2.974975602749595e-03  4.157697049182187e-18
-6.588658956836152e-01 -2.423916598462156e-03  1.175020939822367e-17
 2.195722490733603e-01  1.046059709640813e-02 -4.015028921409563e-18
-1.111475639503071e+01 -5.378503796305729e-01  2.033265654566809e-16
 2.034376235533222e+00 -3.727776402561584e-01 -3.237399695412005e-17
-1.761989835263305e+00 -3.994058461863616e-02  3.176708589433400e-17
-6.579643268218756e+00  7.001182269407655e-01  1.098991399938816e-16
 5.440032068118834e+00 -1.192881818703855e-01 -9.558621702257342e-17
 2.933839774589948e-01 -2.418629875311793e-03 -5.196267296524486e-18
 2.512462519820362e+00 -1.638572496532918e-02 -4.454391012701391e-17
-1.458212916053418e+00  1.762849501041348e-02  2.576951187783448e-17
-1.467882063961816e-01  2.767970441363217e-03  2.583831338515910e-18
VECTORS SF_force double
0.000000000000000e+00 0.000000000000000e+00 0.000000000000000e+00
0.000000000000000e+00 0.000000000000000e+00 0.000000000000000e+00
0.000000000000000e+00 0.000000000000000e+00 0.000000000000000e+00
0.000000000000000e+00 0.000000000000000e+00 0.000000000000000e+00
0.000000000000000e+00 0.000000000000000e+00 0.000000000000000e+00
0.000000000000000e+00 0.000000000000000e+00 0.000000000000000e+00
0.000000000000000e+00 0.000000000000000e+00 0.000000000000000e+00
0.000000000000000e+00 0.000000000000000e+00 0.000000000000000e+00
0.000000000000000e+00 0.000000000000000e+00 0.000000000000000e+00
0.000000000000000e+00 0.000000000000000e+00 0.000000000000000e+00
0.000000000000000e+00 0.000000000000000e+00 0.000000000000000e+00
0.000000000000000e+00 0.000000000000000e+00 0.000000000000000e+00
0.000000000000000e+00 0.000000000000000e+00 0.000000000000000e+00
0.000000000000000e+00 0.000000000000000e+00 0.000000000000000e+00
0.000000000000000e+00 0.000000000000000e+00 0.000000000000000e+00
0.000000000000000e+00 0.000000000000000e+00 0.000000000000000e+00
0.000000000000000e+00 0.000000000000000e+00 0.000000000000000e+00
0.000000000000000e+00 0.000000000000000e+00 0.000000000000000e+00
0.000000000000000e+00 0.000000000000000e+00 0.000000000000000e+00
0.000000000000000e+00 0.000000000000000e+00 0.000000000000000e+00
0.000000000000000e+00 0.000000000000000e+00 0.000000000000000e+00
0.000000000000000e+00 0.000000000000000e+00 0.000000000000000e+00
0.000000000000000e+00 0.000000000000000e+00 0.000000000000000e+00
0.000000000000000e+00 0.000000000000000e+00 0.000000000000000e+00
0.000000000000000e+00 0.000000000000000e+00 0.000000000000000e+00
0.000000000000000e+00 0.000000000000000e+00 0.000000000000000e+00
0.000000000000000e+00 0.000000000000000e+00 0.000000000000000e+00
0.000000000000000e+00 0.000000000000000e+00 0.000000000000000e+00
0.000000000000000e+00 0.000000000000000e+00 0.000000000000000e+00
0.000000000000000e+00 0.000000000000000e+00 0.000000000000000e+00
0.000000000000000e+00 0.000000000000000e+00 0.000000000000000e+00
0.000000000000000e+00 0.000000000000000e+00 0.000000000000000e+00
0.000000000000000e+00 0.000000000000000e+00 0.000000000000000e+00
0.000000000000000e+00 0.000000000000000e+00 0.000000000000000e+00
0.000000000000000e+00 0.000000000000000e+00 0.000000000000000e+00
0.000000000000000e+00 0.000000000000000e+00 0.000000000000000e+00
0.000000000000000e+00 0.000000000000000e+00 0.000000000000000e+00
0.000000000000000e+00 0.000000000000000e+00 0.000000000000000e+00
0.000000000000000e+00 0.000000000000000e+00 0.000000000000000e+00
0.000000000000000e+00 0.000000000000000e+00 0.000000000000000e+00
0.000000000000000e+00 0.000000000000000e+00 0.000000000000000e+00
0.000000000000000e+00 0.000000000000000e+00 0.000000000000000e+00
0.000000000000000e+00 0.000000000000000e+00 0.000000000000000e+00
0.000000000000000e+00 0.000000000000000e+00 0.000000000000000e+00
0.000000000000000e+00 0.000000000000000e+00 0.000000000000000e+00
0.000000000000000e+00 0.000000000000000e+00 0.000000000000000e+00
0.000000000000000e+00 0.000000000000000e+00 0.000000000000000e+00
0.000000000000000e+00 0.000000000000000e+00 0.000000000000000e+00
0.000000000000000e+00 0.000000000000000e+00 0.000000000000000e+00
0.000000000000000e+00 0.000000000000000e+00 0.000000000000000e+00
0.000000000000000e+00 0.000000000000000e+00 0.000000000000000e+00
0.000000000000000e+00 0.000000000000000e+00 0.000000000000000e+00
0.000000000000000e+00 0.000000000000000e+00 0.000000000000000e+00
0.000000000000000e+00 0.000000000000000e+00 0.000000000000000e+00
0.000000000000000e+00 0.000000000000000e+00 0.000000000000000e+00
0.000000000000000e+00 0.000000000000000e+00 0.000000000000000e+00
0.000000000000000e+00 0.000000000000000e+00 0.000000000000000e+00
0.000000000000000e+00 0.000000000000000e+00 0.000000000000000e+00
0.000000000000000e+00 0.000000000000000e+00 0.000000000000000e+00
0.000000000000000e+00 0.000000000000000e+00 0.000000000000000e+00
0.000000000000000e+00 0.000000000000000e+00 0.000000000000000e+00
0.000000000000000e+00 0.000000000000000e+00 0.000000000000000e+00
0.000000000000000e+00 0.000000000000000e+00 0.000000000000000e+00
0.000000000000000e+00 0.000000000000000e+00 0.000000000000000e+00
0.000000000000000e+00 0.000000000000000e+00 0.000000000000000e+00
0.000000000000000e+00 0.000000000000000e+00 0.000000000000000e+00
0.000000000000000e+00 0.000000000000000e+00 0.000000000000000e+00
0.000000000000000e+00 0.000000000000000e+00 0.000000000000000e+00
0.000000000000000e+00 0.000000000000000e+00 0.000000000000000e+00
0.000000000000000e+00 0.000000000000000e+00 0.000000000000000e+00
0.000000000000000e+00 0.000000000000000e+00 0.000000000000000e+00
0.000000000000000e+00 0.000000000000000e+00 0.000000000000000e+00
0.000000000000000e+00 0.000000000000000e+00 0.000000000000000e+00
0.000000000000000e+00 0.000000000000000e+00 0.000000000000000e+00
0.000000000000000e+00 0.000000000000000e+00 0.000000000000000e+00
0.000000000000000e+00 0.000000000000000e+00 0.000000000000000e+00
0.000000000000000e+00 0.000000000000000e+00 0.000000000000000e+00
0.000000000000000e+00 0.000000000000000e+00 0.000000000000000e+00
0.000000000000000e+00 0.000000000000000e+00 0.000000000000000e+00
0.000000000000000e+00 0.000000000000000e+00 0.000000000000000e+00
0.000000000000000e+00 0.000000000000000e+00 0.000000000000000e+00
0.000000000000000e+00 0.000000000000000e+00 0.000000000000000e+00
0.000000000000000e+00 0.000000000000000e+00 0.000000000000000e+00
0.000000000000000e+00 0.000000000000000e+00 0.000000000000000e+00
0.000000000000000e+00 0.000000000000000e+00 0.000000000000000e+00
0.000000000000000e+00 0.000000000000000e+00 0.000000000000000e+00
0.000000000000000e+00 0.000000000000000e+00 0.000000000000000e+00
0.000000000000000e+00 0.000000000000000e+00 0.000000000000000e+00
0.000000000000000e+00 0.000000000000000e+00 0.000000000000000e+00
0.000000000000000e+00 0.000000000000000e+00 0.000000000000000e+00
0.000000000000000e+00 0.000000000000000e+00 0.000000000000000e+00
0.000000000000000e+00 0.000000000000000e+00 0.000000000000000e+00
0.000000000000000e+00 0.000000000000000e+00 0.000000000000000e+00
0.000000000000000e+00 0.000000000000000e+00 0.000000000000000e+00
0.000000000000000e+00 0.000000000000000e+00 0.000000000000000e+00
0.000000000000000e+00 0.000000000000000e+00 0.000000000000000e+00
0.000000000000000e+00 0.000000000000000e+00 0.000000000000000e+00
0.000000000000000e+00 0.000000000000000e+00 0.000000000000000e+00
0.000000000000000e+00 0.000000000000000e+00 0.000000000000000e+00
0.000000000000000e+00 0.000000000000000e+00 0.000000000000000e+00
0.000000000000000e+00 0.000000000000000e+00 0.000000000000000e+00
0.000000000000000e+00 0.000000000000000e+00 0.000000000000000e+00
0.000000000000000e+00 0.000000000000000e+00 0.000000000000000e+00
0.000000000000000e+00 0.000000000000000e+00 0.000000000000000e+00
0.000000000000000e+00 0.000000000000000e+00 0.000000000000000e+00
0.000000000000000e+00 0.000000000000000e+00 0.000000000000000e+00
0.000000000000000e+00 0.000000000000000e+00 0.000000000000000e+00
0.000000000000000e+00 0.000000000000000e+00 0.000000000000000e+00
0.000000000000000e+00 0.000000000000000e+00 0.000000000000000e+00
0.000000000000000e+00 0.000000000000000e+00 0.000000000000000e+00
0.000000000000000e+00 0.000000000000000e+00 0.000000000000000e+00
0.000000000000000e+00 0.000000000000000e+00 0.000000000000000e+00
0.000000000000000e+00 0.000000000000000e+00 0.000000000000000e+00
0.000000000000000e+00 0.000000000000000e+00 0.000000000000000e+00
0.000000000000000e+00 0.000000000000000e+00 0.000000000000000e+00
0.000000000000000e+00 0.000000000000000e+00 0.000000000000000e+00
0.000000000000000e+00 0.000000000000000e+00 0.000000000000000e+00
0.000000000000000e+00 0.000000000000000e+00 0.000000000000000e+00
0.000000000000000e+00 0.000000000000000e+00 0.000000000000000e+00
0.000000000000000e+00 0.000000000000000e+00 0.000000000000000e+00
0.000000000000000e+00 0.000000000000000e+00 0.000000000000000e+00
0.000000000000000e+00 0.000000000000000e+00 0.000000000000000e+00
0.000000000000000e+00 0.000000000000000e+00 0.000000000000000e+00
0.000000000000000e+00 0.000000000000000e+00 0.000000000000000e+00
0.000000000000000e+00 0.000000000000000e+00 0.000000000000000e+00
0.000000000000000e+00 0.000000000000000e+00 0.000000000000000e+00
0.000000000000000e+00 0.000000000000000e+00 0.000000000000000e+00
0.000000000000000e+00 0.000000000000000e+00 0.000000000000000e+00
0.000000000000000e+00 0.000000000000000e+00 0.000000000000000e+00
0.000000000000000e+00 0.000000000000000e+00 0.000000000000000e+00
0.000000000000000e+00 0.000000000000000e+00 0.000000000000000e+00
0.000000000000000e+00 0.000000000000000e+00 0.000000000000000e+00
0.000000000000000e+00 0.000000000000000e+00 0.000000000000000e+00
0.000000000000000e+00 0.000000000000000e+00 0.000000000000000e+00
0.000000000000000e+00 0.000000000000000e+00 0.000000000000000e+00
0.000000000000000e+00 0.000000000000000e+00 0.000000000000000e+00
0.000000000000000e+00 0.000000000000000e+00 0.000000000000000e+00
0.000000000000000e+00 0.000000000000000e+00 0.000000000000000e+00
0.000000000000000e+00 0.000000000000000e+00 0.000000000000000e+00
0.000000000000000e+00 0.000000000000000e+00 0.000000000000000e+00
0.000000000000000e+00 0.000000000000000e+00 0.000000000000000e+00
0.000000000000000e+00 0.000000000000000e+00 0.000000000000000e+00
0.000000000000000e+00 0.000000000000000e+00 0.000000000000000e+00
0.000000000000000e+00 0.000000000000000e+00 0.000000000000000e+00
0.000000000000000e+00 0.000000000000000e+00 0.000000000000000e+00
0.000000000000000e+00 0.000000000000000e+00 0.000000000000000e+00
0.000000000000000e+00 0.000000000000000e+00 0.000000000000000e+00
0.000000000000000e+00 0.000000000000000e+00 0.000000000000000e+00
0.000000000000000e+00 0.000000000000000e+00 0.000000000000000e+00
0.000000000000000e+00 0.000000000000000e+00 0.000000000000000e+00
0.000000000000000e+00 0.000000000000000e+00 0.000000000000000e+00
0.000000000000000e+00 0.000000000000000e+00 0.000000000000000e+00
0.000000000000000e+00 0.000000000000000e+00 0.000000000000000e+00
0.000000000000000e+00 0.000000000000000e+00 0.000000000000000e+00
0.000000000000000e+00 0.000000000000000e+00 0.000000000000000e+00
0.000000000000000e+00 0.000000000000000e+00 0.000000000000000e+00
0.000000000000000e+00 0.000000000000000e+00 0.000000000000000e+00
0.000000000000000e+00 0.000000000000000e+00 0.000000000000000e+00
0.000000000000000e+00 0.000000000000000e+00 0.000000000000000e+00
0.000000000000000e+00 0.000000000000000e+00 0.000000000000000e+00
0.000000000000000e+00 0.000000000000000e+00 0.000000000000000e+00
0.000000000000000e+00 0.000000000000000e+00 0.000000000000000e+00
0.000000000000000e+00 0.000000000000000e+00 0.000000000000000e+00
0.000000000000000e+00 0.000000000000000e+00 0.000000000000000e+00
0.000000000000000e+00 0.000000000000000e+00 0.000000000000000e+00
0.000000000000000e+00 0.000000000000000e+00 0.000000000000000e+00
0.000000000000000e+00 0.000000000000000e+00 0.000000000000000e+00
0.000000000000000e+00 0.000000000000000e+00 0.000000000000000e+00
0.000000000000000e+00 0.000000000000000e+00 0.000000000000000e+00
0.000000000000000e+00 0.000000000000000e+00 0.000000000000000e+00
0.000000000000000e+00 0.000000000000000e+00 0.000000000000000e+00
0.000000000000000e+00 0.000000000000000e+00 0.000000000000000e+00
0.000000000000000e+00 0.000000000000000e+00 0.000000000000000e+00
0.000000000000000e+00 0.000000000000000e+00 0.000000000000000e+00
0.000000000000000e+00 0.000000000000000e+00 0.000000000000000e+00
0.000000000000000e+00 0.000000000000000e+00 0.000000000000000e+00
0.000000000000000e+00 0.000000000000000e+00 0.000000000000000e+00
0.000000000000000e+00 0.000000000000000e+00 0.000000000000000e+00
0.000000000000000e+00 0.000000000000000e+00 0.000000000000000e+00
0.000000000000000e+00 0.000000000000000e+00 0.000000000000000e+00
0.000000000000000e+00 0.000000000000000e+00 0.000000000000000e+00
0.000000000000000e+00 0.000000000000000e+00 0.000000000000000e+00
0.000000000000000e+00 0.000000000000000e+00 0.000000000000000e+00
0.000000000000000e+00 0.000000000000000e+00 0.000000000000000e+00
0.000000000000000e+00 0.000000000000000e+00 0.000000000000000e+00
0.000000000000000e+00 0.000000000000000e+00 0.000000000000000e+00
0.000000000000000e+00 0.000000000000000e+00 0.000000000000000e+00
0.000000000000000e+00 0.000000000000000e+00 0.000000000000000e+00
0.000000000000000e+00 0.000000000000000e+00 0.000000000000000e+00
0.000000000000000e+00 0.000000000000000e+00 0.000000000000000e+00
0.000000000000000e+00 0.000000000000000e+00 0.000000000000000e+00
0.000000000000000e+00 0.000000000000000e+00 0.000000000000000e+00
0.000000000000000e+00 0.000000000000000e+00 0.000000000000000e+00
0.000000000000000e+00 0.000000000000000e+00 0.000000000000000e+00
0.000000000000000e+00 0.000000000000000e+00 0.000000000000000e+00
0.000000000000000e+00 0.000000000000000e+00 0.000000000000000e+00
0.000000000000000e+00 0.000000000000000e+00 0.000000000000000e+00
0.000000000000000e+00 0.000000000000000e+00 0.000000000000000e+00
0.000000000000000e+00 0.000000000000000e+00 0.000000000000000e+00
0.000000000000000e+00 0.000000000000000e+00 0.000000000000000e+00
0.000000000000000e+00 0.000000000000000e+00 0.000000000000000e+00
0.000000000000000e+00 0.000000000000000e+00 0.000000000000000e+00
0.000000000000000e+00 0.000000000000000e+00 0.000000000000000e+00
0.000000000000000e+00 0.000000000000000e+00 0.000000000000000e+00
0.000000000000000e+00 0.000000000000000e+00 0.000000000000000e+00
0.000000000000000e+00 0.000000000000000e+00 0.000000000000000e+00
0.000000000000000e+00 0.000000000000000e+00 0.000000000000000e+00
0.000000000000000e+00 0.000000000000000e+00 0.000000000000000e+00
0.000000000000000e+00 0.000000000000000e+00 0.000000000000000e+00
0.000000000000000e+00 0.000000000000000e+00 0.000000000000000e+00
0.000000000000000e+00 0.000000000000000e+00 0.000000000000000e+00
0.000000000000000e+00 0.000000000000000e+00 0.000000000000000e+00
0.000000000000000e+00 0.000000000000000e+00 0.000000000000000e+00
0.000000000000000e+00 0.000000000000000e+00 0.000000000000000e+00
0.000000000000000e+00 0.000000000000000e+00 0.000000000000000e+00
0.000000000000000e+00 0.000000000000000e+00 0.000000000000000e+00
0.000000000000000e+00 0.000000000000000e+00 0.000000000000000e+00
0.000000000000000e+00 0.000000000000000e+00 0.000000000000000e+00
0.000000000000000e+00 0.000000000000000e+00 0.000000000000000e+00
0.000000000000000e+00 0.000000000000000e+00 0.000000000000000e+00
0.000000000000000e+00 0.000000000000000e+00 0.000000000000000e+00
0.000000000000000e+00 0.000000000000000e+00 0.000000000000000e+00
0.000000000000000e+00 0.000000000000000e+00 0.000000000000000e+00
0.000000000000000e+00 0.000000000000000e+00 0.000000000000000e+00
0.000000000000000e+00 0.000000000000000e+00 0.000000000000000e+00
0.000000000000000e+00 0.000000000000000e+00 0.000000000000000e+00
0.000000000000000e+00 0.000000000000000e+00 0.000000000000000e+00
0.000000000000000e+00 0.000000000000000e+00 0.000000000000000e+00
0.000000000000000e+00 0.000000000000000e+00 0.000000000000000e+00
0.000000000000000e+00 0.000000000000000e+00 0.000000000000000e+00
0.000000000000000e+00 0.000000000000000e+00 0.000000000000000e+00
0.000000000000000e+00 0.000000000000000e+00 0.000000000000000e+00
0.000000000000000e+00 0.000000000000000e+00 0.000000000000000e+00
0.000000000000000e+00 0.000000000000000e+00 0.000000000000000e+00
0.000000000000000e+00 0.000000000000000e+00 0.000000000000000e+00
0.000000000000000e+00 0.000000000000000e+00 0.000000000000000e+00
0.000000000000000e+00 0.000000000000000e+00 0.000000000000000e+00
0.000000000000000e+00 0.000000000000000e+00 0.000000000000000e+00
0.000000000000000e+00 0.000000000000000e+00 0.000000000000000e+00
0.000000000000000e+00 0.000000000000000e+00 0.000000000000000e+00
0.000000000000000e+00 0.000000000000000e+00 0.000000000000000e+00
0.000000000000000e+00 0.000000000000000e+00 0.000000000000000e+00
0.000000000000000e+00 0.000000000000000e+00 0.000000000000000e+00
0.000000000000000e+00 0.000000000000000e+00 0.000000000000000e+00
0.000000000000000e+00 0.000000000000000e+00 0.000000000000000e+00
0.000000000000000e+00 0.000000000000000e+00 0.000000000000000e+00
0.000000000000000e+00 0.000000000000000e+00 0.000000000000000e+00
0.000000000000000e+00 0.000000000000000e+00 0.000000000000000e+00
0.000000000000000e+00 0.000000000000000e+00 0.000000000000000e+00
0.000000000000000e+00 0.000000000000000e+00 0.000000000000000e+00
0.000000000000000e+00 0.000000000000000e+00 0.000000000000000e+00
0.000000000000000e+00 0.000000000000000e+00 0.000000000000000e+00
0.000000000000000e+00 0.000000000000000e+00 0.000000000000000e+00
0.000000000000000e+00 0.000000000000000e+00 0.000000000000000e+00
0.000000000000000e+00 0.000000000000000e+00 0.000000000000000e+00
0.000000000000000e+00 0.000000000000000e+00 0.000000000000000e+00
0.000000000000000e+00 0.000000000000000e+00 0.000000000000000e+00
0.000000000000000e+00 0.000000000000000e+00 0.000000000000000e+00
0.000000000000000e+00 0.000000000000000e+00 0.000000000000000e+00
0.000000000000000e+00 0.000000000000000e+00 0.000000000000000e+00
0.000000000000000e+00 0.000000000000000e+00 0.000000000000000e+00
0.000000000000000e+00 0.000000000000000e+00 0.000000000000000e+00
0.000000000000000e+00 0.000000000000000e+00 0.000000000000000e+00
0.000000000000000e+00 0.000000000000000e+00 0.000000000000000e+00
0.000000000000000e+00 0.000000000000000e+00 0.000000000000000e+00
0.000000000000000e+00 0.000000000000000e+00 0.000000000000000e+00
0.000000000000000e+00 0.000000000000000e+00 0.000000000000000e+00
0.000000000000000e+00 0.000000000000000e+00 0.000000000000000e+00
0.000000000000000e+00 0.000000000000000e+00 0.000000000000000e+00
0.000000000000000e+00 0.000000000000000e+00 0.000000000000000e+00
0.000000000000000e+00 0.000000000000000e+00 0.000000000000000e+00
0.000000000000000e+00 0.000000000000000e+00 0.000000000000000e+00
0.000000000000000e+00 0.000000000000000e+00 0.000000000000000e+00
0.000000000000000e+00 0.000000000000000e+00 0.000000000000000e+00
0.000000000000000e+00 0.000000000000000e+00 0.000000000000000e+00
0.000000000000000e+00 0.000000000000000e+00 0.000000000000000e+00
0.000000000000000e+00 0.000000000000000e+00 0.000000000000000e+00
0.000000000000000e+00 0.000000000000000e+00 0.000000000000000e+00
0.000000000000000e+00 0.000000000000000e+00 0.000000000000000e+00
0.000000000000000e+00 0.000000000000000e+00 0.000000000000000e+00
0.000000000000000e+00 0.000000000000000e+00 0.000000000000000e+00
0.000000000000000e+00 0.000000000000000e+00 0.000000000000000e+00
0.000000000000000e+00 0.000000000000000e+00 0.000000000000000e+00
0.000000000000000e+00 0.000000000000000e+00 0.000000000000000e+00
0.000000000000000e+00 0.000000000000000e+00 0.000000000000000e+00
0.000000000000000e+00 0.000000000000000e+00 0.000000000000000e+00
0.000000000000000e+00 0.000000000000000e+00 0.000000000000000e+00
0.000000000000000e+00 0.000000000000000e+00 0.000000000000000e+00
0.000000000000000e+00 0.000000000000000e+00 0.000000000000000e+00
0.000000000000000e+00 0.000000000000000e+00 0.000000000000000e+00
0.000000000000000e+00 0.000000000000000e+00 0.000000000000000e+00
0.000000000000000e+00 0.000000000000000e+00 0.000000000000000e+00
0.000000000000000e+00 0.000000000000000e+00 0.000000000000000e+00
0.000000000000000e+00 0.000000000000000e+00 0.000000000000000e+00
0.000000000000000e+00 0.000000000000000e+00 0.000000000000000e+00
0.000000000000000e+00 0.000000000000000e+00 0.000000000000000e+00
0.000000000000000e+00 0.000000000000000e+00 0.000000000000000e+00
0.000000000000000e+00 0.000000000000000e+00 0.000000000000000e+00
0.000000000000000e+00 0.000000000000000e+00 0.000000000000000e+00
0.000000000000000e+00 0.000000000000000e+00 0.000000000000000e+00
0.000000000000000e+00 0.000000000000000e+00 0.000000000000000e+00
0.000000000000000e+00 0.000000000000000e+00 0.000000000000000e+00
0.000000000000000e+00 0.000000000000000e+00 0.000000000000000e+00
0.000000000000000e+00 0.000000000000000e+00 0.000000000000000e+00
0.000000000000000e+00 0.000000000000000e+00 0.000000000000000e+00
0.000000000000000e+00 0.000000000000000e+00 0.000000000000000e+00
0.000000000000000e+00 0.000000000000000e+00 0.000000000000000e+00
0.000000000000000e+00 0.000000000000000e+00 0.000000000000000e+00
0.000000000000000e+00 0.000000000000000e+00 0.000000000000000e+00
0.000000000000000e+00 0.000000000000000e+00 0.000000000000000e+00
0.000000000000000e+00 0.000000000000000e+00 0.000000000000000e+00
0.000000000000000e+00 0.000000000000000e+00 0.000000000000000e+00
0.000000000000000e+00 0.000000000000000e+00 0.000000000000000e+00
0.000000000000000e+00 0.000000000000000e+00 0.000000000000000e+00
0.000000000000000e+00 0.000000000000000e+00 0.000000000000000e+00
0.000000000000000e+00 0.000000000000000e+00 0.000000000000000e+00
0.000000000000000e+00 0.000000000000000e+00 0.000000000000000e+00
0.000000000000000e+00 0.000000000000000e+00 0.000000000000000e+00
0.000000000000000e+00 0.000000000000000e+00 0.000000000000000e+00
0.000000000000000e+00 0.000000000000000e+00 0.000000000000000e+00
0.000000000000000e+00 0.000000000000000e+00 0.000000000000000e+00
0.000000000000000e+00 0.000000000000000e+00 0.000000000000000e+00
0.000000000000000e+00 0.000000000000000e+00 0.000000000000000e+00
0.000000000000000e+00 0.000000000000000e+00 0.000000000000000e+00
0.000000000000000e+00 0.000000000000000e+00 0.000000000000000e+00
0.000000000000000e+00 0.000000000000000e+00 0.000000000000000e+00
0.000000000000000e+00 0.000000000000000e+00 0.000000000000000e+00
0.000000000000000e+00 0.000000000000000e+00 0.000000000000000e+00
0.000000000000000e+00 0.000000000000000e+00 0.000000000000000e+00
0.000000000000000e+00 0.000000000000000e+00 0.000000000000000e+00
0.000000000000000e+00 0.000000000000000e+00 0.000000000000000e+00
0.000000000000000e+00 0.000000000000000e+00 0.000000000000000e+00
0.000000000000000e+00 0.000000000000000e+00 0.000000000000000e+00
0.000000000000000e+00 0.000000000000000e+00 0.000000000000000e+00
0.000000000000000e+00 0.000000000000000e+00 0.000000000000000e+00
0.000000000000000e+00 0.000000000000000e+00 0.000000000000000e+00
0.000000000000000e+00 0.000000000000000e+00 0.000000000000000e+00
0.000000000000000e+00 0.000000000000000e+00 0.000000000000000e+00
0.000000000000000e+00 0.000000000000000e+00 0.000000000000000e+00
0.000000000000000e+00 0.000000000000000e+00 0.000000000000000e+00
0.000000000000000e+00 0.000000000000000e+00 0.000000000000000e+00
0.000000000000000e+00 0.000000000000000e+00 0.000000000000000e+00
0.000000000000000e+00 0.000000000000000e+00 0.000000000000000e+00
0.000000000000000e+00 0.000000000000000e+00 0.000000000000000e+00
0.000000000000000e+00 0.000000000000000e+00 0.000000000000000e+00
0.000000000000000e+00 0.000000000000000e+00 0.000000000000000e+00
0.000000000000000e+00 0.000000000000000e+00 0.000000000000000e+00
0.000000000000000e+00 0.000000000000000e+00 0.000000000000000e+00
0.000000000000000e+00 0.000000000000000e+00 0.000000000000000e+00
0.000000000000000e+00 0.000000000000000e+00 0.000000000000000e+00
0.000000000000000e+00 0.000000000000000e+00 0.000000000000000e+00
0.000000000000000e+00 0.000000000000000e+00 0.000000000000000e+00
0.000000000000000e+00 0.000000000000000e+00 0.000000000000000e+00
0.000000000000000e+00 0.000000000000000e+00 0.000000000000000e+00
0.000000000000000e+00 0.000000000000000e+00 0.000000000000000e+00
0.000000000000000e+00 0.000000000000000e+00 0.000000000000000e+00
0.000000000000000e+00 0.000000000000000e+00 0.000000000000000e+00
0.000000000000000e+00 0.000000000000000e+00 0.000000000000000e+00
0.000000000000000e+00 0.000000000000000e+00 0.000000000000000e+00
0.000000000000000e+00 0.000000000000000e+00 0.000000000000000e+00
0.000000000000000e+00 0.000000000000000e+00 0.000000000000000e+00
0.000000000000000e+00 0.000000000000000e+00 0.000000000000000e+00
0.000000000000000e+00 0.000000000000000e+00 0.000000000000000e+00
0.000000000000000e+00 0.000000000000000e+00 0.000000000000000e+00
0.000000000000000e+00 0.000000000000000e+00 0.000000000000000e+00
0.000000000000000e+00 0.000000000000000e+00 0.000000000000000e+00
0.000000000000000e+00 0.000000000000000e+00 0.000000000000000e+00
0.000000000000000e+00 0.000000000000000e+00 0.000000000000000e+00
0.000000000000000e+00 0.000000000000000e+00 0.000000000000000e+00
0.000000000000000e+00 0.000000000000000e+00 0.000000000000000e+00
0.000000000000000e+00 0.000000000000000e+00 0.000000000000000e+00
0.000000000000000e+00 0.000000000000000e+00 0.000000000000000e+00
0.000000000000000e+00 0.000000000000000e+00 0.000000000000000e+00
0.000000000000000e+00 0.000000000000000e+00 0.000000000000000e+00
0.000000000000000e+00 0.000000000000000e+00 0.000000000000000e+00
0.000000000000000e+00 0.000000000000000e+00 0.000000000000000e+00
0.000000000000000e+00 0.000000000000000e+00 0.000000000000000e+00
0.000000000000000e+00 0.000000000000000e+00 0.000000000000000e+00
0.000000000000000e+00 0.000000000000000e+00 0.000000000000000e+00
0.000000000000000e+00 0.000000000000000e+00 0.000000000000000e+00
0.000000000000000e+00 0.000000000000000e+00 0.000000000000000e+00
0.000000000000000e+00 0.000000000000000e+00 0.000000000000000e+00
0.000000000000000e+00 0.000000000000000e+00 0.000000000000000e+00
0.000000000000000e+00 0.000000000000000e+00 0.000000000000000e+00
0.000000000000000e+00 0.000000000000000e+00 0.000000000000000e+00
0.000000000000000e+00 0.000000000000000e+00 0.000000000000000e+00
0.000000000000000e+00 0.000000000000000e+00 0.000000000000000e+00
0.000000000000000e+00 0.000000000000000e+00 0.000000000000000e+00
0.000000000000000e+00 0.000000000000000e+00 0.000000000000000e+00
0.000000000000000e+00 0.000000000000000e+00 0.000000000000000e+00
0.000000000000000e+00 0.000000000000000e+00 0.000000000000000e+00
0.000000000000000e+00 0.000000000000000e+00 0.000000000000000e+00
0.000000000000000e+00 0.000000000000000e+00 0.000000000000000e+00
0.000000000000000e+00 0.000000000000000e+00 0.000000000000000e+00
0.000000000000000e+00 0.000000000000000e+00 0.000000000000000e+00
0.000000000000000e+00 0.000000000000000e+00 0.000000000000000e+00
0.000000000000000e+00 0.000000000000000e+00 0.000000000000000e+00
0.000000000000000e+00 0.000000000000000e+00 0.000000000000000e+00
0.000000000000000e+00 0.000000000000000e+00 0.000000000000000e+00
0.000000000000000e+00 0.000000000000000e+00 0.000000000000000e+00
0.000000000000000e+00 0.000000000000000e+00 0.000000000000000e+00
0.000000000000000e+00 0.000000000000000e+00 0.000000000000000e+00
0.000000000000000e+00 0.000000000000000e+00 0.000000000000000e+00
0.000000000000000e+00 0.000000000000000e+00 0.000000000000000e+00
0.000000000000000e+00 0.000000000000000e+00 0.000000000000000e+00
0.000000000000000e+00 0.000000000000000e+00 0.000000000000000e+00
0.000000000000000e+00 0.000000000000000e+00 0.000000000000000e+00
0.000000000000000e+00 0.000000000000000e+00 0.000000000000000e+00
0.000000000000000e+00 0.000000000000000e+00 0.000000000000000e+00
0.000000000000000e+00 0.000000000000000e+00 0.000000000000000e+00
0.000000000000000e+00 0.000000000000000e+00 0.000000000000000e+00
0.000000000000000e+00 0.000000000000000e+00 0.000000000000000e+00
0.000000000000000e+00 0.000000000000000e+00 0.000000000000000e+00
0.000000000000000e+00 0.000000000000000e+00 0.000000000000000e+00
0.000000000000000e+00 0.000000000000000e+00 0.000000000000000e+00
0.000000000000000e+00 0.000000000000000e+00 0.000000000000000e+00
0.000000000000000e+00 0.000000000000000e+00 0.000000000000000e+00
0.000000000000000e+00 0.000000000000000e+00 0.000000000000000e+00
0.000000000000000e+00 0.000000000000000e+00 0.000000000000000e+00
0.000000000000000e+00 0.000000000000000e+00 0.000000000000000e+00
0.000000000000000e+00 0.000000000000000e+00 0.000000000000000e+00
0.000000000000000e+00 0.000000000000000e+00 0.000000000000000e+00
0.000000000000000e+00 0.000000000000000e+00 0.000000000000000e+00
0.000000000000000e+00 0.000000000000000e+00 0.000000000000000e+00
0.000000000000000e+00 0.000000000000000e+00 0.000000000000000e+00
0.000000000000000e+00 0.000000000000000e+00 0.000000000000000e+00
0.000000000000000e+00 0.000000000000000e+00 0.000000000000000e+00
0.000000000000000e+00 0.000000000000000e+00 0.000000000000000e+00
0.000000000000000e+00 0.000000000000000e+00 0.000000000000000e+00
0.000000000000000e+00 0.000000000000000e+00 0.000000000000000e+00
0.000000000000000e+00 0.000000000000000e+00 0.000000000000000e+00
0.000000000000000e+00 0.000000000000000e+00 0.000000000000000e+00
0.000000000000000e+00 0.000000000000000e+00 0.000000000000000e+00
0.000000000000000e+00 0.000000000000000e+00 0.000000000000000e+00
0.000000000000000e+00 0.000000000000000e+00 0.000000000000000e+00
0.000000000000000e+00 0.000000000000000e+00 0.000000000000000e+00
0.000000000000000e+00 0.000000000000000e+00 0.000000000000000e+00
0.000000000000000e+00 0.000000000000000e+00 0.000000000000000e+00
0.000000000000000e+00 0.000000000000000e+00 0.000000000000000e+00
0.000000000000000e+00 0.000000000000000e+00 0.000000000000000e+00
0.000000000000000e+00 0.000000000000000e+00 0.000000000000000e+00
0.000000000000000e+00 0.000000000000000e+00 0.000000000000000e+00
0.000000000000000e+00 0.000000000000000e+00 0.000000000000000e+00
0.000000000000000e+00 0.000000000000000e+00 0.000000000000000e+00
0.000000000000000e+00 0.000000000000000e+00 0.000000000000000e+00
0.000000000000000e+00 0.000000000000000e+00 0.000000000000000e+00
0.000000000000000e+00 0.000000000000000e+00 0.000000000000000e+00
0.000000000000000e+00 0.000000000000000e+00 0.000000000000000e+00
0.000000000000000e+00 0.000000000000000e+00 0.000000000000000e+00
0.000000000000000e+00 0.000000000000000e+00 0.000000000000000e+00
0.000000000000000e+00 0.000000000000000e+00 0.000000000000000e+00
0.000000000000000e+00 0.000000000000000e+00 0.000000000000000e+00
0.000000000000000e+00 0.000000000000000e+00 0.000000000000000e+00
0.000000000000000e+00 0.000000000000000e+00 0.000000000000000e+00
0.000000000000000e+00 0.000000000000000e+00 0.000000000000000e+00
0.000000000000000e+00 0.000000000000000e+00 0.000000000000000e+00
0.000000000000000e+00 0.000000000000000e+00 0.000000000000000e+00
0.000000000000000e+00 0.000000000000000e+00 0.000000000000000e+00
0.000000000000000e+00 0.000000000000000e+00 0.000000000000000e+00
0.000000000000000e+00 0.000000000000000e+00 0.000000000000000e+00
0.000000000000000e+00 0.000000000000000e+00 0.000000000000000e+00
0.000000000000000e+00 0.000000000000000e+00 0.000000000000000e+00
0.000000000000000e+00 0.000000000000000e+00 0.000000000000000e+00
0.000000000000000e+00 0.000000000000000e+00 0.000000000000000e+00
0.000000000000000e+00 0.000000000000000e+00 0.000000000000000e+00
0.000000000000000e+00 0.000000000000000e+00 0.000000000000000e+00
0.000000000000000e+00 0.000000000000000e+00 0.000000000000000e+00
0.000000000000000e+00 0.000000000000000e+00 0.000000000000000e+00
0.000000000000000e+00 0.000000000000000e+00 0.000000000000000e+00
0.000000000000000e+00 0.000000000000000e+00 0.000000000000000e+00
0.000000000000000e+00 0.000000000000000e+00 0.000000000000000e+00
0.000000000000000e+00 0.000000000000000e+00 0.000000000000000e+00
0.000000000000000e+00 0.000000000000000e+00 0.000000000000000e+00
0.000000000000000e+00 0.000000000000000e+00 0.000000000000000e+00
0.000000000000000e+00 0.000000000000000e+00 0.000000000000000e+00
0.000000000000000e+00 0.000000000000000e+00 0.000000000000000e+00
0.000000000000000e+00 0.000000000000000e+00 0.000000000000000e+00
0.000000000000000e+00 0.000000000000000e+00 0.000000000000000e+00
0.000000000000000e+00 0.000000000000000e+00 0.000000000000000e+00
0.000000000000000e+00 0.000000000000000e+00 0.000000000000000e+00
0.000000000000000e+00 0.000000000000000e+00 0.000000000000000e+00
0.000000000000000e+00 0.000000000000000e+00 0.000000000000000e+00
0.000000000000000e+00 0.000000000000000e+00 0.000000000000000e+00
0.000000000000000e+00 0.000000000000000e+00 0.000000000000000e+00
0.000000000000000e+00 0.000000000000000e+00 0.000000000000000e+00
0.000000000000000e+00 0.000000000000000e+00 0.000000000000000e+00
0.000000000000000e+00 0.000000000000000e+00 0.000000000000000e+00
0.000000000000000e+00 0.000000000000000e+00 0.000000000000000e+00
0.000000000000000e+00 0.000000000000000e+00 0.000000000000000e+00
0.000000000000000e+00 0.000000000000000e+00 0.000000000000000e+00
0.000000000000000e+00 0.000000000000000e+00 0.000000000000000e+00
0.000000000000000e+00 0.000000000000000e+00 0.000000000000000e+00
0.000000000000000e+00 0.000000000000000e+00 0.000000000000000e+00
0.000000000000000e+00 0.000000000000000e+00 0.000000000000000e+00
0.000000000000000e+00 0.000000000000000e+00 0.000000000000000e+00
0.000000000000000e+00 0.000000000000000e+00 0.000000000000000e+00
0.000000000000000e+00 0.000000000000000e+00 0.000000000000000e+00
0.000000000000000e+00 0.000000000000000e+00 0.000000000000000e+00
0.000000000000000e+00 0.000000000000000e+00 0.000000000000000e+00
0.000000000000000e+00 0.000000000000000e+00 0.000000000000000e+00
0.000000000000000e+00 0.000000000000000e+00 0.000000000000000e+00
0.000000000000000e+00 0.000000000000000e+00 0.000000000000000e+00
0.000000000000000e+00 0.000000000000000e+00 0.000000000000000e+00
0.000000000000000e+00 0.000000000000000e+00 0.000000000000000e+00
0.000000000000000e+00 0.000000000000000e+00 0.000000000000000e+00
0.000000000000000e+00 0.000000000000000e+00 0.000000000000000e+00
0.000000000000000e+00 0.000000000000000e+00 0.000000000000000e+00
0.000000000000000e+00 0.000000000000000e+00 0.000000000000000e+00
0.000000000000000e+00 0.000000000000000e+00 0.000000000000000e+00
0.000000000000000e+00 0.000000000000000e+00 0.000000000000000e+00
0.000000000000000e+00 0.000000000000000e+00 0.000000000000000e+00
0.000000000000000e+00 0.000000000000000e+00 0.000000000000000e+00
0.000000000000000e+00 0.000000000000000e+00 0.000000000000000e+00
0.000000000000000e+00 0.000000000000000e+00 0.000000000000000e+00
0.000000000000000e+00 0.000000000000000e+00 0.000000000000000e+00
0.000000000000000e+00 0.000000000000000e+00 0.000000000000000e+00
0.000000000000000e+00 0.000000000000000e+00 0.000000000000000e+00
0.000000000000000e+00 0.000000000000000e+00 0.000000000000000e+00
0.000000000000000e+00 0.000000000000000e+00 0.000000000000000e+00
0.000000000000000e+00 0.000000000000000e+00 0.000000000000000e+00
0.000000000000000e+00 0.000000000000000e+00 0.000000000000000e+00
0.000000000000000e+00 0.000000000000000e+00 0.000000000000000e+00
0.000000000000000e+00 0.000000000000000e+00 0.000000000000000e+00
0.000000000000000e+00 0.000000000000000e+00 0.000000000000000e+00
0.000000000000000e+00 0.000000000000000e+00 0.000000000000000e+00
0.000000000000000e+00 0.000000000000000e+00 0.000000000000000e+00
0.000000000000000e+00 0.000000000000000e+00 0.000000000000000e+00
0.000000000000000e+00 0.000000000000000e+00 0.000000000000000e+00
0.000000000000000e+00 0.000000000000000e+00 0.000000000000000e+00
0.000000000000000e+00 0.000000000000000e+00 0.000000000000000e+00
0.000000000000000e+00 0.000000000000000e+00 0.000000000000000e+00
0.000000000000000e+00 0.000000000000000e+00 0.000000000000000e+00
0.000000000000000e+00 0.000000000000000e+00 0.000000000000000e+00
0.000000000000000e+00 0.000000000000000e+00 0.000000000000000e+00
0.000000000000000e+00 0.000000000000000e+00 0.000000000000000e+00
0.000000000000000e+00 0.000000000000000e+00 0.000000000000000e+00
0.000000000000000e+00 0.000000000000000e+00 0.000000000000000e+00
0.000000000000000e+00 0.000000000000000e+00 0.000000000000000e+00
0.000000000000000e+00 0.000000000000000e+00 0.000000000000000e+00
0.000000000000000e+00 0.000000000000000e+00 0.000000000000000e+00
0.000000000000000e+00 0.000000000000000e+00 0.000000000000000e+00
0.000000000000000e+00 0.000000000000000e+00 0.000000000000000e+00
0.000000000000000e+00 0.000000000000000e+00 0.000000000000000e+00
0.000000000000000e+00 0.000000000000000e+00 0.000000000000000e+00
0.000000000000000e+00 0.000000000000000e+00 0.000000000000000e+00
0.000000000000000e+00 0.000000000000000e+00 0.000000000000000e+00
0.000000000000000e+00 0.000000000000000e+00 0.000000000000000e+00
0.000000000000000e+00 0.000000000000000e+00 0.000000000000000e+00
0.000000000000000e+00 0.000000000000000e+00 0.000000000000000e+00
0.000000000000000e+00 0.000000000000000e+00 0.000000000000000e+00
0.000000000000000e+00 0.000000000000000e+00 0.000000000000000e+00
0.000000000000000e+00 0.000000000000000e+00 0.000000000000000e+00
0.000000000000000e+00 0.000000000000000e+00 0.000000000000000e+00
0.000000000000000e+00 0.000000000000000e+00 0.000000000000000e+00
0.000000000000000e+00 0.000000000000000e+00 0.000000000000000e+00
0.000000000000000e+00 0.000000000000000e+00 0.000000000000000e+00
0.000000000000000e+00 0.000000000000000e+00 0.000000000000000e+00
0.000000000000000e+00 0.000000000000000e+00 0.000000000000000e+00
0.000000000000000e+00 0.000000000000000e+00 0.000000000000000e+00
0.000000000000000e+00 0.000000000000000e+00 0.000000000000000e+00
0.000000000000000e+00 0.000000000000000e+00 0.000000000000000e+00
0.000000000000000e+00 0.000000000000000e+00 0.000000000000000e+00
0.000000000000000e+00 0.000000000000000e+00 0.000000000000000e+00
0.000000000000000e+00 0.000000000000000e+00 0.000000000000000e+00
0.000000000000000e+00 0.000000000000000e+00 0.000000000000000e+00
0.000000000000000e+00 0.000000000000000e+00 0.000000000000000e+00
0.000000000000000e+00 0.000000000000000e+00 0.000000000000000e+00
0.000000000000000e+00 0.000000000000000e+00 0.000000000000000e+00
0.000000000000000e+00 0.000000000000000e+00 0.000000000000000e+00
0.000000000000000e+00 0.000000000000000e+00 0.000000000000000e+00
0.000000000000000e+00 0.000000000000000e+00 0.000000000000000e+00
0.000000000000000e+00 0.000000000000000e+00 0.000000000000000e+00
0.000000000000000e+00 0.000000000000000e+00 0.000000000000000e+00
0.000000000000000e+00 0.000000000000000e+00 0.000000000000000e+00
0.000000000000000e+00 0.000000000000000e+00 0.000000000000000e+00
0.000000000000000e+00 0.000000000000000e+00 0.000000000000000e+00
0.000000000000000e+00 0.000000000000000e+00 0.000000000000000e+00
0.000000000000000e+00 0.000000000000000e+00 0.000000000000000e+00
0.000000000000000e+00 0.000000000000000e+00 0.000000000000000e+00
0.000000000000000e+00 0.000000000000000e+00 0.000000000000000e+00
0.000000000000000e+00 0.000000000000000e+00 0.000000000000000e+00
0.000000000000000e+00 0.000000000000000e+00 0.000000000000000e+00
0.000000000000000e+00 0.000000000000000e+00 0.000000000000000e+00
0.000000000000000e+00 0.000000000000000e+00 0.000000000000000e+00
0.000000000000000e+00 0.000000000000000e+00 0.000000000000000e+00
0.000000000000000e+00 0.000000000000000e+00 0.000000000000000e+00
0.000000000000000e+00 0.000000000000000e+00 0.000000000000000e+00
0.000000000000000e+00 0.000000000000000e+00 0.000000000000000e+00
0.000000000000000e+00 0.000000000000000e+00 0.000000000000000e+00
0.000000000000000e+00 0.000000000000000e+00 0.000000000000000e+00
0.000000000000000e+00 0.000000000000000e+00 0.000000000000000e+00
0.000000000000000e+00 0.000000000000000e+00 0.000000000000000e+00
0.000000000000000e+00 0.000000000000000e+00 0.000000000000000e+00
0.000000000000000e+00 0.000000000000000e+00 0.000000000000000e+00
0.000000000000000e+00 0.000000000000000e+00 0.000000000000000e+00
0.000000000000000e+00 0.000000000000000e+00 0.000000000000000e+00
0.000000000000000e+00 0.000000000000000e+00 0.000000000000000e+00
0.000000000000000e+00 0.000000000000000e+00 0.000000000000000e+00
0.000000000000000e+00 0.000000000000000e+00 0.000000000000000e+00
0.000000000000000e+00 0.000000000000000e+00 0.000000000000000e+00
0.000000000000000e+00 0.000000000000000e+00 0.000000000000000e+00
0.000000000000000e+00 0.000000000000000e+00 0.000000000000000e+00
0.000000000000000e+00 0.000000000000000e+00 0.000000000000000e+00
0.000000000000000e+00 0.000000000000000e+00 0.000000000000000e+00
0.000000000000000e+00 0.000000000000000e+00 0.000000000000000e+00
0.000000000000000e+00 0.000000000000000e+00 0.000000000000000e+00
0.000000000000000e+00 0.000000000000000e+00 0.000000000000000e+00
0.000000000000000e+00 0.000000000000000e+00 0.000000000000000e+00
0.000000000000000e+00 0.000000000000000e+00 0.000000000000000e+00
0.000000000000000e+00 0.000000000000000e+00 0.000000000000000e+00
0.000000000000000e+00 0.000000000000000e+00 0.000000000000000e+00
0.000000000000000e+00 0.000000000000000e+00 0.000000000000000e+00
0.000000000000000e+00 0.000000000000000e+00 0.000000000000000e+00
0.000000000000000e+00 0.000000000000000e+00 0.000000000000000e+00
0.000000000000000e+00 0.000000000000000e+00 0.000000000000000e+00
0.000000000000000e+00 0.000000000000000e+00 0.000000000000000e+00
0.000000000000000e+00 0.000000000000000e+00 0.000000000000000e+00
0.000000000000000e+00 0.000000000000000e+00 0.000000000000000e+00
0.000000000000000e+00 0.000000000000000e+00 0.000000000000000e+00
0.000000000000000e+00 0.000000000000000e+00 0.000000000000000e+00
0.000000000000000e+00 0.000000000000000e+00 0.000000000000000e+00
0.000000000000000e+00 0.000000000000000e+00 0.000000000000000e+00
0.000000000000000e+00 0.000000000000000e+00 0.000000000000000e+00
0.000000000000000e+00 0.000000000000000e+00 0.000000000000000e+00
0.000000000000000e+00 0.000000000000000e+00 0.000000000000000e+00
0.000000000000000e+00 0.000000000000000e+00 0.000000000000000e+00
0.000000000000000e+00 0.000000000000000e+00 0.000000000000000e+00
0.000000000000000e+00 0.000000000000000e+00 0.000000000000000e+00
0.000000000000000e+00 0.000000000000000e+00 0.000000000000000e+00
0.000000000000000e+00 0.000000000000000e+00 0.000000000000000e+00
0.000000000000000e+00 0.000000000000000e+00 0.000000000000000e+00
0.000000000000000e+00 0.000000000000000e+00 0.000000000000000e+00
0.000000000000000e+00 0.000000000000000e+00 0.000000000000000e+00
0.000000000000000e+00 0.000000000000000e+00 0.000000000000000e+00
0.000000000000000e+00 0.000000000000000e+00 0.000000000000000e+00
0.000000000000000e+00 0.000000000000000e+00 0.000000000000000e+00
0.000000000000000e+00 0.000000000000000e+00 0.000000000000000e+00
0.000000000000000e+00 0.000000000000000e+00 0.000000000000000e+00
0.000000000000000e+00 0.000000000000000e+00 0.000000000000000e+00
0.000000000000000e+00 0.000000000000000e+00 0.000000000000000e+00
0.000000000000000e+00 0.000000000000000e+00 0.000000000000000e+00
0.000000000000000e+00 0.000000000000000e+00 0.000000000000000e+00
0.000000000000000e+00 0.000000000000000e+00 0.000000000000000e+00
0.000000000000000e+00 0.000000000000000e+00 0.000000000000000e+00
0.000000000000000e+00 0.000000000000000e+00 0.000000000000000e+00
0.000000000000000e+00 0.000000000000000e+00 0.000000000000000e+00
0.000000000000000e+00 0.000000000000000e+00 0.000000000000000e+00
0.000000000000000e+00 0.000000000000000e+00 0.000000000000000e+00
0.000000000000000e+00 0.000000000000000e+00 0.000000000000000e+00
0.000000000000000e+00 0.000000000000000e+00 0.000000000000000e+00
0.000000000000000e+00 0.000000000000000e+00 0.000000000000000e+00
0.000000000000000e+00 0.000000000000000e+00 0.000000000000000e+00
0.000000000000000e+00 0.000000000000000e+00 0.000000000000000e+00
0.000000000000000e+00 0.000000000000000e+00 0.000000000000000e+00
0.000000000000000e+00 0.000000000000000e+00 0.000000000000000e+00
0.000000000000000e+00 0.000000000000000e+00 0.000000000000000e+00
0.000000000000000e+00 0.000000000000000e+00 0.000000000000000e+00
0.000000000000000e+00 0.000000000000000e+00 0.000000000000000e+00
0.000000000000000e+00 0.000000000000000e+00 0.000000000000000e+00
0.000000000000000e+00 0.000000000000000e+00 0.000000000000000e+00
0.000000000000000e+00 0.000000000000000e+00 0.000000000000000e+00
0.000000000000000e+00 0.000000000000000e+00 0.000000000000000e+00
0.000000000000000e+00 0.000000000000000e+00 0.000000000000000e+00
0.000000000000000e+00 0.000000000000000e+00 0.000000000000000e+00
0.000000000000000e+00 0.000000000000000e+00 0.000000000000000e+00
0.000000000000000e+00 0.000000000000000e+00 0.000000000000000e+00
0.000000000000000e+00 0.000000000000000e+00 0.000000000000000e+00
0.000000000000000e+00 0.000000000000000e+00 0.000000000000000e+00
0.000000000000000e+00 0.000000000000000e+00 0.000000000000000e+00
0.000000000000000e+00 0.000000000000000e+00 0.000000000000000e+00
0.000000000000000e+00 0.000000000000000e+00 0.000000000000000e+00
0.000000000000000e+00 0.000000000000000e+00 0.000000000000000e+00
0.000000000000000e+00 0.000000000000000e+00 0.000000000000000e+00
0.000000000000000e+00 0.000000000000000e+00 0.000000000000000e+00
0.000000000000000e+00 0.000000000000000e+00 0.000000000000000e+00
0.000000000000000e+00 0.000000000000000e+00 0.000000000000000e+00
0.000000000000000e+00 0.000000000000000e+00 0.000000000000000e+00
0.000000000000000e+00 0.000000000000000e+00 0.000000000000000e+00
0.000000000000000e+00 0.000000000000000e+00 0.000000000000000e+00
0.000000000000000e+00 0.000000000000000e+00 0.000000000000000e+00
0.000000000000000e+00 0.000000000000000e+00 0.000000000000000e+00
0.000000000000000e+00 0.000000000000000e+00 0.000000000000000e+00
0.000000000000000e+00 0.000000000000000e+00 0.000000000000000e+00
0.000000000000000e+00 0.000000000000000e+00 0.000000000000000e+00
0.000000000000000e+00 0.000000000000000e+00 0.000000000000000e+00
0.000000000000000e+00 0.000000000000000e+00 0.000000000000000e+00
0.000000000000000e+00 0.000000000000000e+00 0.000000000000000e+00
0.000000000000000e+00 0.000000000000000e+00 0.000000000000000e+00
0.000000000000000e+00 0.000000000000000e+00 0.000000000000000e+00
0.000000000000000e+00 0.000000000000000e+00 0.000000000000000e+00
0.000000000000000e+00 0.000000000000000e+00 0.000000000000000e+00
0.000000000000000e+00 0.000000000000000e+00 0.000000000000000e+00
0.000000000000000e+00 0.000000000000000e+00 0.000000000000000e+00
0.000000000000000e+00 0.000000000000000e+00 0.000000000000000e+00
0.000000000000000e+00 0.000000000000000e+00 0.000000000000000e+00
0.000000000000000e+00 0.000000000000000e+00 0.000000000000000e+00
0.000000000000000e+00 0.000000000000000e+00 0.000000000000000e+00
0.000000000000000e+00 0.000000000000000e+00 0.000000000000000e+00
0.000000000000000e+00 0.000000000000000e+00 0.000000000000000e+00
0.000000000000000e+00 0.000000000000000e+00 0.000000000000000e+00
0.000000000000000e+00 0.000000000000000e+00 0.000000000000000e+00
0.000000000000000e+00 0.000000000000000e+00 0.000000000000000e+00
0.000000000000000e+00 0.000000000000000e+00 0.000000000000000e+00
0.000000000000000e+00 0.000000000000000e+00 0.000000000000000e+00
0.000000000000000e+00 0.000000000000000e+00 0.000000000000000e+00
0.000000000000000e+00 0.000000000000000e+00 0.000000000000000e+00
0.000000000000000e+00 0.000000000000000e+00 0.000000000000000e+00
0.000000000000000e+00 0.000000000000000e+00 0.000000000000000e+00
0.000000000000000e+00 0.000000000000000e+00 0.000000000000000e+00
0.000000000000000e+00 0.000000000000000e+00 0.000000000000000e+00
0.000000000000000e+00 0.000000000000000e+00 0.000000000000000e+00
0.000000000000000e+00 0.000000000000000e+00 0.000000000000000e+00
0.000000000000000e+00 0.000000000000000e+00 0.000000000000000e+00
0.000000000000000e+00 0.000000000000000e+00 0.000000000000000e+00
0.000000000000000e+00 0.000000000000000e+00 0.000000000000000e+00
0.000000000000000e+00 0.000000000000000e+00 0.000000000000000e+00
0.000000000000000e+00 0.000000000000000e+00 0.000000000000000e+00
0.000000000000000e+00 0.000000000000000e+00 0.000000000000000e+00
0.000000000000000e+00 0.000000000000000e+00 0.000000000000000e+00
0.000000000000000e+00 0.000000000000000e+00 0.000000000000000e+00
0.000000000000000e+00 0.000000000000000e+00 0.000000000000000e+00
0.000000000000000e+00 0.000000000000000e+00 0.000000000000000e+00
0.000000000000000e+00 0.000000000000000e+00 0.000000000000000e+00
0.000000000000000e+00 0.000000000000000e+00 0.000000000000000e+00
0.000000000000000e+00 0.000000000000000e+00 0.000000000000000e+00
0.000000000000000e+00 0.000000000000000e+00 0.000000000000000e+00
0.000000000000000e+00 0.000000000000000e+00 0.000000000000000e+00
0.000000000000000e+00 0.000000000000000e+00 0.000000000000000e+00
0.000000000000000e+00 0.000000000000000e+00 0.000000000000000e+00
0.000000000000000e+00 0.000000000000000e+00 0.000000000000000e+00
0.000000000000000e+00 0.000000000000000e+00 0.000000000000000e+00
0.000000000000000e+00 0.000000000000000e+00 0.000000000000000e+00
0.000000000000000e+00 0.000000000000000e+00 0.000000000000000e+00
0.000000000000000e+00 0.000000000000000e+00 0.000000000000000e+00
0.000000000000000e+00 0.000000000000000e+00 0.000000000000000e+00
0.000000000000000e+00 0.000000000000000e+00 0.000000000000000e+00
0.000000000000000e+00 0.000000000000000e+00 0.000000000000000e+00
0.000000000000000e+00 0.000000000000000e+00 0.000000000000000e+00
0.000000000000000e+00 0.000000000000000e+00 0.000000000000000e+00
0.000000000000000e+00 0.000000000000000e+00 0.000000000000000e+00
0.000000000000000e+00 0.000000000000000e+00 0.000000000000000e+00
0.000000000000000e+00 0.000000000000000e+00 0.000000000000000e+00
0.000000000000000e+00 0.000000000000000e+00 0.000000000000000e+00
0.000000000000000e+00 0.000000000000000e+00 0.000000000000000e+00
0.000000000000000e+00 0.000000000000000e+00 0.000000000000000e+00
0.000000000000000e+00 0.000000000000000e+00 0.000000000000000e+00
0.000000000000000e+00 0.000000000000000e+00 0.000000000000000e+00
0.000000000000000e+00 0.000000000000000e+00 0.000000000000000e+00
0.000000000000000e+00 0.000000000000000e+00 0.000000000000000e+00
0.000000000000000e+00 0.000000000000000e+00 0.000000000000000e+00
0.000000000000000e+00 0.000000000000000e+00 0.000000000000000e+00
0.000000000000000e+00 0.000000000000000e+00 0.000000000000000e+00
0.000000000000000e+00 0.000000000000000e+00 0.000000000000000e+00
0.000000000000000e+00 0.000000000000000e+00 0.000000000000000e+00
0.000000000000000e+00 0.000000000000000e+00 0.000000000000000e+00
0.000000000000000e+00 0.000000000000000e+00 0.000000000000000e+00
0.000000000000000e+00 0.000000000000000e+00 0.000000000000000e+00
0.000000000000000e+00 0.000000000000000e+00 0.000000000000000e+00
0.000000000000000e+00 0.000000000000000e+00 0.000000000000000e+00
0.000000000000000e+00 0.000000000000000e+00 0.000000000000000e+00
0.000000000000000e+00 0.000000000000000e+00 0.000000000000000e+00
0.000000000000000e+00 0.000000000000000e+00 0.000000000000000e+00
0.000000000000000e+00 0.000000000000000e+00 0.000000000000000e+00
0.000000000000000e+00 0.000000000000000e+00 0.000000000000000e+00
0.000000000000000e+00 0.000000000000000e+00 0.000000000000000e+00
0.000000000000000e+00 0.000000000000000e+00 0.000000000000000e+00
0.000000000000000e+00 0.000000000000000e+00 0.000000000000000e+00
0.000000000000000e+00 0.000000000000000e+00 0.000000000000000e+00
0.000000000000000e+00 0.000000000000000e+00 0.000000000000000e+00
0.000000000000000e+00 0.000000000000000e+00 0.000000000000000e+00
0.000000000000000e+00 0.000000000000000e+00 0.000000000000000e+00
0.000000000000000e+00 0.000000000000000e+00 0.000000000000000e+00
0.000000000000000e+00 0.000000000000000e+00 0.000000000000000e+00
0.000000000000000e+00 0.000000000000000e+00 0.000000000000000e+00
0.000000000000000e+00 0.000000000000000e+00 0.000000000000000e+00
0.000000000000000e+00 0.000000000000000e+00 0.000000000000000e+00
0.000000000000000e+00 0.000000000000000e+00 0.000000000000000e+00
0.000000000000000e+00 0.000000000000000e+00 0.000000000000000e+00
0.000000000000000e+00 0.000000000000000e+00 0.000000000000000e+00
0.000000000000000e+00 0.000000000000000e+00 0.000000000000000e+00
0.000000000000000e+00 0.000000000000000e+00 0.000000000000000e+00
0.000000000000000e+00 0.000000000000000e+00 0.000000000000000e+00
0.000000000000000e+00 0.000000000000000e+00 0.000000000000000e+00
0.000000000000000e+00 0.000000000000000e+00 0.000000000000000e+00
0.000000000000000e+00 0.000000000000000e+00 0.000000000000000e+00
0.000000000000000e+00 0.000000000000000e+00 0.000000000000000e+00
0.000000000000000e+00 0.000000000000000e+00 0.000000000000000e+00
0.000000000000000e+00 0.000000000000000e+00 0.000000000000000e+00
0.000000000000000e+00 0.000000000000000e+00 0.000000000000000e+00
0.000000000000000e+00 0.000000000000000e+00 0.000000000000000e+00
0.000000000000000e+00 0.000000000000000e+00 0.000000000000000e+00
0.000000000000000e+00 0.000000000000000e+00 0.000000000000000e+00
0.000000000000000e+00 0.000000000000000e+00 0.000000000000000e+00
0.000000000000000e+00 0.000000000000000e+00 0.000000000000000e+00
0.000000000000000e+00 0.000000000000000e+00 0.000000000000000e+00
0.000000000000000e+00 0.000000000000000e+00 0.000000000000000e+00
0.000000000000000e+00 0.000000000000000e+00 0.000000000000000e+00
0.000000000000000e+00 0.000000000000000e+00 0.000000000000000e+00
0.000000000000000e+00 0.000000000000000e+00 0.000000000000000e+00
0.000000000000000e+00 0.000000000000000e+00 0.000000000000000e+00
0.000000000000000e+00 0.000000000000000e+00 0.000000000000000e+00
0.000000000000000e+00 0.000000000000000e+00 0.000000000000000e+00
0.000000000000000e+00 0.000000000000000e+00 0.000000000000000e+00
0.000000000000000e+00 0.000000000000000e+00 0.000000000000000e+00
0.000000000000000e+00 0.000000000000000e+00 0.000000000000000e+00
0.000000000000000e+00 0.000000000000000e+00 0.000000000000000e+00
0.000000000000000e+00 0.000000000000000e+00 0.000000000000000e+00
0.000000000000000e+00 0.000000000000000e+00 0.000000000000000e+00
0.000000000000000e+00 0.000000000000000e+00 0.000000000000000e+00
0.000000000000000e+00 0.000000000000000e+00 0.000000000000000e+00
0.000000000000000e+00 0.000000000000000e+00 0.000000000000000e+00
0.000000000000000e+00 0.000000000000000e+00 0.000000000000000e+00
0.000000000000000e+00 0.000000000000000e+00 0.000000000000000e+00
0.000000000000000e+00 0.000000000000000e+00 0.000000000000000e+00
0.000000000000000e+00 0.000000000000000e+00 0.000000000000000e+00
0.000000000000000e+00 0.000000000000000e+00 0.000000000000000e+00
0.000000000000000e+00 0.000000000000000e+00 0.000000000000000e+00
0.000000000000000e+00 0.000000000000000e+00 0.000000000000000e+00
0.000000000000000e+00 0.000000000000000e+00 0.000000000000000e+00
0.000000000000000e+00 0.000000000000000e+00 0.000000000000000e+00
0.000000000000000e+00 0.000000000000000e+00 0.000000000000000e+00
0.000000000000000e+00 0.000000000000000e+00 0.000000000000000e+00
0.000000000000000e+00 0.000000000000000e+00 0.000000000000000e+00
0.000000000000000e+00 0.000000000000000e+00 0.000000000000000e+00
0.000000000000000e+00 0.000000000000000e+00 0.000000000000000e+00
0.000000000000000e+00 0.000000000000000e+00 0.000000000000000e+00
0.000000000000000e+00 0.000000000000000e+00 0.000000000000000e+00
0.000000000000000e+00 0.000000000000000e+00 0.000000000000000e+00
0.000000000000000e+00 0.000000000000000e+00 0.000000000000000e+00
0.000000000000000e+00 0.000000000000000e+00 0.000000000000000e+00
0.000000000000000e+00 0.000000000000000e+00 0.000000000000000e+00
0.000000000000000e+00 0.000000000000000e+00 0.000000000000000e+00
0.000000000000000e+00 0.000000000000000e+00 0.000000000000000e+00
0.000000000000000e+00 0.000000000000000e+00 0.000000000000000e+00
0.000000000000000e+00 0.000000000000000e+00 0.000000000000000e+00
0.000000000000000e+00 0.000000000000000e+00 0.000000000000000e+00
0.000000000000000e+00 0.000000000000000e+00 0.000000000000000e+00
0.000000000000000e+00 0.000000000000000e+00 0.000000000000000e+00
0.000000000000000e+00 0.000000000000000e+00 0.000000000000000e+00
0.000000000000000e+00 0.000000000000000e+00 0.000000000000000e+00
0.000000000000000e+00 0.000000000000000e+00 0.000000000000000e+00
0.000000000000000e+00 0.000000000000000e+00 0.000000000000000e+00
0.000000000000000e+00 0.000000000000000e+00 0.000000000000000e+00
0.000000000000000e+00 0.000000000000000e+00 0.000000000000000e+00
0.000000000000000e+00 0.000000000000000e+00 0.000000000000000e+00
0.000000000000000e+00 0.000000000000000e+00 0.000000000000000e+00
0.000000000000000e+00 0.000000000000000e+00 0.000000000000000e+00
0.000000000000000e+00 0.000000000000000e+00 0.000000000000000e+00
0.000000000000000e+00 0.000000000000000e+00 0.000000000000000e+00
0.000000000000000e+00 0.000000000000000e+00 0.000000000000000e+00
0.000000000000000e+00 0.000000000000000e+00 0.000000000000000e+00
0.000000000000000e+00 0.000000000000000e+00 0.000000000000000e+00
0.000000000000000e+00 0.000000000000000e+00 0.000000000000000e+00
0.000000000000000e+00 0.000000000000000e+00 0.000000000000000e+00
0.000000000000000e+00 0.000000000000000e+00 0.000000000000000e+00
0.000000000000000e+00 0.000000000000000e+00 0.000000000000000e+00
0.000000000000000e+00 0.000000000000000e+00 0.000000000000000e+00
0.000000000000000e+00 0.000000000000000e+00 0.000000000000000e+00
0.000000000000000e+00 0.000000000000000e+00 0.000000000000000e+00
0.000000000000000e+00 0.000000000000000e+00 0.000000000000000e+00
0.000000000000000e+00 0.000000000000000e+00 0.000000000000000e+00
0.000000000000000e+00 0.000000000000000e+00 0.000000000000000e+00
0.000000000000000e+00 0.000000000000000e+00 0.000000000000000e+00
0.000000000000000e+00 0.000000000000000e+00 0.000000000000000e+00
0.000000000000000e+00 0.000000000000000e+00 0.000000000000000e+00
0.000000000000000e+00 0.000000000000000e+00 0.000000000000000e+00
0.000000000000000e+00 0.000000000000000e+00 0.000000000000000e+00
0.000000000000000e+00 0.000000000000000e+00 0.000000000000000e+00
0.000000000000000e+00 0.000000000000000e+00 0.000000000000000e+00
0.000000000000000e+00 0.000000000000000e+00 0.000000000000000e+00
0.000000000000000e+00 0.000000000000000e+00 0.000000000000000e+00
0.000000000000000e+00 0.000000000000000e+00 0.000000000000000e+00
0.000000000000000e+00 0.000000000000000e+00 0.000000000000000e+00
0.000000000000000e+00 0.000000000000000e+00 0.000000000000000e+00
0.000000000000000e+00 0.000000000000000e+00 0.000000000000000e+00
0.000000000000000e+00 0.000000000000000e+00 0.000000000000000e+00
0.000000000000000e+00 0.000000000000000e+00 0.000000000000000e+00
0.000000000000000e+00 0.000000000000000e+00 0.000000000000000e+00
0.000000000000000e+00 0.000000000000000e+00 0.000000000000000e+00
0.000000000000000e+00 0.000000000000000e+00 0.000000000000000e+00
0.000000000000000e+00 0.000000000000000e+00 0.000000000000000e+00
0.000000000000000e+00 0.000000000000000e+00 0.000000000000000e+00
0.000000000000000e+00 0.000000000000000e+00 0.000000000000000e+00
0.000000000000000e+00 0.000000000000000e+00 0.000000000000000e+00
0.000000000000000e+00 0.000000000000000e+00 0.000000000000000e+00
0.000000000000000e+00 0.000000000000000e+00 0.000000000000000e+00
0.000000000000000e+00 0.000000000000000e+00 0.000000000000000e+00
0.000000000000000e+00 0.000000000000000e+00 0.000000000000000e+00
0.000000000000000e+00 0.000000000000000e+00 0.000000000000000e+00
0.000000000000000e+00 0.000000000000000e+00 0.000000000000000e+00
0.000000000000000e+00 0.000000000000000e+00 0.000000000000000e+00
0.000000000000000e+00 0.000000000000000e+00 0.000000000000000e+00
0.000000000000000e+00 0.000000000000000e+00 0.000000000000000e+00
0.000000000000000e+00 0.000000000000000e+00 0.000000000000000e+00
0.000000000000000e+00 0.000000000000000e+00 0.000000000000000e+00
0.000000000000000e+00 0.000000000000000e+00 0.000000000000000e+00
0.000000000000000e+00 0.000000000000000e+00 0.000000000000000e+00
0.000000000000000e+00 0.000000000000000e+00 0.000000000000000e+00
0.000000000000000e+00 0.000000000000000e+00 0.000000000000000e+00
0.000000000000000e+00 0.000000000000000e+00 0.000000000000000e+00
0.000000000000000e+00 0.000000000000000e+00 0.000000000000000e+00
0.000000000000000e+00 0.000000000000000e+00 0.000000000000000e+00
0.000000000000000e+00 0.000000000000000e+00 0.000000000000000e+00
0.000000000000000e+00 0.000000000000000e+00 0.000000000000000e+00
0.000000000000000e+00 0.000000000000000e+00 0.000000000000000e+00
0.000000000000000e+00 0.000000000000000e+00 0.000000000000000e+00
0.000000000000000e+00 0.000000000000000e+00 0.000000000000000e+00
0.000000000000000e+00 0.000000000000000e+00 0.000000000000000e+00
0.000000000000000e+00 0.000000000000000e+00 0.000000000000000e+00
0.000000000000000e+00 0.000000000000000e+00 0.000000000000000e+00
0.000000000000000e+00 0.000000000000000e+00 0.000000000000000e+00
0.000000000000000e+00 0.000000000000000e+00 0.000000000000000e+00
0.000000000000000e+00 0.000000000000000e+00 0.000000000000000e+00
0.000000000000000e+00 0.000000000000000e+00 0.000000000000000e+00
0.000000000000000e+00 0.000000000000000e+00 0.000000000000000e+00
0.000000000000000e+00 0.000000000000000e+00 0.000000000000000e+00
0.000000000000000e+00 0.000000000000000e+00 0.000000000000000e+00
0.000000000000000e+00 0.000000000000000e+00 0.000000000000000e+00
0.000000000000000e+00 0.000000000000000e+00 0.000000000000000e+00
0.000000000000000e+00 0.000000000000000e+00 0.000000000000000e+00
0.000000000000000e+00 0.000000000000000e+00 0.000000000000000e+00
0.000000000000000e+00 0.000000000000000e+00 0.000000000000000e+00
0.000000000000000e+00 0.000000000000000e+00 0.000000000000000e+00
0.000000000000000e+00 0.000000000000000e+00 0.000000000000000e+00
0.000000000000000e+00 0.000000000000000e+00 0.000000000000000e+00
0.000000000000000e+00 0.000000000000000e+00 0.000000000000000e+00
0.000000000000000e+00 0.000000000000000e+00 0.000000000000000e+00
0.000000000000000e+00 0.000000000000000e+00 0.000000000000000e+00
0.000000000000000e+00 0.000000000000000e+00 0.000000000000000e+00
0.000000000000000e+00 0.000000000000000e+00 0.000000000000000e+00
0.000000000000000e+00 0.000000000000000e+00 0.000000000000000e+00
0.000000000000000e+00 0.000000000000000e+00 0.000000000000000e+00
0.000000000000000e+00 0.000000000000000e+00 0.000000000000000e+00
0.000000000000000e+00 0.000000000000000e+00 0.000000000000000e+00
0.000000000000000e+00 0.000000000000000e+00 0.000000000000000e+00
0.000000000000000e+00 0.000000000000000e+00 0.000000000000000e+00
0.000000000000000e+00 0.000000000000000e+00 0.000000000000000e+00
0.000000000000000e+00 0.000000000000000e+00 0.000000000000000e+00
0.000000000000000e+00 0.000000000000000e+00 0.000000000000000e+00
0.000000000000000e+00 0.000000000000000e+00 0.000000000000000e+00
0.000000000000000e+00 0.000000000000000e+00 0.000000000000000e+00
0.000000000000000e+00 0.000000000000000e+00 0.000000000000000e+00
0.000000000000000e+00 0.000000000000000e+00 0.000000000000000e+00
0.000000000000000e+00 0.000000000000000e+00 0.000000000000000e+00
0.000000000000000e+00 0.000000000000000e+00 0.000000000000000e+00
0.000000000000000e+00 0.000000000000000e+00 0.000000000000000e+00
0.000000000000000e+00 0.000000000000000e+00 0.000000000000000e+00
0.000000000000000e+00 0.000000000000000e+00 0.000000000000000e+00
0.000000000000000e+00 0.000000000000000e+00 0.000000000000000e+00
0.000000000000000e+00 0.000000000000000e+00 0.000000000000000e+00
0.000000000000000e+00 0.000000000000000e+00 0.000000000000000e+00
0.000000000000000e+00 0.000000000000000e+00 0.000000000000000e+00
0.000000000000000e+00 0.000000000000000e+00 0.000000000000000e+00
0.000000000000000e+00 0.000000000000000e+00 0.000000000000000e+00
0.000000000000000e+00 0.000000000000000e+00 0.000000000000000e+00
0.000000000000000e+00 0.000000000000000e+00 0.000000000000000e+00
0.000000000000000e+00 0.000000000000000e+00 0.000000000000000e+00
0.000000000000000e+00 0.000000000000000e+00 0.000000000000000e+00
0.000000000000000e+00 0.000000000000000e+00 0.000000000000000e+00
0.000000000000000e+00 0.000000000000000e+00 0.000000000000000e+00
0.000000000000000e+00 0.000000000000000e+00 0.000000000000000e+00
0.000000000000000e+00 0.000000000000000e+00 0.000000000000000e+00
0.000000000000000e+00 0.000000000000000e+00 0.000000000000000e+00
0.000000000000000e+00 0.000000000000000e+00 0.000000000000000e+00
0.000000000000000e+00 0.000000000000000e+00 0.000000000000000e+00
0.000000000000000e+00 0.000000000000000e+00 0.000000000000000e+00
0.000000000000000e+00 0.000000000000000e+00 0.000000000000000e+00
0.000000000000000e+00 0.000000000000000e+00 0.000000000000000e+00
0.000000000000000e+00 0.000000000000000e+00 0.000000000000000e+00
0.000000000000000e+00 0.000000000000000e+00 0.000000000000000e+00
0.000000000000000e+00 0.000000000000000e+00 0.000000000000000e+00
0.000000000000000e+00 0.000000000000000e+00 0.000000000000000e+00
0.000000000000000e+00 0.000000000000000e+00 0.000000000000000e+00
0.000000000000000e+00 0.000000000000000e+00 0.000000000000000e+00
0.000000000000000e+00 0.000000000000000e+00 0.000000000000000e+00
0.000000000000000e+00 0.000000000000000e+00 0.000000000000000e+00
0.000000000000000e+00 0.000000000000000e+00 0.000000000000000e+00
0.000000000000000e+00 0.000000000000000e+00 0.000000000000000e+00
0.000000000000000e+00 0.000000000000000e+00 0.000000000000000e+00
0.000000000000000e+00 0.000000000000000e+00 0.000000000000000e+00
0.000000000000000e+00 0.000000000000000e+00 0.000000000000000e+00
0.000000000000000e+00 0.000000000000000e+00 0.000000000000000e+00
0.000000000000000e+00 0.000000000000000e+00 0.000000000000000e+00
0.000000000000000e+00 0.000000000000000e+00 0.000000000000000e+00
0.000000000000000e+00 0.000000000000000e+00 0.000000000000000e+00
0.000000000000000e+00 0.000000000000000e+00 0.000000000000000e+00
0.000000000000000e+00 0.000000000000000e+00 0.000000000000000e+00
0.000000000000000e+00 0.000000000000000e+00 0.000000000000000e+00
0.000000000000000e+00 0.000000000000000e+00 0.000000000000000e+00
0.000000000000000e+00 0.000000000000000e+00 0.000000000000000e+00
0.000000000000000e+00 0.000000000000000e+00 0.000000000000000e+00
0.000000000000000e+00 0.000000000000000e+00 0.000000000000000e+00
0.000000000000000e+00 0.000000000000000e+00 0.000000000000000e+00
0.000000000000000e+00 0.000000000000000e+00 0.000000000000000e+00
0.000000000000000e+00 0.000000000000000e+00 0.000000000000000e+00
0.000000000000000e+00 0.000000000000000e+00 0.000000000000000e+00
0.000000000000000e+00 0.000000000000000e+00 0.000000000000000e+00
0.000000000000000e+00 0.000000000000000e+00 0.000000000000000e+00
0.000000000000000e+00 0.000000000000000e+00 0.000000000000000e+00
0.000000000000000e+00 0.000000000000000e+00 0.000000000000000e+00
0.000000000000000e+00 0.000000000000000e+00 0.000000000000000e+00
0.000000000000000e+00 0.000000000000000e+00 0.000000000000000e+00
0.000000000000000e+00 0.000000000000000e+00 0.000000000000000e+00
0.000000000000000e+00 0.000000000000000e+00 0.000000000000000e+00
0.000000000000000e+00 0.000000000000000e+00 0.000000000000000e+00
0.000000000000000e+00 0.000000000000000e+00 0.000000000000000e+00
0.000000000000000e+00 0.000000000000000e+00 0.000000000000000e+00
0.000000000000000e+00 0.000000000000000e+00 0.000000000000000e+00
0.000000000000000e+00 0.000000000000000e+00 0.000000000000000e+00
0.000000000000000e+00 0.000000000000000e+00 0.000000000000000e+00
0.000000000000000e+00 0.000000000000000e+00 0.000000000000000e+00
0.000000000000000e+00 0.000000000000000e+00 0.000000000000000e+00
0.000000000000000e+00 0.000000000000000e+00 0.000000000000000e+00
0.000000000000000e+00 0.000000000000000e+00 0.000000000000000e+00
0.000000000000000e+00 0.000000000000000e+00 0.000000000000000e+00
0.000000000000000e+00 0.000000000000000e+00 0.000000000000000e+00
0.000000000000000e+00 0.000000000000000e+00 0.000000000000000e+00
0.000000000000000e+00 0.000000000000000e+00 0.000000000000000e+00
0.000000000000000e+00 0.000000000000000e+00 0.000000000000000e+00
0.000000000000000e+00 0.000000000000000e+00 0.000000000000000e+00
0.000000000000000e+00 0.000000000000000e+00 0.000000000000000e+00
0.000000000000000e+00 0.000000000000000e+00 0.000000000000000e+00
0.000000000000000e+00 0.000000000000000e+00 0.000000000000000e+00
0.000000000000000e+00 0.000000000000000e+00 0.000000000000000e+00
0.000000000000000e+00 0.000000000000000e+00 0.000000000000000e+00
0.000000000000000e+00 0.000000000000000e+00 0.000000000000000e+00
0.000000000000000e+00 0.000000000000000e+00 0.000000000000000e+00
0.000000000000000e+00 0.000000000000000e+00 0.000000000000000e+00
0.000000000000000e+00 0.000000000000000e+00 0.000000000000000e+00
0.000000000000000e+00 0.000000000000000e+00 0.000000000000000e+00
0.000000000000000e+00 0.000000000000000e+00 0.000000000000000e+00
0.000000000000000e+00 0.000000000000000e+00 0.000000000000000e+00
0.000000000000000e+00 0.000000000000000e+00 0.000000000000000e+00
0.000000000000000e+00 0.000000000000000e+00 0.000000000000000e+00
0.000000000000000e+00 0.000000000000000e+00 0.000000000000000e+00
0.000000000000000e+00 0.000000000000000e+00 0.000000000000000e+00
0.000000000000000e+00 0.000000000000000e+00 0.000000000000000e+00
0.000000000000000e+00 0.000000000000000e+00 0.000000000000000e+00
0.000000000000000e+00 0.000000000000000e+00 0.000000000000000e+00
0.000000000000000e+00 0.000000000000000e+00 0.000000000000000e+00
0.000000000000000e+00 0.000000000000000e+00 0.000000000000000e+00
0.000000000000000e+00 0.000000000000000e+00 0.000000000000000e+00
0.000000000000000e+00 0.000000000000000e+00 0.000000000000000e+00
0.000000000000000e+00 0.000000000000000e+00 0.000000000000000e+00
0.000000000000000e+00 0.000000000000000e+00 0.000000000000000e+00
0.000000000000000e+00 0.000000000000000e+00 0.000000000000000e+00
0.000000000000000e+00 0.000000000000000e+00 0.000000000000000e+00
0.000000000000000e+00 0.000000000000000e+00 0.000000000000000e+00
0.000000000000000e+00 0.000000000000000e+00 0.000000000000000e+00
0.000000000000000e+00 0.000000000000000e+00 0.000000000000000e+00
0.000000000000000e+00 0.000000000000000e+00 0.000000000000000e+00
0.000000000000000e+00 0.000000000000000e+00 0.000000000000000e+00
0.000000000000000e+00 0.000000000000000e+00 0.000000000000000e+00
0.000000000000000e+00 0.000000000000000e+00 0.000000000000000e+00
0.000000000000000e+00 0.000000000000000e+00 0.000000000000000e+00
0.000000000000000e+00 0.000000000000000e+00 0.000000000000000e+00
0.000000000000000e+00 0.000000000000000e+00 0.000000000000000e+00
0.000000000000000e+00 0.000000000000000e+00 0.000000000000000e+00
0.000000000000000e+00 0.000000000000000e+00 0.000000000000000e+00
0.000000000000000e+00 0.000000000000000e+00 0.000000000000000e+00
0.000000000000000e+00 0.000000000000000e+00 0.000000000000000e+00
0.000000000000000e+00 0.000000000000000e+00 0.000000000000000e+00
0.000000000000000e+00 0.000000000000000e+00 0.000000000000000e+00
0.000000000000000e+00 0.000000000000000e+00 0.000000000000000e+00
0.000000000000000e+00 0.000000000000000e+00 0.000000000000000e+00
0.000000000000000e+00 0.000000000000000e+00 0.000000000000000e+00
0.000000000000000e+00 0.000000000000000e+00 0.000000000000000e+00
0.000000000000000e+00 0.000000000000000e+00 0.000000000000000e+00
0.000000000000000e+00 0.000000000000000e+00 0.000000000000000e+00
0.000000000000000e+00 0.000000000000000e+00 0.000000000000000e+00
0.000000000000000e+00 0.000000000000000e+00 0.000000000000000e+00
0.000000000000000e+00 0.000000000000000e+00 0.000000000000000e+00
0.000000000000000e+00 0.000000000000000e+00 0.000000000000000e+00
0.000000000000000e+00 0.000000000000000e+00 0.000000000000000e+00
0.000000000000000e+00 0.000000000000000e+00 0.000000000000000e+00
0.000000000000000e+00 0.000000000000000e+00 0.000000000000000e+00
0.000000000000000e+00 0.000000000000000e+00 0.000000000000000e+00
0.000000000000000e+00 0.000000000000000e+00 0.000000000000000e+00
0.000000000000000e+00 0.000000000000000e+00 0.000000000000000e+00
0.000000000000000e+00 0.000000000000000e+00 0.000000000000000e+00
0.000000000000000e+00 0.000000000000000e+00 0.000000000000000e+00
0.000000000000000e+00 0.000000000000000e+00 0.000000000000000e+00
0.000000000000000e+00 0.000000000000000e+00 0.000000000000000e+00
0.000000000000000e+00 0.000000000000000e+00 0.000000000000000e+00
0.000000000000000e+00 0.000000000000000e+00 0.000000000000000e+00
0.000000000000000e+00 0.000000000000000e+00 0.000000000000000e+00
0.000000000000000e+00 0.000000000000000e+00 0.000000000000000e+00
0.000000000000000e+00 0.000000000000000e+00 0.000000000000000e+00
0.000000000000000e+00 0.000000000000000e+00 0.000000000000000e+00
0.000000000000000e+00 0.000000000000000e+00 0.000000000000000e+00
0.000000000000000e+00 0.000000000000000e+00 0.000000000000000e+00
0.000000000000000e+00 0.000000000000000e+00 0.000000000000000e+00
0.000000000000000e+00 0.000000000000000e+00 0.000000000000000e+00
0.000000000000000e+00 0.000000000000000e+00 0.000000000000000e+00
0.000000000000000e+00 0.000000000000000e+00 0.000000000000000e+00
0.000000000000000e+00 0.000000000000000e+00 0.000000000000000e+00
0.000000000000000e+00 0.000000000000000e+00 0.000000000000000e+00
0.000000000000000e+00 0.000000000000000e+00 0.000000000000000e+00
0.000000000000000e+00 0.000000000000000e+00 0.000000000000000e+00
0.000000000000000e+00 0.000000000000000e+00 0.000000000000000e+00
0.000000000000000e+00 0.000000000000000e+00 0.000000000000000e+00
0.000000000000000e+00 0.000000000000000e+00 0.000000000000000e+00
0.000000000000000e+00 0.000000000000000e+00 0.000000000000000e+00
0.000000000000000e+00 0.000000000000000e+00 0.000000000000000e+00
0.000000000000000e+00 0.000000000000000e+00 0.000000000000000e+00
0.000000000000000e+00 0.000000000000000e+00 0.000000000000000e+00
0.000000000000000e+00 0.000000000000000e+00 0.000000000000000e+00
0.000000000000000e+00 0.000000000000000e+00 0.000000000000000e+00
0.000000000000000e+00 0.000000000000000e+00 0.000000000000000e+00
0.000000000000000e+00 0.000000000000000e+00 0.000000000000000e+00
0.000000000000000e+00 0.000000000000000e+00 0.000000000000000e+00
0.000000000000000e+00 0.000000000000000e+00 0.000000000000000e+00
0.000000000000000e+00 0.000000000000000e+00 0.000000000000000e+00
0.000000000000000e+00 0.000000000000000e+00 0.000000000000000e+00
0.000000000000000e+00 0.000000000000000e+00 0.000000000000000e+00
0.000000000000000e+00 0.000000000000000e+00 0.000000000000000e+00
0.000000000000000e+00 0.000000000000000e+00 0.000000000000000e+00
0.000000000000000e+00 0.000000000000000e+00 0.000000000000000e+00
0.000000000000000e+00 0.000000000000000e+00 0.000000000000000e+00
0.000000000000000e+00 0.000000000000000e+00 0.000000000000000e+00
0.000000000000000e+00 0.000000000000000e+00 0.000000000000000e+00
0.000000000000000e+00 0.000000000000000e+00 0.000000000000000e+00
0.000000000000000e+00 0.000000000000000e+00 0.000000000000000e+00
0.000000000000000e+00 0.000000000000000e+00 0.000000000000000e+00
0.000000000000000e+00 0.000000000000000e+00 0.000000000000000e+00
0.000000000000000e+00 0.000000000000000e+00 0.000000000000000e+00
0.000000000000000e+00 0.000000000000000e+00 0.000000000000000e+00
0.000000000000000e+00 0.000000000000000e+00 0.000000000000000e+00
0.000000000000000e+00 0.000000000000000e+00 0.000000000000000e+00
0.000000000000000e+00 0.000000000000000e+00 0.000000000000000e+00
0.000000000000000e+00 0.000000000000000e+00 0.000000000000000e+00
0.000000000000000e+00 0.000000000000000e+00 0.000000000000000e+00
0.000000000000000e+00 0.000000000000000e+00 0.000000000000000e+00
0.000000000000000e+00 0.000000000000000e+00 0.000000000000000e+00
0.000000000000000e+00 0.000000000000000e+00 0.000000000000000e+00
0.000000000000000e+00 0.000000000000000e+00 0.000000000000000e+00
0.000000000000000e+00 0.000000000000000e+00 0.000000000000000e+00
0.000000000000000e+00 0.000000000000000e+00 0.000000000000000e+00
0.000000000000000e+00 0.000000000000000e+00 0.000000000000000e+00
0.000000000000000e+00 0.000000000000000e+00 0.000000000000000e+00
0.000000000000000e+00 0.000000000000000e+00 0.000000000000000e+00
0.000000000000000e+00 0.000000000000000e+00 0.000000000000000e+00
0.000000000000000e+00 0.000000000000000e+00 0.000000000000000e+00
0.000000000000000e+00 0.000000000000000e+00 0.000000000000000e+00
0.000000000000000e+00 0.000000000000000e+00 0.000000000000000e+00
0.000000000000000e+00 0.000000000000000e+00 0.000000000000000e+00
0.000000000000000e+00 0.000000000000000e+00 0.000000000000000e+00
0.000000000000000e+00 0.000000000000000e+00 0.000000000000000e+00
0.000000000000000e+00 0.000000000000000e+00 0.000000000000000e+00
0.000000000000000e+00 0.000000000000000e+00 0.000000000000000e+00
0.000000000000000e+00 0.000000000000000e+00 0.000000000000000e+00
0.000000000000000e+00 0.000000000000000e+00 0.000000000000000e+00
0.000000000000000e+00 0.000000000000000e+00 0.000000000000000e+00
0.000000000000000e+00 0.000000000000000e+00 0.000000000000000e+00
0.000000000000000e+00 0.000000000000000e+00 0.000000000000000e+00
0.000000000000000e+00 0.000000000000000e+00 0.000000000000000e+00
0.000000000000000e+00 0.000000000000000e+00 0.000000000000000e+00
0.000000000000000e+00 0.000000000000000e+00 0.000000000000000e+00
0.000000000000000e+00 0.000000000000000e+00 0.000000000000000e+00
0.000000000000000e+00 0.000000000000000e+00 0.000000000000000e+00
0.000000000000000e+00 0.000000000000000e+00 0.000000000000000e+00
0.000000000000000e+00 0.000000000000000e+00 0.000000000000000e+00
0.000000000000000e+00 0.000000000000000e+00 0.000000000000000e+00
0.000000000000000e+00 0.000000000000000e+00 0.000000000000000e+00
0.000000000000000e+00 0.000000000000000e+00 0.000000000000000e+00
0.000000000000000e+00 0.000000000000000e+00 0.000000000000000e+00
0.000000000000000e+00 0.000000000000000e+00 0.000000000000000e+00
0.000000000000000e+00 0.000000000000000e+00 0.000000000000000e+00
0.000000000000000e+00 0.000000000000000e+00 0.000000000000000e+00
0.000000000000000e+00 0.000000000000000e+00 0.000000000000000e+00
0.000000000000000e+00 0.000000000000000e+00 0.000000000000000e+00
0.000000000000000e+00 0.000000000000000e+00 0.000000000000000e+00
0.000000000000000e+00 0.000000000000000e+00 0.000000000000000e+00
0.000000000000000e+00 0.000000000000000e+00 0.000000000000000e+00
0.000000000000000e+00 0.000000000000000e+00 0.000000000000000e+00
0.000000000000000e+00 0.000000000000000e+00 0.000000000000000e+00
0.000000000000000e+00 0.000000000000000e+00 0.000000000000000e+00
0.000000000000000e+00 0.000000000000000e+00 0.000000000000000e+00
0.000000000000000e+00 0.000000000000000e+00 0.000000000000000e+00
0.000000000000000e+00 0.000000000000000e+00 0.000000000000000e+00
0.000000000000000e+00 0.000000000000000e+00 0.000000000000000e+00
0.000000000000000e+00 0.000000000000000e+00 0.000000000000000e+00
0.000000000000000e+00 0.000000000000000e+00 0.000000000000000e+00
0.000000000000000e+00 0.000000000000000e+00 0.000000000000000e+00
0.000000000000000e+00 0.000000000000000e+00 0.000000000000000e+00
0.000000000000000e+00 0.000000000000000e+00 0.000000000000000e+00
0.000000000000000e+00 0.000000000000000e+00 0.000000000000000e+00
0.000000000000000e+00 0.000000000000000e+00 0.000000000000000e+00
0.000000000000000e+00 0.000000000000000e+00 0.000000000000000e+00
0.000000000000000e+00 0.000000000000000e+00 0.000000000000000e+00
0.000000000000000e+00 0.000000000000000e+00 0.000000000000000e+00
0.000000000000000e+00 0.000000000000000e+00 0.000000000000000e+00
0.000000000000000e+00 0.000000000000000e+00 0.000000000000000e+00
0.000000000000000e+00 0.000000000000000e+00 0.000000000000000e+00
0.000000000000000e+00 0.000000000000000e+00 0.000000000000000e+00
0.000000000000000e+00 0.000000000000000e+00 0.000000000000000e+00
0.000000000000000e+00 0.000000000000000e+00 0.000000000000000e+00
0.000000000000000e+00 0.000000000000000e+00 0.000000000000000e+00
0.000000000000000e+00 0.000000000000000e+00 0.000000000000000e+00
0.000000000000000e+00 0.000000000000000e+00 0.000000000000000e+00
0.000000000000000e+00 0.000000000000000e+00 0.000000000000000e+00
0.000000000000000e+00 0.000000000000000e+00 0.000000000000000e+00
0.000000000000000e+00 0.000000000000000e+00 0.000000000000000e+00
0.000000000000000e+00 0.000000000000000e+00 0.000000000000000e+00
0.000000000000000e+00 0.000000000000000e+00 0.000000000000000e+00
0.000000000000000e+00 0.000000000000000e+00 0.000000000000000e+00
0.000000000000000e+00 0.000000000000000e+00 0.000000000000000e+00
0.000000000000000e+00 0.000000000000000e+00 0.000000000000000e+00
0.000000000000000e+00 0.000000000000000e+00 0.000000000000000e+00
0.000000000000000e+00 0.000000000000000e+00 0.000000000000000e+00
0.000000000000000e+00 0.000000000000000e+00 0.000000000000000e+00
0.000000000000000e+00 0.000000000000000e+00 0.000000000000000e+00
0.000000000000000e+00 0.000000000000000e+00 0.000000000000000e+00
0.000000000000000e+00 0.000000000000000e+00 0.000000000000000e+00
0.000000000000000e+00 0.000000000000000e+00 0.000000000000000e+00
0.000000000000000e+00 0.000000000000000e+00 0.000000000000000e+00
0.000000000000000e+00 0.000000000000000e+00 0.000000000000000e+00
0.000000000000000e+00 0.000000000000000e+00 0.000000000000000e+00
0.000000000000000e+00 0.000000000000000e+00 0.000000000000000e+00
0.000000000000000e+00 0.000000000000000e+00 0.000000000000000e+00
0.000000000000000e+00 0.000000000000000e+00 0.000000000000000e+00
0.000000000000000e+00 0.000000000000000e+00 0.000000000000000e+00
0.000000000000000e+00 0.000000000000000e+00 0.000000000000000e+00
0.000000000000000e+00 0.000000000000000e+00 0.000000000000000e+00
0.000000000000000e+00 0.000000000000000e+00 0.000000000000000e+00
0.000000000000000e+00 0.000000000000000e+00 0.000000000000000e+00
0.000000000000000e+00 0.000000000000000e+00 0.000000000000000e+00
0.000000000000000e+00 0.000000000000000e+00 0.000000000000000e+00
0.000000000000000e+00 0.000000000000000e+00 0.000000000000000e+00
0.000000000000000e+00 0.000000000000000e+00 0.000000000000000e+00
0.000000000000000e+00 0.000000000000000e+00 0.000000000000000e+00
0.000000000000000e+00 0.000000000000000e+00 0.000000000000000e+00
0.000000000000000e+00 0.000000000000000e+00 0.000000000000000e+00
0.000000000000000e+00 0.000000000000000e+00 0.000000000000000e+00
0.000000000000000e+00 0.000000000000000e+00 0.000000000000000e+00
0.000000000000000e+00 0.000000000000000e+00 0.000000000000000e+00
0.000000000000000e+00 0.000000000000000e+00 0.000000000000000e+00
0.000000000000000e+00 0.000000000000000e+00 0.000000000000000e+00
0.000000000000000e+00 0.000000000000000e+00 0.000000000000000e+00
0.000000000000000e+00 0.000000000000000e+00 0.000000000000000e+00
0.000000000000000e+00 0.000000000000000e+00 0.000000000000000e+00
0.000000000000000e+00 0.000000000000000e+00 0.000000000000000e+00
0.000000000000000e+00 0.000000000000000e+00 0.000000000000000e+00
0.000000000000000e+00 0.000000000000000e+00 0.000000000000000e+00
0.000000000000000e+00 0.000000000000000e+00 0.000000000000000e+00
0.000000000000000e+00 0.000000000000000e+00 0.000000000000000e+00
0.000000000000000e+00 0.000000000000000e+00 0.000000000000000e+00
0.000000000000000e+00 0.000000000000000e+00 0.000000000000000e+00
0.000000000000000e+00 0.000000000000000e+00 0.000000000000000e+00
0.000000000000000e+00 0.000000000000000e+00 0.000000000000000e+00
0.000000000000000e+00 0.000000000000000e+00 0.000000000000000e+00
0.000000000000000e+00 0.000000000000000e+00 0.000000000000000e+00
0.000000000000000e+00 0.000000000000000e+00 0.000000000000000e+00
0.000000000000000e+00 0.000000000000000e+00 0.000000000000000e+00
0.000000000000000e+00 0.000000000000000e+00 0.000000000000000e+00
0.000000000000000e+00 0.000000000000000e+00 0.000000000000000e+00
0.000000000000000e+00 0.000000000000000e+00 0.000000000000000e+00
0.000000000000000e+00 0.000000000000000e+00 0.000000000000000e+00
0.000000000000000e+00 0.000000000000000e+00 0.000000000000000e+00
0.000000000000000e+00 0.000000000000000e+00 0.000000000000000e+00
0.000000000000000e+00 0.000000000000000e+00 0.000000000000000e+00
0.000000000000000e+00 0.000000000000000e+00 0.000000000000000e+00
0.000000000000000e+00 0.000000000000000e+00 0.000000000000000e+00
0.000000000000000e+00 0.000000000000000e+00 0.000000000000000e+00
0.000000000000000e+00 0.000000000000000e+00 0.000000000000000e+00
0.000000000000000e+00 0.000000000000000e+00 0.000000000000000e+00
0.000000000000000e+00 0.000000000000000e+00 0.000000000000000e+00
0.000000000000000e+00 0.000000000000000e+00 0.000000000000000e+00
0.000000000000000e+00 0.000000000000000e+00 0.000000000000000e+00
0.000000000000000e+00 0.000000000000000e+00 0.000000000000000e+00
0.000000000000000e+00 0.000000000000000e+00 0.000000000000000e+00
0.000000000000000e+00 0.000000000000000e+00 0.000000000000000e+00
0.000000000000000e+00 0.000000000000000e+00 0.000000000000000e+00
0.000000000000000e+00 0.000000000000000e+00 0.000000000000000e+00
0.000000000000000e+00 0.000000000000000e+00 0.000000000000000e+00
0.000000000000000e+00 0.000000000000000e+00 0.000000000000000e+00
0.000000000000000e+00 0.000000000000000e+00 0.000000000000000e+00
0.000000000000000e+00 0.000000000000000e+00 0.000000000000000e+00
0.000000000000000e+00 0.000000000000000e+00 0.000000000000000e+00
0.000000000000000e+00 0.000000000000000e+00 0.000000000000000e+00
0.000000000000000e+00 0.000000000000000e+00 0.000000000000000e+00
0.000000000000000e+00 0.000000000000000e+00 0.000000000000000e+00
0.000000000000000e+00 0.000000000000000e+00 0.000000000000000e+00
0.000000000000000e+00 0.000000000000000e+00 0.000000000000000e+00
0.000000000000000e+00 0.000000000000000e+00 0.000000000000000e+00
0.000000000000000e+00 0.000000000000000e+00 0.000000000000000e+00
0.000000000000000e+00 0.000000000000000e+00 0.000000000000000e+00
0.000000000000000e+00 0.000000000000000e+00 0.000000000000000e+00
0.000000000000000e+00 0.000000000000000e+00 0.000000000000000e+00
0.000000000000000e+00 0.000000000000000e+00 0.000000000000000e+00
0.000000000000000e+00 0.000000000000000e+00 0.000000000000000e+00
0.000000000000000e+00 0.000000000000000e+00 0.000000000000000e+00
0.000000000000000e+00 0.000000000000000e+00 0.000000000000000e+00
0.000000000000000e+00 0.000000000000000e+00 0.000000000000000e+00
0.000000000000000e+00 0.000000000000000e+00 0.000000000000000e+00
0.000000000000000e+00 0.000000000000000e+00 0.000000000000000e+00
0.000000000000000e+00 0.000000000000000e+00 0.000000000000000e+00
0.000000000000000e+00 0.000000000000000e+00 0.000000000000000e+00
0.000000000000000e+00 0.000000000000000e+00 0.000000000000000e+00
0.000000000000000e+00 0.000000000000000e+00 0.000000000000000e+00
0.000000000000000e+00 0.000000000000000e+00 0.000000000000000e+00
0.000000000000000e+00 0.000000000000000e+00 0.000000000000000e+00
0.000000000000000e+00 0.000000000000000e+00 0.000000000000000e+00
0.000000000000000e+00 0.000000000000000e+00 0.000000000000000e+00
0.000000000000000e+00 0.000000000000000e+00 0.000000000000000e+00
0.000000000000000e+00 0.000000000000000e+00 0.000000000000000e+00
0.000000000000000e+00 0.000000000000000e+00 0.000000000000000e+00
0.000000000000000e+00 0.000000000000000e+00 0.000000000000000e+00
0.000000000000000e+00 0.000000000000000e+00 0.000000000000000e+00
0.000000000000000e+00 0.000000000000000e+00 0.000000000000000e+00
0.000000000000000e+00 0.000000000000000e+00 0.000000000000000e+00
0.000000000000000e+00 0.000000000000000e+00 0.000000000000000e+00
0.000000000000000e+00 0.000000000000000e+00 0.000000000000000e+00
0.000000000000000e+00 0.000000000000000e+00 0.000000000000000e+00
0.000000000000000e+00 0.000000000000000e+00 0.000000000000000e+00
0.000000000000000e+00 0.000000000000000e+00 0.000000000000000e+00
0.000000000000000e+00 0.000000000000000e+00 0.000000000000000e+00
0.000000000000000e+00 0.000000000000000e+00 0.000000000000000e+00
0.000000000000000e+00 0.000000000000000e+00 0.000000000000000e+00
0.000000000000000e+00 0.000000000000000e+00 0.000000000000000e+00
0.000000000000000e+00 0.000000000000000e+00 0.000000000000000e+00
0.000000000000000e+00 0.000000000000000e+00 0.000000000000000e+00
0.000000000000000e+00 0.000000000000000e+00 0.000000000000000e+00
0.000000000000000e+00 0.000000000000000e+00 0.000000000000000e+00
0.000000000000000e+00 0.000000000000000e+00 0.000000000000000e+00
0.000000000000000e+00 0.000000000000000e+00 0.000000000000000e+00
0.000000000000000e+00 0.000000000000000e+00 0.000000000000000e+00
0.000000000000000e+00 0.000000000000000e+00 0.000000000000000e+00
0.000000000000000e+00 0.000000000000000e+00 0.000000000000000e+00
0.000000000000000e+00 0.000000000000000e+00 0.000000000000000e+00
0.000000000000000e+00 0.000000000000000e+00 0.000000000000000e+00
0.000000000000000e+00 0.000000000000000e+00 0.000000000000000e+00
0.000000000000000e+00 0.000000000000000e+00 0.000000000000000e+00
0.000000000000000e+00 0.000000000000000e+00 0.000000000000000e+00
0.000000000000000e+00 0.000000000000000e+00 0.000000000000000e+00
0.000000000000000e+00 0.000000000000000e+00 0.000000000000000e+00
0.000000000000000e+00 0.000000000000000e+00 0.000000000000000e+00
0.000000000000000e+00 0.000000000000000e+00 0.000000000000000e+00
0.000000000000000e+00 0.000000000000000e+00 0.000000000000000e+00
0.000000000000000e+00 0.000000000000000e+00 0.000000000000000e+00
0.000000000000000e+00 0.000000000000000e+00 0.000000000000000e+00
0.000000000000000e+00 0.000000000000000e+00 0.000000000000000e+00
0.000000000000000e+00 0.000000000000000e+00 0.000000000000000e+00
0.000000000000000e+00 0.000000000000000e+00 0.000000000000000e+00
0.000000000000000e+00 0.000000000000000e+00 0.000000000000000e+00
0.000000000000000e+00 0.000000000000000e+00 0.000000000000000e+00
0.000000000000000e+00 0.000000000000000e+00 0.000000000000000e+00
0.000000000000000e+00 0.000000000000000e+00 0.000000000000000e+00
0.000000000000000e+00 0.000000000000000e+00 0.000000000000000e+00
0.000000000000000e+00 0.000000000000000e+00 0.000000000000000e+00
0.000000000000000e+00 0.000000000000000e+00 0.000000000000000e+00
0.000000000000000e+00 0.000000000000000e+00 0.000000000000000e+00
-1.099893760826052e-01 -1.528773678204244e-03  1.973099741650650e-18
-1.099989706913177e-01  4.758643194948254e-04  1.952673561958927e-18
-1.099763311331968e-01  2.281795451257071e-03  1.933715377681070e-18
-1.099998964173021e-01 -1.509575527458056e-04  1.959130403387855e-18
-1.099394280807229e-01 -3.649952504279561e-03  1.994005199251256e-18
-1.087037986782729e-01 -1.683698764368029e-02  2.107507695706648e-18
-1.089092363935118e-01  1.545245055588590e-02  1.779401457234485e-18
-1.099993367581996e-01  3.819852825906320e-04  1.953644649556370e-18
-1.097672819343334e-01 -7.151490526350396e-03  2.026918684400918e-18
-1.099926134597339e-01  1.274748719349970e-03  1.944352180443090e-18
-1.099687994742142e-01 -2.619759950834458e-03  1.983943043986787e-18
-1.099919008886438e-01  1.334817928668730e-03  1.943722310086233e-18
-1.099841283394207e-01 -1.868559182299987e-03  1.976497524421162e-18
-1.099726798865232e-01  2.451464577803202e-03  1.931907110751836e-18
-1.099971936051655e-01 -7.857474070373621e-04  1.965604538773674e-18
-1.099971936051655e-01 -7.857474070373621e-04  1.965604538773674e-18
-1.099791634222846e-01 -2.140937396174959e-03  1.979207754998698e-18
-1.099983338922265e-01 -6.054262417255864e-04  1.963772097074060e-18
-1.099975179987664e-01 -7.389412094232887e-04  1.965129395067622e-18
-1.099975179987664e-01 -7.389412094232887e-04  1.965129395067622e-18
-1.099934575863103e-01 -1.199703383541467e-03  1.969791299141856e-18
-1.099957641148819e-01 -9.653376524154752e-04  1.967424323820174e-18
-1.099957641148819e-01 -9.653376524154752e-04  1.967424323820174e-18
-1.099959114673898e-01 -9.483988918540490e-04  1.967252906522418e-18
-1.099959114673898e-01 -9.483988918540490e-04  1.967252906522418e-18
-1.099995553506824e-01  3.127661300180728e-04  1.954359741317689e-18
-1.099240564329750e-01 -4.086785695390059e-03  1.998219944793258e-18
-1.099089480488158e-01  4.474722203960985e-03  1.909984689560687e-18
-1.098985736919033e-01 -4.722658201187209e-03  2.004299808021716e-18
-1.096869266479515e-01  8.293257654675664e-03  1.866799489304372e-18
-1.098436427653628e-01 -5.862946702408688e-03  2.015038296775752e-18
-1.095343597618302e-01  1.011059007011422e-02  1.845411949193807e-18
-1.098504855193938e-01 -5.733308918363009e-03  2.013828090608701e-18
-1.088810690108165e-01  1.564969044619542e-02  1.776873616838841e-18
-1.094883685664873e-01 -1.059703489892181e-02  2.057356805080492e-18
-1.098339383201351e-01  6.042018957987723e-03  1.892546397170494e-18
-1.091613601834866e-01 -1.355719155618286e-02  2.081951835148259e-18
-1.092834194825463e-01  1.253531915037511e-02  1.816032957126695e-18
-1.096835161566080e-01 -8.338242232212512e-03  2.037621415131587e-18
-1.097922717135606e-01  6.757001700132468e-03  1.884458702262049e-18
-1.092074700131800e-01 -1.318061050635878e-02  2.078903181083646e-18
-1.097983536404306e-01  6.657442290463504e-03  1.885589874172743e-18
-1.097112652180106e-01 -7.964815394173501e-03  2.034278417673981e-18
-1.098967466670256e-01  4.764983945777725e-03  1.906785217464029e-18
-1.097285916295050e-01 -7.722446439131661e-03  2.032096508866880e-18
-1.084302559744420e-01  1.851700810921959e-02  1.739390213734347e-18
-1.097328948496863e-01 -7.661056579064547e-03  2.031542331292066e-18
-1.099663156692787e-01  2.722024637007809e-03  1.929013945592872e-18
-1.086504065045188e-01 -1.717815957554098e-02  2.110062935948053e-18
-1.099125479057436e-01  4.385409087819613e-03  1.910966413132229e-18
-1.097765739539525e-01 -7.007411143377475e-03  2.025603683653839e-18
-1.096694036079890e-01  8.521849110840815e-03  1.864138951734652e-18
-1.098105606909123e-01 -6.452965267796867e-03  2.020511788221648e-18
-1.095084367647359e-01  1.038760209787405e-02  1.842104420583771e-18
-1.098348997968882e-01 -6.024515466612054e-03  2.016542765581628e-18
-1.097229347595935e-01  7.802409098599461e-03  1.872483587205493e-18
-1.099207630167564e-01 -4.174429040480663e-03  1.999061838055600e-18
-1.096578145023078e-01  8.669701181550653e-03  1.862413583458960e-18
-1.096981517168345e-01 -8.143433545519810e-03  2.035880283896411e-18
-1.099871395280463e-01  1.682004291909923e-03  1.940070362235431e-18
-7.351901311970064e-03  1.097540411424517e-01 -9.968470487182350e-19
-1.099569162632786e-01 -3.078403136410915e-03  1.988443960193208e-18
-1.099493712272042e-01 -3.337029628633831e-03  1.990966980532190e-18
-1.099868909958211e-01  1.698178163002156e-03  1.939899758658056e-18
-1.099869833433490e-01 -1.692186464253518e-03  1.974736167014882e-18
-1.099960901754463e-01  9.274406261427869e-04  1.947982517236959e-18
-1.099999952766609e-01 -3.223560920747568e-05  1.957912337866503e-18
-1.099984354412503e-01  5.866860122810072e-04  1.951525383910488e-18
-1.099984354412503e-01  5.866860122810072e-04  1.951525383910488e-18
-1.091238590213063e-01 -1.385580716876429e-02  2.084352624175007e-18
-1.099940127062806e-01  1.147679733417536e-03  1.945682669374393e-18
-1.099883866219429e-01  1.598376770956713e-03  1.940951798157213e-18
-1.094034308673793e-01 -1.144068679959703e-02  2.064513454212307e-18
-1.099999751156871e-01  7.399018965337433e-05  1.956820547583427e-18
-1.099918274371335e-01  1.340856830457731e-03  1.943658955406869e-18
-1.099959132839152e-01  9.481881866666273e-04  1.947766195593775e-18
-1.099994620799145e-01 -3.440089088952947e-04  1.961106206390335e-18
-1.099983677121277e-01  5.992500875700804e-04  1.951395087280536e-18
-1.099982509682976e-01  6.203095318786354e-04  1.951176631544845e-18
-1.099929210790108e-01  1.247923277467823e-03  1.944633276565484e-18
-1.099999973144987e-01 -2.430658792921326e-05  1.957830906319009e-18
-1.099980489505108e-01  6.551542420984496e-04  1.950815019657935e-18
-1.099998695840645e-01  1.693856213461317e-04  1.955838516116116e-18
-1.099925879599224e-01  1.276947093126907e-03  1.944329139151576e-18
-1.099998661808970e-01  1.715814229155877e-04  1.955815894489236e-18
-1.099975732876288e-01  7.306646512976865e-04  1.950030712645810e-18
-1.099975732876288e-01  7.306646512976865e-04  1.950030712645810e-18
-1.099997873183808e-01  2.163097568812660e-04  1.955354923653718e-18
-1.099971033388143e-01  7.982838280483554e-04  1.949327586869084e-18
-1.099995850174107e-01  3.021522751325636e-04  1.954469322775744e-18
-1.099988163269032e-01  5.103005782290783e-04  1.952316994811254e-18
-1.099988163269032e-01  5.103005782290783e-04  1.952316994811254e-18
-1.099988163269032e-01  5.103005782290783e-04  1.952316994811254e-18
-1.099992428915659e-01  4.081216512254950e-04  1.953374437394528e-18
-1.099980937230651e-01  6.475934617696800e-04  1.950893500710205e-18
-1.099994553336892e-01  3.461593442833544e-04  1.954014858250217e-18
-1.099960517606864e-01 -9.319855472662488e-04  1.967086762055840e-18
-1.099964740345178e-01  8.807383116359210e-04  1.948469197782963e-18
-1.099960212871627e-01  9.355752209090740e-04  1.947897711281624e-18
-1.099995608775556e-01  3.108162558089747e-04  1.954379873924155e-18
-1.099995608775556e-01  3.108162558089747e-04  1.954379873924155e-18
-1.097547283295352e-01 -7.341635329397375e-03  2.028648946806182e-18
-1.099934784782226e-01  1.197786400280789e-03  1.945158334349151e-18
-1.099983357680962e-01 -6.050853238202730e-04  1.963768627649765e-18
-1.096882921310415e-01  8.275177905956086e-03  1.867009552555003e-18
-1.099613950011581e-01 -2.914036615966144e-03  1.986834858388299e-18
-1.099984263877705e-01  5.883810110362033e-04  1.951507807296551e-18
-1.098430863250964e-01 -5.873362459216620e-03  2.015135412374921e-18
-1.099645560256793e-01  2.792206667706045e-03  1.928261535765743e-18
-1.097475662053325e-01 -7.447933405052220e-03  2.029613662375002e-18
-1.099629830957927e-01  2.853480098816018e-03  1.927603981356386e-18
-1.097546050276276e-01 -7.343478414851254e-03  2.028665689535155e-18
-1.099909506736082e-01  1.410946461005997e-03  1.942923206861773e-18
-1.096698942824487e-01 -8.515532166368450e-03  2.039200587301247e-18
-1.099763972238673e-01  2.278607833325888e-03  1.933749305459659e-18
-1.099354860309268e-01 -3.766817110483557e-03  1.995135787148061e-18
-1.099999883504373e-01  5.062512811041272e-05  1.957060850631089e-18
-1.099405315482604e-01 -3.616562302226194e-03  1.993681764575960e-18
-1.099704791611234e-01  2.548276490658486e-03  1.930873238982641e-18
-1.099235605517225e-01 -4.100101905039467e-03  1.998347939211610e-18
-1.099992794993981e-01 -3.981326578417288e-04  1.961659059011069e-18
-1.099646593971220e-01 -2.788132650155667e-03  1.985599334697001e-18
-1.099646593971220e-01 -2.788132650155667e-03  1.985599334697001e-18
-1.099648219753213e-01 -2.781713129677986e-03  1.985536269729108e-18
-1.098510859133039e-01 -5.721793745658066e-03  2.013720461118097e-18
-1.096397973076609e-01 -8.894652682087346e-03  2.042560301309282e-18
-2.794675649267276e-02  1.063906894494964e-01 -5.957798175096156e-19
-1.096435974080075e-01  8.847685992998490e-03  1.860331844026295e-18
-1.099953022230042e-01  1.016606546258277e-03  1.947052347245594e-18
-1.097774784727851e-01  6.993226734286205e-03  1.881768312484309e-18
-1.099923334601988e-01 -1.298683941671417e-03  1.970788283254771e-18
-1.097761197016860e-01  7.014523735866609e-03  1.881525312577154e-18
-1.099102035037459e-01 -4.443778320876160e-03  2.001641384934897e-18
-1.098192946974064e-01  6.302579802281615e-03  1.889608628415685e-18
-2.180911898780536e-02  1.078163360951191e-01 -7.196543995348228e-19
-1.099847519052802e-01 -1.831488010849533e-03  1.976127728699693e-18
-1.098692064420975e-01 -5.362599722493505e-03  2.010352349439842e-18
-1.099999866124259e-01  5.427030537730067e-05  1.957023366828876e-18
-1.099968666669232e-01  8.302550566209551e-04  1.948994882251120e-18
-1.099850052583703e-01 -1.816209876688640e-03  1.975975260141749e-18
-1.099994751647424e-01 -3.397991776653603e-04  1.961063185791346e-18
-1.091559967974802e-01  1.360030746521650e-02  1.802822950395507e-18
-1.099997347628271e-01  2.415618090800434e-04  1.955094532701957e-18
-1.099853025696639e-01 -1.798115307596625e-03  1.975794636026683e-18
-1.099999076237316e-01  1.425579546405588e-04  1.956114837607043e-18
-1.099980532403980e-01  6.544335890636381e-04  1.950822500449733e-18
-1.099996509013030e-01  2.771310004271606e-04  1.954727579766281e-18
-1.099996509013030e-01  2.771310004271606e-04  1.954727579766281e-18
-1.099999011438027e-01  1.474732300006093e-04  1.956064219620231e-18
-1.099998971902392e-01 -1.503932735797422e-04  1.959124619379747e-18
-1.099993265868597e-01  3.849031531582763e-04  1.953614488485140e-18
-1.099999358584704e-01  1.187902871288792e-04  1.956359544227467e-18
-1.099999862436965e-01 -5.501260311123331e-05  1.958146202452257e-18
-1.099981453275980e-01 -6.387679457775543e-04  1.964111315238612e-18
-1.099999407676805e-01  1.141538729835564e-04  1.956407269063781e-18
-1.099997411007609e-01 -2.386582609201373e-04  1.960028732262064e-18
-1.099997411007609e-01 -2.386582609201373e-04  1.960028732262064e-18
-1.099997411007609e-01 -2.386582609201373e-04  1.960028732262064e-18
-1.099987472397272e-01 -5.249816097222962e-04  1.962952913715295e-18
-1.099997220819125e-01 -2.472688859025904e-04  1.960116864842672e-18
-1.099981363582584e-01 -6.403106354784647e-04  1.964127006194777e-18
-1.099974865673713e-01 -7.436053125765834e-04  1.965176757674019e-18
-1.099945561538595e-01 -1.094356667357019e-03  1.968728450222470e-18
-1.099983917311203e-01 -5.948248203704632e-04  1.963664200632937e-18
-1.099949600888907e-01 -1.052974379208605e-03  1.968310450750462e-18
-1.099946558926609e-01 -1.084285504393682e-03  1.968626747652534e-18
-1.099821908319998e-01 -1.979318012219700e-03  1.977601050907371e-18
-1.099821908319998e-01 -1.979318012219700e-03  1.977601050907371e-18
-1.099431874977330e-01 -3.534900682940648e-03  1.992889986892130e-18
-3.614795669525774e-02  1.038909294729704e-01 -4.241455514915017e-19
-1.098931821700140e-01  4.846494872382171e-03  1.905884287827553e-18
-1.099940473568148e-01 -1.144353995364941e-03  1.969233099954827e-18
-1.098212646305084e-01  6.268160412414808e-03  1.889997332452357e-18
-1.099999432972881e-01  1.116897189458451e-04  1.956432632368748e-18
-1.099964999572796e-01  8.774948137265687e-04  1.948502984872179e-18
-1.099964999572796e-01  8.774948137265687e-04  1.948502984872179e-18
-1.099977828854526e-01  6.983983711100105e-04  1.950365966996612e-18
-1.099960933576625e-01  9.270631328595320e-04  1.947986452474648e-18
-1.099976856065183e-01  7.135553303740827e-04  1.950208503551588e-18
-1.099976856065183e-01  7.135553303740827e-04  1.950208503551588e-18
-1.099975784272831e-01  7.298904942759815e-04  1.950038758294256e-18
-1.099970443409506e-01  8.063722805687120e-04  1.949243431020380e-18
-1.099976254230770e-01  7.227733284843705e-04  1.950112720933514e-18
-1.099970467423230e-01  8.060446433828986e-04  1.949246840108730e-18
-1.099970467423230e-01  8.060446433828986e-04  1.949246840108730e-18
-1.099970467423230e-01  8.060446433828986e-04  1.949246840108730e-18
-1.099953937456083e-01  1.006655228226530e-03  1.947156222177254e-18
-1.099943026828298e-01  1.119543352420348e-03  1.945976920946583e-18
-1.097834160734330e-01 -6.899388034270012e-03  2.024615549127200e-18
-1.099983602066860e-01  6.006262066232592e-04  1.951380814588881e-18
-1.099903370074614e-01  1.458000337788915e-03  1.942428824450069e-18
-1.099997081671854e-01  2.533833735212629e-04  1.954972597120591e-18
-1.099713907096571e-01 -2.508630180769449e-03  1.982847340095284e-18
-1.099995836534314e-01  3.026484291390558e-04  1.954464200699929e-18
-1.099995559381934e-01  3.125594346309542e-04  1.954361875493165e-18
-1.099989870543777e-01  4.720667439952088e-04  1.952712871867806e-18
-1.099986538153214e-01  5.442047565039298e-04  1.951965749608451e-18
-1.099986538153214e-01  5.442047565039298e-04  1.951965749608451e-18
-1.099989870543778e-01  4.720667439516447e-04  1.952712871868258e-18
-1.098893113794381e-01  4.933481990726142e-03  1.904921641450959e-18
-1.088913433962839e-01 -1.557804009984879e-02  2.097910049001911e-18
-1.099477792904726e-01 -3.389074961321608e-03  1.991473397005905e-18
-1.099879232925504e-01  1.629947788116402e-03  1.940619171925526e-18
-1.099879232925504e-01  1.629947788116402e-03  1.940619171925526e-18
-1.099997744703441e-01 -2.227475552017070e-04  1.959865849392251e-18
-1.099997744703441e-01 -2.227475552017070e-04  1.959865849392251e-18
-1.099997744703441e-01 -2.227475552017070e-04  1.959865849392251e-18
-1.099965299221633e-01 -8.737305548935865e-04  1.966496722625438e-18
-1.099999669468959e-01 -8.527415625887099e-05  1.958456785508106e-18
-1.099901547010037e-01 -1.471689114319238e-03  1.972527074937095e-18
-1.099890394096345e-01  1.552807053625731e-03  1.941431627584258e-18
-1.099990093418685e-01 -4.668445217199810e-04  1.962360240675866e-18
-1.099998925678142e-01 -1.537370133184628e-04  1.959158892829310e-18
-1.099299236109126e-01 -3.925798631981213e-03  1.996670274628754e-18
-1.099959557797553e-01  9.432455131267452e-04  1.947817736033030e-18
-1.099948088512655e-01 -1.068656059493395e-03  1.968468882864738e-18
-1.099992061338930e-01 -4.179113700708893e-04  1.961860972467507e-18
-1.099971396029171e-01 -7.932711871129602e-04  1.965680881846349e-18
-1.099971396029171e-01 -7.932711871129602e-04  1.965680881846349e-18
-1.099971396029171e-01 -7.932711871129602e-04  1.965680881846349e-18
-1.099890050130382e-01 -1.555241538080843e-03  1.973365085670293e-18
-1.099738326688922e-01 -2.399193221571135e-03  1.981766372672305e-18
-1.099602091425772e-01 -2.958446437002057e-03  1.987270049398632e-18
-1.458176250219876e-02  1.090292263676552e-01 -8.607358362409867e-19
-1.099872393477011e-01  1.675464315177670e-03  1.940139334530396e-18
-1.098612210211233e-01 -5.523777307950498e-03  2.011866280487608e-18
-1.099818008536780e-01  2.000870056208368e-03  1.936699124263506e-18
-1.099996470209983e-01  2.786669260797833e-04  1.954711729633509e-18
-1.099966804019830e-01  8.545762364586610e-04  1.948741676156683e-18
-1.099994557564995e-01 -3.460249612795354e-04  1.961126808063499e-18
-1.099932263446169e-01  1.220720402796766e-03  1.944918208786297e-18
-1.099999509079212e-01  1.039242746135665e-04  1.956512554928591e-18
-1.099987288130616e-01  5.288284319767489e-04  1.952125070431435e-18
-1.099992090152025e-01  4.171522859932972e-04  1.953281048032565e-18
-1.099992090152025e-01  4.171522859932972e-04  1.953281048032565e-18
-1.099992090152025e-01  4.171522859932972e-04  1.953281048032565e-18
-1.099993703931502e-01  3.721734951254404e-04  1.953746060682300e-18
-1.099993703931502e-01  3.721734951254404e-04  1.953746060682300e-18
-1.099998771529620e-01 -1.643968770868686e-04  1.959268144731425e-18
-1.099961620078083e-01  9.188816854813391e-04  1.948071735585605e-18
-1.099999999912964e-01 -1.383732286418421e-06  1.957595429941307e-18
-1.099931589281775e-01  1.226779931618824e-03  1.944854749572947e-18
-1.099996952072904e-01 -2.589484565215816e-04  1.960236389921970e-18
-1.099951682315594e-01  1.031002284605585e-03  1.946902051726047e-18
-1.099971625621811e-01  7.900811787684438e-04  1.949412920061102e-18
-1.099539727034066e-01 -3.181805578351228e-03  1.989453998561864e-18
-1.099999771513467e-01 -7.089924627370544e-05  1.958309270130378e-18
-1.099990521563093e-01  4.566450628910674e-04  1.952872482605426e-18
-1.099890198265741e-01  1.554193549538609e-03  1.941417033338506e-18
-1.099999579572947e-01  9.617376636773167e-05  1.956592314037288e-18
-1.099999357752181e-01  1.188673538325234e-04  1.956358750913509e-18
-1.099970736606599e-01 -8.023628177431419e-04  1.965773121527218e-18
-1.099967848133646e-01  8.410295608850709e-04  1.948882721452162e-18
-1.099965436826243e-01 -8.719964887873530e-04  1.966479150609950e-18
-1.099991724953385e-01  4.266735762860163e-04  1.953182570319077e-18
-1.099993617933283e-01 -3.747066324554192e-04  1.961419829628883e-18
-1.099998758412247e-01  1.652722453726525e-04  1.955880890913599e-18
-1.099999981946810e-01 -1.992912706515592e-05  1.957785945162732e-18
-1.099999981946810e-01 -1.992912706515592e-05  1.957785945162732e-18
-1.099542189106765e-01 -3.173285953545357e-03  1.989370844063972e-18
-1.098740389959584e-01  5.262656621379390e-03  1.901267701419159e-18
-1.099497947013702e-01 -3.323047566086665e-03  1.990830856146724e-18
-1.097628999919931e-01  7.218433718449858e-03  1.879194951077758e-18
-1.098980006686203e-01 -4.735973927276959e-03  2.004426424637219e-18
-1.083017735909835e-01  1.925424205330580e-02  1.729528905501917e-18
-1.098808832002224e-01 -5.117763880738957e-03  2.008044551947059e-18
-1.099997156624686e-01  2.501083285237024e-04  1.955006380405716e-18
-1.099294264397068e-01 -3.939695754373339e-03  1.996804214758253e-18
-1.098869717815679e-01  4.985321722500489e-03  1.904347371103998e-18
-1.082058892012191e-01 -1.978599358570153e-02  2.128946767399185e-18
-1.099470776873110e-01  3.411760252468282e-03  1.921584799868256e-18
-1.099003762610058e-01  4.680523228154455e-03  1.907717613609853e-18
-1.098282086748924e-01 -6.145289192886409e-03  2.017664595248078e-18
-1.098282086748924e-01 -6.145289192886409e-03  2.017664595248078e-18
-1.099758346205671e-01  2.305601767351520e-03  1.933461940396846e-18
-1.098735011040838e-01 -5.273874773904457e-03  2.009517161457234e-18
-1.099964623861573e-01  8.821918899068218e-04  1.948454055497802e-18
-1.092509448652320e-01 -1.281526613277973e-02  2.075923087215245e-18
-1.099437288781773e-01  3.518022223035668e-03  1.920433400669476e-18
-1.082563157535571e-01 -1.950820595201080e-02  2.126990001025151e-18
-1.099553238090560e-01  3.134767303256070e-03  1.924577551370565e-18
-1.098893051064779e-01 -4.933621713845896e-03  2.006302435943652e-18
-1.099083995724376e-01  4.488173729404716e-03  1.909836719231911e-18
-1.099416698764545e-01 -3.581790722060023e-03  1.993344757129334e-18
-1.099997691127069e-01 -2.253777963598727e-04  1.959892778819115e-18
-1.099948126742036e-01 -1.068262499010538e-03  1.968464907207489e-18
-1.099948126742036e-01 -1.068262499010538e-03  1.968464907207489e-18
-1.099999738752458e-01 -7.581190648001297e-05  1.958359687627245e-18
-1.099921672103175e-01 -1.312688987336549e-03  1.970929221396400e-18
-1.099997276050682e-01 -2.447995317168415e-04  1.960091591416602e-18
-1.098625923559931e-01  5.496435283055204e-03  1.898662003983322e-18
-1.098909973287380e-01 -4.895784522957515e-03  2.005943787666118e-18
-1.099766213776617e-01 -2.267763293284889e-03  1.980465606302950e-18
-1.099923244383776e-01  1.299447822187956e-03  1.944093262654116e-18
-1.099747136375356e-01  2.358465675383463e-03  1.932898833715566e-18
-1.099946273999818e-01 -1.087172083485473e-03  1.968655899142876e-18
-1.099930799308199e-01  1.233842507042046e-03  1.944780778323897e-18
-1.099760422809045e-01 -2.295675113910786e-03  1.980742084402747e-18
-1.099978579685368e-01  6.864709269342544e-04  1.950489853345664e-18
-1.099999659998173e-01  8.648721855835082e-05  1.956691982923466e-18
-1.099996172176268e-01  2.901929970074873e-04  1.954592773055272e-18
-1.099996109353850e-01  2.925646319345322e-04  1.954568293567957e-18
-1.099963153121080e-01 -9.003431341787650e-04  1.966766337968071e-18
-1.099977329009289e-01  7.062270568500005e-04  1.950284640560349e-18
-1.099949914072324e-01  1.049697729250060e-03  1.946706816024023e-18
-1.099997704858965e-01  2.247065865201239e-04  1.955268349725370e-18
-1.099759564747847e-01 -2.299782045364141e-03  1.980782754609245e-18
-1.099994248369823e-01  3.557183337895150e-04  1.953916100380272e-18
-1.099853439981438e-01  1.795579463545855e-03  1.938871465009087e-18
-1.099999637260856e-01  8.933229983582821e-05  1.956662710283109e-18
-1.099998445779998e-01  1.849129952668105e-04  1.955678532976982e-18
-1.099998445779998e-01  1.849129952668105e-04  1.955678532976982e-18
-1.099997725539904e-01 -2.236919093782630e-04  1.959875518184556e-18
-1.099975397114747e-01  7.357019929773672e-04  1.949978358262261e-18
-1.099783855779467e-01  2.180528758909119e-03  1.934792417452602e-18
-1.099998544483229e-01 -1.789450969046381e-04  1.959417218348964e-18
-1.099999860983974e-01 -5.530237170210837e-05  1.958149177133492e-18
-1.099995701373643e-01  3.075216984056922e-04  1.954413889093997e-18
-1.098714375882542e-01  5.316690915437803e-03  1.900666223523656e-18
-1.099997876439702e-01  2.161441217921700e-04  1.955356631288340e-18
-1.086055353608566e-01 -1.745960162723259e-02  2.112156115263619e-18
-1.099997938768737e-01  2.129484567331712e-04  1.955389576507880e-18
-1.099284319025483e-01  3.967349171264705e-03  1.915544501575859e-18
-1.099932253342401e-01 -1.220811439578952e-03  1.970004043547058e-18
-1.099962211764805e-01  9.117712951777277e-04  1.948145845240074e-18
-1.099985861872634e-01  5.577067357563461e-04  1.951825818154555e-18
-1.099911495324443e-01  1.395358208995646e-03  1.943086909418608e-18
-1.099967843513626e-01  8.410899831433105e-04  1.948882092413532e-18
-1.099913619057383e-01  1.378515912427253e-03  1.943263737333619e-18
-1.099949220339033e-01  1.056942172234414e-03  1.946631147422916e-18
-1.099928576766161e-01  1.253499155011804e-03  1.944574858128034e-18
-1.099928576766161e-01  1.253499155011804e-03  1.944574858128034e-18
-1.099986475327860e-01 -5.454731504336575e-04  1.963161682448160e-18
-1.099630431619903e-01  2.851164420754961e-03  1.927628843056881e-18
-1.099955380809101e-01 -9.907584422961426e-04  1.967681490657399e-18
-1.099106313838705e-01  4.433182694053587e-03  1.910441449890121e-18
-1.097804708268925e-01 -6.946094228105930e-03  2.025043024126435e-18
-1.097485545610181e-01  7.433355350523380e-03  1.876731415327044e-18
-1.096699935558692e-01 -8.514253546585075e-03  2.039189216636394e-18
-1.098612480311267e-01  5.523240085600034e-03  1.898362670510028e-18
-1.096948835351011e-01 -8.187339385938115e-03  2.036273239264598e-18
-1.097020136122787e-01  8.091242760624742e-03  1.869143609481088e-18
-1.096827483931512e-01 -8.348335458318566e-03  2.037711456096712e-18
-1.098404640139645e-01  5.922201043268850e-03  1.893893615223627e-18
-1.098463181529194e-01 -5.812605977316600e-03  2.014568675825665e-18
-1.097937388483299e-01  6.733120354237401e-03  1.884730183828991e-18
-1.098657287117622e-01 -5.433383350490103e-03  2.011017735144135e-18
-1.098686231011313e-01  5.374537920740907e-03  1.900021779402740e-18
-1.099945514893921e-01 -1.094825395846011e-03  1.968733183227660e-18
-1.099585025060721e-01  3.021212773385739e-03  1.925800851618954e-18
-1.099926527177966e-01  1.271356795762257e-03  1.944387729869818e-18
-1.099999905134823e-01 -4.568406432324404e-05  1.958050431090933e-18
-1.099716176211316e-01 -2.498663200903271e-03  1.982748971158237e-18
 6.591578682492144e-02  8.806309696604726e-02 -2.077866384264191e-18
-1.097331106918478e-01 -7.657964343779731e-03  2.031514400866565e-18
-1.099828903292702e-01 -1.940060519581450e-03  1.977210142819956e-18
-1.099998237370714e-01 -1.969208296484983e-04  1.959601365929483e-18
-1.099243610490844e-01  4.078584061958913e-03  1.914329157789155e-18
-1.099943603764033e-01 -1.113860577376597e-03  1.968925361719345e-18
-1.098571218645671e-01  5.604710129308930e-03  1.897452165350862e-18
-1.099977739409159e-01 -6.998057181060800e-04  1.964731846906993e-18
-1.099877882023103e-01  1.639038243497186e-03  1.940523366706829e-18
-1.099918165799865e-01  1.341747157456447e-03  1.943649614404506e-18
-1.099918165799865e-01  1.341747157456447e-03  1.943649614404506e-18
-1.099987161059781e-01  5.314649907335837e-04  1.952097754610285e-18
-1.099459379381451e-01 -3.448293911702478e-03  1.992049081147402e-18
-1.095845634950074e-01  9.551096461068732e-03  1.852053978095768e-18
-1.099995835257025e-01  3.026948495547882e-04  1.954463721473931e-18
-1.099935993510040e-01  1.186634657653351e-03  1.945275065528864e-18
-1.099973626330973e-01  7.617176398105004e-04  1.949707905620840e-18
-1.099848765632980e-01  1.823986665529942e-03  1.938571272767568e-18
-1.099999994977698e-01 -1.051144952759971e-05  1.957689205137227e-18
-1.099896886937130e-01  1.506114557407732e-03  1.941922930805518e-18
-1.099954482781300e-01  1.000678816184394e-03  1.947218598111199e-18
-1.099978679767979e-01  6.848653581874300e-04  1.950506528090227e-18
-1.099948729552590e-01  1.062037455250674e-03  1.946577921827876e-18
-1.099948729552590e-01  1.062037455250674e-03  1.946577921827876e-18
-1.099740603352951e-01 -2.388734679448502e-03  1.981662966546495e-18
-1.099563770561381e-01  3.097603055318207e-03  1.924978144305601e-18
-1.099744676180181e-01 -2.369909731070046e-03  1.981476795122353e-18
-1.099988641050808e-01  4.998955809757576e-04  1.952424752647858e-18
-1.099998187653032e-01 -1.996787429204668e-04  1.959629614007935e-18
-1.099968450771600e-01  8.331104795803109e-04  1.948965159601916e-18
-1.099999607192791e-01  9.296105091529534e-05  1.956625372674282e-18
-1.099999607192791e-01  9.296105091529534e-05  1.956625372674282e-18
-1.099993514544945e-01  3.777295203303800e-04  1.953688637505695e-18
-1.099926478907067e-01 -1.271774347499029e-03  1.970517392616090e-18
 1.099991407429287e-01  4.347824942253070e-04 -1.962033153429185e-18
 1.099707945008687e-01 -2.534631501347288e-03 -1.931019048137898e-18
 1.099713081019484e-01 -2.512248862327841e-03 -1.931258161766707e-18
 1.099984215191156e-01  5.892905080635946e-04 -1.963607867697350e-18
 1.099789152809452e-01 -2.153646588137307e-03 -1.935078048688471e-18
 1.099004347659190e-01 -4.679149309640341e-03 -1.907732771288200e-18
 1.099974613507339e-01 -7.473261628786570e-04 -1.949857529616399e-18
 1.099960163363813e-01 -9.361571056472831e-04 -1.947891644522261e-18
 1.099776213427080e-01 -2.218739236562788e-03 -1.934386218197801e-18
 1.099835907400708e-01 -1.899938925475435e-03 -1.937768008129802e-18
 1.099835907400708e-01 -1.899938925475435e-03 -1.937768008129802e-18
 1.099830988511934e-01 -1.928203072436857e-03 -1.937468850538011e-18
 1.099899537830202e-01 -1.486629344865268e-03 -1.942127851866402e-18
 1.099693695428682e-01 -2.595720004936170e-03 -1.930366027127860e-18
 1.099872867519782e-01 -1.672349526276695e-03 -1.940172181470496e-18
 1.099499481799834e-01  3.317965524065645e-03 -1.990781371346117e-18
 1.099906046569383e-01 -1.437667277578936e-03 -1.942642502399012e-18
 1.099826061546326e-01 -1.956104147255512e-03 -1.937173409006903e-18
 1.099938620080732e-01 -1.162032937951266e-03 -1.945532513557555e-18
 1.099938620080732e-01 -1.162032937951266e-03 -1.945532513557555e-18
 1.099998829170439e-01 -1.604937274479136e-04 -1.955930114372022e-18
 1.099846845571650e-01 -1.835527951526318e-03 -1.938449273268406e-18
 1.099996102623831e-01 -2.928175605241459e-04 -1.954565682841709e-18
 1.098748344411685e-01 -5.246022924628312e-03 -1.901452762507086e-18
 1.099981662791540e-01  6.351497646281673e-04 -1.964074512599615e-18
 1.099880002474751e-01 -1.624746614508481e-03 -1.940673981599590e-18
 1.099998662302843e-01 -1.715497580863636e-04 -1.955816220712758e-18
 1.099518428250071e-01 -3.254575146599294e-03 -1.923284621039563e-18
 1.099933580553943e-01  1.208794315734602e-03 -1.969882933896290e-18
 1.099429647581835e-01 -3.541821590754118e-03 -1.920175272385036e-18
 1.099890616253509e-01  1.551232662978741e-03 -1.973324903418562e-18
 1.098886670907236e-01 -4.947812145185152e-03 -1.904762938433420e-18
 1.099298640112065e-01  3.927467183512444e-03 -1.996686357741740e-18
 1.099973363190402e-01 -7.655081422712350e-04 -1.949668491295002e-18
 1.099997113318173e-01  2.520057872020326e-04 -1.960165343471975e-18
 1.099889841967704e-01 -1.556712999400966e-03 -1.941390512831559e-18
 1.099979408663807e-01  6.730565772326171e-04 -1.964459979839479e-18
 1.099999425127392e-01 -1.124597439031386e-04 -1.956424706680055e-18
 1.099999425127392e-01 -1.124597439031386e-04 -1.956424706680055e-18
 1.099999917522756e-01 -4.259693891962687e-05 -1.957143397898386e-18
 1.099997208732500e-01 -2.478059866381001e-04 -1.955030128864287e-18
 1.099998274973464e-01  1.948090191821970e-04 -1.959579734762681e-18
 1.099998570566131e-01  1.773344991985082e-04 -1.959400716460253e-18
 1.099987183715829e-01 -5.309958654347714e-04 -1.952102615021453e-18
 1.099908287892183e-01 -1.420416228010326e-03 -1.942823739367793e-18
 1.099930474847406e-01  1.236731587501813e-03 -1.970164452239640e-18
 1.099999942192285e-01 -3.566187889898145e-05 -1.957214697023158e-18
 1.099995094842669e-01 -3.285014773396724e-04 -1.954197250092586e-18
 1.099997809671336e-01 -2.195157910948823e-04 -1.955321869788816e-18
 1.099997809671336e-01 -2.195157910948823e-04 -1.955321869788816e-18
 1.099998535414804e-01 -1.795016790762148e-04 -1.955734291800893e-18
 1.099999845992274e-01 -5.820798618544396e-05 -1.956982872761751e-18
 1.099995619220423e-01 -3.104463862111458e-04 -1.954383692787797e-18
 1.096447498886645e-01  8.833392431683865e-03 -2.042019011577098e-18
 1.099344817767712e-01  3.796013233996910e-03 -1.995417894810428e-18
 2.381541529116999e-04 -1.099997421933314e-01  1.125969154040064e-18
 1.099999390553858e-01 -1.157921039294463e-04 -1.956390406363609e-18
 1.093643673539320e-01  1.180826631111216e-02 -2.067595018343545e-18
 1.099700778205688e-01  2.565537787281251e-03 -1.983408680651887e-18
 1.099983209979963e-01 -6.077644458994313e-04 -1.951306774008032e-18
 9.226813565229311e-02 -5.988815528341114e-02 -1.026692495468141e-18
 1.099967413431168e-01  8.466958694680403e-04 -1.966222713541679e-18
 1.099967413431168e-01  8.466958694680403e-04 -1.966222713541679e-18
 1.099999308810015e-01 -1.233133197685245e-04 -1.956312983130185e-18
 1.099999308810015e-01 -1.233133197685245e-04 -1.956312983130185e-18
 1.099997661719132e-01 -2.268085632129876e-04 -1.955246675905962e-18
 1.099997685782808e-01 -2.256384820666447e-04 -1.955258740888865e-18
 1.099997685782808e-01 -2.256384820666447e-04 -1.955258740888865e-18
 1.099998917283433e-01 -1.543364917226420e-04 -1.955993534539934e-18
 1.099998448411939e-01 -1.847563617424715e-04 -1.955680147013397e-18
 1.099999820594634e-01 -6.282449874834112e-05 -1.956935394574086e-18
 1.099999820594634e-01 -6.282449874834112e-05 -1.956935394574086e-18
 1.099998981624838e-01 -1.496804700535336e-04 -1.956041487974389e-18
 1.099999424067958e-01  1.125633223033912e-04 -1.958736735055485e-18
 1.099999807113994e-01 -6.514208842636854e-05 -1.956911558191650e-18
 1.099999621552213e-01  9.124609478172349e-05 -1.958518059733428e-18
 1.099999970244381e-01 -2.558561175276064e-05 -1.957318276929716e-18
 1.099999914463882e-01  4.337965460715697e-05 -1.958026770720401e-18
 1.099999811985459e-01  6.431422455174903e-05 -1.958241683449071e-18
 1.099999901935948e-01  4.644791688522487e-05 -1.958058273705741e-18
 1.099999901935948e-01  4.644791688522487e-05 -1.958058273705741e-18
 1.099999501862038e-01  1.046853982775399e-04 -1.958655930691789e-18
 1.099999854094675e-01  5.665612816049020e-05 -1.958163074228992e-18
 1.099993633243816e-01  3.742569045471083e-04 -1.961415236084921e-18
 1.099902681711532e-01 -1.463184075140230e-03 -1.942374338407671e-18
 1.099983441793937e-01  6.035542987779710e-04 -1.963753046612707e-18
 1.094111472158115e-01  1.136665583713855e-02 -2.063890134591123e-18
 1.099890021952476e-01 -1.555440803677271e-03 -1.941403904484839e-18
 1.099825417088909e-01 -1.959724279589255e-03 -1.937135066573418e-18
 1.099936325631922e-01  1.183552091539689e-03 -1.969628464406175e-18
 1.099999349411114e-01 -1.196367468023332e-04 -1.956350830836318e-18
 1.099999349411114e-01 -1.196367468023332e-04 -1.956350830836318e-18
 1.099987283115579e-01  5.289327367545415e-04 -1.962993173260869e-18
 1.099993681030645e-01 -3.728497370592367e-04 -1.953739071787284e-18
 1.099441697849120e-01  3.504216075864982e-03 -1.992592194673337e-18
 1.099620086735265e-01 -2.890786827702474e-03 -1.927203327262986e-18
 1.099620086735265e-01 -2.890786827702474e-03 -1.927203327262986e-18
 1.081109102181230e-01 -2.029854900747529e-02 -1.715402389524593e-18
 3.913922973150704e-02  1.028013652439706e-01 -1.752775963117127e-18
 1.020669616632075e-01 -4.101628136290827e-02 -1.394975941715469e-18
 1.099936956889913e-01 -1.177670869774747e-03 -1.945368879642428e-18
 1.099936956889913e-01 -1.177670869774747e-03 -1.945368879642428e-18
 1.099926536392640e-01  1.271277071623875e-03 -1.970512385589555e-18
 1.099941126702175e-01  1.138058825996813e-03 -1.969169581706333e-18
 1.099999237089310e-01 -1.295531909326782e-04 -1.956248743085191e-18
 1.099979431047579e-01  6.726906587582735e-04 -1.964456259994674e-18
 1.099965632718492e-01  8.695219272703559e-04 -1.966454074002924e-18
 1.099999933012299e-01  3.838918233952425e-05 -1.957975528439866e-18
 1.099999933012299e-01  3.838918233952425e-05 -1.957975528439866e-18
 1.099996531677036e-01  2.762299491989829e-04 -1.960413202836764e-18
 1.099995528835691e-01  3.136326112004034e-04 -1.960795716925713e-18
 1.099987368609018e-01  5.271517865129341e-04 -1.962975026789877e-18
 1.099987368609018e-01  5.271517865129341e-04 -1.962975026789877e-18
 1.099980696098455e-01 -6.516763825030735e-04 -1.950851121059372e-18
 1.099995515758717e-01  3.140909216854673e-04 -1.960800402627419e-18
 1.099945293906814e-01  1.097043354867432e-03 -1.968755578677965e-18
 1.099984700067271e-01  5.801690952500452e-04 -1.963515011389124e-18
 1.099995183683354e-01  3.255130322739858e-04 -1.960917169696669e-18
 1.099999902173915e-01  4.639152616554281e-05 -1.958057694735073e-18
 1.099987524533836e-01  5.238880597605566e-04 -1.962941770669929e-18
 1.099997990357264e-01  2.102667347241732e-04 -1.959738050666050e-18
 1.099990766653843e-01  4.507025214422274e-04 -1.962195585589211e-18
 1.099994995410965e-01  3.318142676798955e-04 -1.960981577548234e-18
 1.099996260256218e-01  2.868348362349259e-04 -1.960521681172882e-18
 1.099991708463555e-01 -4.270984830479404e-04 -1.953178175210835e-18
 1.099991708463555e-01 -4.270984830479404e-04 -1.953178175210835e-18
 1.099999999576205e-01  3.053427823189799e-06 -1.957612584857092e-18
 1.099999999576205e-01  3.053427823189799e-06 -1.957612584857092e-18
 1.096151571694306e-01  9.193330121395364e-03 -2.045190602845560e-18
 1.096151571694306e-01  9.193330121395364e-03 -2.045190602845560e-18
 1.093933671772199e-01 -1.153651670262192e-02 -1.828251939818030e-18
 1.099139298303308e-01 -4.350635499908122e-03 -1.911348292112215e-18
 1.099882716092109e-01  1.606271589233323e-03 -1.973876349112182e-18
 1.099547468807974e-01 -3.154938728359729e-03 -1.924360030178781e-18
 1.099998612497979e-01 -1.747141240044127e-04 -1.955783619368780e-18
 1.099973946288026e-01  7.570831363799878e-04 -1.965313601260992e-18
 1.099753745185960e-01  2.327444842408356e-03 -1.981056623195211e-18
 1.099753745185960e-01  2.327444842408356e-03 -1.981056623195211e-18
 1.099819964322664e-01 -1.990090644383398e-03 -1.936813359358430e-18
 1.090785388337469e-01 -1.420817954189414e-02 -1.795198828770371e-18
 1.097998810590016e-01  6.632203210776628e-03 -2.022163336184762e-18
 1.099988051123629e-01  5.127122510067669e-04 -1.962827880424187e-18
 1.099966823830464e-01 -8.543212060694852e-04 -1.948744331756671e-18
 1.099991646278632e-01 -4.286970633885833e-04 -1.953161639713066e-18
 1.099780910122175e-01  2.195335352136713e-03 -1.979747589418618e-18
 1.099996131248914e-01 -2.917402511679379e-04 -1.954576802745738e-18
 1.099999687278073e-01 -8.294505018522491e-05 -1.956728425964568e-18
 1.099994011600322e-01 -3.629661612549901e-04 -1.953841210226423e-18
 1.099994011600322e-01 -3.629661612549901e-04 -1.953841210226423e-18
 1.099992854642692e-01  3.964812103431421e-04 -1.961642197139942e-18
 1.099902328984043e-01 -1.465833194711361e-03 -1.942346491945786e-18
 1.099818024815547e-01  2.000780574732062e-03 -1.977814659781036e-18
 1.099433174066641e-01 -3.530857915212396e-03 -1.920294195968804e-18
 1.099933310869108e-01  1.211245807076536e-03 -1.969907642142938e-18
 1.098476138065858e-01 -5.788068848856602e-03 -1.895399013883096e-18
 1.099684105097266e-01  2.636036791129421e-03 -1.984103360520875e-18
 1.098677821780114e-01 -5.391700963978513e-03 -1.899830470138308e-18
 1.099611959138783e-01  2.921539523880188e-03 -1.986908405045899e-18
 1.086702143161281e-01 -1.705240512322891e-02 -1.758708822289938e-18
 1.099380856166250e-01  3.690166791833398e-03 -1.994394495697201e-18
 1.098836624123804e-01 -5.057740092368103e-03 -1.903544404488884e-18
 1.099193291655289e-01  4.212015645749592e-03 -1.999422509677644e-18
 1.099154518195868e-01 -4.312012441542642e-03 -1.911772215620573e-18
 1.090592892934628e-01  1.435518787075689e-02 -2.088334484148698e-18
 1.098317590065018e-01 -6.081505861020338e-03 -1.892101900100615e-18
 1.098681635022051e-01  5.383925022942189e-03 -2.010552898795631e-18
 1.097753152605128e-01 -7.027101782026811e-03 -1.881381761731852e-18
 1.099426384307081e-01  3.551936780759715e-03 -1.993055255305835e-18
 1.099388588456312e-01 -3.667058183381011e-03 -1.918815442279093e-18
 1.096087605285928e-01  9.269283434308051e-03 -2.045857159690169e-18
 1.099654591825300e-01 -2.756408310692118e-03 -1.928645423633025e-18
 1.099685304630579e-01  2.631027897119670e-03 -1.984054030667131e-18
 1.099579823521281e-01 -3.040085039767076e-03 -1.925597689177746e-18
 1.099881671651211e-01  1.613407467847895e-03 -1.973947808965522e-18
 1.099999820765063e-01 -6.279465129868655e-05 -1.956935701549084e-18
 1.099999820765063e-01 -6.279465129868655e-05 -1.956935701549084e-18
 1.099946988407152e-01  1.079919876793124e-03 -1.968582656726701e-18
 1.099999039803721e-01 -1.453420408644429e-04 -1.956086167294542e-18
 1.099910372416394e-01  1.404181793149420e-03 -1.971849167598902e-18
 1.099996670132074e-01  2.706602730807452e-04 -1.960356222835208e-18
 1.099964740115488e-01  8.807411802582207e-04 -1.966567759258221e-18
 1.099978695782854e-01  6.846080911335604e-04 -1.964577398791785e-18
 1.099978695782854e-01  6.846080911335604e-04 -1.964577398791785e-18
 1.099979664649529e-01  6.688599068747038e-04 -1.964417316133210e-18
 1.099971558710776e-01  7.910121830748891e-04 -1.965657960911812e-18
 1.099937114565080e-01  1.176197271882312e-03 -1.969554300306653e-18
 1.099971558710778e-01  7.910121830582500e-04 -1.965657960911644e-18
 1.099998214144643e-01  1.982139901607438e-04 -1.959614611350413e-18
 1.099554816927169e-01  3.129224460234075e-03 -1.988940600939191e-18
 1.099964321864046e-01 -8.859493561243310e-04 -1.948414911456776e-18
 1.099816293537317e-01  2.010274781789159e-03 -1.977909128293450e-18
 1.099814933586522e-01 -2.017701316016594e-03 -1.936520716942515e-18
 1.099573986153655e-01  3.061125567753857e-03 -1.988275023482460e-18
 1.099997570532066e-01  2.311887442069965e-04 -1.959952269584099e-18
 1.099474136560284e-01  3.400916104539497e-03 -1.991588553549840e-18
 1.099984206774013e-01 -5.894476035819783e-04 -1.951496746822774e-18
 1.099630423168895e-01  2.851197014219728e-03 -1.986218520256616e-18
 1.099929153288535e-01 -1.248429997873807e-03 -1.944627967866483e-18
 1.098782862301030e-01  5.173220963333999e-03 -2.008568137143695e-18
 1.099908630133100e-01 -1.417763586496576e-03 -1.942851603354254e-18
 1.099220513208255e-01  4.140366339072577e-03 -1.998734783080293e-18
 1.099968074293653e-01 -8.380664335569904e-04 -1.948913568987748e-18
 1.099138178251126e-01  4.353464265143268e-03 -2.000777761980798e-18
 1.099997678946137e-01 -2.259715270509692e-04 -1.955255306805965e-18
 1.099577778849996e-01  3.047471508153022e-03 -1.988141482535741e-18
 1.099978912990836e-01  6.811092092478285e-04 -1.964541835598966e-18
 1.099678116936253e-01  2.660900470760521e-03 -1.984348169150004e-18
 1.099955797638489e-01  9.861198784544281e-04 -1.967634572896599e-18
 1.099976157008350e-01  7.242514282521553e-04 -1.964980201627323e-18
 1.099860556123109e-01  1.751448213789657e-03 -1.975328549882803e-18
 1.099992817295713e-01  3.975160101442658e-04 -1.961652762868583e-18
 1.099688806706818e-01  2.616349372173169e-03 -1.983909446518003e-18
 1.099999278624644e-01  1.259771905961715e-04 -1.958874298845592e-18
 1.099999278624644e-01  1.259771905961715e-04 -1.958874298845592e-18
 1.099877035757955e-01  1.644707306144268e-03 -1.974261153308639e-18
 1.099606863813377e-01 -2.940654781680053e-03 -1.926667420384685e-18
 1.099202957215167e-01  4.186715716913078e-03 -1.999179763116342e-18
 1.096743423973249e-01 -8.458050585936721e-03 -1.864882350049293e-18
 1.099498576340012e-01  3.320964658467250e-03 -1.990810574988834e-18
 1.099364006063697e-01 -3.740029641021258e-03 -1.918021939760334e-18
 1.099794821506563e-01  2.124501323462384e-03 -1.979044552473899e-18
 9.432907292435574e-02  5.658644715151766e-02 -2.260103560721753e-18
 1.099835461175057e-01 -1.902520280685018e-03 -1.937740691530983e-18
 1.099185547168681e-01 -4.232177802832928e-03 -1.912647707290062e-18
 1.099974159728582e-01 -7.539756587069601e-04 -1.949788400908909e-18
 1.099873094020931e-01 -1.670859206564326e-03 -1.940187897049962e-18
 1.099873094020931e-01 -1.670859206564326e-03 -1.940187897049962e-18
 1.099616866724007e-01  2.903009500622306e-03 -1.986726749421657e-18
 1.099929156925098e-01 -1.248397957524250e-03 -1.944628303541133e-18
 1.099862773572406e-01 -1.737467437412623e-03 -1.939485155205645e-18
 1.099931233196587e-01 -1.229968449306426e-03 -1.944821355015938e-18
 1.099899990517426e-01 -1.483276305206958e-03 -1.942163108741741e-18
 1.099940760880747e-01 -1.141589037600267e-03 -1.945746377015968e-18
 1.099931589389683e-01 -1.226778964108394e-03 -1.944854759705802e-18
 1.099931589389683e-01 -1.226778964108394e-03 -1.944854759705802e-18
 1.099891661215214e-01 -1.543805652373630e-03 -1.941526368701345e-18
 1.099927702353289e-01 -1.261148666127118e-03 -1.944494706058164e-18
 1.099953712823511e-01 -1.009106762262045e-03 -1.947130633795155e-18
 1.099941159375218e-01 -1.137742995121446e-03 -1.945786602873726e-18
 1.099912174242719e-01 -1.389996232538622e-03 -1.943143209994908e-18
 1.099949760067356e-01 -1.051310267039655e-03 -1.946689973713813e-18
 1.099938142552725e-01 -1.166544288286025e-03 -1.945485311253662e-18
 1.099938142552725e-01 -1.166544288286025e-03 -1.945485311253662e-18
 1.099985892517575e-01 -5.571019862376597e-04 -1.951832086272498e-18
 1.099903827721503e-01 -1.454543789580673e-03 -1.942465153664470e-18
 1.099983334238741e-01 -6.055113295119832e-04 -1.951330145093737e-18
 1.099760683376605e-01 -2.294426505724246e-03 -1.933580921424878e-18
 1.099977541130506e-01 -7.029154179456403e-04 -1.950319043942075e-18
 1.099977541130506e-01 -7.029154179456403e-04 -1.950319043942075e-18
 1.099868810988698e-01 -1.698819043636249e-03 -1.939892997714299e-18
 1.099925063729107e-01  1.283955530816669e-03 -1.970640031371617e-18
 1.099948286157238e-01 -1.066619799869520e-03 -1.946530050826632e-18
 1.099963582012701e-01  8.950879609300138e-04 -1.966713106235796e-18
 1.099716184272377e-01 -2.498627722162376e-03 -1.931403636642429e-18
 1.099974644485408e-01  7.468700636205453e-04 -1.965209908174031e-18
 1.099962834588824e-01 -9.042263174192437e-04 -1.948224475535303e-18
 1.099999983447611e-01 -1.908277962881167e-05 -1.957385114664219e-18
 1.099999983447611e-01 -1.908277962881167e-05 -1.957385114664219e-18
 1.099999983447611e-01 -1.908277962881167e-05 -1.957385114664219e-18
 1.099850945644258e-01 -1.810793653133201e-03 -1.938710705767411e-18
 1.099308549169170e-01  3.899632961661089e-03 -1.996418005572708e-18
 1.099927058849582e-01 -1.266748635292353e-03 -1.944436023217694e-18
 1.098587522588524e-01  5.572661135223405e-03 -2.012324609485282e-18
 1.099685257930037e-01 -2.631223083169270e-03 -1.929986230360969e-18
 1.099998499321976e-01 -1.817000107907064e-04 -1.955711640509627e-18
 1.099741615232673e-01 -2.384071570704705e-03 -1.932625916911039e-18
 1.099936363163922e-01  1.183203235789412e-03 -1.969624946832740e-18
 1.099992343519581e-01 -4.104168404498209e-04 -1.953350703186518e-18
 1.099992343519581e-01 -4.104168404498209e-04 -1.953350703186518e-18
 1.099975124040134e-01 -7.397735659283656e-04 -1.949936038360428e-18
 1.099963951758785e-01 -8.905326001300572e-04 -1.948367161643119e-18
 1.099985167332727e-01  5.712411748506558e-04 -1.963424111804896e-18
 1.099129220104934e-01 -4.376022750756065e-03 -1.911069511976039e-18
 1.099866347420589e-01 -1.714694759087192e-03 -1.939725496291922e-18
 8.113312350637865e-02  7.427931253113909e-02 -2.207053664593521e-18
 1.099925487266535e-01 -1.280322074588609e-03 -1.944293764240271e-18
 1.094587001231225e-01 -1.089921865806335e-02 -1.835962623417986e-18
 1.099920256803357e-01  1.324494898561082e-03 -1.971048004150631e-18
 1.099993119731111e-01 -3.890571193296423e-04 -1.953571547922658e-18
 1.099935935856732e-01 -1.187168947400897e-03 -1.945269473294863e-18
 1.099991515750754e-01 -4.320332898321980e-04 -1.953127128908383e-18
 1.099991515750754e-01 -4.320332898321980e-04 -1.953127128908383e-18
 1.099995010882463e-01 -3.313009762222750e-04 -1.954168336841342e-18
 1.099975304828905e-01 -7.370805013684668e-04 -1.949964030355651e-18
 1.099975304828905e-01 -7.370805013684668e-04 -1.949964030355651e-18
 1.099792849220269e-01  2.134686871543756e-03 -1.979145695361593e-18
 1.095926759303593e-01  9.457556895054018e-03 -2.047505356492994e-18
 1.095426588253555e-01 -1.002027432118013e-02 -1.846487602439886e-18
 1.097507031028455e-01 -7.401565268980360e-03 -1.877096282731163e-18
 1.099968922030152e-01  8.268649697447236e-04 -1.966021642982864e-18
 1.099968922030152e-01  8.268649697447236e-04 -1.966021642982864e-18
 1.099939862264952e-01  1.150214764947802e-03 -1.969292229346284e-18
 1.099999994573740e-01  1.092600752795239e-05 -1.957693463851193e-18
 1.099842316493502e-01  1.862468389526714e-03 -1.976436782261457e-18
 1.099807011459408e-01 -2.060430888715597e-03 -1.936067587735281e-18
 1.099964319611001e-01  8.859773287159832e-04 -1.966620810443587e-18
 1.099905643325038e-01  1.440749047290739e-03 -1.972216466869190e-18
 1.099905643325038e-01  1.440749047290739e-03 -1.972216466869190e-18
 1.099905643325038e-01  1.440749047290739e-03 -1.972216466869190e-18
 1.099804286832685e-01  2.074923286393949e-03 -1.978552000830204e-18
 1.099815616960930e-01  2.013972911535906e-03 -1.977945921184788e-18
 1.099686499279105e-01  2.626029899406498e-03 -1.984004804075813e-18
 1.099383617676978e-01  3.681930449466787e-03 -1.994314784709158e-18
 1.099926570071012e-01 -1.270985648270581e-03 -1.944391619608760e-18
 1.099984440685398e-01 -5.850662357757706e-04 -1.951542180058568e-18
 1.099793427924440e-01 -2.131703295966660e-03 -1.935311116121227e-18
 1.099624643197367e-01 -2.873402291808335e-03 -1.927390055821818e-18
 1.099624643197367e-01 -2.873402291808335e-03 -1.927390055821818e-18
 1.099916020289485e-01 -1.359221507094220e-03 -1.943466253618263e-18
 1.099825426045248e-01 -1.959674014683626e-03 -1.937135598965937e-18
 1.099998648169589e-01 -1.724536189221493e-04 -1.955806908719208e-18
 1.099877992668957e-01 -1.638295585353305e-03 -1.940531194156965e-18
 1.099838989565307e-01 -1.882012305904379e-03 -1.937957682713223e-18
 7.472112183389316e-02  8.072641421421131e-02 -2.159186074064840e-18
 1.099995156827595e-01 -3.264192982516468e-04 -1.954218754035890e-18
-6.209605214565404e-02 -9.079691794286934e-02  2.037978666719935e-18
 1.099925837734286e-01 -1.277307654876075e-03 -1.944325360006934e-18
 1.099649653626082e-01  2.776039048771688e-03 -1.985480522356836e-18
 1.099600302199967e-01 -2.965089209001860e-03 -1.926404688346522e-18
 1.099979789542044e-01 -6.668028121828673e-04 -1.950694089164142e-18
 1.099979789542044e-01 -6.668028121828673e-04 -1.950694089164142e-18
 1.099993078826281e-01 -3.902119202589825e-04 -1.953559609967592e-18
 1.099960469080347e-01  9.325580975824473e-04 -1.967092558443620e-18
 1.099977537575894e-01  7.029710411191536e-04 -1.964764010264712e-18
 1.099972928702629e-01  7.717261259827784e-04 -1.965462241745186e-18
 1.099908964799356e-01  1.415164845531626e-03 -1.971959509449872e-18
 1.099878910628002e-01  1.632121183470275e-03 -1.974135172025235e-18
 1.099912569704479e-01  1.386863389381936e-03 -1.971675137627723e-18
 1.099826683267701e-01  1.952605368118637e-03 -1.977335085782186e-18
 1.099826683267701e-01  1.952605368118637e-03 -1.977335085782186e-18
 1.099870254349183e-01  1.689448424355786e-03 -1.974708783719269e-18
 1.099826242398710e-01  1.955087034194576e-03 -1.977359799420639e-18
 1.099826242398710e-01  1.955087034194576e-03 -1.977359799420639e-18
 1.099826242398710e-01  1.955087034194576e-03 -1.977359799420639e-18
 1.099826242398710e-01  1.955087034194576e-03 -1.977359799420639e-18
 1.099837829762620e-01  1.888777972770433e-03 -1.976699118998964e-18
 1.099764810356560e-01  2.274559081210545e-03 -1.980532933001774e-18
 1.099764810356560e-01  2.274559081210545e-03 -1.980532933001774e-18
 1.099695884179377e-01  2.586430588534452e-03 -1.983614637091406e-18
 1.099695884179377e-01  2.586430588534452e-03 -1.983614637091406e-18
 1.098976802058375e-01 -4.743404407742323e-03 -1.907023552814836e-18
 1.098976802058375e-01 -4.743404407742323e-03 -1.907023552814836e-18
 1.080489088452728e-01  2.062603445517027e-02 -2.134784229483107e-18
 1.099904409942842e-01  1.450134436116350e-03 -1.972310703379190e-18
 1.099904409942842e-01  1.450134436116350e-03 -1.972310703379190e-18
 1.093855729840853e-01  1.161018617177441e-02 -2.065937196352278e-18
 1.099838241941295e-01  1.886376323733948e-03 -1.976675176448682e-18
 1.099966750170478e-01 -8.552690769020485e-04 -1.948734461641468e-18
 1.099906178048773e-01  1.436661025196812e-03 -1.972175415531909e-18
 1.099987077384502e-01  5.331940274767587e-04 -1.963036590352044e-18
 1.099947970950948e-01 -1.069865416234210e-03 -1.946496142350332e-18
 1.097700379368552e-01  7.109062620437951e-03 -2.026531799432867e-18
 1.099999139750464e-01 -1.375699179157596e-04 -1.956166200901601e-18
 1.099976537531634e-01  7.184488841248125e-04 -1.964921259780886e-18
 1.099922441937828e-01 -1.306222498340697e-03 -1.944022227269409e-18
 1.099937356024255e-01  1.173937061195645e-03 -1.969531507168321e-18
 1.097000154178479e-01 -8.118289063827541e-03 -1.868830158287401e-18
 1.098362688371168e-01  5.999503974540897e-03 -2.016310145290476e-18
 1.099999859146511e-01 -5.566665501695758e-05 -1.957009007425848e-18
 1.099999214608749e-01  1.314480935205586e-04 -1.958930396461795e-18
 1.099999214608749e-01  1.314480935205586e-04 -1.958930396461795e-18
 1.098597870931146e-01 -5.552222965215296e-03 -1.898038882816038e-18
 1.091839142027457e-01 -1.337433659541317e-02 -1.805641542521758e-18
 1.086991658764124e-01  1.686687101308647e-02 -2.107732290236210e-18
 1.099952226577447e-01  1.025179239492620e-03 -1.968029538513020e-18
 1.099785949027075e-01 -2.169945443112742e-03 -1.934904882361605e-18
 1.099785949027075e-01 -2.169945443112742e-03 -1.934904882361605e-18
 1.099978994739556e-01 -6.797877003070853e-04 -1.950559259709869e-18
 1.099815913982805e-01 -2.012350243275413e-03 -1.936577442003168e-18
 1.099996422432468e-01  2.805465338241793e-04 -1.960457359761955e-18
 1.099788104727548e-01 -2.158992125464457e-03 -1.935021260047545e-18
 1.099983081870453e-01  6.100786733944245e-04 -1.963819441664998e-18
 1.099912452470997e-01  1.387792849217706e-03 -1.971684478858921e-18
 1.099912452470997e-01  1.387792849217706e-03 -1.971684478858921e-18
 1.099993067604422e-01  3.905281322815327e-04 -1.961581410416244e-18
 1.099993067604422e-01  3.905281322815327e-04 -1.961581410416244e-18
 1.099796279780376e-01  2.116938783342018e-03 -1.978969445293616e-18
 1.099796279780376e-01  2.116938783342018e-03 -1.978969445293616e-18
 9.716402455252823e-02  5.156696939665607e-02 -2.258981596099503e-18
 1.099553679147536e-01 -3.133219866391391e-03 -1.924594235635710e-18
 1.099988920905360e-01  4.936991539215065e-04 -1.962634075638892e-18
 1.099982717315206e-01 -6.166166382072280e-04 -1.951214944192118e-18
 1.099982717315206e-01 -6.166166382072280e-04 -1.951214944192118e-18
 1.099948969244476e-01  1.059552065791868e-03 -1.968376910004007e-18
 1.099999779733888e-01 -6.961216803853066e-05 -1.956865581021323e-18
 1.099996548394717e-01 -2.755634174619659e-04 -1.954743756196201e-18
 1.099985222149700e-01  5.701846391515748e-04 -1.963413353837738e-18
 1.099985222149700e-01  5.701846391515748e-04 -1.963413353837738e-18
 1.099977862669290e-01 -6.978655851694521e-04 -1.950371501356012e-18
 1.099672579922686e-01  2.683685835154249e-03 -1.984572426715755e-18
 1.099623610109982e-01 -2.877353104305741e-03 -1.927347624156394e-18
 1.099739828492249e-01  2.392299370554462e-03 -1.981698213495611e-18
 1.098298524467296e-01 -6.115841032072337e-03 -1.891715189185668e-18
 1.098839265941925e-01  5.051997252777125e-03 -2.007422984561878e-18
 1.099499793422149e-01 -3.316932716605661e-03 -1.922610756761342e-18
 1.097911929011661e-01  6.774508199042239e-03 -2.023470852111561e-18
 1.099370305585192e-01 -3.721466374316746e-03 -1.918223881332152e-18
 1.098591750664082e-01  5.564319700397100e-03 -2.012246428637447e-18
 1.095184718774248e-01 -1.028126050801588e-02 -1.843375628589314e-18
 1.098078059216350e-01  6.499673736157596e-03 -2.020942676360905e-18
 1.099827602462514e-01 -1.947421016512471e-03 -1.937265367265119e-18
 1.096549079209833e-01  8.706386669602696e-03 -2.040894847811332e-18
 1.099770432306311e-01 -2.247212105671215e-03 -1.934083381617087e-18
 1.098904053457872e-01  4.909054179630691e-03 -2.006069593525196e-18
 1.094701119406535e-01 -1.078399701876514e-02 -1.837349570810519e-18
 1.098745855129569e-01  5.251233984111330e-03 -2.009303833916289e-18
 1.099893277218101e-01 -1.532249099924488e-03 -1.941647983949496e-18
 1.093863322098008e-01  1.160303088365528e-02 -2.065877189693409e-18
 1.098875520112516e-01 -4.972515759092810e-03 -1.904489273605316e-18
 1.098301532892438e-01  6.110436028728832e-03 -2.017341098379519e-18
 1.084101433834218e-01 -1.863439861079210e-02 -1.737826141426934e-18
 1.099655846814035e-01 -2.751397040965692e-03 -1.928699146011167e-18
 1.095423851170216e-01  1.002326607818517e-02 -2.052422827831279e-18
 1.099081415099705e-01  4.494488827917142e-03 -2.002125721334195e-18
 1.095622578125302e-01 -9.803655594757417e-03 -1.849062068517777e-18
 1.098153771019140e-01  6.370475018739420e-03 -2.019749944657932e-18
 1.099990522540495e-01 -4.566215181619958e-04 -1.952872726258368e-18
 1.099997613644931e-01  2.291282491297278e-04 -1.959931175470183e-18
 1.099977703358241e-01 -7.003721491110793e-04 -1.950345463809060e-18
 1.099965955284291e-01  8.654317738252517e-04 -1.966412623206427e-18
 1.099999995695857e-01  9.730936232643395e-06 -1.957681186924709e-18
 1.099895701637142e-01  1.514745919735442e-03 -1.972959065433110e-18
 1.099989707560132e-01 -4.758493645177971e-04 -1.952673716767218e-18
 1.099726962470045e-01  2.450730536807095e-03 -1.982275675881256e-18
 1.098102722958880e-01 -6.457871034862037e-03 -1.887852503016460e-18
 1.099987358826192e-01  5.273558815005480e-04 -1.962977106382028e-18
 1.099976774195216e-01  7.148162776798285e-04 -1.964884357240360e-18
 1.098315192990489e-01  6.085833423831456e-03 -2.017112625325540e-18
 1.099689025043599e-01 -2.615431510580635e-03 -1.930155187060632e-18
 1.099771596798768e-01 -2.241505910508514e-03 -1.934144083052719e-18
 9.318679457834189e-02  5.844845007537737e-02 -2.258906758625676e-18
 1.099030809268202e-01  4.616579122334261e-03 -2.003290095643773e-18
 1.096733367060074e-01 -8.471081145325609e-03 -1.864730568308575e-18
 1.099893981391188e-01 -1.527185972430780e-03 -1.941701258905208e-18
 1.095574486029290e-01  9.857253959218763e-03 -2.050985186316461e-18
 1.099972299333228e-01  7.806452431646316e-04 -1.965552762396246e-18
 1.099948015937308e-01 -1.069402803329791e-03 -1.946500975588465e-18
 1.099979767854898e-01 -6.671604745480836e-04 -1.950690375718406e-18
 1.099724546070490e-01  2.461549857410443e-03 -1.982382540198858e-18
 1.099998019087861e-01  2.087582999268186e-04 -1.959722603176002e-18
 1.099998019087861e-01  2.087582999268186e-04 -1.959722603176002e-18
 1.099956330865837e-01  9.801540091301409e-04 -1.967574224698193e-18
 1.099623415831269e-01 -2.878095473689594e-03 -1.927339650838512e-18
 1.099891977366108e-01  1.541551574452346e-03 -1.973227856013046e-18
 1.099648092858052e-01 -2.782214717891272e-03 -1.928368706486342e-18
 1.099254881822380e-01  4.048091883420156e-03 -1.997847859617611e-18
 1.099328456897841e-01 -3.843102723851291e-03 -1.916899637296664e-18
 1.099699992938974e-01  2.568901574635284e-03 -1.983441844869195e-18
 1.099076555374726e-01 -4.506357093730525e-03 -1.909636650779242e-18
 1.098126807248847e-01  6.416786735938167e-03 -2.020177795482833e-18
 1.096584699988555e-01 -8.661406208583449e-03 -1.862510476635841e-18
 1.098877512251195e-01  4.968111380214307e-03 -2.006629151564166e-18
 1.094683822013284e-01 -1.080154147443118e-02 -1.837138525127350e-18
 1.099190025711165e-01  4.220530034350901e-03 -1.999504179790344e-18
 1.097458349972537e-01 -7.473399544753818e-03 -1.876271577897038e-18
 1.093798209187127e-01  1.166425204590063e-02 -2.066390338703720e-18
 1.097846191334779e-01 -6.880218144590736e-03 -1.883056511265355e-18
 1.097244629836718e-01  7.780888313348654e-03 -2.032623503716766e-18
 1.089801506930440e-01 -1.494412108226470e-02 -1.785886362464177e-18
 1.098076697570936e-01  6.501973740106942e-03 -2.020963884855520e-18
 1.099046531821097e-01 -4.578996497065959e-03 -1.908836876802768e-18
 1.099510161549207e-01  3.282384270669862e-03 -1.990434792781065e-18
 1.094741827049091e-01 -1.074259377860675e-02 -1.837847418168241e-18
 1.098672381553733e-01  5.402775223017551e-03 -2.010730110103000e-18
 1.097520735176630e-01 -7.381216605239679e-03 -1.877329746025376e-18
 1.089457960095183e-01  1.519254856343653e-02 -2.094918312709276e-18
 1.099058047599704e-01 -4.551272356521732e-03 -1.909142225977153e-18
 1.096390784338371e-01  8.903509430493246e-03 -2.042638507964551e-18
 1.098613757114412e-01 -5.520699845989827e-03 -1.898391042772726e-18
 1.098667713294209e-01  5.412259939129091e-03 -2.010819254390848e-18
 1.099740099999331e-01 -2.391050926805551e-03 -1.932551510024029e-18
 1.099953951581407e-01 -1.006500871561344e-03 -1.947157833273613e-18
 1.097346340379496e-01  7.636104540749368e-03 -2.031316909092464e-18
 1.099993001832703e-01 -3.923763381521650e-04 -1.953537234340755e-18
 1.098937174752675e-01 -4.834341678663757e-03 -1.906018683873620e-18
 1.098937174752675e-01 -4.834341678663757e-03 -1.906018683873620e-18
 1.099953575599491e-01  1.010601434253179e-03 -1.967882157605530e-18
 1.098587629710277e-01  5.572449952715330e-03 -2.012322630297667e-18
 1.099975116825861e-01 -7.398808277754718e-04 -1.949934923445254e-18
 1.099724303340796e-01  2.462634040203328e-03 -1.982393247816759e-18
 1.098921976068518e-01 -4.868768338769013e-03 -1.905637914575841e-18
 1.099999756830019e-01  7.314190975517664e-05 -1.958332286552005e-18
 1.099995813244908e-01  3.034937176942937e-04 -1.960692049618236e-18
 1.099245584724787e-01  4.073259705760709e-03 -1.998089904555244e-18
 1.099832378112844e-01 -1.920260541289820e-03 -1.937552930120829e-18
 1.099102428236720e-01  4.442805694763742e-03 -2.001632091299906e-18
 1.099973655882920e-01 -7.612907694138514e-04 -1.949712344150309e-18
 1.099999828172828e-01  6.148331027564294e-05 -1.958212625640629e-18
 1.099827456891853e-01  1.948242969434993e-03 -1.977291640476906e-18
 1.099827564333228e-01  1.947636343970680e-03 -1.977285598825373e-18
 1.099964315091124e-01  8.860334424311535e-04 -1.966621378947967e-18
 1.099935573999186e-01  1.190516909064806e-03 -1.969698687756015e-18
 1.099935573999186e-01  1.190516909064806e-03 -1.969698687756015e-18
 1.099935573999186e-01  1.190516909064806e-03 -1.969698687756015e-18
 1.098757849159025e-01  5.226077794514121e-03 -2.009066708012818e-18
 9.572718996044588e-02  5.418768404606975e-02 -2.260338301606995e-18
 1.099779903726109e-01 -2.200371241827406e-03 -1.934581509998457e-18
 1.099950807804158e-01  1.040290396846207e-03 -1.968182275289072e-18
 1.099989257586515e-01  4.861398385719410e-04 -1.962557005584034e-18
 1.099871854706322e-01 -1.678997393899818e-03 -1.940102074623282e-18
 1.099871854706322e-01 -1.678997393899818e-03 -1.940102074623282e-18
 1.099871854706322e-01 -1.678997393899818e-03 -1.940102074623282e-18
 1.099871854706322e-01 -1.678997393899818e-03 -1.940102074623282e-18
 1.099990140251376e-01  4.657397315577850e-04 -1.962348972702649e-18
 1.099508839735847e-01 -3.286809003775212e-03 -1.922936365961898e-18
 1.099392145298964e-01  3.656379158317449e-03 -1.994067430395188e-18
 1.093811697512327e-01 -1.165159662243731e-02 -1.826852467702115e-18
 1.095480545519267e-01  9.961111578937984e-03 -2.051885107287353e-18
 1.099058358706210e-01 -4.550521022925673e-03 -1.909150499308052e-18
 1.098890158035694e-01  4.940061307600522e-03 -2.006363451939808e-18
 1.099836478650619e-01 -1.896629192548908e-03 -1.937803031040648e-18
 1.099995913229215e-01 -2.998479451622399e-04 -1.954493111143180e-18
 1.099995913229215e-01 -2.998479451622399e-04 -1.954493111143180e-18
 1.099591459471209e-01 -2.997702883830458e-03 -1.926053857994651e-18
 1.096147674945010e-01  9.197975164483658e-03 -2.045231394245687e-18
 1.089902216758511e-01 -1.487049357112239e-02 -1.786822083546549e-18
 1.094138919088746e-01  1.134020534880541e-02 -2.063667210519254e-18
 1.095046631295584e-01 -1.042730803620385e-02 -1.841629300152128e-18
 1.093877589429892e-01  1.158957261638417e-02 -2.065764301305160e-18
 1.098910371790868e-01 -4.894889958366710e-03 -1.905348873227427e-18
 1.095862818455100e-01  9.531360410582780e-03 -2.048149870437309e-18
 1.096100003199628e-01 -9.254611275343662e-03 -1.855552934316719e-18
 1.099415734161267e-01  3.584750310188643e-03 -1.993373449195628e-18
 1.090497733332726e-01 -1.442729829045740e-02 -1.792435546834796e-18
 1.098840514713205e-01  5.049280369335299e-03 -2.007397291908929e-18
 1.099802168420603e-01 -2.086121610396599e-03 -1.935795006137461e-18
 1.099416607900166e-01  3.582069615864606e-03 -1.993347460957862e-18
 1.099992186569834e-01  4.146020418532813e-04 -1.961827193185588e-18
 1.099992186569834e-01  4.146020418532813e-04 -1.961827193185588e-18
 1.099981164396634e-01 -6.437233304804704e-04 -1.950933669172260e-18
 1.099931127467054e-01  1.230913599937932e-03 -1.970105835945441e-18
 1.099967931562669e-01  8.399376985249637e-04 -1.966154197867100e-18
 1.099988291535404e-01 -5.075281767408377e-04 -1.952345708494721e-18
 1.099883577580665e-01  1.600361735209894e-03 -1.973817160630621e-18
 1.099992705338948e-01  4.006020606343187e-04 -1.961684271675876e-18
 1.099992705338948e-01  4.006020606343187e-04 -1.961684271675876e-18
 1.099923378526548e-01  1.298311868314359e-03 -1.970784538505185e-18
 1.099691111315782e-01 -2.606644764935949e-03 -1.930249180450365e-18
 1.099310019985739e-01  3.895484512805092e-03 -1.996377999261256e-18
 1.099740111456849e-01 -2.390998228506079e-03 -1.932552071869933e-18
 1.099026966413661e-01  4.625718425912785e-03 -2.003377159849945e-18
 1.096937090260480e-01 -8.203060411132085e-03 -1.867846933724241e-18
 1.099236385407124e-01  4.098010489344692e-03 -1.998327838582200e-18
 1.097826684312165e-01 -6.911274276248920e-03 -1.882702705720748e-18
 1.098868776732359e-01  4.987395635725386e-03 -2.006811744386345e-18
 1.097566625928111e-01 -7.312661381999706e-03 -1.878115794106320e-18
 1.098230640226544e-01  6.236554230976471e-03 -2.018510755137132e-18
 1.099868742654584e-01 -1.699261402554324e-03 -1.939888331028407e-18
 1.094863078678266e-01  1.061830445369962e-02 -2.057538669438454e-18
 1.098659866964791e-01 -5.428164257743887e-03 -1.899423870305346e-18
 1.099403336373104e-01  3.622573631665480e-03 -1.993740006740772e-18
 1.099842713290309e-01 -1.860123711499537e-03 -1.938189206882054e-18
 1.099447479678268e-01  3.486028440935022e-03 -1.992415612786128e-18
 1.099628233740765e-01 -2.859628577562862e-03 -1.927537965532367e-18
 1.099999386497217e-01  1.161768368499365e-04 -1.958773795743148e-18
 1.099999386497217e-01  1.161768368499365e-04 -1.958773795743148e-18
 7.137937416486012e-02  8.369578808896461e-02 -2.130224925987851e-18
 1.099690307258801e-01 -2.610034714406356e-03 -1.930212919035720e-18
 1.099690307258801e-01 -2.610034714406356e-03 -1.930212919035720e-18
 1.099932894534397e-01 -1.215020663115510e-03 -1.944977894637750e-18
 1.099941107054869e-01 -1.138248702637573e-03 -1.945781313802405e-18
 1.099933524119056e-01 -1.209307731845920e-03 -1.945037713352202e-18
 1.099963687050992e-01  8.937962250029523e-04 -1.966700021046564e-18
 1.099882261558275e-01 -1.609380966242967e-03 -1.940835878362222e-18
 1.099999673954830e-01 -8.469352184556226e-05 -1.956710437343128e-18
 1.099912605793916e-01 -1.386577136820500e-03 -1.943179107958183e-18
 1.099968357958297e-01  8.343350078071762e-04 -1.966097391077154e-18
 1.099998090124732e-01  2.049810220231411e-04 -1.959683919436304e-18
 1.099926259364253e-01 -1.273671704008538e-03 -1.944363468422079e-18
 1.096566529034837e-01 -8.684381037521510e-03 -1.862242081234952e-18
 1.099816949532088e-01  2.006682640400806e-03 -1.977873387766552e-18
 1.053583769545218e-01  3.161664760073151e-02 -2.199827562599357e-18
 1.099272482618953e-01 -4.000011195932682e-03 -1.915187846840260e-18
 1.099921430701815e-01 -1.314710169087589e-03 -1.943933219920701e-18
 1.099989106686255e-01 -4.895423533318842e-04 -1.952531956954687e-18
 1.099999035210888e-01  1.456892278024651e-04 -1.959076399683253e-18
 1.099989106686262e-01 -4.895423531679672e-04 -1.952531956956384e-18
 1.099995859550163e-01  3.018107436101742e-04 -1.960674840076621e-18
 1.099860668481820e-01 -1.750742490257755e-03 -1.939345012600308e-18
 1.099896410308183e-01 -1.509591306181109e-03 -1.941886360256809e-18
 1.099984963700906e-01  5.751489538568117e-04 -1.963463900427484e-18
 1.099999586245143e-01  9.540757367625707e-05 -1.958560754584179e-18
 1.099998992493687e-01 -1.488795778369610e-04 -1.956049736193386e-18
 1.099998992493687e-01 -1.488795778369610e-04 -1.956049736193386e-18
 1.099993082631823e-01  3.901046287388806e-04 -1.961577085814242e-18
 1.099994897005811e-01  3.350606090165393e-04 -1.961014757402455e-18
 1.099988960039220e-01 -4.928264586215924e-04 -1.952497952989964e-18
 1.099995191644731e-01  3.252438848959305e-04 -1.960914418473355e-18
 1.099988628381983e-01  5.001742728461665e-04 -1.962700084553374e-18
 1.099988628381983e-01  5.001742728461665e-04 -1.962700084553374e-18
 1.099997538182822e-01  2.327228336148193e-04 -1.959967974226134e-18
 1.099995787869385e-01  3.044120498101881e-04 -1.960701439988352e-18
 1.099995787869385e-01  3.044120498101881e-04 -1.960701439988352e-18
 1.099993321739980e-01  3.833031103574913e-04 -1.961507628205159e-18
 1.099994464219823e-01  3.489797378121426e-04 -1.961157001200117e-18
 1.099994464219823e-01  3.489797378121426e-04 -1.961157001200117e-18
 1.099994464219823e-01  3.489797378121426e-04 -1.961157001200117e-18
 1.099999310611050e-01 -1.231525561641204e-04 -1.956314638122978e-18
 1.099995049700523e-01 -3.300096110783690e-04 -1.954181674230450e-18
 1.099865784780994e-01  1.718299939139648e-03 -1.974997268422999e-18
 1.099994099460937e-01  3.602936457698620e-04 -1.961272598362416e-18
 1.099861176220929e-01 -1.747549833081413e-03 -1.939378719575303e-18
 1.099899684572352e-01  1.485543259677769e-03 -1.972666106817819e-18
 1.099899684572352e-01  1.485543259677769e-03 -1.972666106817819e-18
 1.099898836105776e-01 -1.491812096598104e-03 -1.942073352172772e-18
 1.099979551043001e-01 -6.707256311960442e-04 -1.950653359186333e-18
 1.099992271726920e-01 -4.123365257576780e-04 -1.953330851353740e-18
 1.099992271726920e-01 -4.123365257576780e-04 -1.953330851353740e-18
 9.183932521992860e-02  6.054368954026627e-02 -2.256454758434156e-18
 1.099906979617015e-01 -1.430511061726577e-03 -1.942717690386805e-18
 1.099906979617015e-01 -1.430511061726577e-03 -1.942717690386805e-18
 1.099997525298337e-01 -2.333310423306091e-04 -1.955179417025380e-18
 1.099606739812298e-01 -2.941118425640769e-03 -1.926662435936707e-18
 1.099975103844081e-01  7.400738017264818e-04 -1.965140896535511e-18
 1.099348275501014e-01 -3.785986203015871e-03 -1.917521758367842e-18
 1.099859171147766e-01  1.760123979002530e-03 -1.975415225489880e-18
 1.098617883782080e-01 -5.512481686300068e-03 -1.898482825275478e-18
 1.099612257428265e-01  2.920416603007387e-03 -1.986897398283570e-18
 1.098892355778200e-01 -4.935170120912278e-03 -1.904902947546332e-18
 1.099906709604514e-01  1.432585658758739e-03 -1.972134488589067e-18
 1.059737999998796e-01 -2.948819617381642e-02 -1.582949677655815e-18
 1.097608771228217e-01  7.249127756412003e-03 -2.027807890210198e-18
 1.094528535667845e-01 -1.095777559945451e-02 -1.835256925673196e-18
 1.098377825388045e-01  5.971727301063056e-03 -2.016051688188104e-18
 1.007772843184471e-01 -4.409012321823147e-02 -1.340441986558148e-18
 1.092839043746270e-01  1.253109111918597e-02 -2.073589845968447e-18
 1.097887984963998e-01 -6.813202236605335e-03 -1.883819452123459e-18
 1.089181986508357e-01  1.538915210975088e-02 -2.096447214810124e-18
 1.094660139423539e-01 -1.082551576472633e-02 -1.836850052010330e-18
 1.094272453825276e-01  1.121061853744289e-02 -2.062573394099947e-18
 1.071395295075367e-01 -2.492230360347211e-02 -1.650608112278981e-18
 1.097911639057673e-01  6.774978097154052e-03 -2.023475164136249e-18
 1.078417186337545e-01 -2.168325902898605e-02 -1.696384411731991e-18
 1.094837874059807e-01  1.064426114119594e-02 -2.057760510348093e-18
 1.083596604552957e-01 -1.892574928537809e-02 -1.733934215160722e-18
 1.099125583336661e-01  4.385147722529512e-03 -2.001080883843081e-18
 1.078361503494846e-01 -2.171093452164862e-02 -1.696000961837927e-18
 1.071020795046025e-01  2.508275435014611e-02 -2.163725449868781e-18
 1.099999493831982e-01 -1.055257968276270e-04 -1.956496072735365e-18
 1.096993789221504e-01  8.126885264013487e-03 -2.035732095897912e-18
 1.099996814494009e-01  2.647282196685076e-04 -1.960295530050627e-18
 1.099099102026630e-01  4.451026762728044e-03 -2.001710640399141e-18
 1.099621738947081e-01  2.884495163789340e-03 -1.986545192038569e-18
 1.099999530234926e-01  1.016603628543137e-04 -1.958624900044663e-18
 1.098950913047434e-01  4.803010214655197e-03 -2.005063422537056e-18
 1.099966089997657e-01  8.637178663324295e-04 -1.966395253168058e-18
 1.098228510782483e-01  6.240302960983546e-03 -2.018545482376432e-18
 1.099999852003579e-01 -5.706067821236108e-05 -1.956994671632224e-18
 1.098634793825478e-01  5.478676661426444e-03 -2.011443077963771e-18
 1.098670605757902e-01 -5.406385154205400e-03 -1.899666753645789e-18
 1.099043732075002e-01  4.585711489668498e-03 -2.002995939607651e-18
 1.099682685259999e-01 -2.641953329175046e-03 -1.929871402608040e-18
 1.095758757132216e-01  9.650257078470495e-03 -2.049186300971137e-18
 1.099856591665866e-01 -1.776169387025290e-03 -1.939076505292597e-18
 1.099090211358078e-01  4.472926667019014e-03 -2.001919831954914e-18
 1.099605550234828e-01 -2.945562582525464e-03 -1.926614656844144e-18
 1.098136622054760e-01  6.399968204731485e-03 -2.020022457802252e-18
 1.099985752785607e-01  5.598541656232448e-04 -1.963308156304894e-18
 1.097814849249271e-01  6.930048172846059e-03 -2.024896203821898e-18
 1.099999845147637e-01  5.836738565945602e-05 -1.958180640855821e-18
 1.098823175924182e-01  5.086873353928818e-03 -2.007752689725858e-18
 1.098867724287067e-01 -4.989713939856458e-03 -1.904298694944271e-18
 1.098679186969956e-01  5.388918369239095e-03 -2.010599847014175e-18
 1.099477013454363e-01 -3.391602697060854e-03 -1.921803010167668e-18
 1.099104060030165e-01  4.438766974288911e-03 -2.001593498885262e-18
 1.098658590119664e-01 -5.430747974512783e-03 -1.899395051255927e-18
 1.099444525485803e-01  3.495333144770549e-03 -1.992505957900026e-18
 1.099931517623209e-01  1.227422254571826e-03 -1.970070657969527e-18
 1.099983709926522e-01 -5.986476115468383e-04 -1.951401335883658e-18
 1.099896683097420e-01 -1.507602438609962e-03 -1.941907280609590e-18
 1.099905190785870e-01  1.444199717125737e-03 -1.972251115900785e-18
 1.099905190785870e-01  1.444199717125737e-03 -1.972251115900785e-18
 1.099999338515434e-01  1.206343899535694e-04 -1.958819510092681e-18
 1.099962951446570e-01 -9.028036605366486e-04 -1.948239300780257e-18
 1.099826263691239e-01  1.954967250277745e-03 -1.977358606577004e-18
 1.099727798426898e-01 -2.446976434550585e-03 -1.931955003632559e-18
 1.099817789819513e-01  2.002071918083751e-03 -1.977827509661394e-18
 1.098406313270521e-01 -5.919097032029635e-03 -1.893928485347484e-18
 1.099607763642714e-01  2.937288097320184e-03 -1.987062749531276e-18
 1.099967627790151e-01 -8.439064741175348e-04 -1.948852770086264e-18
 1.099675573722371e-01  2.671390196828288e-03 -1.984451421322263e-18
 1.099922148181093e-01 -1.308693778870454e-03 -1.943996312984561e-18
 1.099928238462035e-01  1.256464220747487e-03 -1.970363217963404e-18
 1.099763701570960e-01 -2.279913829375085e-03 -1.933735405139203e-18
 1.099959022085330e-01  9.494721327117986e-04 -1.967263768909953e-18
 1.099882049693803e-01 -1.610828238379636e-03 -1.940820631128670e-18
 1.099949621919108e-01  1.052754672313916e-03 -1.968308230767682e-18
 1.099936947865872e-01 -1.177755150727912e-03 -1.945367997626895e-18
 1.099998132324365e-01  2.027037963475981e-04 -1.959660596869020e-18
 1.099934162547641e-01 -1.203486853341865e-03 -1.945098656924093e-18
 1.099999922795762e-01  4.121277879215109e-05 -1.958004521686140e-18
 1.099995886287452e-01 -3.008346834926087e-04 -1.954482924819208e-18
 1.099959319809072e-01 -9.460167290365700e-04 -1.947788839267368e-18
 1.099998532375023e-01  1.796878625030998e-04 -1.959424828447665e-18
 1.099882695795877e-01 -1.606410560194769e-03 -1.940867170982914e-18
 1.099819721843652e-01  1.991430249215997e-03 -1.977721608647007e-18
 1.099807997751172e-01 -2.055159562067322e-03 -1.936123503925511e-18
 1.099682913545268e-01  2.641002946964965e-03 -1.984152265459108e-18
 1.099173805056454e-01 -4.262565281275254e-03 -1.912314590498612e-18
 1.099803863759092e-01  2.077164559125711e-03 -1.978574276183408e-18
 1.099368630418402e-01 -3.726411748537440e-03 -1.918170088249424e-18
 1.095903634172341e-01  9.484315793904845e-03 -2.047739140528417e-18
 1.098511957408861e-01 -5.719684807531128e-03 -1.896165379859304e-18
 1.099805956310494e-01  2.066055333135041e-03 -1.978463856866845e-18
 1.095901900515071e-01 -9.486318805232831e-03 -1.852819676262123e-18
 1.099073155237544e-01  4.514642218586484e-03 -2.002318090692186e-18
 1.098227555939303e-01 -6.241983158886064e-03 -1.890292827695494e-18
 1.090320501364508e-01  1.456063333246354e-02 -2.089960608344194e-18
 1.097594717875698e-01 -7.270375018776209e-03 -1.878600264098673e-18
 1.093226219596007e-01  1.218869672599145e-02 -2.070760893569091e-18
 1.094158960960056e-01 -1.132085162468260e-02 -1.830868749132151e-18
 1.095489060159167e-01  9.951743099367283e-03 -2.051804002380431e-18
 1.096867687564115e-01 -8.295345669559268e-03 -1.866775225841665e-18
 1.087776342157564e-01  1.635317383332890e-02 -2.103850676024763e-18
 1.090172592792340e-01 -1.467096381442692e-02 -1.789353345716951e-18
 1.099613309951229e-01  2.916450887808145e-03 -1.986858525090691e-18
 1.088312946609852e-01 -1.599216378148310e-02 -1.772469033801301e-18
 1.098957402845275e-01  4.788138188861986e-03 -2.004922167244002e-18
 1.093483638363958e-01 -1.195555629417448e-02 -1.823145572108050e-18
 1.092401296818909e-01  1.290713241133063e-02 -2.076674510766589e-18
 1.097505929319696e-01 -7.403198706036435e-03 -1.877077539136639e-18
 1.096307737847842e-01  9.005189578761912e-03 -2.043535443414477e-18
 1.096419970950554e-01 -8.867495306332771e-03 -1.860099831050038e-18
 1.097206033580471e-01  7.835125955979143e-03 -2.033112089149890e-18
 1.098714944767224e-01 -5.315515163322818e-03 -1.900679316347673e-18
 1.095189532933424e-01  1.027613105846107e-02 -2.054603926392125e-18
 1.098935523548727e-01 -4.838093718274313e-03 -1.905977194515245e-18
 1.098140726469722e-01  6.392921764378936e-03 -2.019957362483417e-18
 1.098906323342796e-01 -4.903970347804040e-03 -1.905248370828343e-18
 1.099916892246969e-01  1.352146995581410e-03 -1.971326131772868e-18
 1.098610327682651e-01 -5.527520157370778e-03 -1.898314863468015e-18
 1.099179440778136e-01  4.248007733821249e-03 -1.999767666019597e-18
 1.099606967800369e-01 -2.940265914633606e-03 -1.926671600909578e-18
 1.078479217094247e-01 -2.165238515632300e-02 -1.696812020688857e-18
 1.099997342939926e-01 -2.417752075424721e-04 -1.955092331766808e-18
 1.099954636140712e-01  9.989916543703984e-04 -1.967764758694344e-18
 1.099938148076511e-01 -1.166492203193888e-03 -1.945485856239299e-18
 1.099980821190872e-01 -6.495614847765259e-04 -1.950873073482110e-18
 1.099980821190872e-01 -6.495614847765259e-04 -1.950873073482110e-18
 1.099987915608808e-01 -5.156114291505408e-04 -1.952261987006406e-18
 1.099983704085992e-01 -5.987549186359591e-04 -1.951400222948377e-18
 1.099956623621973e-01 -9.768630924803122e-04 -1.947467105902033e-18
 1.099955531812341e-01 -9.890805600445247e-04 -1.947339632855592e-18
 1.099936258423218e-01 -1.184176532140246e-03 -1.945300793320146e-18
 1.099921330722291e-01 -1.315546358370192e-03 -1.943924450454098e-18
 1.099921330722291e-01 -1.315546358370192e-03 -1.943924450454098e-18
 1.099998737057239e-01  1.666875062760869e-04 -1.959291618766510e-18
 1.099601825229986e-01 -2.959435674043876e-03 -1.926465486778039e-18
 1.099970763568652e-01  8.019931059193201e-04 -1.965769370854724e-18
 1.098500595279047e-01 -5.741465119266609e-03 -1.895921374803060e-18
 1.099601634398050e-01  2.960144640273498e-03 -1.987286684484989e-18
 1.098245624486535e-01 -6.210111348581101e-03 -1.890652454103353e-18
 1.099899757346340e-01  1.485004341607826e-03 -1.972660699140415e-18
 1.099294928463631e-01 -3.937842371319978e-03 -1.915866553987038e-18
 1.098161153403669e-01  6.357736354331956e-03 -2.019632197342610e-18
 1.099751751293792e-01 -2.336847291189087e-03 -1.933129167557665e-18
 1.099990710164302e-01 -4.520791106641166e-04 -1.952919731744226e-18
 1.099925394066064e-01 -1.281122510183932e-03 -1.944285374193948e-18
 1.099925394066064e-01 -1.281122510183932e-03 -1.944285374193948e-18
 1.099970815132282e-01 -8.012855746749399e-04 -1.949296356600606e-18
 1.099983846035565e-01 -5.961414329070175e-04 -1.951427328181037e-18
 1.099983846035565e-01 -5.961414329070175e-04 -1.951427328181037e-18
 1.099923104324704e-01 -1.300632817908695e-03 -1.944080838001735e-18
 1.099923104324704e-01 -1.300632817908695e-03 -1.944080838001735e-18
 1.098437641733758e-01  5.860671652957395e-03 -2.015017082069511e-18
 1.097656662530043e-01 -7.176246374955065e-03 -1.879677639621119e-18
 1.094332471202008e-01 -1.115187987421943e-02 -1.832913654658154e-18
 1.088794326882428e-01  1.566107076436242e-02 -2.098551193659921e-18
 1.099952741031257e-01  1.019644535225918e-03 -1.967973586969200e-18
 1.099923571327007e-01  1.296677443459118e-03 -1.970768088494953e-18
 1.099923571327007e-01  1.296677443459118e-03 -1.970768088494953e-18
-1.099893634997803e-01  1.529678696051664e-03  1.941675030627193e-18
-1.099907079465557e-01  1.429743129188236e-03  1.942725758307058e-18
-1.099873237448363e-01  1.669914802781051e-03  1.940197855701982e-18
-1.099834447232057e-01  1.908372819316255e-03  1.937678754390092e-18
-1.099834447232057e-01  1.908372819316255e-03  1.937678754390092e-18
-1.099836082417589e-01  1.898925518092054e-03  1.937778731985942e-18
-1.099836082417589e-01  1.898925518092054e-03  1.937778731985942e-18
-1.099836082417589e-01  1.898925518092054e-03  1.937778731985942e-18
-1.099854970643240e-01  1.786179026173161e-03  1.938970775083442e-18
-1.099854970643240e-01  1.786179026173161e-03  1.938970775083442e-18
-1.099905233278348e-01  1.443876057349885e-03  1.942577262093928e-18
-1.099905233278348e-01  1.443876057349885e-03  1.942577262093928e-18
-1.064472829358228e-01  2.773041571236996e-02  1.609436426981737e-18
-1.099919049614216e-01  1.334482280721922e-03  1.943725831226894e-18
-1.099950065167206e-01  1.048113250829296e-03  1.946723364855566e-18
-1.099950065167206e-01  1.048113250829296e-03  1.946723364855566e-18
-1.099936427247692e-01  1.182607346410673e-03  1.945317216576767e-18
-1.099927085026117e-01  1.266521322145971e-03  1.944438405361964e-18
-1.099927085026117e-01  1.266521322145971e-03  1.944438405361964e-18
-1.099999700763171e-01  8.113697858015349e-05  1.956747027241831e-18
-1.099983661370528e-01  5.995391387123320e-04  1.951392089354715e-18
-1.099905211331079e-01  1.444043235952933e-03  1.942575505336729e-18
-1.098395670745035e-01  5.938813424043985e-03  1.893706966938351e-18
-1.098903468575021e-01 -4.910363279619197e-03  2.006082003183219e-18
-1.099535666113785e-01  3.195808103924916e-03  1.923919107889341e-18
-1.099789082681359e-01 -2.154004677082452e-03  1.979337475790618e-18
-1.098994748034245e-01  4.701642046287847e-03  1.907484582912442e-18
-1.098799814307848e-01 -5.137088744643561e-03  2.008227059840695e-18
-1.098823650869124e-01  5.085847314505137e-03  1.903232525537768e-18
-1.099528968152883e-01 -3.218770250659133e-03  1.989814650429186e-18
-1.098519582597259e-01  5.705021165903151e-03  1.896329613382471e-18
-1.099851365085624e-01 -1.808244229317206e-03  1.975895751762429e-18
-1.099351173652533e-01  3.777561367861235e-03  1.917613478094885e-18
-1.099470226853363e-01 -3.413532280513548e-03  1.991711222385046e-18
-1.099864728244102e-01  1.725049461678079e-03  1.939616223966668e-18
-1.099953464535077e-01 -1.011809553603504e-03  1.967894372940607e-18
-1.099888458497292e-01  1.566457354814755e-03  1.941287931068905e-18
-1.099876950300516e-01 -1.645278692596619e-03  1.974266872015165e-18
-1.099964788891674e-01  8.801317997423570e-04  1.948475515866621e-18
-1.099427514336523e-01 -3.548437289584702e-03  1.993021310327463e-18
-1.099892162330500e-01  1.540231294106324e-03  1.941563985728505e-18
-1.099991536086799e-01 -4.315152071427097e-04  1.961999812202714e-18
-1.099961783118110e-01  9.169279122404143e-04  1.948092100045081e-18
-1.099969543132031e-01 -8.185608218508882e-04  1.965937426204797e-18
-1.099954326153332e-01  1.002399005219787e-03  1.947200645055603e-18
-1.099805769935810e-01 -2.067047207723052e-03  1.978473716341938e-18
-1.099960617615915e-01  9.308044585848266e-04  1.947947449422162e-18
-1.099998389883591e-01 -1.882087538721535e-04  1.959512123930586e-18
-1.099924764229404e-01  1.286518693549420e-03  1.944228809500683e-18
-1.099946578115616e-01 -1.084090825267760e-03  1.968624781544362e-18
-1.099982478221598e-01  6.208671795861766e-04  1.951170845927953e-18
-1.099998394678984e-01 -1.879282749912000e-04  1.959509250645948e-18
-1.099971731762942e-01  7.886020696862257e-04  1.949428306260408e-18
-1.099999847416231e-01  5.793826590332293e-05  1.956985646573768e-18
-1.099989717165461e-01  4.756272726082661e-04  1.952676015774738e-18
-1.099999932709016e-01  3.847598701652840e-05  1.957185766207925e-18
-1.099979951557335e-01 -6.641247768297744e-04  1.964369174978800e-18
-1.099979951557335e-01 -6.641247768297744e-04  1.964369174978800e-18
-9.955016101431011e-02  4.679492966150179e-02  1.290812959969697e-18
-1.099999998005670e-01  6.623837947950521e-06  1.957513151671813e-18
-1.099987853521067e-01 -5.169342909058309e-04  1.962870908693073e-18
-1.099999602944859e-01  9.346235325350808e-05  1.956620214415165e-18
-1.099999602944859e-01  9.346235325350808e-05  1.956620214415165e-18
-1.099999602944859e-01  9.346235325350808e-05  1.956620214415165e-18
-1.099983190162857e-01 -6.081230067960953e-04  1.963799540620391e-18
-1.099996210495823e-01  2.887368148489929e-04  1.954607802992180e-18
-1.099979141988320e-01 -6.774008461476453e-04  1.964504141043593e-18
-1.099959423100286e-01  9.448149706768375e-04  1.947801370716988e-18
-1.099867458863057e-01 -1.707550684808203e-03  1.974889802968364e-18
-1.099885878497950e-01  1.584469251161523e-03  1.941098273960566e-18
-1.099892883196467e-01 -1.535074896411529e-03  1.973162922532144e-18
-1.099840328564094e-01  1.874170920762948e-03  1.938040633005062e-18
-1.091144758347574e-01 -1.392950692975607e-02  2.084942877448869e-18
-1.092882104011249e-01  1.249348099287808e-02  1.816548089107292e-18
-1.098134502173121e-01 -6.403604560705410e-03  2.020056047456654e-18
-1.090750424643411e-01  1.423499600990968e-02  1.794861077238973e-18
-1.099868541277989e-01  1.700564338757212e-03  1.939874585458569e-18
-1.099889422566590e-01 -1.559673447006344e-03  1.973409505099890e-18
-1.099999926205829e-01 -4.029232769787297e-05  1.957995070454139e-18
-1.099996490110905e-01  2.778802563248617e-04  1.954719847795530e-18
-1.097925368294314e-01 -6.752692541342812e-03  2.023270620960282e-18
-1.086780678990597e-01  1.700228095660469e-02  1.759363593769686e-18
-1.099645519338975e-01 -2.792367808351804e-03  1.985640936972687e-18
-1.092049608009608e-01 -1.320138388429732e-02  2.079071965571054e-18
-1.088760045647300e-01  1.568488540030985e-02  1.776421873611438e-18
-1.099405703282927e-01  3.615383228605685e-03  1.919376841542867e-18
-1.097992886917716e-01 -6.642002919373003e-03  2.022253482749177e-18
-1.099927469185564e-01  1.263180632514280e-03  1.944473413391912e-18
-1.099802047501126e-01 -2.086758999807252e-03  1.978669623328323e-18
-1.099993772412632e-01 -3.701439371754222e-04  1.961373224506807e-18
-1.099993772412632e-01 -3.701439371754222e-04  1.961373224506807e-18
-1.099993772412632e-01 -3.701439371754222e-04  1.961373224506807e-18
-1.099990773963150e-01 -4.505240942133078e-04  1.962193765322034e-18
-1.099997288372835e-01 -2.442452130046947e-04  1.960085917921943e-18
-1.099997288372835e-01 -2.442452130046947e-04  1.960085917921943e-18
-1.099992706154859e-01 -4.005796563196743e-04  1.961684042931693e-18
-1.099998577349364e-01 -1.769132378516536e-04  1.959396400224517e-18
-1.099988083265976e-01 -5.120221952339646e-04  1.962820847552939e-18
-1.099997501412226e-01 -2.344544061391300e-04  1.959985700067130e-18
-1.099995166436340e-01 -3.260953339759300e-04  1.960923121942007e-18
-1.099983927808569e-01 -5.946306654460562e-04  1.963662224442935e-18
-1.099999997947203e-01 -6.720229683259181e-06  1.957650257015158e-18
-1.099989034860095e-01 -4.911536170360310e-04  1.962608123968160e-18
-1.099993019291614e-01 -3.918865871104044e-04  1.961595282067718e-18
-1.099993019291614e-01 -3.918865871104044e-04  1.961595282067718e-18
-1.099988602555249e-01 -5.007419349867583e-04  1.962705871113902e-18
-1.099995162436645e-01 -3.262302250680511e-04  1.960924500781041e-18
-1.099990991879606e-01 -4.451716940367937e-04  1.962139159162922e-18
-1.099993030052790e-01 -3.915844133521227e-04  1.961592196492921e-18
-1.099993030052790e-01 -3.915844133521227e-04  1.961592196492921e-18
-1.099993853872438e-01 -3.677151459617302e-04  1.961348414526839e-18
-1.099991101848558e-01 -4.424460870238450e-04  1.962111350243867e-18
-1.099996460114996e-01 -2.790651263502562e-04  1.960442205898866e-18
-1.099997930726115e-01  2.133634988087962e-04  1.955385297788520e-18
-1.099992766984701e-01 -3.989057700407094e-04  1.961666952612211e-18
-1.099992766984701e-01 -3.989057700407094e-04  1.961666952612211e-18
-1.099991520430156e-01 -4.319141320862442e-04  1.962003883148727e-18
-1.099995062711758e-01 -3.295756324724115e-04  1.960958696154497e-18
-1.099999608135151e-01 -9.284947563276252e-05  1.958534510011946e-18
-1.099987122165446e-01 -5.322693883299648e-04  1.963027169713738e-18
-1.099999934901446e-01 -3.784399711265674e-05  1.957969930221673e-18
-1.099953549124920e-01 -1.010889546329367e-03  1.967885070737793e-18
-1.099848311058398e-01  1.826725655338960e-03  1.938542321672584e-18
-1.099999295621489e-01  1.244842248415536e-04  1.956300929035363e-18
-1.099995718768772e-01 -3.068988492599621e-04  1.960726867976532e-18
-1.099988279552074e-01 -5.077878303635237e-04  1.962777690306644e-18
-1.099988279552074e-01 -5.077878303635237e-04  1.962777690306644e-18
-1.099992183062080e-01  4.146950965985511e-04  1.953306460105496e-18
-1.097543330506974e-01  7.347542214683827e-03  1.877715949241009e-18
-1.098883530092618e-01 -4.954782831954135e-03  2.006502915039321e-18
-1.027094658876526e-01 -3.937976151620395e-02  2.232450205792826e-18
-1.097325231171893e-01  7.666379219389060e-03  1.874051881059433e-18
-1.099995895379734e-01  3.005020421768943e-04  1.954486358768687e-18
-1.099995895379734e-01  3.005020421768943e-04  1.954486358768687e-18
-1.099989330153675e-01 -4.844950780467950e-04  1.962540235409052e-18
-1.099999503662328e-01  1.044960587653412e-04  1.956506670414152e-18
-1.099982871451321e-01 -6.138608450134226e-04  1.963857927638483e-18
-1.098103968810555e-01  6.455752227668825e-03  1.887876490132335e-18
-1.099957135581527e-01  9.710812699181070e-04  1.947527423121583e-18
-1.093075019367298e-01 -1.232355550771653e-02  2.071877439718168e-18
-1.099899370985527e-01  1.487863251916329e-03  1.942114876999692e-18
-1.099917112591952e-01  1.350353388480781e-03  1.943559314198019e-18
-1.099982342936847e-01  6.232593935078057e-04  1.951146026043581e-18
-1.099995045220893e-01  3.301588932886077e-04  1.954180132437934e-18
-1.099984299556951e-01  5.877136054225188e-04  1.951514728142256e-18
-1.099984299556951e-01  5.877136054225188e-04  1.951514728142256e-18
-1.099998947554298e-01  1.521637090083438e-04  1.956015912963628e-18
-1.099967514310803e-01  8.453842966965376e-04  1.948837384046081e-18
-1.099962690684994e-01 -9.059751708870831e-04  1.966823382139115e-18
-1.099934748250230e-01  1.198121828947356e-03  1.945154822928408e-18
-1.099990521645015e-01 -4.566430895596916e-04  1.962256186746144e-18
-1.099624855238746e-01  2.872590714256444e-03  1.927398771839269e-18
-1.099961154943429e-01 -9.244328829798104e-04  1.967010295390404e-18
-1.098653195870754e-01  5.441649752578269e-03  1.899273439737225e-18
-1.099996554937372e-01  2.753021233117506e-04  1.954746452542108e-18
-5.710320030494791e-02 -9.401715011067377e-02  1.982211628231123e-18
-1.098324547136292e-01  6.068928371512786e-03  1.892243510174463e-18
-1.099778916221326e-01  2.205301419400467e-03  1.934529096832332e-18
-1.099978640953931e-01 -6.854884764862484e-04  1.964586346856857e-18
-1.099999069009361e-01 -1.431145882270139e-04  1.959050006345321e-18
-1.099955479410137e-01 -9.896631528562383e-04  1.967670412428595e-18
-1.099949667285686e-01  1.052280561949368e-03  1.946679839170047e-18
-1.099793555146894e-01 -2.131046825749592e-03  1.979109551494017e-18
-1.099855887363901e-01 -1.780525290360472e-03  1.975618997667778e-18
-1.099599187720099e-01  2.969219367603612e-03  1.926360269117392e-18
-1.099999991154740e-01 -1.394975570896529e-05  1.957724525680792e-18
-1.096381017593142e-01 -8.915528173599125e-03  2.042744615095743e-18
-1.099754210377231e-01  2.325245702175747e-03  1.933252745902562e-18
-1.099754210377231e-01  2.325245702175747e-03  1.933252745902562e-18
-1.099509759319163e-01  3.283731356116002e-03  1.922969624181778e-18
-3.393106146766357e-02 -1.046359549470334e-01  1.678940139078973e-18
-1.098778323674638e-01  5.182851939567929e-03  1.902155173104847e-18
-1.099746087688882e-01  2.363350615108339e-03  1.932846776471780e-18
-1.098778323674637e-01  5.182851939569570e-03  1.902155173104829e-18
-1.099930202029181e-01 -1.239155615897228e-03  1.970188872738249e-18
-1.099947251521347e-01  1.077236606469430e-03  1.946419125737617e-18
-1.099920578498799e-01 -1.321820694583322e-03  1.971021100171636e-18
-1.099920578498799e-01 -1.321820694583322e-03  1.971021100171636e-18
-1.099950118716540e-01 -1.047551122702521e-03  1.968255650296016e-18
-1.099915684200308e-01 -1.361938508763519e-03  1.971424586150703e-18
-1.099984074258454e-01 -5.919153467145748e-04  1.963634586154406e-18
-1.099925831134479e-01 -1.277364486443868e-03  1.970573676474421e-18
-1.099935041873872e-01 -1.195423179964728e-03  1.969748150926732e-18
-1.099939521550201e-01 -1.153468386702901e-03  1.969325052785327e-18
-1.099969189863236e-01 -8.232943071191158e-04  1.965985432362428e-18
-1.099917240887667e-01 -1.349307963585714e-03  1.971297582198160e-18
-1.099957237167921e-01 -9.699299042264635e-04  1.967470788607098e-18
-1.099919290210054e-01 -1.332497744111887e-03  1.971128510313380e-18
-1.099956759499920e-01 -9.753318944406399e-04  1.967525442026975e-18
-1.099907066431005e-01 -1.429843400998269e-03  1.972106947902067e-18
-1.099950608046967e-01 -1.042400389027605e-03  1.968203599200486e-18
-1.099942718307501e-01 -1.122570453477370e-03  1.969013276756711e-18
-1.099942718307501e-01 -1.122570453477370e-03  1.969013276756711e-18
-1.099955352640247e-01 -9.910711279524458e-04  1.967684653259091e-18
-1.099942650054147e-01 -1.123239030015555e-03  1.969020024672782e-18
-1.099918137716255e-01 -1.341977357492137e-03  1.971223858896999e-18
-1.099920006028368e-01 -1.326575812193495e-03  1.971068938498264e-18
-1.099920006028368e-01 -1.326575812193495e-03  1.971068938498264e-18
-4.966215809368520e-02  9.815126108959465e-02 -1.246712097019515e-19
-1.099896874523467e-01 -1.506205210142534e-03  1.972873400035760e-18
-1.099896874523467e-01 -1.506205210142534e-03  1.972873400035760e-18
-1.099903407918204e-01 -1.457714820930565e-03  1.972386805857050e-18
-1.099997359040626e-01 -2.410415657954525e-04  1.960053127372427e-18
-1.099997359040626e-01 -2.410415657954525e-04  1.960053127372427e-18
-1.099999748897729e-01 -7.432529373621019e-05  1.958344431276066e-18
-1.099999694334000e-01  8.200396962560930e-05  1.956738107782314e-18
-1.099994363585264e-01  3.521374823385615e-04  1.953953097367730e-18
-1.099999748127055e-01  7.443926464429394e-05  1.956815928109114e-18
-1.099983632550847e-01  6.000676648420043e-04  1.951386607652672e-18
-1.099973587246802e-01  7.622818336967930e-04  1.949702039178669e-18
-1.099973587246802e-01  7.622818336967930e-04  1.949702039178669e-18
-1.099959520184737e-01  9.436840305884608e-04  1.947813163488920e-18
-1.099955856827289e-01  9.854594428098259e-04  1.947377416922597e-18
-1.099955856827289e-01  9.854594428098259e-04  1.947377416922597e-18
-1.099962740957309e-01  9.053645988184769e-04  1.948212613478981e-18
-1.099945223593072e-01  1.097748125860168e-03  1.946204768386861e-18
-1.099945223593072e-01  1.097748125860168e-03  1.946204768386861e-18
-1.098978767116220e-01  4.738849467656254e-03  1.907073850224374e-18
-1.099944367700985e-01  1.106290933146436e-03  1.946115470983289e-18
-1.099944367700985e-01  1.106290933146436e-03  1.946115470983289e-18
-1.099888398340823e-01  1.566879686691147e-03  1.941283484706681e-18
-1.099979706118291e-01  6.681775805465370e-04  1.950679815456099e-18
-1.099760385291509e-01  2.295854837456771e-03  1.933565715357215e-18
-1.099999104007464e-01  1.403988167208795e-04  1.956137071385103e-18
-1.099588453434462e-01  3.008709147797989e-03  1.925935423029682e-18
-1.099999935707227e-01 -3.760905400677465e-05  1.957967517700591e-18
-1.097520315811565e-01  7.381840137038228e-03  1.877322593152501e-18
-1.099954747660606e-01 -9.977629923399287e-04  1.967752333101274e-18
-1.099353732116019e-01  3.770108330772089e-03  1.917694608434459e-18
-1.099302342689820e-01 -3.917089935999630e-03  1.996586324472076e-18
-1.098510446685279e-01  5.722585537416699e-03  1.896132887400664e-18
-1.098957156302762e-01 -4.788704011465407e-03  2.004927542113895e-18
-1.098273264675404e-01  6.161035707756200e-03  1.891205877498185e-18
-1.099962309277227e-01 -9.105941439842199e-04  1.966870161649132e-18
-1.091987991609892e-01  1.325225497030220e-02  1.807160782458371e-18
-1.013717919060019e-01 -4.270550088415100e-02  2.242815465513592e-18
-1.099528552283500e-01  3.220190543037444e-03  1.923655927275343e-18
-1.096150299071374e-01  9.194847386299264e-03  1.856256494069416e-18
-1.099460141656277e-01  3.445862604855624e-03  1.921215483948919e-18
-1.082952792270616e-01 -1.929073604434835e-02  2.125448978212851e-18
-1.093657310666959e-01  1.179562920098393e-02  1.825097835473210e-18
-1.099496124220717e-01 -3.329073179758912e-03  1.990889523260727e-18
-1.099381088033641e-01  3.689475943768067e-03  1.918571760038022e-18
-1.099461571961019e-01 -3.441295949206472e-03  1.991981081581797e-18
-1.031404557547595e-01  3.823671516619168e-02  1.442639082518988e-18
-1.099048358163986e-01 -4.574610821746568e-03  2.002890116954475e-18
-1.099811003875827e-01 -2.039008959378120e-03  1.978194947946275e-18
-1.099862657677864e-01  1.738200925621453e-03  1.939477412632592e-18
-1.059235577490935e-01  2.966816330301584e-02  1.580206459996345e-18
-9.537432338928188e-02 -5.480637223933588e-02  2.260415416492709e-18
-1.099883137784228e-01  1.603381482733989e-03  1.940899080224439e-18
-1.099986592323181e-01  5.431087297554524e-04  1.951977107287053e-18
-1.099986592323181e-01  5.431087297554524e-04  1.951977107287053e-18
-1.099986592323181e-01  5.431087297554524e-04  1.951977107287053e-18
-1.099981605321193e-01  6.361442839986765e-04  1.951012325799457e-18
-1.099999658696794e-01  8.665257832085762e-05  1.956690281596019e-18
-1.099999658696794e-01  8.665257832085762e-05  1.956690281596019e-18
-1.099994534332908e-01  3.467627102929249e-04  1.954008625063797e-18
-1.099989527736067e-01  4.799882392435764e-04  1.952630871314572e-18
-1.099989527736067e-01  4.799882392435764e-04  1.952630871314572e-18
-1.099952387021782e-01  1.023456325792393e-03  1.946980837820343e-18
 4.115459688373060e-02 -1.020112697467177e-01  3.157335963404817e-19
-1.099989755931672e-01  4.747298745498857e-04  1.952685305202883e-18
-1.099948084565413e-01  1.068696686972557e-03  1.946508352809424e-18
-1.099991039204459e-01 -4.440007870685944e-04  1.962127212739401e-18
-1.099999637279102e-01 -8.933005331068418e-05  1.958498401091229e-18
-1.099997829155505e-01 -2.185372548036003e-04  1.959822740377662e-18
-1.099997829155505e-01 -2.185372548036003e-04  1.959822740377662e-18
-1.099995403282214e-01 -3.180056288346305e-04  1.960840424655921e-18
-1.099995403282214e-01 -3.180056288346305e-04  1.960840424655921e-18
-1.099995403282214e-01 -3.180056288346305e-04  1.960840424655921e-18
-1.099990982063096e-01 -4.454141877075780e-04  1.962141633227650e-18
-1.099991396382065e-01 -4.350618971041745e-04  1.962036004532417e-18
-1.099991396382065e-01 -4.350618971041745e-04  1.962036004532417e-18
-1.099991396382065e-01 -4.350618971041745e-04  1.962036004532417e-18
-1.099944619770982e-01 -1.103781848306306e-03  1.968823614545022e-18
-1.099993867288990e-01 -3.673135800588094e-04  1.961344312459418e-18
-1.099993867288990e-01 -3.673135800588094e-04  1.961344312459418e-18
-1.099993867288990e-01 -3.673135800588094e-04  1.961344312459418e-18
-1.099997938415817e-01 -2.129666863078563e-04  1.959765699251757e-18
-1.099986677216924e-01 -5.413866018572661e-04  1.963120053931736e-18
-1.099963914143387e-01  8.909970951464681e-04  1.948362322184475e-18
-1.099990445945285e-01  4.584629656761308e-04  1.952853669743792e-18
-1.099999000862427e-01 -1.482599628970132e-04  1.959102751925289e-18
-1.099996486196723e-01  2.780351571215050e-04  1.954718249280362e-18
-1.099970411393754e-01  8.068088884783083e-04  1.949238888056867e-18
-1.099970411393754e-01  8.068088884783083e-04  1.949238888056867e-18
-1.099970990918469e-01  7.988688117318922e-04  1.949321500794394e-18
-1.099979475734200e-01 -6.719595487166009e-04  1.964448827629761e-18
-1.099997132255963e-01 -2.511777986806718e-04  1.960156869892757e-18
-1.099630144305764e-01  2.852272311828284e-03  1.927616948568783e-18
-1.099979125589446e-01 -6.776670825359460e-04  1.964506847342014e-18
-1.099979125589446e-01 -6.776670825359460e-04  1.964506847342014e-18
-1.099653780453444e-01  2.759643336456311e-03  1.928610740985488e-18
-1.098891265656816e-01 -4.937596847816359e-03  2.006340101654705e-18
-1.095898628805576e-01  9.490097671812383e-03  1.852775027383463e-18
-1.085781403448275e-01 -1.762916445152513e-02  2.113410784697697e-18
-1.099519047367423e-01  3.252482861185746e-03  1.923307220305299e-18
-1.013027821705027e-01 -4.286894358991887e-02  2.243266669380290e-18
-1.099994781719848e-01 -3.388242774870846e-04  1.961053222563632e-18
-1.098018921926463e-01 -6.598823449256431e-03  2.021856161783230e-18
-1.098862465540796e-01  5.001281661333295e-03  1.904170482242045e-18
-1.099850470833971e-01 -1.813675291470436e-03  1.975949962525616e-18
-1.099850470833971e-01 -1.813675291470436e-03  1.975949962525616e-18
-1.099972553313881e-01 -7.770582741179322e-04  1.965516359581202e-18
-1.099640041855320e-01 -2.813855626053019e-03  1.985851968658114e-18
-1.099986247406913e-01 -5.500501400190706e-04  1.963208303740949e-18
-1.099681871255377e-01 -2.645339358699565e-03  1.984194965635198e-18
-1.099856659644293e-01 -1.775748394606549e-03  1.975571291164294e-18
-1.099705632778328e-01 -2.544643856445924e-03  1.983202642393809e-18
-1.099812703914662e-01 -2.029818484295611e-03  1.978103544575332e-18
-1.099812703914662e-01 -2.029818484295611e-03  1.978103544575332e-18
-1.099812703914662e-01 -2.029818484295611e-03  1.978103544575332e-18
-1.099812703914662e-01 -2.029818484295611e-03  1.978103544575332e-18
-1.099376073088673e-01 -3.704389180586101e-03  1.994532113517953e-18
-1.099959436753616e-01 -9.446560044026057e-04  1.967215022892815e-18
-1.099496898430810e-01 -3.326515205175022e-03  1.990864618800328e-18
-1.099929702017379e-01  1.243586024194363e-03  1.944678714464793e-18
-1.098761548868378e-01 -5.218293522178071e-03  2.008993311516481e-18
-1.099743113370433e-01  2.377150803595587e-03  1.932699691393816e-18
-1.098918888072950e-01 -4.875733213074301e-03  2.005753632665453e-18
-1.099997854359629e-01  2.172649122259660e-04  1.955345076279660e-18
-1.099997854359629e-01  2.172649122259660e-04  1.955345076279660e-18
-1.099030770252476e-01 -4.616672002910366e-03  2.003290980524813e-18
-1.092817883097935e-01  1.254953161729329e-02  1.815857900527224e-18
-1.095339339619746e-01 -1.011520196603916e-02  2.053217037296332e-18
-1.097921767991817e-01  6.758543755660859e-03  1.884441169087087e-18
-1.099738936569559e-01 -2.396396029147631e-03  1.981738717891638e-18
-1.098564765835142e-01  5.617343914677732e-03  1.897310874249634e-18
-1.099780096880499e-01 -2.199405614060831e-03  1.979787962620710e-18
-1.099524004241849e-01  3.235682456558155e-03  1.923488659709058e-18
-1.099918469715453e-01 -1.339253444320829e-03  1.971196462510859e-18
-1.099964096430862e-01  8.887438496841160e-04  1.948385797865365e-18
-1.099994760873265e-01 -3.395003882949497e-04  1.961060132257591e-18
-1.099994760873265e-01 -3.395003882949497e-04  1.961060132257591e-18
-1.099994760873265e-01 -3.395003882949497e-04  1.961060132257591e-18
-1.099545307515745e-01 -3.162462205469423e-03  1.989265183565209e-18
-1.094685833318786e-01  1.079950291964939e-02  1.837163049895242e-18
-1.099508760244778e-01 -3.287074907859175e-03  1.990480493585826e-18
-1.096542630490081e-01  8.714504872847809e-03  1.861890039458990e-18
-1.099850512477391e-01  1.813422739512884e-03  1.938682921987821e-18
-1.099850512477391e-01  1.813422739512884e-03  1.938682921987821e-18
-1.099958139894765e-01  9.596378444158914e-04  1.947646787456756e-18
-1.099914791346255e-01  1.369130299573435e-03  1.943362257324049e-18
-1.099802726208064e-01  2.083178881677090e-03  1.935826234255367e-18

TENSORS stress double
0.000000000000000e+00 0.000000000000000e+00 0.000000000000000e+00
0.000000000000000e+00 0.000000000000000e+00 0.000000000000000e+00
0.000000000000000e+00 0.000000000000000e+00 0.000000000000000e+00

0.000000000000000e+00 0.000000000000000e+00 0.000000000000000e+00
0.000000000000000e+00 0.000000000000000e+00 0.000000000000000e+00
0.000000000000000e+00 0.000000000000000e+00 0.000000000000000e+00

0.000000000000000e+00 0.000000000000000e+00 0.000000000000000e+00
0.000000000000000e+00 0.000000000000000e+00 0.000000000000000e+00
0.000000000000000e+00 0.000000000000000e+00 0.000000000000000e+00

0.000000000000000e+00 0.000000000000000e+00 0.000000000000000e+00
0.000000000000000e+00 0.000000000000000e+00 0.000000000000000e+00
0.000000000000000e+00 0.000000000000000e+00 0.000000000000000e+00

0.000000000000000e+00 0.000000000000000e+00 0.000000000000000e+00
0.000000000000000e+00 0.000000000000000e+00 0.000000000000000e+00
0.000000000000000e+00 0.000000000000000e+00 0.000000000000000e+00

0.000000000000000e+00 0.000000000000000e+00 0.000000000000000e+00
0.000000000000000e+00 0.000000000000000e+00 0.000000000000000e+00
0.000000000000000e+00 0.000000000000000e+00 0.000000000000000e+00

0.000000000000000e+00 0.000000000000000e+00 0.000000000000000e+00
0.000000000000000e+00 0.000000000000000e+00 0.000000000000000e+00
0.000000000000000e+00 0.000000000000000e+00 0.000000000000000e+00

0.000000000000000e+00 0.000000000000000e+00 0.000000000000000e+00
0.000000000000000e+00 0.000000000000000e+00 0.000000000000000e+00
0.000000000000000e+00 0.000000000000000e+00 0.000000000000000e+00

0.000000000000000e+00 0.000000000000000e+00 0.000000000000000e+00
0.000000000000000e+00 0.000000000000000e+00 0.000000000000000e+00
0.000000000000000e+00 0.000000000000000e+00 0.000000000000000e+00

0.000000000000000e+00 0.000000000000000e+00 0.000000000000000e+00
0.000000000000000e+00 0.000000000000000e+00 0.000000000000000e+00
0.000000000000000e+00 0.000000000000000e+00 0.000000000000000e+00

0.000000000000000e+00 0.000000000000000e+00 0.000000000000000e+00
0.000000000000000e+00 0.000000000000000e+00 0.000000000000000e+00
0.000000000000000e+00 0.000000000000000e+00 0.000000000000000e+00

0.000000000000000e+00 0.000000000000000e+00 0.000000000000000e+00
0.000000000000000e+00 0.000000000000000e+00 0.000000000000000e+00
0.000000000000000e+00 0.000000000000000e+00 0.000000000000000e+00

0.000000000000000e+00 0.000000000000000e+00 0.000000000000000e+00
0.000000000000000e+00 0.000000000000000e+00 0.000000000000000e+00
0.000000000000000e+00 0.000000000000000e+00 0.000000000000000e+00

0.000000000000000e+00 0.000000000000000e+00 0.000000000000000e+00
0.000000000000000e+00 0.000000000000000e+00 0.000000000000000e+00
0.000000000000000e+00 0.000000000000000e+00 0.000000000000000e+00

0.000000000000000e+00 0.000000000000000e+00 0.000000000000000e+00
0.000000000000000e+00 0.000000000000000e+00 0.000000000000000e+00
0.000000000000000e+00 0.000000000000000e+00 0.000000000000000e+00

0.000000000000000e+00 0.000000000000000e+00 0.000000000000000e+00
0.000000000000000e+00 0.000000000000000e+00 0.000000000000000e+00
0.000000000000000e+00 0.000000000000000e+00 0.000000000000000e+00

0.000000000000000e+00 0.000000000000000e+00 0.000000000000000e+00
0.000000000000000e+00 0.000000000000000e+00 0.000000000000000e+00
0.000000000000000e+00 0.000000000000000e+00 0.000000000000000e+00

0.000000000000000e+00 0.000000000000000e+00 0.000000000000000e+00
0.000000000000000e+00 0.000000000000000e+00 0.000000000000000e+00
0.000000000000000e+00 0.000000000000000e+00 0.000000000000000e+00

0.000000000000000e+00 0.000000000000000e+00 0.000000000000000e+00
0.000000000000000e+00 0.000000000000000e+00 0.000000000000000e+00
0.000000000000000e+00 0.000000000000000e+00 0.000000000000000e+00

0.000000000000000e+00 0.000000000000000e+00 0.000000000000000e+00
0.000000000000000e+00 0.000000000000000e+00 0.000000000000000e+00
0.000000000000000e+00 0.000000000000000e+00 0.000000000000000e+00

0.000000000000000e+00 0.000000000000000e+00 0.000000000000000e+00
0.000000000000000e+00 0.000000000000000e+00 0.000000000000000e+00
0.000000000000000e+00 0.000000000000000e+00 0.000000000000000e+00

0.000000000000000e+00 0.000000000000000e+00 0.000000000000000e+00
0.000000000000000e+00 0.000000000000000e+00 0.000000000000000e+00
0.000000000000000e+00 0.000000000000000e+00 0.000000000000000e+00

0.000000000000000e+00 0.000000000000000e+00 0.000000000000000e+00
0.000000000000000e+00 0.000000000000000e+00 0.000000000000000e+00
0.000000000000000e+00 0.000000000000000e+00 0.000000000000000e+00

0.000000000000000e+00 0.000000000000000e+00 0.000000000000000e+00
0.000000000000000e+00 0.000000000000000e+00 0.000000000000000e+00
0.000000000000000e+00 0.000000000000000e+00 0.000000000000000e+00

0.000000000000000e+00 0.000000000000000e+00 0.000000000000000e+00
0.000000000000000e+00 0.000000000000000e+00 0.000000000000000e+00
0.000000000000000e+00 0.000000000000000e+00 0.000000000000000e+00

0.000000000000000e+00 0.000000000000000e+00 0.000000000000000e+00
0.000000000000000e+00 0.000000000000000e+00 0.000000000000000e+00
0.000000000000000e+00 0.000000000000000e+00 0.000000000000000e+00

0.000000000000000e+00 0.000000000000000e+00 0.000000000000000e+00
0.000000000000000e+00 0.000000000000000e+00 0.000000000000000e+00
0.000000000000000e+00 0.000000000000000e+00 0.000000000000000e+00

0.000000000000000e+00 0.000000000000000e+00 0.000000000000000e+00
0.000000000000000e+00 0.000000000000000e+00 0.000000000000000e+00
0.000000000000000e+00 0.000000000000000e+00 0.000000000000000e+00

0.000000000000000e+00 0.000000000000000e+00 0.000000000000000e+00
0.000000000000000e+00 0.000000000000000e+00 0.000000000000000e+00
0.000000000000000e+00 0.000000000000000e+00 0.000000000000000e+00

0.000000000000000e+00 0.000000000000000e+00 0.000000000000000e+00
0.000000000000000e+00 0.000000000000000e+00 0.000000000000000e+00
0.000000000000000e+00 0.000000000000000e+00 0.000000000000000e+00

0.000000000000000e+00 0.000000000000000e+00 0.000000000000000e+00
0.000000000000000e+00 0.000000000000000e+00 0.000000000000000e+00
0.000000000000000e+00 0.000000000000000e+00 0.000000000000000e+00

0.000000000000000e+00 0.000000000000000e+00 0.000000000000000e+00
0.000000000000000e+00 0.000000000000000e+00 0.000000000000000e+00
0.000000000000000e+00 0.000000000000000e+00 0.000000000000000e+00

0.000000000000000e+00 0.000000000000000e+00 0.000000000000000e+00
0.000000000000000e+00 0.000000000000000e+00 0.000000000000000e+00
0.000000000000000e+00 0.000000000000000e+00 0.000000000000000e+00

0.000000000000000e+00 0.000000000000000e+00 0.000000000000000e+00
0.000000000000000e+00 0.000000000000000e+00 0.000000000000000e+00
0.000000000000000e+00 0.000000000000000e+00 0.000000000000000e+00

0.000000000000000e+00 0.000000000000000e+00 0.000000000000000e+00
0.000000000000000e+00 0.000000000000000e+00 0.000000000000000e+00
0.000000000000000e+00 0.000000000000000e+00 0.000000000000000e+00

0.000000000000000e+00 0.000000000000000e+00 0.000000000000000e+00
0.000000000000000e+00 0.000000000000000e+00 0.000000000000000e+00
0.000000000000000e+00 0.000000000000000e+00 0.000000000000000e+00

0.000000000000000e+00 0.000000000000000e+00 0.000000000000000e+00
0.000000000000000e+00 0.000000000000000e+00 0.000000000000000e+00
0.000000000000000e+00 0.000000000000000e+00 0.000000000000000e+00

0.000000000000000e+00 0.000000000000000e+00 0.000000000000000e+00
0.000000000000000e+00 0.000000000000000e+00 0.000000000000000e+00
0.000000000000000e+00 0.000000000000000e+00 0.000000000000000e+00

0.000000000000000e+00 0.000000000000000e+00 0.000000000000000e+00
0.000000000000000e+00 0.000000000000000e+00 0.000000000000000e+00
0.000000000000000e+00 0.000000000000000e+00 0.000000000000000e+00

0.000000000000000e+00 0.000000000000000e+00 0.000000000000000e+00
0.000000000000000e+00 0.000000000000000e+00 0.000000000000000e+00
0.000000000000000e+00 0.000000000000000e+00 0.000000000000000e+00

0.000000000000000e+00 0.000000000000000e+00 0.000000000000000e+00
0.000000000000000e+00 0.000000000000000e+00 0.000000000000000e+00
0.000000000000000e+00 0.000000000000000e+00 0.000000000000000e+00

0.000000000000000e+00 0.000000000000000e+00 0.000000000000000e+00
0.000000000000000e+00 0.000000000000000e+00 0.000000000000000e+00
0.000000000000000e+00 0.000000000000000e+00 0.000000000000000e+00

0.000000000000000e+00 0.000000000000000e+00 0.000000000000000e+00
0.000000000000000e+00 0.000000000000000e+00 0.000000000000000e+00
0.000000000000000e+00 0.000000000000000e+00 0.000000000000000e+00

0.000000000000000e+00 0.000000000000000e+00 0.000000000000000e+00
0.000000000000000e+00 0.000000000000000e+00 0.000000000000000e+00
0.000000000000000e+00 0.000000000000000e+00 0.000000000000000e+00

0.000000000000000e+00 0.000000000000000e+00 0.000000000000000e+00
0.000000000000000e+00 0.000000000000000e+00 0.000000000000000e+00
0.000000000000000e+00 0.000000000000000e+00 0.000000000000000e+00

0.000000000000000e+00 0.000000000000000e+00 0.000000000000000e+00
0.000000000000000e+00 0.000000000000000e+00 0.000000000000000e+00
0.000000000000000e+00 0.000000000000000e+00 0.000000000000000e+00

0.000000000000000e+00 0.000000000000000e+00 0.000000000000000e+00
0.000000000000000e+00 0.000000000000000e+00 0.000000000000000e+00
0.000000000000000e+00 0.000000000000000e+00 0.000000000000000e+00

0.000000000000000e+00 0.000000000000000e+00 0.000000000000000e+00
0.000000000000000e+00 0.000000000000000e+00 0.000000000000000e+00
0.000000000000000e+00 0.000000000000000e+00 0.000000000000000e+00

0.000000000000000e+00 0.000000000000000e+00 0.000000000000000e+00
0.000000000000000e+00 0.000000000000000e+00 0.000000000000000e+00
0.000000000000000e+00 0.000000000000000e+00 0.000000000000000e+00

0.000000000000000e+00 0.000000000000000e+00 0.000000000000000e+00
0.000000000000000e+00 0.000000000000000e+00 0.000000000000000e+00
0.000000000000000e+00 0.000000000000000e+00 0.000000000000000e+00

0.000000000000000e+00 0.000000000000000e+00 0.000000000000000e+00
0.000000000000000e+00 0.000000000000000e+00 0.000000000000000e+00
0.000000000000000e+00 0.000000000000000e+00 0.000000000000000e+00

0.000000000000000e+00 0.000000000000000e+00 0.000000000000000e+00
0.000000000000000e+00 0.000000000000000e+00 0.000000000000000e+00
0.000000000000000e+00 0.000000000000000e+00 0.000000000000000e+00

0.000000000000000e+00 0.000000000000000e+00 0.000000000000000e+00
0.000000000000000e+00 0.000000000000000e+00 0.000000000000000e+00
0.000000000000000e+00 0.000000000000000e+00 0.000000000000000e+00

0.000000000000000e+00 0.000000000000000e+00 0.000000000000000e+00
0.000000000000000e+00 0.000000000000000e+00 0.000000000000000e+00
0.000000000000000e+00 0.000000000000000e+00 0.000000000000000e+00

0.000000000000000e+00 0.000000000000000e+00 0.000000000000000e+00
0.000000000000000e+00 0.000000000000000e+00 0.000000000000000e+00
0.000000000000000e+00 0.000000000000000e+00 0.000000000000000e+00

0.000000000000000e+00 0.000000000000000e+00 0.000000000000000e+00
0.000000000000000e+00 0.000000000000000e+00 0.000000000000000e+00
0.000000000000000e+00 0.000000000000000e+00 0.000000000000000e+00

0.000000000000000e+00 0.000000000000000e+00 0.000000000000000e+00
0.000000000000000e+00 0.000000000000000e+00 0.000000000000000e+00
0.000000000000000e+00 0.000000000000000e+00 0.000000000000000e+00

0.000000000000000e+00 0.000000000000000e+00 0.000000000000000e+00
0.000000000000000e+00 0.000000000000000e+00 0.000000000000000e+00
0.000000000000000e+00 0.000000000000000e+00 0.000000000000000e+00

0.000000000000000e+00 0.000000000000000e+00 0.000000000000000e+00
0.000000000000000e+00 0.000000000000000e+00 0.000000000000000e+00
0.000000000000000e+00 0.000000000000000e+00 0.000000000000000e+00

0.000000000000000e+00 0.000000000000000e+00 0.000000000000000e+00
0.000000000000000e+00 0.000000000000000e+00 0.000000000000000e+00
0.000000000000000e+00 0.000000000000000e+00 0.000000000000000e+00

0.000000000000000e+00 0.000000000000000e+00 0.000000000000000e+00
0.000000000000000e+00 0.000000000000000e+00 0.000000000000000e+00
0.000000000000000e+00 0.000000000000000e+00 0.000000000000000e+00

0.000000000000000e+00 0.000000000000000e+00 0.000000000000000e+00
0.000000000000000e+00 0.000000000000000e+00 0.000000000000000e+00
0.000000000000000e+00 0.000000000000000e+00 0.000000000000000e+00

0.000000000000000e+00 0.000000000000000e+00 0.000000000000000e+00
0.000000000000000e+00 0.000000000000000e+00 0.000000000000000e+00
0.000000000000000e+00 0.000000000000000e+00 0.000000000000000e+00

0.000000000000000e+00 0.000000000000000e+00 0.000000000000000e+00
0.000000000000000e+00 0.000000000000000e+00 0.000000000000000e+00
0.000000000000000e+00 0.000000000000000e+00 0.000000000000000e+00

0.000000000000000e+00 0.000000000000000e+00 0.000000000000000e+00
0.000000000000000e+00 0.000000000000000e+00 0.000000000000000e+00
0.000000000000000e+00 0.000000000000000e+00 0.000000000000000e+00

0.000000000000000e+00 0.000000000000000e+00 0.000000000000000e+00
0.000000000000000e+00 0.000000000000000e+00 0.000000000000000e+00
0.000000000000000e+00 0.000000000000000e+00 0.000000000000000e+00

0.000000000000000e+00 0.000000000000000e+00 0.000000000000000e+00
0.000000000000000e+00 0.000000000000000e+00 0.000000000000000e+00
0.000000000000000e+00 0.000000000000000e+00 0.000000000000000e+00

0.000000000000000e+00 0.000000000000000e+00 0.000000000000000e+00
0.000000000000000e+00 0.000000000000000e+00 0.000000000000000e+00
0.000000000000000e+00 0.000000000000000e+00 0.000000000000000e+00

0.000000000000000e+00 0.000000000000000e+00 0.000000000000000e+00
0.000000000000000e+00 0.000000000000000e+00 0.000000000000000e+00
0.000000000000000e+00 0.000000000000000e+00 0.000000000000000e+00

0.000000000000000e+00 0.000000000000000e+00 0.000000000000000e+00
0.000000000000000e+00 0.000000000000000e+00 0.000000000000000e+00
0.000000000000000e+00 0.000000000000000e+00 0.000000000000000e+00

0.000000000000000e+00 0.000000000000000e+00 0.000000000000000e+00
0.000000000000000e+00 0.000000000000000e+00 0.000000000000000e+00
0.000000000000000e+00 0.000000000000000e+00 0.000000000000000e+00

0.000000000000000e+00 0.000000000000000e+00 0.000000000000000e+00
0.000000000000000e+00 0.000000000000000e+00 0.000000000000000e+00
0.000000000000000e+00 0.000000000000000e+00 0.000000000000000e+00

0.000000000000000e+00 0.000000000000000e+00 0.000000000000000e+00
0.000000000000000e+00 0.000000000000000e+00 0.000000000000000e+00
0.000000000000000e+00 0.000000000000000e+00 0.000000000000000e+00

0.000000000000000e+00 0.000000000000000e+00 0.000000000000000e+00
0.000000000000000e+00 0.000000000000000e+00 0.000000000000000e+00
0.000000000000000e+00 0.000000000000000e+00 0.000000000000000e+00

0.000000000000000e+00 0.000000000000000e+00 0.000000000000000e+00
0.000000000000000e+00 0.000000000000000e+00 0.000000000000000e+00
0.000000000000000e+00 0.000000000000000e+00 0.000000000000000e+00

0.000000000000000e+00 0.000000000000000e+00 0.000000000000000e+00
0.000000000000000e+00 0.000000000000000e+00 0.000000000000000e+00
0.000000000000000e+00 0.000000000000000e+00 0.000000000000000e+00

0.000000000000000e+00 0.000000000000000e+00 0.000000000000000e+00
0.000000000000000e+00 0.000000000000000e+00 0.000000000000000e+00
0.000000000000000e+00 0.000000000000000e+00 0.000000000000000e+00

0.000000000000000e+00 0.000000000000000e+00 0.000000000000000e+00
0.000000000000000e+00 0.000000000000000e+00 0.000000000000000e+00
0.000000000000000e+00 0.000000000000000e+00 0.000000000000000e+00

0.000000000000000e+00 0.000000000000000e+00 0.000000000000000e+00
0.000000000000000e+00 0.000000000000000e+00 0.000000000000000e+00
0.000000000000000e+00 0.000000000000000e+00 0.000000000000000e+00

0.000000000000000e+00 0.000000000000000e+00 0.000000000000000e+00
0.000000000000000e+00 0.000000000000000e+00 0.000000000000000e+00
0.000000000000000e+00 0.000000000000000e+00 0.000000000000000e+00

0.000000000000000e+00 0.000000000000000e+00 0.000000000000000e+00
0.000000000000000e+00 0.000000000000000e+00 0.000000000000000e+00
0.000000000000000e+00 0.000000000000000e+00 0.000000000000000e+00

0.000000000000000e+00 0.000000000000000e+00 0.000000000000000e+00
0.000000000000000e+00 0.000000000000000e+00 0.000000000000000e+00
0.000000000000000e+00 0.000000000000000e+00 0.000000000000000e+00

0.000000000000000e+00 0.000000000000000e+00 0.000000000000000e+00
0.000000000000000e+00 0.000000000000000e+00 0.000000000000000e+00
0.000000000000000e+00 0.000000000000000e+00 0.000000000000000e+00

0.000000000000000e+00 0.000000000000000e+00 0.000000000000000e+00
0.000000000000000e+00 0.000000000000000e+00 0.000000000000000e+00
0.000000000000000e+00 0.000000000000000e+00 0.000000000000000e+00

0.000000000000000e+00 0.000000000000000e+00 0.000000000000000e+00
0.000000000000000e+00 0.000000000000000e+00 0.000000000000000e+00
0.000000000000000e+00 0.000000000000000e+00 0.000000000000000e+00

0.000000000000000e+00 0.000000000000000e+00 0.000000000000000e+00
0.000000000000000e+00 0.000000000000000e+00 0.000000000000000e+00
0.000000000000000e+00 0.000000000000000e+00 0.000000000000000e+00

0.000000000000000e+00 0.000000000000000e+00 0.000000000000000e+00
0.000000000000000e+00 0.000000000000000e+00 0.000000000000000e+00
0.000000000000000e+00 0.000000000000000e+00 0.000000000000000e+00

0.000000000000000e+00 0.000000000000000e+00 0.000000000000000e+00
0.000000000000000e+00 0.000000000000000e+00 0.000000000000000e+00
0.000000000000000e+00 0.000000000000000e+00 0.000000000000000e+00

0.000000000000000e+00 0.000000000000000e+00 0.000000000000000e+00
0.000000000000000e+00 0.000000000000000e+00 0.000000000000000e+00
0.000000000000000e+00 0.000000000000000e+00 0.000000000000000e+00

0.000000000000000e+00 0.000000000000000e+00 0.000000000000000e+00
0.000000000000000e+00 0.000000000000000e+00 0.000000000000000e+00
0.000000000000000e+00 0.000000000000000e+00 0.000000000000000e+00

0.000000000000000e+00 0.000000000000000e+00 0.000000000000000e+00
0.000000000000000e+00 0.000000000000000e+00 0.000000000000000e+00
0.000000000000000e+00 0.000000000000000e+00 0.000000000000000e+00

0.000000000000000e+00 0.000000000000000e+00 0.000000000000000e+00
0.000000000000000e+00 0.000000000000000e+00 0.000000000000000e+00
0.000000000000000e+00 0.000000000000000e+00 0.000000000000000e+00

0.000000000000000e+00 0.000000000000000e+00 0.000000000000000e+00
0.000000000000000e+00 0.000000000000000e+00 0.000000000000000e+00
0.000000000000000e+00 0.000000000000000e+00 0.000000000000000e+00

0.000000000000000e+00 0.000000000000000e+00 0.000000000000000e+00
0.000000000000000e+00 0.000000000000000e+00 0.000000000000000e+00
0.000000000000000e+00 0.000000000000000e+00 0.000000000000000e+00

0.000000000000000e+00 0.000000000000000e+00 0.000000000000000e+00
0.000000000000000e+00 0.000000000000000e+00 0.000000000000000e+00
0.000000000000000e+00 0.000000000000000e+00 0.000000000000000e+00

0.000000000000000e+00 0.000000000000000e+00 0.000000000000000e+00
0.000000000000000e+00 0.000000000000000e+00 0.000000000000000e+00
0.000000000000000e+00 0.000000000000000e+00 0.000000000000000e+00

0.000000000000000e+00 0.000000000000000e+00 0.000000000000000e+00
0.000000000000000e+00 0.000000000000000e+00 0.000000000000000e+00
0.000000000000000e+00 0.000000000000000e+00 0.000000000000000e+00

0.000000000000000e+00 0.000000000000000e+00 0.000000000000000e+00
0.000000000000000e+00 0.000000000000000e+00 0.000000000000000e+00
0.000000000000000e+00 0.000000000000000e+00 0.000000000000000e+00

0.000000000000000e+00 0.000000000000000e+00 0.000000000000000e+00
0.000000000000000e+00 0.000000000000000e+00 0.000000000000000e+00
0.000000000000000e+00 0.000000000000000e+00 0.000000000000000e+00

0.000000000000000e+00 0.000000000000000e+00 0.000000000000000e+00
0.000000000000000e+00 0.000000000000000e+00 0.000000000000000e+00
0.000000000000000e+00 0.000000000000000e+00 0.000000000000000e+00

0.000000000000000e+00 0.000000000000000e+00 0.000000000000000e+00
0.000000000000000e+00 0.000000000000000e+00 0.000000000000000e+00
0.000000000000000e+00 0.000000000000000e+00 0.000000000000000e+00

0.000000000000000e+00 0.000000000000000e+00 0.000000000000000e+00
0.000000000000000e+00 0.000000000000000e+00 0.000000000000000e+00
0.000000000000000e+00 0.000000000000000e+00 0.000000000000000e+00

0.000000000000000e+00 0.000000000000000e+00 0.000000000000000e+00
0.000000000000000e+00 0.000000000000000e+00 0.000000000000000e+00
0.000000000000000e+00 0.000000000000000e+00 0.000000000000000e+00

0.000000000000000e+00 0.000000000000000e+00 0.000000000000000e+00
0.000000000000000e+00 0.000000000000000e+00 0.000000000000000e+00
0.000000000000000e+00 0.000000000000000e+00 0.000000000000000e+00

0.000000000000000e+00 0.000000000000000e+00 0.000000000000000e+00
0.000000000000000e+00 0.000000000000000e+00 0.000000000000000e+00
0.000000000000000e+00 0.000000000000000e+00 0.000000000000000e+00

0.000000000000000e+00 0.000000000000000e+00 0.000000000000000e+00
0.000000000000000e+00 0.000000000000000e+00 0.000000000000000e+00
0.000000000000000e+00 0.000000000000000e+00 0.000000000000000e+00

0.000000000000000e+00 0.000000000000000e+00 0.000000000000000e+00
0.000000000000000e+00 0.000000000000000e+00 0.000000000000000e+00
0.000000000000000e+00 0.000000000000000e+00 0.000000000000000e+00

0.000000000000000e+00 0.000000000000000e+00 0.000000000000000e+00
0.000000000000000e+00 0.000000000000000e+00 0.000000000000000e+00
0.000000000000000e+00 0.000000000000000e+00 0.000000000000000e+00

0.000000000000000e+00 0.000000000000000e+00 0.000000000000000e+00
0.000000000000000e+00 0.000000000000000e+00 0.000000000000000e+00
0.000000000000000e+00 0.000000000000000e+00 0.000000000000000e+00

0.000000000000000e+00 0.000000000000000e+00 0.000000000000000e+00
0.000000000000000e+00 0.000000000000000e+00 0.000000000000000e+00
0.000000000000000e+00 0.000000000000000e+00 0.000000000000000e+00

0.000000000000000e+00 0.000000000000000e+00 0.000000000000000e+00
0.000000000000000e+00 0.000000000000000e+00 0.000000000000000e+00
0.000000000000000e+00 0.000000000000000e+00 0.000000000000000e+00

0.000000000000000e+00 0.000000000000000e+00 0.000000000000000e+00
0.000000000000000e+00 0.000000000000000e+00 0.000000000000000e+00
0.000000000000000e+00 0.000000000000000e+00 0.000000000000000e+00

0.000000000000000e+00 0.000000000000000e+00 0.000000000000000e+00
0.000000000000000e+00 0.000000000000000e+00 0.000000000000000e+00
0.000000000000000e+00 0.000000000000000e+00 0.000000000000000e+00

0.000000000000000e+00 0.000000000000000e+00 0.000000000000000e+00
0.000000000000000e+00 0.000000000000000e+00 0.000000000000000e+00
0.000000000000000e+00 0.000000000000000e+00 0.000000000000000e+00

0.000000000000000e+00 0.000000000000000e+00 0.000000000000000e+00
0.000000000000000e+00 0.000000000000000e+00 0.000000000000000e+00
0.000000000000000e+00 0.000000000000000e+00 0.000000000000000e+00

0.000000000000000e+00 0.000000000000000e+00 0.000000000000000e+00
0.000000000000000e+00 0.000000000000000e+00 0.000000000000000e+00
0.000000000000000e+00 0.000000000000000e+00 0.000000000000000e+00

0.000000000000000e+00 0.000000000000000e+00 0.000000000000000e+00
0.000000000000000e+00 0.000000000000000e+00 0.000000000000000e+00
0.000000000000000e+00 0.000000000000000e+00 0.000000000000000e+00

0.000000000000000e+00 0.000000000000000e+00 0.000000000000000e+00
0.000000000000000e+00 0.000000000000000e+00 0.000000000000000e+00
0.000000000000000e+00 0.000000000000000e+00 0.000000000000000e+00

0.000000000000000e+00 0.000000000000000e+00 0.000000000000000e+00
0.000000000000000e+00 0.000000000000000e+00 0.000000000000000e+00
0.000000000000000e+00 0.000000000000000e+00 0.000000000000000e+00

0.000000000000000e+00 0.000000000000000e+00 0.000000000000000e+00
0.000000000000000e+00 0.000000000000000e+00 0.000000000000000e+00
0.000000000000000e+00 0.000000000000000e+00 0.000000000000000e+00

0.000000000000000e+00 0.000000000000000e+00 0.000000000000000e+00
0.000000000000000e+00 0.000000000000000e+00 0.000000000000000e+00
0.000000000000000e+00 0.000000000000000e+00 0.000000000000000e+00

0.000000000000000e+00 0.000000000000000e+00 0.000000000000000e+00
0.000000000000000e+00 0.000000000000000e+00 0.000000000000000e+00
0.000000000000000e+00 0.000000000000000e+00 0.000000000000000e+00

0.000000000000000e+00 0.000000000000000e+00 0.000000000000000e+00
0.000000000000000e+00 0.000000000000000e+00 0.000000000000000e+00
0.000000000000000e+00 0.000000000000000e+00 0.000000000000000e+00

0.000000000000000e+00 0.000000000000000e+00 0.000000000000000e+00
0.000000000000000e+00 0.000000000000000e+00 0.000000000000000e+00
0.000000000000000e+00 0.000000000000000e+00 0.000000000000000e+00

0.000000000000000e+00 0.000000000000000e+00 0.000000000000000e+00
0.000000000000000e+00 0.000000000000000e+00 0.000000000000000e+00
0.000000000000000e+00 0.000000000000000e+00 0.000000000000000e+00

0.000000000000000e+00 0.000000000000000e+00 0.000000000000000e+00
0.000000000000000e+00 0.000000000000000e+00 0.000000000000000e+00
0.000000000000000e+00 0.000000000000000e+00 0.000000000000000e+00

0.000000000000000e+00 0.000000000000000e+00 0.000000000000000e+00
0.000000000000000e+00 0.000000000000000e+00 0.000000000000000e+00
0.000000000000000e+00 0.000000000000000e+00 0.000000000000000e+00

0.000000000000000e+00 0.000000000000000e+00 0.000000000000000e+00
0.000000000000000e+00 0.000000000000000e+00 0.000000000000000e+00
0.000000000000000e+00 0.000000000000000e+00 0.000000000000000e+00

0.000000000000000e+00 0.000000000000000e+00 0.000000000000000e+00
0.000000000000000e+00 0.000000000000000e+00 0.000000000000000e+00
0.000000000000000e+00 0.000000000000000e+00 0.000000000000000e+00

0.000000000000000e+00 0.000000000000000e+00 0.000000000000000e+00
0.000000000000000e+00 0.000000000000000e+00 0.000000000000000e+00
0.000000000000000e+00 0.000000000000000e+00 0.000000000000000e+00

0.000000000000000e+00 0.000000000000000e+00 0.000000000000000e+00
0.000000000000000e+00 0.000000000000000e+00 0.000000000000000e+00
0.000000000000000e+00 0.000000000000000e+00 0.000000000000000e+00

0.000000000000000e+00 0.000000000000000e+00 0.000000000000000e+00
0.000000000000000e+00 0.000000000000000e+00 0.000000000000000e+00
0.000000000000000e+00 0.000000000000000e+00 0.000000000000000e+00

0.000000000000000e+00 0.000000000000000e+00 0.000000000000000e+00
0.000000000000000e+00 0.000000000000000e+00 0.000000000000000e+00
0.000000000000000e+00 0.000000000000000e+00 0.000000000000000e+00

0.000000000000000e+00 0.000000000000000e+00 0.000000000000000e+00
0.000000000000000e+00 0.000000000000000e+00 0.000000000000000e+00
0.000000000000000e+00 0.000000000000000e+00 0.000000000000000e+00

0.000000000000000e+00 0.000000000000000e+00 0.000000000000000e+00
0.000000000000000e+00 0.000000000000000e+00 0.000000000000000e+00
0.000000000000000e+00 0.000000000000000e+00 0.000000000000000e+00

0.000000000000000e+00 0.000000000000000e+00 0.000000000000000e+00
0.000000000000000e+00 0.000000000000000e+00 0.000000000000000e+00
0.000000000000000e+00 0.000000000000000e+00 0.000000000000000e+00

0.000000000000000e+00 0.000000000000000e+00 0.000000000000000e+00
0.000000000000000e+00 0.000000000000000e+00 0.000000000000000e+00
0.000000000000000e+00 0.000000000000000e+00 0.000000000000000e+00

0.000000000000000e+00 0.000000000000000e+00 0.000000000000000e+00
0.000000000000000e+00 0.000000000000000e+00 0.000000000000000e+00
0.000000000000000e+00 0.000000000000000e+00 0.000000000000000e+00

0.000000000000000e+00 0.000000000000000e+00 0.000000000000000e+00
0.000000000000000e+00 0.000000000000000e+00 0.000000000000000e+00
0.000000000000000e+00 0.000000000000000e+00 0.000000000000000e+00

0.000000000000000e+00 0.000000000000000e+00 0.000000000000000e+00
0.000000000000000e+00 0.000000000000000e+00 0.000000000000000e+00
0.000000000000000e+00 0.000000000000000e+00 0.000000000000000e+00

0.000000000000000e+00 0.000000000000000e+00 0.000000000000000e+00
0.000000000000000e+00 0.000000000000000e+00 0.000000000000000e+00
0.000000000000000e+00 0.000000000000000e+00 0.000000000000000e+00

0.000000000000000e+00 0.000000000000000e+00 0.000000000000000e+00
0.000000000000000e+00 0.000000000000000e+00 0.000000000000000e+00
0.000000000000000e+00 0.000000000000000e+00 0.000000000000000e+00

0.000000000000000e+00 0.000000000000000e+00 0.000000000000000e+00
0.000000000000000e+00 0.000000000000000e+00 0.000000000000000e+00
0.000000000000000e+00 0.000000000000000e+00 0.000000000000000e+00

0.000000000000000e+00 0.000000000000000e+00 0.000000000000000e+00
0.000000000000000e+00 0.000000000000000e+00 0.000000000000000e+00
0.000000000000000e+00 0.000000000000000e+00 0.000000000000000e+00

0.000000000000000e+00 0.000000000000000e+00 0.000000000000000e+00
0.000000000000000e+00 0.000000000000000e+00 0.000000000000000e+00
0.000000000000000e+00 0.000000000000000e+00 0.000000000000000e+00

0.000000000000000e+00 0.000000000000000e+00 0.000000000000000e+00
0.000000000000000e+00 0.000000000000000e+00 0.000000000000000e+00
0.000000000000000e+00 0.000000000000000e+00 0.000000000000000e+00

0.000000000000000e+00 0.000000000000000e+00 0.000000000000000e+00
0.000000000000000e+00 0.000000000000000e+00 0.000000000000000e+00
0.000000000000000e+00 0.000000000000000e+00 0.000000000000000e+00

0.000000000000000e+00 0.000000000000000e+00 0.000000000000000e+00
0.000000000000000e+00 0.000000000000000e+00 0.000000000000000e+00
0.000000000000000e+00 0.000000000000000e+00 0.000000000000000e+00

0.000000000000000e+00 0.000000000000000e+00 0.000000000000000e+00
0.000000000000000e+00 0.000000000000000e+00 0.000000000000000e+00
0.000000000000000e+00 0.000000000000000e+00 0.000000000000000e+00

0.000000000000000e+00 0.000000000000000e+00 0.000000000000000e+00
0.000000000000000e+00 0.000000000000000e+00 0.000000000000000e+00
0.000000000000000e+00 0.000000000000000e+00 0.000000000000000e+00

0.000000000000000e+00 0.000000000000000e+00 0.000000000000000e+00
0.000000000000000e+00 0.000000000000000e+00 0.000000000000000e+00
0.000000000000000e+00 0.000000000000000e+00 0.000000000000000e+00

0.000000000000000e+00 0.000000000000000e+00 0.000000000000000e+00
0.000000000000000e+00 0.000000000000000e+00 0.000000000000000e+00
0.000000000000000e+00 0.000000000000000e+00 0.000000000000000e+00

0.000000000000000e+00 0.000000000000000e+00 0.000000000000000e+00
0.000000000000000e+00 0.000000000000000e+00 0.000000000000000e+00
0.000000000000000e+00 0.000000000000000e+00 0.000000000000000e+00

0.000000000000000e+00 0.000000000000000e+00 0.000000000000000e+00
0.000000000000000e+00 0.000000000000000e+00 0.000000000000000e+00
0.000000000000000e+00 0.000000000000000e+00 0.000000000000000e+00

0.000000000000000e+00 0.000000000000000e+00 0.000000000000000e+00
0.000000000000000e+00 0.000000000000000e+00 0.000000000000000e+00
0.000000000000000e+00 0.000000000000000e+00 0.000000000000000e+00

0.000000000000000e+00 0.000000000000000e+00 0.000000000000000e+00
0.000000000000000e+00 0.000000000000000e+00 0.000000000000000e+00
0.000000000000000e+00 0.000000000000000e+00 0.000000000000000e+00

0.000000000000000e+00 0.000000000000000e+00 0.000000000000000e+00
0.000000000000000e+00 0.000000000000000e+00 0.000000000000000e+00
0.000000000000000e+00 0.000000000000000e+00 0.000000000000000e+00

0.000000000000000e+00 0.000000000000000e+00 0.000000000000000e+00
0.000000000000000e+00 0.000000000000000e+00 0.000000000000000e+00
0.000000000000000e+00 0.000000000000000e+00 0.000000000000000e+00

0.000000000000000e+00 0.000000000000000e+00 0.000000000000000e+00
0.000000000000000e+00 0.000000000000000e+00 0.000000000000000e+00
0.000000000000000e+00 0.000000000000000e+00 0.000000000000000e+00

0.000000000000000e+00 0.000000000000000e+00 0.000000000000000e+00
0.000000000000000e+00 0.000000000000000e+00 0.000000000000000e+00
0.000000000000000e+00 0.000000000000000e+00 0.000000000000000e+00

0.000000000000000e+00 0.000000000000000e+00 0.000000000000000e+00
0.000000000000000e+00 0.000000000000000e+00 0.000000000000000e+00
0.000000000000000e+00 0.000000000000000e+00 0.000000000000000e+00

0.000000000000000e+00 0.000000000000000e+00 0.000000000000000e+00
0.000000000000000e+00 0.000000000000000e+00 0.000000000000000e+00
0.000000000000000e+00 0.000000000000000e+00 0.000000000000000e+00

0.000000000000000e+00 0.000000000000000e+00 0.000000000000000e+00
0.000000000000000e+00 0.000000000000000e+00 0.000000000000000e+00
0.000000000000000e+00 0.000000000000000e+00 0.000000000000000e+00

0.000000000000000e+00 0.000000000000000e+00 0.000000000000000e+00
0.000000000000000e+00 0.000000000000000e+00 0.000000000000000e+00
0.000000000000000e+00 0.000000000000000e+00 0.000000000000000e+00

0.000000000000000e+00 0.000000000000000e+00 0.000000000000000e+00
0.000000000000000e+00 0.000000000000000e+00 0.000000000000000e+00
0.000000000000000e+00 0.000000000000000e+00 0.000000000000000e+00

0.000000000000000e+00 0.000000000000000e+00 0.000000000000000e+00
0.000000000000000e+00 0.000000000000000e+00 0.000000000000000e+00
0.000000000000000e+00 0.000000000000000e+00 0.000000000000000e+00

0.000000000000000e+00 0.000000000000000e+00 0.000000000000000e+00
0.000000000000000e+00 0.000000000000000e+00 0.000000000000000e+00
0.000000000000000e+00 0.000000000000000e+00 0.000000000000000e+00

0.000000000000000e+00 0.000000000000000e+00 0.000000000000000e+00
0.000000000000000e+00 0.000000000000000e+00 0.000000000000000e+00
0.000000000000000e+00 0.000000000000000e+00 0.000000000000000e+00

0.000000000000000e+00 0.000000000000000e+00 0.000000000000000e+00
0.000000000000000e+00 0.000000000000000e+00 0.000000000000000e+00
0.000000000000000e+00 0.000000000000000e+00 0.000000000000000e+00

0.000000000000000e+00 0.000000000000000e+00 0.000000000000000e+00
0.000000000000000e+00 0.000000000000000e+00 0.000000000000000e+00
0.000000000000000e+00 0.000000000000000e+00 0.000000000000000e+00

0.000000000000000e+00 0.000000000000000e+00 0.000000000000000e+00
0.000000000000000e+00 0.000000000000000e+00 0.000000000000000e+00
0.000000000000000e+00 0.000000000000000e+00 0.000000000000000e+00

0.000000000000000e+00 0.000000000000000e+00 0.000000000000000e+00
0.000000000000000e+00 0.000000000000000e+00 0.000000000000000e+00
0.000000000000000e+00 0.000000000000000e+00 0.000000000000000e+00

0.000000000000000e+00 0.000000000000000e+00 0.000000000000000e+00
0.000000000000000e+00 0.000000000000000e+00 0.000000000000000e+00
0.000000000000000e+00 0.000000000000000e+00 0.000000000000000e+00

0.000000000000000e+00 0.000000000000000e+00 0.000000000000000e+00
0.000000000000000e+00 0.000000000000000e+00 0.000000000000000e+00
0.000000000000000e+00 0.000000000000000e+00 0.000000000000000e+00

0.000000000000000e+00 0.000000000000000e+00 0.000000000000000e+00
0.000000000000000e+00 0.000000000000000e+00 0.000000000000000e+00
0.000000000000000e+00 0.000000000000000e+00 0.000000000000000e+00

0.000000000000000e+00 0.000000000000000e+00 0.000000000000000e+00
0.000000000000000e+00 0.000000000000000e+00 0.000000000000000e+00
0.000000000000000e+00 0.000000000000000e+00 0.000000000000000e+00

0.000000000000000e+00 0.000000000000000e+00 0.000000000000000e+00
0.000000000000000e+00 0.000000000000000e+00 0.000000000000000e+00
0.000000000000000e+00 0.000000000000000e+00 0.000000000000000e+00

0.000000000000000e+00 0.000000000000000e+00 0.000000000000000e+00
0.000000000000000e+00 0.000000000000000e+00 0.000000000000000e+00
0.000000000000000e+00 0.000000000000000e+00 0.000000000000000e+00

0.000000000000000e+00 0.000000000000000e+00 0.000000000000000e+00
0.000000000000000e+00 0.000000000000000e+00 0.000000000000000e+00
0.000000000000000e+00 0.000000000000000e+00 0.000000000000000e+00

0.000000000000000e+00 0.000000000000000e+00 0.000000000000000e+00
0.000000000000000e+00 0.000000000000000e+00 0.000000000000000e+00
0.000000000000000e+00 0.000000000000000e+00 0.000000000000000e+00

0.000000000000000e+00 0.000000000000000e+00 0.000000000000000e+00
0.000000000000000e+00 0.000000000000000e+00 0.000000000000000e+00
0.000000000000000e+00 0.000000000000000e+00 0.000000000000000e+00

0.000000000000000e+00 0.000000000000000e+00 0.000000000000000e+00
0.000000000000000e+00 0.000000000000000e+00 0.000000000000000e+00
0.000000000000000e+00 0.000000000000000e+00 0.000000000000000e+00

0.000000000000000e+00 0.000000000000000e+00 0.000000000000000e+00
0.000000000000000e+00 0.000000000000000e+00 0.000000000000000e+00
0.000000000000000e+00 0.000000000000000e+00 0.000000000000000e+00

0.000000000000000e+00 0.000000000000000e+00 0.000000000000000e+00
0.000000000000000e+00 0.000000000000000e+00 0.000000000000000e+00
0.000000000000000e+00 0.000000000000000e+00 0.000000000000000e+00

0.000000000000000e+00 0.000000000000000e+00 0.000000000000000e+00
0.000000000000000e+00 0.000000000000000e+00 0.000000000000000e+00
0.000000000000000e+00 0.000000000000000e+00 0.000000000000000e+00

0.000000000000000e+00 0.000000000000000e+00 0.000000000000000e+00
0.000000000000000e+00 0.000000000000000e+00 0.000000000000000e+00
0.000000000000000e+00 0.000000000000000e+00 0.000000000000000e+00

0.000000000000000e+00 0.000000000000000e+00 0.000000000000000e+00
0.000000000000000e+00 0.000000000000000e+00 0.000000000000000e+00
0.000000000000000e+00 0.000000000000000e+00 0.000000000000000e+00

0.000000000000000e+00 0.000000000000000e+00 0.000000000000000e+00
0.000000000000000e+00 0.000000000000000e+00 0.000000000000000e+00
0.000000000000000e+00 0.000000000000000e+00 0.000000000000000e+00

0.000000000000000e+00 0.000000000000000e+00 0.000000000000000e+00
0.000000000000000e+00 0.000000000000000e+00 0.000000000000000e+00
0.000000000000000e+00 0.000000000000000e+00 0.000000000000000e+00

0.000000000000000e+00 0.000000000000000e+00 0.000000000000000e+00
0.000000000000000e+00 0.000000000000000e+00 0.000000000000000e+00
0.000000000000000e+00 0.000000000000000e+00 0.000000000000000e+00

0.000000000000000e+00 0.000000000000000e+00 0.000000000000000e+00
0.000000000000000e+00 0.000000000000000e+00 0.000000000000000e+00
0.000000000000000e+00 0.000000000000000e+00 0.000000000000000e+00

0.000000000000000e+00 0.000000000000000e+00 0.000000000000000e+00
0.000000000000000e+00 0.000000000000000e+00 0.000000000000000e+00
0.000000000000000e+00 0.000000000000000e+00 0.000000000000000e+00

0.000000000000000e+00 0.000000000000000e+00 0.000000000000000e+00
0.000000000000000e+00 0.000000000000000e+00 0.000000000000000e+00
0.000000000000000e+00 0.000000000000000e+00 0.000000000000000e+00

0.000000000000000e+00 0.000000000000000e+00 0.000000000000000e+00
0.000000000000000e+00 0.000000000000000e+00 0.000000000000000e+00
0.000000000000000e+00 0.000000000000000e+00 0.000000000000000e+00

0.000000000000000e+00 0.000000000000000e+00 0.000000000000000e+00
0.000000000000000e+00 0.000000000000000e+00 0.000000000000000e+00
0.000000000000000e+00 0.000000000000000e+00 0.000000000000000e+00

0.000000000000000e+00 0.000000000000000e+00 0.000000000000000e+00
0.000000000000000e+00 0.000000000000000e+00 0.000000000000000e+00
0.000000000000000e+00 0.000000000000000e+00 0.000000000000000e+00

0.000000000000000e+00 0.000000000000000e+00 0.000000000000000e+00
0.000000000000000e+00 0.000000000000000e+00 0.000000000000000e+00
0.000000000000000e+00 0.000000000000000e+00 0.000000000000000e+00

0.000000000000000e+00 0.000000000000000e+00 0.000000000000000e+00
0.000000000000000e+00 0.000000000000000e+00 0.000000000000000e+00
0.000000000000000e+00 0.000000000000000e+00 0.000000000000000e+00

0.000000000000000e+00 0.000000000000000e+00 0.000000000000000e+00
0.000000000000000e+00 0.000000000000000e+00 0.000000000000000e+00
0.000000000000000e+00 0.000000000000000e+00 0.000000000000000e+00

0.000000000000000e+00 0.000000000000000e+00 0.000000000000000e+00
0.000000000000000e+00 0.000000000000000e+00 0.000000000000000e+00
0.000000000000000e+00 0.000000000000000e+00 0.000000000000000e+00

0.000000000000000e+00 0.000000000000000e+00 0.000000000000000e+00
0.000000000000000e+00 0.000000000000000e+00 0.000000000000000e+00
0.000000000000000e+00 0.000000000000000e+00 0.000000000000000e+00

0.000000000000000e+00 0.000000000000000e+00 0.000000000000000e+00
0.000000000000000e+00 0.000000000000000e+00 0.000000000000000e+00
0.000000000000000e+00 0.000000000000000e+00 0.000000000000000e+00

0.000000000000000e+00 0.000000000000000e+00 0.000000000000000e+00
0.000000000000000e+00 0.000000000000000e+00 0.000000000000000e+00
0.000000000000000e+00 0.000000000000000e+00 0.000000000000000e+00

0.000000000000000e+00 0.000000000000000e+00 0.000000000000000e+00
0.000000000000000e+00 0.000000000000000e+00 0.000000000000000e+00
0.000000000000000e+00 0.000000000000000e+00 0.000000000000000e+00

0.000000000000000e+00 0.000000000000000e+00 0.000000000000000e+00
0.000000000000000e+00 0.000000000000000e+00 0.000000000000000e+00
0.000000000000000e+00 0.000000000000000e+00 0.000000000000000e+00

0.000000000000000e+00 0.000000000000000e+00 0.000000000000000e+00
0.000000000000000e+00 0.000000000000000e+00 0.000000000000000e+00
0.000000000000000e+00 0.000000000000000e+00 0.000000000000000e+00

0.000000000000000e+00 0.000000000000000e+00 0.000000000000000e+00
0.000000000000000e+00 0.000000000000000e+00 0.000000000000000e+00
0.000000000000000e+00 0.000000000000000e+00 0.000000000000000e+00

0.000000000000000e+00 0.000000000000000e+00 0.000000000000000e+00
0.000000000000000e+00 0.000000000000000e+00 0.000000000000000e+00
0.000000000000000e+00 0.000000000000000e+00 0.000000000000000e+00

0.000000000000000e+00 0.000000000000000e+00 0.000000000000000e+00
0.000000000000000e+00 0.000000000000000e+00 0.000000000000000e+00
0.000000000000000e+00 0.000000000000000e+00 0.000000000000000e+00

0.000000000000000e+00 0.000000000000000e+00 0.000000000000000e+00
0.000000000000000e+00 0.000000000000000e+00 0.000000000000000e+00
0.000000000000000e+00 0.000000000000000e+00 0.000000000000000e+00

0.000000000000000e+00 0.000000000000000e+00 0.000000000000000e+00
0.000000000000000e+00 0.000000000000000e+00 0.000000000000000e+00
0.000000000000000e+00 0.000000000000000e+00 0.000000000000000e+00

0.000000000000000e+00 0.000000000000000e+00 0.000000000000000e+00
0.000000000000000e+00 0.000000000000000e+00 0.000000000000000e+00
0.000000000000000e+00 0.000000000000000e+00 0.000000000000000e+00

0.000000000000000e+00 0.000000000000000e+00 0.000000000000000e+00
0.000000000000000e+00 0.000000000000000e+00 0.000000000000000e+00
0.000000000000000e+00 0.000000000000000e+00 0.000000000000000e+00

0.000000000000000e+00 0.000000000000000e+00 0.000000000000000e+00
0.000000000000000e+00 0.000000000000000e+00 0.000000000000000e+00
0.000000000000000e+00 0.000000000000000e+00 0.000000000000000e+00

0.000000000000000e+00 0.000000000000000e+00 0.000000000000000e+00
0.000000000000000e+00 0.000000000000000e+00 0.000000000000000e+00
0.000000000000000e+00 0.000000000000000e+00 0.000000000000000e+00

0.000000000000000e+00 0.000000000000000e+00 0.000000000000000e+00
0.000000000000000e+00 0.000000000000000e+00 0.000000000000000e+00
0.000000000000000e+00 0.000000000000000e+00 0.000000000000000e+00

0.000000000000000e+00 0.000000000000000e+00 0.000000000000000e+00
0.000000000000000e+00 0.000000000000000e+00 0.000000000000000e+00
0.000000000000000e+00 0.000000000000000e+00 0.000000000000000e+00

0.000000000000000e+00 0.000000000000000e+00 0.000000000000000e+00
0.000000000000000e+00 0.000000000000000e+00 0.000000000000000e+00
0.000000000000000e+00 0.000000000000000e+00 0.000000000000000e+00

0.000000000000000e+00 0.000000000000000e+00 0.000000000000000e+00
0.000000000000000e+00 0.000000000000000e+00 0.000000000000000e+00
0.000000000000000e+00 0.000000000000000e+00 0.000000000000000e+00

0.000000000000000e+00 0.000000000000000e+00 0.000000000000000e+00
0.000000000000000e+00 0.000000000000000e+00 0.000000000000000e+00
0.000000000000000e+00 0.000000000000000e+00 0.000000000000000e+00

0.000000000000000e+00 0.000000000000000e+00 0.000000000000000e+00
0.000000000000000e+00 0.000000000000000e+00 0.000000000000000e+00
0.000000000000000e+00 0.000000000000000e+00 0.000000000000000e+00

0.000000000000000e+00 0.000000000000000e+00 0.000000000000000e+00
0.000000000000000e+00 0.000000000000000e+00 0.000000000000000e+00
0.000000000000000e+00 0.000000000000000e+00 0.000000000000000e+00

0.000000000000000e+00 0.000000000000000e+00 0.000000000000000e+00
0.000000000000000e+00 0.000000000000000e+00 0.000000000000000e+00
0.000000000000000e+00 0.000000000000000e+00 0.000000000000000e+00

0.000000000000000e+00 0.000000000000000e+00 0.000000000000000e+00
0.000000000000000e+00 0.000000000000000e+00 0.000000000000000e+00
0.000000000000000e+00 0.000000000000000e+00 0.000000000000000e+00

0.000000000000000e+00 0.000000000000000e+00 0.000000000000000e+00
0.000000000000000e+00 0.000000000000000e+00 0.000000000000000e+00
0.000000000000000e+00 0.000000000000000e+00 0.000000000000000e+00

0.000000000000000e+00 0.000000000000000e+00 0.000000000000000e+00
0.000000000000000e+00 0.000000000000000e+00 0.000000000000000e+00
0.000000000000000e+00 0.000000000000000e+00 0.000000000000000e+00

0.000000000000000e+00 0.000000000000000e+00 0.000000000000000e+00
0.000000000000000e+00 0.000000000000000e+00 0.000000000000000e+00
0.000000000000000e+00 0.000000000000000e+00 0.000000000000000e+00

0.000000000000000e+00 0.000000000000000e+00 0.000000000000000e+00
0.000000000000000e+00 0.000000000000000e+00 0.000000000000000e+00
0.000000000000000e+00 0.000000000000000e+00 0.000000000000000e+00

0.000000000000000e+00 0.000000000000000e+00 0.000000000000000e+00
0.000000000000000e+00 0.000000000000000e+00 0.000000000000000e+00
0.000000000000000e+00 0.000000000000000e+00 0.000000000000000e+00

0.000000000000000e+00 0.000000000000000e+00 0.000000000000000e+00
0.000000000000000e+00 0.000000000000000e+00 0.000000000000000e+00
0.000000000000000e+00 0.000000000000000e+00 0.000000000000000e+00

0.000000000000000e+00 0.000000000000000e+00 0.000000000000000e+00
0.000000000000000e+00 0.000000000000000e+00 0.000000000000000e+00
0.000000000000000e+00 0.000000000000000e+00 0.000000000000000e+00

0.000000000000000e+00 0.000000000000000e+00 0.000000000000000e+00
0.000000000000000e+00 0.000000000000000e+00 0.000000000000000e+00
0.000000000000000e+00 0.000000000000000e+00 0.000000000000000e+00

0.000000000000000e+00 0.000000000000000e+00 0.000000000000000e+00
0.000000000000000e+00 0.000000000000000e+00 0.000000000000000e+00
0.000000000000000e+00 0.000000000000000e+00 0.000000000000000e+00

0.000000000000000e+00 0.000000000000000e+00 0.000000000000000e+00
0.000000000000000e+00 0.000000000000000e+00 0.000000000000000e+00
0.000000000000000e+00 0.000000000000000e+00 0.000000000000000e+00

0.000000000000000e+00 0.000000000000000e+00 0.000000000000000e+00
0.000000000000000e+00 0.000000000000000e+00 0.000000000000000e+00
0.000000000000000e+00 0.000000000000000e+00 0.000000000000000e+00

0.000000000000000e+00 0.000000000000000e+00 0.000000000000000e+00
0.000000000000000e+00 0.000000000000000e+00 0.000000000000000e+00
0.000000000000000e+00 0.000000000000000e+00 0.000000000000000e+00

0.000000000000000e+00 0.000000000000000e+00 0.000000000000000e+00
0.000000000000000e+00 0.000000000000000e+00 0.000000000000000e+00
0.000000000000000e+00 0.000000000000000e+00 0.000000000000000e+00

0.000000000000000e+00 0.000000000000000e+00 0.000000000000000e+00
0.000000000000000e+00 0.000000000000000e+00 0.000000000000000e+00
0.000000000000000e+00 0.000000000000000e+00 0.000000000000000e+00

0.000000000000000e+00 0.000000000000000e+00 0.000000000000000e+00
0.000000000000000e+00 0.000000000000000e+00 0.000000000000000e+00
0.000000000000000e+00 0.000000000000000e+00 0.000000000000000e+00

0.000000000000000e+00 0.000000000000000e+00 0.000000000000000e+00
0.000000000000000e+00 0.000000000000000e+00 0.000000000000000e+00
0.000000000000000e+00 0.000000000000000e+00 0.000000000000000e+00

0.000000000000000e+00 0.000000000000000e+00 0.000000000000000e+00
0.000000000000000e+00 0.000000000000000e+00 0.000000000000000e+00
0.000000000000000e+00 0.000000000000000e+00 0.000000000000000e+00

0.000000000000000e+00 0.000000000000000e+00 0.000000000000000e+00
0.000000000000000e+00 0.000000000000000e+00 0.000000000000000e+00
0.000000000000000e+00 0.000000000000000e+00 0.000000000000000e+00

0.000000000000000e+00 0.000000000000000e+00 0.000000000000000e+00
0.000000000000000e+00 0.000000000000000e+00 0.000000000000000e+00
0.000000000000000e+00 0.000000000000000e+00 0.000000000000000e+00

0.000000000000000e+00 0.000000000000000e+00 0.000000000000000e+00
0.000000000000000e+00 0.000000000000000e+00 0.000000000000000e+00
0.000000000000000e+00 0.000000000000000e+00 0.000000000000000e+00

0.000000000000000e+00 0.000000000000000e+00 0.000000000000000e+00
0.000000000000000e+00 0.000000000000000e+00 0.000000000000000e+00
0.000000000000000e+00 0.000000000000000e+00 0.000000000000000e+00

0.000000000000000e+00 0.000000000000000e+00 0.000000000000000e+00
0.000000000000000e+00 0.000000000000000e+00 0.000000000000000e+00
0.000000000000000e+00 0.000000000000000e+00 0.000000000000000e+00

0.000000000000000e+00 0.000000000000000e+00 0.000000000000000e+00
0.000000000000000e+00 0.000000000000000e+00 0.000000000000000e+00
0.000000000000000e+00 0.000000000000000e+00 0.000000000000000e+00

0.000000000000000e+00 0.000000000000000e+00 0.000000000000000e+00
0.000000000000000e+00 0.000000000000000e+00 0.000000000000000e+00
0.000000000000000e+00 0.000000000000000e+00 0.000000000000000e+00

0.000000000000000e+00 0.000000000000000e+00 0.000000000000000e+00
0.000000000000000e+00 0.000000000000000e+00 0.000000000000000e+00
0.000000000000000e+00 0.000000000000000e+00 0.000000000000000e+00

0.000000000000000e+00 0.000000000000000e+00 0.000000000000000e+00
0.000000000000000e+00 0.000000000000000e+00 0.000000000000000e+00
0.000000000000000e+00 0.000000000000000e+00 0.000000000000000e+00

0.000000000000000e+00 0.000000000000000e+00 0.000000000000000e+00
0.000000000000000e+00 0.000000000000000e+00 0.000000000000000e+00
0.000000000000000e+00 0.000000000000000e+00 0.000000000000000e+00

0.000000000000000e+00 0.000000000000000e+00 0.000000000000000e+00
0.000000000000000e+00 0.000000000000000e+00 0.000000000000000e+00
0.000000000000000e+00 0.000000000000000e+00 0.000000000000000e+00

0.000000000000000e+00 0.000000000000000e+00 0.000000000000000e+00
0.000000000000000e+00 0.000000000000000e+00 0.000000000000000e+00
0.000000000000000e+00 0.000000000000000e+00 0.000000000000000e+00

0.000000000000000e+00 0.000000000000000e+00 0.000000000000000e+00
0.000000000000000e+00 0.000000000000000e+00 0.000000000000000e+00
0.000000000000000e+00 0.000000000000000e+00 0.000000000000000e+00

0.000000000000000e+00 0.000000000000000e+00 0.000000000000000e+00
0.000000000000000e+00 0.000000000000000e+00 0.000000000000000e+00
0.000000000000000e+00 0.000000000000000e+00 0.000000000000000e+00

0.000000000000000e+00 0.000000000000000e+00 0.000000000000000e+00
0.000000000000000e+00 0.000000000000000e+00 0.000000000000000e+00
0.000000000000000e+00 0.000000000000000e+00 0.000000000000000e+00

0.000000000000000e+00 0.000000000000000e+00 0.000000000000000e+00
0.000000000000000e+00 0.000000000000000e+00 0.000000000000000e+00
0.000000000000000e+00 0.000000000000000e+00 0.000000000000000e+00

0.000000000000000e+00 0.000000000000000e+00 0.000000000000000e+00
0.000000000000000e+00 0.000000000000000e+00 0.000000000000000e+00
0.000000000000000e+00 0.000000000000000e+00 0.000000000000000e+00

0.000000000000000e+00 0.000000000000000e+00 0.000000000000000e+00
0.000000000000000e+00 0.000000000000000e+00 0.000000000000000e+00
0.000000000000000e+00 0.000000000000000e+00 0.000000000000000e+00

0.000000000000000e+00 0.000000000000000e+00 0.000000000000000e+00
0.000000000000000e+00 0.000000000000000e+00 0.000000000000000e+00
0.000000000000000e+00 0.000000000000000e+00 0.000000000000000e+00

0.000000000000000e+00 0.000000000000000e+00 0.000000000000000e+00
0.000000000000000e+00 0.000000000000000e+00 0.000000000000000e+00
0.000000000000000e+00 0.000000000000000e+00 0.000000000000000e+00

0.000000000000000e+00 0.000000000000000e+00 0.000000000000000e+00
0.000000000000000e+00 0.000000000000000e+00 0.000000000000000e+00
0.000000000000000e+00 0.000000000000000e+00 0.000000000000000e+00

0.000000000000000e+00 0.000000000000000e+00 0.000000000000000e+00
0.000000000000000e+00 0.000000000000000e+00 0.000000000000000e+00
0.000000000000000e+00 0.000000000000000e+00 0.000000000000000e+00

0.000000000000000e+00 0.000000000000000e+00 0.000000000000000e+00
0.000000000000000e+00 0.000000000000000e+00 0.000000000000000e+00
0.000000000000000e+00 0.000000000000000e+00 0.000000000000000e+00

0.000000000000000e+00 0.000000000000000e+00 0.000000000000000e+00
0.000000000000000e+00 0.000000000000000e+00 0.000000000000000e+00
0.000000000000000e+00 0.000000000000000e+00 0.000000000000000e+00

0.000000000000000e+00 0.000000000000000e+00 0.000000000000000e+00
0.000000000000000e+00 0.000000000000000e+00 0.000000000000000e+00
0.000000000000000e+00 0.000000000000000e+00 0.000000000000000e+00

0.000000000000000e+00 0.000000000000000e+00 0.000000000000000e+00
0.000000000000000e+00 0.000000000000000e+00 0.000000000000000e+00
0.000000000000000e+00 0.000000000000000e+00 0.000000000000000e+00

0.000000000000000e+00 0.000000000000000e+00 0.000000000000000e+00
0.000000000000000e+00 0.000000000000000e+00 0.000000000000000e+00
0.000000000000000e+00 0.000000000000000e+00 0.000000000000000e+00

0.000000000000000e+00 0.000000000000000e+00 0.000000000000000e+00
0.000000000000000e+00 0.000000000000000e+00 0.000000000000000e+00
0.000000000000000e+00 0.000000000000000e+00 0.000000000000000e+00

0.000000000000000e+00 0.000000000000000e+00 0.000000000000000e+00
0.000000000000000e+00 0.000000000000000e+00 0.000000000000000e+00
0.000000000000000e+00 0.000000000000000e+00 0.000000000000000e+00

0.000000000000000e+00 0.000000000000000e+00 0.000000000000000e+00
0.000000000000000e+00 0.000000000000000e+00 0.000000000000000e+00
0.000000000000000e+00 0.000000000000000e+00 0.000000000000000e+00

0.000000000000000e+00 0.000000000000000e+00 0.000000000000000e+00
0.000000000000000e+00 0.000000000000000e+00 0.000000000000000e+00
0.000000000000000e+00 0.000000000000000e+00 0.000000000000000e+00

0.000000000000000e+00 0.000000000000000e+00 0.000000000000000e+00
0.000000000000000e+00 0.000000000000000e+00 0.000000000000000e+00
0.000000000000000e+00 0.000000000000000e+00 0.000000000000000e+00

0.000000000000000e+00 0.000000000000000e+00 0.000000000000000e+00
0.000000000000000e+00 0.000000000000000e+00 0.000000000000000e+00
0.000000000000000e+00 0.000000000000000e+00 0.000000000000000e+00

0.000000000000000e+00 0.000000000000000e+00 0.000000000000000e+00
0.000000000000000e+00 0.000000000000000e+00 0.000000000000000e+00
0.000000000000000e+00 0.000000000000000e+00 0.000000000000000e+00

0.000000000000000e+00 0.000000000000000e+00 0.000000000000000e+00
0.000000000000000e+00 0.000000000000000e+00 0.000000000000000e+00
0.000000000000000e+00 0.000000000000000e+00 0.000000000000000e+00

0.000000000000000e+00 0.000000000000000e+00 0.000000000000000e+00
0.000000000000000e+00 0.000000000000000e+00 0.000000000000000e+00
0.000000000000000e+00 0.000000000000000e+00 0.000000000000000e+00

0.000000000000000e+00 0.000000000000000e+00 0.000000000000000e+00
0.000000000000000e+00 0.000000000000000e+00 0.000000000000000e+00
0.000000000000000e+00 0.000000000000000e+00 0.000000000000000e+00

0.000000000000000e+00 0.000000000000000e+00 0.000000000000000e+00
0.000000000000000e+00 0.000000000000000e+00 0.000000000000000e+00
0.000000000000000e+00 0.000000000000000e+00 0.000000000000000e+00

0.000000000000000e+00 0.000000000000000e+00 0.000000000000000e+00
0.000000000000000e+00 0.000000000000000e+00 0.000000000000000e+00
0.000000000000000e+00 0.000000000000000e+00 0.000000000000000e+00

0.000000000000000e+00 0.000000000000000e+00 0.000000000000000e+00
0.000000000000000e+00 0.000000000000000e+00 0.000000000000000e+00
0.000000000000000e+00 0.000000000000000e+00 0.000000000000000e+00

0.000000000000000e+00 0.000000000000000e+00 0.000000000000000e+00
0.000000000000000e+00 0.000000000000000e+00 0.000000000000000e+00
0.000000000000000e+00 0.000000000000000e+00 0.000000000000000e+00

0.000000000000000e+00 0.000000000000000e+00 0.000000000000000e+00
0.000000000000000e+00 0.000000000000000e+00 0.000000000000000e+00
0.000000000000000e+00 0.000000000000000e+00 0.000000000000000e+00

0.000000000000000e+00 0.000000000000000e+00 0.000000000000000e+00
0.000000000000000e+00 0.000000000000000e+00 0.000000000000000e+00
0.000000000000000e+00 0.000000000000000e+00 0.000000000000000e+00

0.000000000000000e+00 0.000000000000000e+00 0.000000000000000e+00
0.000000000000000e+00 0.000000000000000e+00 0.000000000000000e+00
0.000000000000000e+00 0.000000000000000e+00 0.000000000000000e+00

0.000000000000000e+00 0.000000000000000e+00 0.000000000000000e+00
0.000000000000000e+00 0.000000000000000e+00 0.000000000000000e+00
0.000000000000000e+00 0.000000000000000e+00 0.000000000000000e+00

0.000000000000000e+00 0.000000000000000e+00 0.000000000000000e+00
0.000000000000000e+00 0.000000000000000e+00 0.000000000000000e+00
0.000000000000000e+00 0.000000000000000e+00 0.000000000000000e+00

0.000000000000000e+00 0.000000000000000e+00 0.000000000000000e+00
0.000000000000000e+00 0.000000000000000e+00 0.000000000000000e+00
0.000000000000000e+00 0.000000000000000e+00 0.000000000000000e+00

0.000000000000000e+00 0.000000000000000e+00 0.000000000000000e+00
0.000000000000000e+00 0.000000000000000e+00 0.000000000000000e+00
0.000000000000000e+00 0.000000000000000e+00 0.000000000000000e+00

0.000000000000000e+00 0.000000000000000e+00 0.000000000000000e+00
0.000000000000000e+00 0.000000000000000e+00 0.000000000000000e+00
0.000000000000000e+00 0.000000000000000e+00 0.000000000000000e+00

0.000000000000000e+00 0.000000000000000e+00 0.000000000000000e+00
0.000000000000000e+00 0.000000000000000e+00 0.000000000000000e+00
0.000000000000000e+00 0.000000000000000e+00 0.000000000000000e+00

0.000000000000000e+00 0.000000000000000e+00 0.000000000000000e+00
0.000000000000000e+00 0.000000000000000e+00 0.000000000000000e+00
0.000000000000000e+00 0.000000000000000e+00 0.000000000000000e+00

0.000000000000000e+00 0.000000000000000e+00 0.000000000000000e+00
0.000000000000000e+00 0.000000000000000e+00 0.000000000000000e+00
0.000000000000000e+00 0.000000000000000e+00 0.000000000000000e+00

0.000000000000000e+00 0.000000000000000e+00 0.000000000000000e+00
0.000000000000000e+00 0.000000000000000e+00 0.000000000000000e+00
0.000000000000000e+00 0.000000000000000e+00 0.000000000000000e+00

0.000000000000000e+00 0.000000000000000e+00 0.000000000000000e+00
0.000000000000000e+00 0.000000000000000e+00 0.000000000000000e+00
0.000000000000000e+00 0.000000000000000e+00 0.000000000000000e+00

0.000000000000000e+00 0.000000000000000e+00 0.000000000000000e+00
0.000000000000000e+00 0.000000000000000e+00 0.000000000000000e+00
0.000000000000000e+00 0.000000000000000e+00 0.000000000000000e+00

0.000000000000000e+00 0.000000000000000e+00 0.000000000000000e+00
0.000000000000000e+00 0.000000000000000e+00 0.000000000000000e+00
0.000000000000000e+00 0.000000000000000e+00 0.000000000000000e+00

0.000000000000000e+00 0.000000000000000e+00 0.000000000000000e+00
0.000000000000000e+00 0.000000000000000e+00 0.000000000000000e+00
0.000000000000000e+00 0.000000000000000e+00 0.000000000000000e+00

0.000000000000000e+00 0.000000000000000e+00 0.000000000000000e+00
0.000000000000000e+00 0.000000000000000e+00 0.000000000000000e+00
0.000000000000000e+00 0.000000000000000e+00 0.000000000000000e+00

0.000000000000000e+00 0.000000000000000e+00 0.000000000000000e+00
0.000000000000000e+00 0.000000000000000e+00 0.000000000000000e+00
0.000000000000000e+00 0.000000000000000e+00 0.000000000000000e+00

0.000000000000000e+00 0.000000000000000e+00 0.000000000000000e+00
0.000000000000000e+00 0.000000000000000e+00 0.000000000000000e+00
0.000000000000000e+00 0.000000000000000e+00 0.000000000000000e+00

0.000000000000000e+00 0.000000000000000e+00 0.000000000000000e+00
0.000000000000000e+00 0.000000000000000e+00 0.000000000000000e+00
0.000000000000000e+00 0.000000000000000e+00 0.000000000000000e+00

0.000000000000000e+00 0.000000000000000e+00 0.000000000000000e+00
0.000000000000000e+00 0.000000000000000e+00 0.000000000000000e+00
0.000000000000000e+00 0.000000000000000e+00 0.000000000000000e+00

0.000000000000000e+00 0.000000000000000e+00 0.000000000000000e+00
0.000000000000000e+00 0.000000000000000e+00 0.000000000000000e+00
0.000000000000000e+00 0.000000000000000e+00 0.000000000000000e+00

0.000000000000000e+00 0.000000000000000e+00 0.000000000000000e+00
0.000000000000000e+00 0.000000000000000e+00 0.000000000000000e+00
0.000000000000000e+00 0.000000000000000e+00 0.000000000000000e+00

0.000000000000000e+00 0.000000000000000e+00 0.000000000000000e+00
0.000000000000000e+00 0.000000000000000e+00 0.000000000000000e+00
0.000000000000000e+00 0.000000000000000e+00 0.000000000000000e+00

0.000000000000000e+00 0.000000000000000e+00 0.000000000000000e+00
0.000000000000000e+00 0.000000000000000e+00 0.000000000000000e+00
0.000000000000000e+00 0.000000000000000e+00 0.000000000000000e+00

0.000000000000000e+00 0.000000000000000e+00 0.000000000000000e+00
0.000000000000000e+00 0.000000000000000e+00 0.000000000000000e+00
0.000000000000000e+00 0.000000000000000e+00 0.000000000000000e+00

0.000000000000000e+00 0.000000000000000e+00 0.000000000000000e+00
0.000000000000000e+00 0.000000000000000e+00 0.000000000000000e+00
0.000000000000000e+00 0.000000000000000e+00 0.000000000000000e+00

0.000000000000000e+00 0.000000000000000e+00 0.000000000000000e+00
0.000000000000000e+00 0.000000000000000e+00 0.000000000000000e+00
0.000000000000000e+00 0.000000000000000e+00 0.000000000000000e+00

0.000000000000000e+00 0.000000000000000e+00 0.000000000000000e+00
0.000000000000000e+00 0.000000000000000e+00 0.000000000000000e+00
0.000000000000000e+00 0.000000000000000e+00 0.000000000000000e+00

0.000000000000000e+00 0.000000000000000e+00 0.000000000000000e+00
0.000000000000000e+00 0.000000000000000e+00 0.000000000000000e+00
0.000000000000000e+00 0.000000000000000e+00 0.000000000000000e+00

0.000000000000000e+00 0.000000000000000e+00 0.000000000000000e+00
0.000000000000000e+00 0.000000000000000e+00 0.000000000000000e+00
0.000000000000000e+00 0.000000000000000e+00 0.000000000000000e+00

0.000000000000000e+00 0.000000000000000e+00 0.000000000000000e+00
0.000000000000000e+00 0.000000000000000e+00 0.000000000000000e+00
0.000000000000000e+00 0.000000000000000e+00 0.000000000000000e+00

0.000000000000000e+00 0.000000000000000e+00 0.000000000000000e+00
0.000000000000000e+00 0.000000000000000e+00 0.000000000000000e+00
0.000000000000000e+00 0.000000000000000e+00 0.000000000000000e+00

0.000000000000000e+00 0.000000000000000e+00 0.000000000000000e+00
0.000000000000000e+00 0.000000000000000e+00 0.000000000000000e+00
0.000000000000000e+00 0.000000000000000e+00 0.000000000000000e+00

0.000000000000000e+00 0.000000000000000e+00 0.000000000000000e+00
0.000000000000000e+00 0.000000000000000e+00 0.000000000000000e+00
0.000000000000000e+00 0.000000000000000e+00 0.000000000000000e+00

0.000000000000000e+00 0.000000000000000e+00 0.000000000000000e+00
0.000000000000000e+00 0.000000000000000e+00 0.000000000000000e+00
0.000000000000000e+00 0.000000000000000e+00 0.000000000000000e+00

0.000000000000000e+00 0.000000000000000e+00 0.000000000000000e+00
0.000000000000000e+00 0.000000000000000e+00 0.000000000000000e+00
0.000000000000000e+00 0.000000000000000e+00 0.000000000000000e+00

0.000000000000000e+00 0.000000000000000e+00 0.000000000000000e+00
0.000000000000000e+00 0.000000000000000e+00 0.000000000000000e+00
0.000000000000000e+00 0.000000000000000e+00 0.000000000000000e+00

0.000000000000000e+00 0.000000000000000e+00 0.000000000000000e+00
0.000000000000000e+00 0.000000000000000e+00 0.000000000000000e+00
0.000000000000000e+00 0.000000000000000e+00 0.000000000000000e+00

0.000000000000000e+00 0.000000000000000e+00 0.000000000000000e+00
0.000000000000000e+00 0.000000000000000e+00 0.000000000000000e+00
0.000000000000000e+00 0.000000000000000e+00 0.000000000000000e+00

0.000000000000000e+00 0.000000000000000e+00 0.000000000000000e+00
0.000000000000000e+00 0.000000000000000e+00 0.000000000000000e+00
0.000000000000000e+00 0.000000000000000e+00 0.000000000000000e+00

0.000000000000000e+00 0.000000000000000e+00 0.000000000000000e+00
0.000000000000000e+00 0.000000000000000e+00 0.000000000000000e+00
0.000000000000000e+00 0.000000000000000e+00 0.000000000000000e+00

0.000000000000000e+00 0.000000000000000e+00 0.000000000000000e+00
0.000000000000000e+00 0.000000000000000e+00 0.000000000000000e+00
0.000000000000000e+00 0.000000000000000e+00 0.000000000000000e+00

0.000000000000000e+00 0.000000000000000e+00 0.000000000000000e+00
0.000000000000000e+00 0.000000000000000e+00 0.000000000000000e+00
0.000000000000000e+00 0.000000000000000e+00 0.000000000000000e+00

0.000000000000000e+00 0.000000000000000e+00 0.000000000000000e+00
0.000000000000000e+00 0.000000000000000e+00 0.000000000000000e+00
0.000000000000000e+00 0.000000000000000e+00 0.000000000000000e+00

0.000000000000000e+00 0.000000000000000e+00 0.000000000000000e+00
0.000000000000000e+00 0.000000000000000e+00 0.000000000000000e+00
0.000000000000000e+00 0.000000000000000e+00 0.000000000000000e+00

0.000000000000000e+00 0.000000000000000e+00 0.000000000000000e+00
0.000000000000000e+00 0.000000000000000e+00 0.000000000000000e+00
0.000000000000000e+00 0.000000000000000e+00 0.000000000000000e+00

0.000000000000000e+00 0.000000000000000e+00 0.000000000000000e+00
0.000000000000000e+00 0.000000000000000e+00 0.000000000000000e+00
0.000000000000000e+00 0.000000000000000e+00 0.000000000000000e+00

0.000000000000000e+00 0.000000000000000e+00 0.000000000000000e+00
0.000000000000000e+00 0.000000000000000e+00 0.000000000000000e+00
0.000000000000000e+00 0.000000000000000e+00 0.000000000000000e+00

0.000000000000000e+00 0.000000000000000e+00 0.000000000000000e+00
0.000000000000000e+00 0.000000000000000e+00 0.000000000000000e+00
0.000000000000000e+00 0.000000000000000e+00 0.000000000000000e+00

0.000000000000000e+00 0.000000000000000e+00 0.000000000000000e+00
0.000000000000000e+00 0.000000000000000e+00 0.000000000000000e+00
0.000000000000000e+00 0.000000000000000e+00 0.000000000000000e+00

0.000000000000000e+00 0.000000000000000e+00 0.000000000000000e+00
0.000000000000000e+00 0.000000000000000e+00 0.000000000000000e+00
0.000000000000000e+00 0.000000000000000e+00 0.000000000000000e+00

0.000000000000000e+00 0.000000000000000e+00 0.000000000000000e+00
0.000000000000000e+00 0.000000000000000e+00 0.000000000000000e+00
0.000000000000000e+00 0.000000000000000e+00 0.000000000000000e+00

0.000000000000000e+00 0.000000000000000e+00 0.000000000000000e+00
0.000000000000000e+00 0.000000000000000e+00 0.000000000000000e+00
0.000000000000000e+00 0.000000000000000e+00 0.000000000000000e+00

0.000000000000000e+00 0.000000000000000e+00 0.000000000000000e+00
0.000000000000000e+00 0.000000000000000e+00 0.000000000000000e+00
0.000000000000000e+00 0.000000000000000e+00 0.000000000000000e+00

0.000000000000000e+00 0.000000000000000e+00 0.000000000000000e+00
0.000000000000000e+00 0.000000000000000e+00 0.000000000000000e+00
0.000000000000000e+00 0.000000000000000e+00 0.000000000000000e+00

0.000000000000000e+00 0.000000000000000e+00 0.000000000000000e+00
0.000000000000000e+00 0.000000000000000e+00 0.000000000000000e+00
0.000000000000000e+00 0.000000000000000e+00 0.000000000000000e+00

0.000000000000000e+00 0.000000000000000e+00 0.000000000000000e+00
0.000000000000000e+00 0.000000000000000e+00 0.000000000000000e+00
0.000000000000000e+00 0.000000000000000e+00 0.000000000000000e+00

0.000000000000000e+00 0.000000000000000e+00 0.000000000000000e+00
0.000000000000000e+00 0.000000000000000e+00 0.000000000000000e+00
0.000000000000000e+00 0.000000000000000e+00 0.000000000000000e+00

0.000000000000000e+00 0.000000000000000e+00 0.000000000000000e+00
0.000000000000000e+00 0.000000000000000e+00 0.000000000000000e+00
0.000000000000000e+00 0.000000000000000e+00 0.000000000000000e+00

0.000000000000000e+00 0.000000000000000e+00 0.000000000000000e+00
0.000000000000000e+00 0.000000000000000e+00 0.000000000000000e+00
0.000000000000000e+00 0.000000000000000e+00 0.000000000000000e+00

0.000000000000000e+00 0.000000000000000e+00 0.000000000000000e+00
0.000000000000000e+00 0.000000000000000e+00 0.000000000000000e+00
0.000000000000000e+00 0.000000000000000e+00 0.000000000000000e+00

0.000000000000000e+00 0.000000000000000e+00 0.000000000000000e+00
0.000000000000000e+00 0.000000000000000e+00 0.000000000000000e+00
0.000000000000000e+00 0.000000000000000e+00 0.000000000000000e+00

0.000000000000000e+00 0.000000000000000e+00 0.000000000000000e+00
0.000000000000000e+00 0.000000000000000e+00 0.000000000000000e+00
0.000000000000000e+00 0.000000000000000e+00 0.000000000000000e+00

0.000000000000000e+00 0.000000000000000e+00 0.000000000000000e+00
0.000000000000000e+00 0.000000000000000e+00 0.000000000000000e+00
0.000000000000000e+00 0.000000000000000e+00 0.000000000000000e+00

0.000000000000000e+00 0.000000000000000e+00 0.000000000000000e+00
0.000000000000000e+00 0.000000000000000e+00 0.000000000000000e+00
0.000000000000000e+00 0.000000000000000e+00 0.000000000000000e+00

0.000000000000000e+00 0.000000000000000e+00 0.000000000000000e+00
0.000000000000000e+00 0.000000000000000e+00 0.000000000000000e+00
0.000000000000000e+00 0.000000000000000e+00 0.000000000000000e+00

0.000000000000000e+00 0.000000000000000e+00 0.000000000000000e+00
0.000000000000000e+00 0.000000000000000e+00 0.000000000000000e+00
0.000000000000000e+00 0.000000000000000e+00 0.000000000000000e+00

0.000000000000000e+00 0.000000000000000e+00 0.000000000000000e+00
0.000000000000000e+00 0.000000000000000e+00 0.000000000000000e+00
0.000000000000000e+00 0.000000000000000e+00 0.000000000000000e+00

0.000000000000000e+00 0.000000000000000e+00 0.000000000000000e+00
0.000000000000000e+00 0.000000000000000e+00 0.000000000000000e+00
0.000000000000000e+00 0.000000000000000e+00 0.000000000000000e+00

0.000000000000000e+00 0.000000000000000e+00 0.000000000000000e+00
0.000000000000000e+00 0.000000000000000e+00 0.000000000000000e+00
0.000000000000000e+00 0.000000000000000e+00 0.000000000000000e+00

0.000000000000000e+00 0.000000000000000e+00 0.000000000000000e+00
0.000000000000000e+00 0.000000000000000e+00 0.000000000000000e+00
0.000000000000000e+00 0.000000000000000e+00 0.000000000000000e+00

0.000000000000000e+00 0.000000000000000e+00 0.000000000000000e+00
0.000000000000000e+00 0.000000000000000e+00 0.000000000000000e+00
0.000000000000000e+00 0.000000000000000e+00 0.000000000000000e+00

0.000000000000000e+00 0.000000000000000e+00 0.000000000000000e+00
0.000000000000000e+00 0.000000000000000e+00 0.000000000000000e+00
0.000000000000000e+00 0.000000000000000e+00 0.000000000000000e+00

0.000000000000000e+00 0.000000000000000e+00 0.000000000000000e+00
0.000000000000000e+00 0.000000000000000e+00 0.000000000000000e+00
0.000000000000000e+00 0.000000000000000e+00 0.000000000000000e+00

0.000000000000000e+00 0.000000000000000e+00 0.000000000000000e+00
0.000000000000000e+00 0.000000000000000e+00 0.000000000000000e+00
0.000000000000000e+00 0.000000000000000e+00 0.000000000000000e+00

0.000000000000000e+00 0.000000000000000e+00 0.000000000000000e+00
0.000000000000000e+00 0.000000000000000e+00 0.000000000000000e+00
0.000000000000000e+00 0.000000000000000e+00 0.000000000000000e+00

0.000000000000000e+00 0.000000000000000e+00 0.000000000000000e+00
0.000000000000000e+00 0.000000000000000e+00 0.000000000000000e+00
0.000000000000000e+00 0.000000000000000e+00 0.000000000000000e+00

0.000000000000000e+00 0.000000000000000e+00 0.000000000000000e+00
0.000000000000000e+00 0.000000000000000e+00 0.000000000000000e+00
0.000000000000000e+00 0.000000000000000e+00 0.000000000000000e+00

0.000000000000000e+00 0.000000000000000e+00 0.000000000000000e+00
0.000000000000000e+00 0.000000000000000e+00 0.000000000000000e+00
0.000000000000000e+00 0.000000000000000e+00 0.000000000000000e+00

0.000000000000000e+00 0.000000000000000e+00 0.000000000000000e+00
0.000000000000000e+00 0.000000000000000e+00 0.000000000000000e+00
0.000000000000000e+00 0.000000000000000e+00 0.000000000000000e+00

0.000000000000000e+00 0.000000000000000e+00 0.000000000000000e+00
0.000000000000000e+00 0.000000000000000e+00 0.000000000000000e+00
0.000000000000000e+00 0.000000000000000e+00 0.000000000000000e+00

0.000000000000000e+00 0.000000000000000e+00 0.000000000000000e+00
0.000000000000000e+00 0.000000000000000e+00 0.000000000000000e+00
0.000000000000000e+00 0.000000000000000e+00 0.000000000000000e+00

0.000000000000000e+00 0.000000000000000e+00 0.000000000000000e+00
0.000000000000000e+00 0.000000000000000e+00 0.000000000000000e+00
0.000000000000000e+00 0.000000000000000e+00 0.000000000000000e+00

0.000000000000000e+00 0.000000000000000e+00 0.000000000000000e+00
0.000000000000000e+00 0.000000000000000e+00 0.000000000000000e+00
0.000000000000000e+00 0.000000000000000e+00 0.000000000000000e+00

0.000000000000000e+00 0.000000000000000e+00 0.000000000000000e+00
0.000000000000000e+00 0.000000000000000e+00 0.000000000000000e+00
0.000000000000000e+00 0.000000000000000e+00 0.000000000000000e+00

0.000000000000000e+00 0.000000000000000e+00 0.000000000000000e+00
0.000000000000000e+00 0.000000000000000e+00 0.000000000000000e+00
0.000000000000000e+00 0.000000000000000e+00 0.000000000000000e+00

0.000000000000000e+00 0.000000000000000e+00 0.000000000000000e+00
0.000000000000000e+00 0.000000000000000e+00 0.000000000000000e+00
0.000000000000000e+00 0.000000000000000e+00 0.000000000000000e+00

0.000000000000000e+00 0.000000000000000e+00 0.000000000000000e+00
0.000000000000000e+00 0.000000000000000e+00 0.000000000000000e+00
0.000000000000000e+00 0.000000000000000e+00 0.000000000000000e+00

0.000000000000000e+00 0.000000000000000e+00 0.000000000000000e+00
0.000000000000000e+00 0.000000000000000e+00 0.000000000000000e+00
0.000000000000000e+00 0.000000000000000e+00 0.000000000000000e+00

0.000000000000000e+00 0.000000000000000e+00 0.000000000000000e+00
0.000000000000000e+00 0.000000000000000e+00 0.000000000000000e+00
0.000000000000000e+00 0.000000000000000e+00 0.000000000000000e+00

0.000000000000000e+00 0.000000000000000e+00 0.000000000000000e+00
0.000000000000000e+00 0.000000000000000e+00 0.000000000000000e+00
0.000000000000000e+00 0.000000000000000e+00 0.000000000000000e+00

0.000000000000000e+00 0.000000000000000e+00 0.000000000000000e+00
0.000000000000000e+00 0.000000000000000e+00 0.000000000000000e+00
0.000000000000000e+00 0.000000000000000e+00 0.000000000000000e+00

0.000000000000000e+00 0.000000000000000e+00 0.000000000000000e+00
0.000000000000000e+00 0.000000000000000e+00 0.000000000000000e+00
0.000000000000000e+00 0.000000000000000e+00 0.000000000000000e+00

0.000000000000000e+00 0.000000000000000e+00 0.000000000000000e+00
0.000000000000000e+00 0.000000000000000e+00 0.000000000000000e+00
0.000000000000000e+00 0.000000000000000e+00 0.000000000000000e+00

0.000000000000000e+00 0.000000000000000e+00 0.000000000000000e+00
0.000000000000000e+00 0.000000000000000e+00 0.000000000000000e+00
0.000000000000000e+00 0.000000000000000e+00 0.000000000000000e+00

0.000000000000000e+00 0.000000000000000e+00 0.000000000000000e+00
0.000000000000000e+00 0.000000000000000e+00 0.000000000000000e+00
0.000000000000000e+00 0.000000000000000e+00 0.000000000000000e+00

0.000000000000000e+00 0.000000000000000e+00 0.000000000000000e+00
0.000000000000000e+00 0.000000000000000e+00 0.000000000000000e+00
0.000000000000000e+00 0.000000000000000e+00 0.000000000000000e+00

0.000000000000000e+00 0.000000000000000e+00 0.000000000000000e+00
0.000000000000000e+00 0.000000000000000e+00 0.000000000000000e+00
0.000000000000000e+00 0.000000000000000e+00 0.000000000000000e+00

0.000000000000000e+00 0.000000000000000e+00 0.000000000000000e+00
0.000000000000000e+00 0.000000000000000e+00 0.000000000000000e+00
0.000000000000000e+00 0.000000000000000e+00 0.000000000000000e+00

0.000000000000000e+00 0.000000000000000e+00 0.000000000000000e+00
0.000000000000000e+00 0.000000000000000e+00 0.000000000000000e+00
0.000000000000000e+00 0.000000000000000e+00 0.000000000000000e+00

0.000000000000000e+00 0.000000000000000e+00 0.000000000000000e+00
0.000000000000000e+00 0.000000000000000e+00 0.000000000000000e+00
0.000000000000000e+00 0.000000000000000e+00 0.000000000000000e+00

0.000000000000000e+00 0.000000000000000e+00 0.000000000000000e+00
0.000000000000000e+00 0.000000000000000e+00 0.000000000000000e+00
0.000000000000000e+00 0.000000000000000e+00 0.000000000000000e+00

0.000000000000000e+00 0.000000000000000e+00 0.000000000000000e+00
0.000000000000000e+00 0.000000000000000e+00 0.000000000000000e+00
0.000000000000000e+00 0.000000000000000e+00 0.000000000000000e+00

0.000000000000000e+00 0.000000000000000e+00 0.000000000000000e+00
0.000000000000000e+00 0.000000000000000e+00 0.000000000000000e+00
0.000000000000000e+00 0.000000000000000e+00 0.000000000000000e+00

0.000000000000000e+00 0.000000000000000e+00 0.000000000000000e+00
0.000000000000000e+00 0.000000000000000e+00 0.000000000000000e+00
0.000000000000000e+00 0.000000000000000e+00 0.000000000000000e+00

0.000000000000000e+00 0.000000000000000e+00 0.000000000000000e+00
0.000000000000000e+00 0.000000000000000e+00 0.000000000000000e+00
0.000000000000000e+00 0.000000000000000e+00 0.000000000000000e+00

0.000000000000000e+00 0.000000000000000e+00 0.000000000000000e+00
0.000000000000000e+00 0.000000000000000e+00 0.000000000000000e+00
0.000000000000000e+00 0.000000000000000e+00 0.000000000000000e+00

0.000000000000000e+00 0.000000000000000e+00 0.000000000000000e+00
0.000000000000000e+00 0.000000000000000e+00 0.000000000000000e+00
0.000000000000000e+00 0.000000000000000e+00 0.000000000000000e+00

0.000000000000000e+00 0.000000000000000e+00 0.000000000000000e+00
0.000000000000000e+00 0.000000000000000e+00 0.000000000000000e+00
0.000000000000000e+00 0.000000000000000e+00 0.000000000000000e+00

0.000000000000000e+00 0.000000000000000e+00 0.000000000000000e+00
0.000000000000000e+00 0.000000000000000e+00 0.000000000000000e+00
0.000000000000000e+00 0.000000000000000e+00 0.000000000000000e+00

0.000000000000000e+00 0.000000000000000e+00 0.000000000000000e+00
0.000000000000000e+00 0.000000000000000e+00 0.000000000000000e+00
0.000000000000000e+00 0.000000000000000e+00 0.000000000000000e+00

0.000000000000000e+00 0.000000000000000e+00 0.000000000000000e+00
0.000000000000000e+00 0.000000000000000e+00 0.000000000000000e+00
0.000000000000000e+00 0.000000000000000e+00 0.000000000000000e+00

0.000000000000000e+00 0.000000000000000e+00 0.000000000000000e+00
0.000000000000000e+00 0.000000000000000e+00 0.000000000000000e+00
0.000000000000000e+00 0.000000000000000e+00 0.000000000000000e+00

0.000000000000000e+00 0.000000000000000e+00 0.000000000000000e+00
0.000000000000000e+00 0.000000000000000e+00 0.000000000000000e+00
0.000000000000000e+00 0.000000000000000e+00 0.000000000000000e+00

0.000000000000000e+00 0.000000000000000e+00 0.000000000000000e+00
0.000000000000000e+00 0.000000000000000e+00 0.000000000000000e+00
0.000000000000000e+00 0.000000000000000e+00 0.000000000000000e+00

0.000000000000000e+00 0.000000000000000e+00 0.000000000000000e+00
0.000000000000000e+00 0.000000000000000e+00 0.000000000000000e+00
0.000000000000000e+00 0.000000000000000e+00 0.000000000000000e+00

0.000000000000000e+00 0.000000000000000e+00 0.000000000000000e+00
0.000000000000000e+00 0.000000000000000e+00 0.000000000000000e+00
0.000000000000000e+00 0.000000000000000e+00 0.000000000000000e+00

0.000000000000000e+00 0.000000000000000e+00 0.000000000000000e+00
0.000000000000000e+00 0.000000000000000e+00 0.000000000000000e+00
0.000000000000000e+00 0.000000000000000e+00 0.000000000000000e+00

0.000000000000000e+00 0.000000000000000e+00 0.000000000000000e+00
0.000000000000000e+00 0.000000000000000e+00 0.000000000000000e+00
0.000000000000000e+00 0.000000000000000e+00 0.000000000000000e+00

0.000000000000000e+00 0.000000000000000e+00 0.000000000000000e+00
0.000000000000000e+00 0.000000000000000e+00 0.000000000000000e+00
0.000000000000000e+00 0.000000000000000e+00 0.000000000000000e+00

0.000000000000000e+00 0.000000000000000e+00 0.000000000000000e+00
0.000000000000000e+00 0.000000000000000e+00 0.000000000000000e+00
0.000000000000000e+00 0.000000000000000e+00 0.000000000000000e+00

0.000000000000000e+00 0.000000000000000e+00 0.000000000000000e+00
0.000000000000000e+00 0.000000000000000e+00 0.000000000000000e+00
0.000000000000000e+00 0.000000000000000e+00 0.000000000000000e+00

0.000000000000000e+00 0.000000000000000e+00 0.000000000000000e+00
0.000000000000000e+00 0.000000000000000e+00 0.000000000000000e+00
0.000000000000000e+00 0.000000000000000e+00 0.000000000000000e+00

0.000000000000000e+00 0.000000000000000e+00 0.000000000000000e+00
0.000000000000000e+00 0.000000000000000e+00 0.000000000000000e+00
0.000000000000000e+00 0.000000000000000e+00 0.000000000000000e+00

0.000000000000000e+00 0.000000000000000e+00 0.000000000000000e+00
0.000000000000000e+00 0.000000000000000e+00 0.000000000000000e+00
0.000000000000000e+00 0.000000000000000e+00 0.000000000000000e+00

0.000000000000000e+00 0.000000000000000e+00 0.000000000000000e+00
0.000000000000000e+00 0.000000000000000e+00 0.000000000000000e+00
0.000000000000000e+00 0.000000000000000e+00 0.000000000000000e+00

0.000000000000000e+00 0.000000000000000e+00 0.000000000000000e+00
0.000000000000000e+00 0.000000000000000e+00 0.000000000000000e+00
0.000000000000000e+00 0.000000000000000e+00 0.000000000000000e+00

0.000000000000000e+00 0.000000000000000e+00 0.000000000000000e+00
0.000000000000000e+00 0.000000000000000e+00 0.000000000000000e+00
0.000000000000000e+00 0.000000000000000e+00 0.000000000000000e+00

0.000000000000000e+00 0.000000000000000e+00 0.000000000000000e+00
0.000000000000000e+00 0.000000000000000e+00 0.000000000000000e+00
0.000000000000000e+00 0.000000000000000e+00 0.000000000000000e+00

0.000000000000000e+00 0.000000000000000e+00 0.000000000000000e+00
0.000000000000000e+00 0.000000000000000e+00 0.000000000000000e+00
0.000000000000000e+00 0.000000000000000e+00 0.000000000000000e+00

0.000000000000000e+00 0.000000000000000e+00 0.000000000000000e+00
0.000000000000000e+00 0.000000000000000e+00 0.000000000000000e+00
0.000000000000000e+00 0.000000000000000e+00 0.000000000000000e+00

0.000000000000000e+00 0.000000000000000e+00 0.000000000000000e+00
0.000000000000000e+00 0.000000000000000e+00 0.000000000000000e+00
0.000000000000000e+00 0.000000000000000e+00 0.000000000000000e+00

0.000000000000000e+00 0.000000000000000e+00 0.000000000000000e+00
0.000000000000000e+00 0.000000000000000e+00 0.000000000000000e+00
0.000000000000000e+00 0.000000000000000e+00 0.000000000000000e+00

0.000000000000000e+00 0.000000000000000e+00 0.000000000000000e+00
0.000000000000000e+00 0.000000000000000e+00 0.000000000000000e+00
0.000000000000000e+00 0.000000000000000e+00 0.000000000000000e+00

0.000000000000000e+00 0.000000000000000e+00 0.000000000000000e+00
0.000000000000000e+00 0.000000000000000e+00 0.000000000000000e+00
0.000000000000000e+00 0.000000000000000e+00 0.000000000000000e+00

0.000000000000000e+00 0.000000000000000e+00 0.000000000000000e+00
0.000000000000000e+00 0.000000000000000e+00 0.000000000000000e+00
0.000000000000000e+00 0.000000000000000e+00 0.000000000000000e+00

0.000000000000000e+00 0.000000000000000e+00 0.000000000000000e+00
0.000000000000000e+00 0.000000000000000e+00 0.000000000000000e+00
0.000000000000000e+00 0.000000000000000e+00 0.000000000000000e+00

0.000000000000000e+00 0.000000000000000e+00 0.000000000000000e+00
0.000000000000000e+00 0.000000000000000e+00 0.000000000000000e+00
0.000000000000000e+00 0.000000000000000e+00 0.000000000000000e+00

0.000000000000000e+00 0.000000000000000e+00 0.000000000000000e+00
0.000000000000000e+00 0.000000000000000e+00 0.000000000000000e+00
0.000000000000000e+00 0.000000000000000e+00 0.000000000000000e+00

0.000000000000000e+00 0.000000000000000e+00 0.000000000000000e+00
0.000000000000000e+00 0.000000000000000e+00 0.000000000000000e+00
0.000000000000000e+00 0.000000000000000e+00 0.000000000000000e+00

0.000000000000000e+00 0.000000000000000e+00 0.000000000000000e+00
0.000000000000000e+00 0.000000000000000e+00 0.000000000000000e+00
0.000000000000000e+00 0.000000000000000e+00 0.000000000000000e+00

0.000000000000000e+00 0.000000000000000e+00 0.000000000000000e+00
0.000000000000000e+00 0.000000000000000e+00 0.000000000000000e+00
0.000000000000000e+00 0.000000000000000e+00 0.000000000000000e+00

0.000000000000000e+00 0.000000000000000e+00 0.000000000000000e+00
0.000000000000000e+00 0.000000000000000e+00 0.000000000000000e+00
0.000000000000000e+00 0.000000000000000e+00 0.000000000000000e+00

0.000000000000000e+00 0.000000000000000e+00 0.000000000000000e+00
0.000000000000000e+00 0.000000000000000e+00 0.000000000000000e+00
0.000000000000000e+00 0.000000000000000e+00 0.000000000000000e+00

0.000000000000000e+00 0.000000000000000e+00 0.000000000000000e+00
0.000000000000000e+00 0.000000000000000e+00 0.000000000000000e+00
0.000000000000000e+00 0.000000000000000e+00 0.000000000000000e+00

0.000000000000000e+00 0.000000000000000e+00 0.000000000000000e+00
0.000000000000000e+00 0.000000000000000e+00 0.000000000000000e+00
0.000000000000000e+00 0.000000000000000e+00 0.000000000000000e+00

0.000000000000000e+00 0.000000000000000e+00 0.000000000000000e+00
0.000000000000000e+00 0.000000000000000e+00 0.000000000000000e+00
0.000000000000000e+00 0.000000000000000e+00 0.000000000000000e+00

0.000000000000000e+00 0.000000000000000e+00 0.000000000000000e+00
0.000000000000000e+00 0.000000000000000e+00 0.000000000000000e+00
0.000000000000000e+00 0.000000000000000e+00 0.000000000000000e+00

0.000000000000000e+00 0.000000000000000e+00 0.000000000000000e+00
0.000000000000000e+00 0.000000000000000e+00 0.000000000000000e+00
0.000000000000000e+00 0.000000000000000e+00 0.000000000000000e+00

0.000000000000000e+00 0.000000000000000e+00 0.000000000000000e+00
0.000000000000000e+00 0.000000000000000e+00 0.000000000000000e+00
0.000000000000000e+00 0.000000000000000e+00 0.000000000000000e+00

0.000000000000000e+00 0.000000000000000e+00 0.000000000000000e+00
0.000000000000000e+00 0.000000000000000e+00 0.000000000000000e+00
0.000000000000000e+00 0.000000000000000e+00 0.000000000000000e+00

0.000000000000000e+00 0.000000000000000e+00 0.000000000000000e+00
0.000000000000000e+00 0.000000000000000e+00 0.000000000000000e+00
0.000000000000000e+00 0.000000000000000e+00 0.000000000000000e+00

0.000000000000000e+00 0.000000000000000e+00 0.000000000000000e+00
0.000000000000000e+00 0.000000000000000e+00 0.000000000000000e+00
0.000000000000000e+00 0.000000000000000e+00 0.000000000000000e+00

0.000000000000000e+00 0.000000000000000e+00 0.000000000000000e+00
0.000000000000000e+00 0.000000000000000e+00 0.000000000000000e+00
0.000000000000000e+00 0.000000000000000e+00 0.000000000000000e+00

0.000000000000000e+00 0.000000000000000e+00 0.000000000000000e+00
0.000000000000000e+00 0.000000000000000e+00 0.000000000000000e+00
0.000000000000000e+00 0.000000000000000e+00 0.000000000000000e+00

0.000000000000000e+00 0.000000000000000e+00 0.000000000000000e+00
0.000000000000000e+00 0.000000000000000e+00 0.000000000000000e+00
0.000000000000000e+00 0.000000000000000e+00 0.000000000000000e+00

0.000000000000000e+00 0.000000000000000e+00 0.000000000000000e+00
0.000000000000000e+00 0.000000000000000e+00 0.000000000000000e+00
0.000000000000000e+00 0.000000000000000e+00 0.000000000000000e+00

0.000000000000000e+00 0.000000000000000e+00 0.000000000000000e+00
0.000000000000000e+00 0.000000000000000e+00 0.000000000000000e+00
0.000000000000000e+00 0.000000000000000e+00 0.000000000000000e+00

0.000000000000000e+00 0.000000000000000e+00 0.000000000000000e+00
0.000000000000000e+00 0.000000000000000e+00 0.000000000000000e+00
0.000000000000000e+00 0.000000000000000e+00 0.000000000000000e+00

0.000000000000000e+00 0.000000000000000e+00 0.000000000000000e+00
0.000000000000000e+00 0.000000000000000e+00 0.000000000000000e+00
0.000000000000000e+00 0.000000000000000e+00 0.000000000000000e+00

0.000000000000000e+00 0.000000000000000e+00 0.000000000000000e+00
0.000000000000000e+00 0.000000000000000e+00 0.000000000000000e+00
0.000000000000000e+00 0.000000000000000e+00 0.000000000000000e+00

0.000000000000000e+00 0.000000000000000e+00 0.000000000000000e+00
0.000000000000000e+00 0.000000000000000e+00 0.000000000000000e+00
0.000000000000000e+00 0.000000000000000e+00 0.000000000000000e+00

0.000000000000000e+00 0.000000000000000e+00 0.000000000000000e+00
0.000000000000000e+00 0.000000000000000e+00 0.000000000000000e+00
0.000000000000000e+00 0.000000000000000e+00 0.000000000000000e+00

0.000000000000000e+00 0.000000000000000e+00 0.000000000000000e+00
0.000000000000000e+00 0.000000000000000e+00 0.000000000000000e+00
0.000000000000000e+00 0.000000000000000e+00 0.000000000000000e+00

0.000000000000000e+00 0.000000000000000e+00 0.000000000000000e+00
0.000000000000000e+00 0.000000000000000e+00 0.000000000000000e+00
0.000000000000000e+00 0.000000000000000e+00 0.000000000000000e+00

0.000000000000000e+00 0.000000000000000e+00 0.000000000000000e+00
0.000000000000000e+00 0.000000000000000e+00 0.000000000000000e+00
0.000000000000000e+00 0.000000000000000e+00 0.000000000000000e+00

0.000000000000000e+00 0.000000000000000e+00 0.000000000000000e+00
0.000000000000000e+00 0.000000000000000e+00 0.000000000000000e+00
0.000000000000000e+00 0.000000000000000e+00 0.000000000000000e+00

0.000000000000000e+00 0.000000000000000e+00 0.000000000000000e+00
0.000000000000000e+00 0.000000000000000e+00 0.000000000000000e+00
0.000000000000000e+00 0.000000000000000e+00 0.000000000000000e+00

0.000000000000000e+00 0.000000000000000e+00 0.000000000000000e+00
0.000000000000000e+00 0.000000000000000e+00 0.000000000000000e+00
0.000000000000000e+00 0.000000000000000e+00 0.000000000000000e+00

0.000000000000000e+00 0.000000000000000e+00 0.000000000000000e+00
0.000000000000000e+00 0.000000000000000e+00 0.000000000000000e+00
0.000000000000000e+00 0.000000000000000e+00 0.000000000000000e+00

0.000000000000000e+00 0.000000000000000e+00 0.000000000000000e+00
0.000000000000000e+00 0.000000000000000e+00 0.000000000000000e+00
0.000000000000000e+00 0.000000000000000e+00 0.000000000000000e+00

0.000000000000000e+00 0.000000000000000e+00 0.000000000000000e+00
0.000000000000000e+00 0.000000000000000e+00 0.000000000000000e+00
0.000000000000000e+00 0.000000000000000e+00 0.000000000000000e+00

0.000000000000000e+00 0.000000000000000e+00 0.000000000000000e+00
0.000000000000000e+00 0.000000000000000e+00 0.000000000000000e+00
0.000000000000000e+00 0.000000000000000e+00 0.000000000000000e+00

0.000000000000000e+00 0.000000000000000e+00 0.000000000000000e+00
0.000000000000000e+00 0.000000000000000e+00 0.000000000000000e+00
0.000000000000000e+00 0.000000000000000e+00 0.000000000000000e+00

0.000000000000000e+00 0.000000000000000e+00 0.000000000000000e+00
0.000000000000000e+00 0.000000000000000e+00 0.000000000000000e+00
0.000000000000000e+00 0.000000000000000e+00 0.000000000000000e+00

0.000000000000000e+00 0.000000000000000e+00 0.000000000000000e+00
0.000000000000000e+00 0.000000000000000e+00 0.000000000000000e+00
0.000000000000000e+00 0.000000000000000e+00 0.000000000000000e+00

0.000000000000000e+00 0.000000000000000e+00 0.000000000000000e+00
0.000000000000000e+00 0.000000000000000e+00 0.000000000000000e+00
0.000000000000000e+00 0.000000000000000e+00 0.000000000000000e+00

0.000000000000000e+00 0.000000000000000e+00 0.000000000000000e+00
0.000000000000000e+00 0.000000000000000e+00 0.000000000000000e+00
0.000000000000000e+00 0.000000000000000e+00 0.000000000000000e+00

0.000000000000000e+00 0.000000000000000e+00 0.000000000000000e+00
0.000000000000000e+00 0.000000000000000e+00 0.000000000000000e+00
0.000000000000000e+00 0.000000000000000e+00 0.000000000000000e+00

0.000000000000000e+00 0.000000000000000e+00 0.000000000000000e+00
0.000000000000000e+00 0.000000000000000e+00 0.000000000000000e+00
0.000000000000000e+00 0.000000000000000e+00 0.000000000000000e+00

0.000000000000000e+00 0.000000000000000e+00 0.000000000000000e+00
0.000000000000000e+00 0.000000000000000e+00 0.000000000000000e+00
0.000000000000000e+00 0.000000000000000e+00 0.000000000000000e+00

0.000000000000000e+00 0.000000000000000e+00 0.000000000000000e+00
0.000000000000000e+00 0.000000000000000e+00 0.000000000000000e+00
0.000000000000000e+00 0.000000000000000e+00 0.000000000000000e+00

0.000000000000000e+00 0.000000000000000e+00 0.000000000000000e+00
0.000000000000000e+00 0.000000000000000e+00 0.000000000000000e+00
0.000000000000000e+00 0.000000000000000e+00 0.000000000000000e+00

0.000000000000000e+00 0.000000000000000e+00 0.000000000000000e+00
0.000000000000000e+00 0.000000000000000e+00 0.000000000000000e+00
0.000000000000000e+00 0.000000000000000e+00 0.000000000000000e+00

0.000000000000000e+00 0.000000000000000e+00 0.000000000000000e+00
0.000000000000000e+00 0.000000000000000e+00 0.000000000000000e+00
0.000000000000000e+00 0.000000000000000e+00 0.000000000000000e+00

0.000000000000000e+00 0.000000000000000e+00 0.000000000000000e+00
0.000000000000000e+00 0.000000000000000e+00 0.000000000000000e+00
0.000000000000000e+00 0.000000000000000e+00 0.000000000000000e+00

0.000000000000000e+00 0.000000000000000e+00 0.000000000000000e+00
0.000000000000000e+00 0.000000000000000e+00 0.000000000000000e+00
0.000000000000000e+00 0.000000000000000e+00 0.000000000000000e+00

0.000000000000000e+00 0.000000000000000e+00 0.000000000000000e+00
0.000000000000000e+00 0.000000000000000e+00 0.000000000000000e+00
0.000000000000000e+00 0.000000000000000e+00 0.000000000000000e+00

0.000000000000000e+00 0.000000000000000e+00 0.000000000000000e+00
0.000000000000000e+00 0.000000000000000e+00 0.000000000000000e+00
0.000000000000000e+00 0.000000000000000e+00 0.000000000000000e+00

0.000000000000000e+00 0.000000000000000e+00 0.000000000000000e+00
0.000000000000000e+00 0.000000000000000e+00 0.000000000000000e+00
0.000000000000000e+00 0.000000000000000e+00 0.000000000000000e+00

0.000000000000000e+00 0.000000000000000e+00 0.000000000000000e+00
0.000000000000000e+00 0.000000000000000e+00 0.000000000000000e+00
0.000000000000000e+00 0.000000000000000e+00 0.000000000000000e+00

0.000000000000000e+00 0.000000000000000e+00 0.000000000000000e+00
0.000000000000000e+00 0.000000000000000e+00 0.000000000000000e+00
0.000000000000000e+00 0.000000000000000e+00 0.000000000000000e+00

0.000000000000000e+00 0.000000000000000e+00 0.000000000000000e+00
0.000000000000000e+00 0.000000000000000e+00 0.000000000000000e+00
0.000000000000000e+00 0.000000000000000e+00 0.000000000000000e+00

0.000000000000000e+00 0.000000000000000e+00 0.000000000000000e+00
0.000000000000000e+00 0.000000000000000e+00 0.000000000000000e+00
0.000000000000000e+00 0.000000000000000e+00 0.000000000000000e+00

0.000000000000000e+00 0.000000000000000e+00 0.000000000000000e+00
0.000000000000000e+00 0.000000000000000e+00 0.000000000000000e+00
0.000000000000000e+00 0.000000000000000e+00 0.000000000000000e+00

0.000000000000000e+00 0.000000000000000e+00 0.000000000000000e+00
0.000000000000000e+00 0.000000000000000e+00 0.000000000000000e+00
0.000000000000000e+00 0.000000000000000e+00 0.000000000000000e+00

0.000000000000000e+00 0.000000000000000e+00 0.000000000000000e+00
0.000000000000000e+00 0.000000000000000e+00 0.000000000000000e+00
0.000000000000000e+00 0.000000000000000e+00 0.000000000000000e+00

0.000000000000000e+00 0.000000000000000e+00 0.000000000000000e+00
0.000000000000000e+00 0.000000000000000e+00 0.000000000000000e+00
0.000000000000000e+00 0.000000000000000e+00 0.000000000000000e+00

0.000000000000000e+00 0.000000000000000e+00 0.000000000000000e+00
0.000000000000000e+00 0.000000000000000e+00 0.000000000000000e+00
0.000000000000000e+00 0.000000000000000e+00 0.000000000000000e+00

0.000000000000000e+00 0.000000000000000e+00 0.000000000000000e+00
0.000000000000000e+00 0.000000000000000e+00 0.000000000000000e+00
0.000000000000000e+00 0.000000000000000e+00 0.000000000000000e+00

0.000000000000000e+00 0.000000000000000e+00 0.000000000000000e+00
0.000000000000000e+00 0.000000000000000e+00 0.000000000000000e+00
0.000000000000000e+00 0.000000000000000e+00 0.000000000000000e+00

0.000000000000000e+00 0.000000000000000e+00 0.000000000000000e+00
0.000000000000000e+00 0.000000000000000e+00 0.000000000000000e+00
0.000000000000000e+00 0.000000000000000e+00 0.000000000000000e+00

0.000000000000000e+00 0.000000000000000e+00 0.000000000000000e+00
0.000000000000000e+00 0.000000000000000e+00 0.000000000000000e+00
0.000000000000000e+00 0.000000000000000e+00 0.000000000000000e+00

0.000000000000000e+00 0.000000000000000e+00 0.000000000000000e+00
0.000000000000000e+00 0.000000000000000e+00 0.000000000000000e+00
0.000000000000000e+00 0.000000000000000e+00 0.000000000000000e+00

0.000000000000000e+00 0.000000000000000e+00 0.000000000000000e+00
0.000000000000000e+00 0.000000000000000e+00 0.000000000000000e+00
0.000000000000000e+00 0.000000000000000e+00 0.000000000000000e+00

0.000000000000000e+00 0.000000000000000e+00 0.000000000000000e+00
0.000000000000000e+00 0.000000000000000e+00 0.000000000000000e+00
0.000000000000000e+00 0.000000000000000e+00 0.000000000000000e+00

0.000000000000000e+00 0.000000000000000e+00 0.000000000000000e+00
0.000000000000000e+00 0.000000000000000e+00 0.000000000000000e+00
0.000000000000000e+00 0.000000000000000e+00 0.000000000000000e+00

0.000000000000000e+00 0.000000000000000e+00 0.000000000000000e+00
0.000000000000000e+00 0.000000000000000e+00 0.000000000000000e+00
0.000000000000000e+00 0.000000000000000e+00 0.000000000000000e+00

0.000000000000000e+00 0.000000000000000e+00 0.000000000000000e+00
0.000000000000000e+00 0.000000000000000e+00 0.000000000000000e+00
0.000000000000000e+00 0.000000000000000e+00 0.000000000000000e+00

0.000000000000000e+00 0.000000000000000e+00 0.000000000000000e+00
0.000000000000000e+00 0.000000000000000e+00 0.000000000000000e+00
0.000000000000000e+00 0.000000000000000e+00 0.000000000000000e+00

0.000000000000000e+00 0.000000000000000e+00 0.000000000000000e+00
0.000000000000000e+00 0.000000000000000e+00 0.000000000000000e+00
0.000000000000000e+00 0.000000000000000e+00 0.000000000000000e+00

0.000000000000000e+00 0.000000000000000e+00 0.000000000000000e+00
0.000000000000000e+00 0.000000000000000e+00 0.000000000000000e+00
0.000000000000000e+00 0.000000000000000e+00 0.000000000000000e+00

0.000000000000000e+00 0.000000000000000e+00 0.000000000000000e+00
0.000000000000000e+00 0.000000000000000e+00 0.000000000000000e+00
0.000000000000000e+00 0.000000000000000e+00 0.000000000000000e+00

0.000000000000000e+00 0.000000000000000e+00 0.000000000000000e+00
0.000000000000000e+00 0.000000000000000e+00 0.000000000000000e+00
0.000000000000000e+00 0.000000000000000e+00 0.000000000000000e+00

0.000000000000000e+00 0.000000000000000e+00 0.000000000000000e+00
0.000000000000000e+00 0.000000000000000e+00 0.000000000000000e+00
0.000000000000000e+00 0.000000000000000e+00 0.000000000000000e+00

0.000000000000000e+00 0.000000000000000e+00 0.000000000000000e+00
0.000000000000000e+00 0.000000000000000e+00 0.000000000000000e+00
0.000000000000000e+00 0.000000000000000e+00 0.000000000000000e+00

0.000000000000000e+00 0.000000000000000e+00 0.000000000000000e+00
0.000000000000000e+00 0.000000000000000e+00 0.000000000000000e+00
0.000000000000000e+00 0.000000000000000e+00 0.000000000000000e+00

0.000000000000000e+00 0.000000000000000e+00 0.000000000000000e+00
0.000000000000000e+00 0.000000000000000e+00 0.000000000000000e+00
0.000000000000000e+00 0.000000000000000e+00 0.000000000000000e+00

0.000000000000000e+00 0.000000000000000e+00 0.000000000000000e+00
0.000000000000000e+00 0.000000000000000e+00 0.000000000000000e+00
0.000000000000000e+00 0.000000000000000e+00 0.000000000000000e+00

0.000000000000000e+00 0.000000000000000e+00 0.000000000000000e+00
0.000000000000000e+00 0.000000000000000e+00 0.000000000000000e+00
0.000000000000000e+00 0.000000000000000e+00 0.000000000000000e+00

0.000000000000000e+00 0.000000000000000e+00 0.000000000000000e+00
0.000000000000000e+00 0.000000000000000e+00 0.000000000000000e+00
0.000000000000000e+00 0.000000000000000e+00 0.000000000000000e+00

0.000000000000000e+00 0.000000000000000e+00 0.000000000000000e+00
0.000000000000000e+00 0.000000000000000e+00 0.000000000000000e+00
0.000000000000000e+00 0.000000000000000e+00 0.000000000000000e+00

0.000000000000000e+00 0.000000000000000e+00 0.000000000000000e+00
0.000000000000000e+00 0.000000000000000e+00 0.000000000000000e+00
0.000000000000000e+00 0.000000000000000e+00 0.000000000000000e+00

0.000000000000000e+00 0.000000000000000e+00 0.000000000000000e+00
0.000000000000000e+00 0.000000000000000e+00 0.000000000000000e+00
0.000000000000000e+00 0.000000000000000e+00 0.000000000000000e+00

0.000000000000000e+00 0.000000000000000e+00 0.000000000000000e+00
0.000000000000000e+00 0.000000000000000e+00 0.000000000000000e+00
0.000000000000000e+00 0.000000000000000e+00 0.000000000000000e+00

0.000000000000000e+00 0.000000000000000e+00 0.000000000000000e+00
0.000000000000000e+00 0.000000000000000e+00 0.000000000000000e+00
0.000000000000000e+00 0.000000000000000e+00 0.000000000000000e+00

0.000000000000000e+00 0.000000000000000e+00 0.000000000000000e+00
0.000000000000000e+00 0.000000000000000e+00 0.000000000000000e+00
0.000000000000000e+00 0.000000000000000e+00 0.000000000000000e+00

0.000000000000000e+00 0.000000000000000e+00 0.000000000000000e+00
0.000000000000000e+00 0.000000000000000e+00 0.000000000000000e+00
0.000000000000000e+00 0.000000000000000e+00 0.000000000000000e+00

0.000000000000000e+00 0.000000000000000e+00 0.000000000000000e+00
0.000000000000000e+00 0.000000000000000e+00 0.000000000000000e+00
0.000000000000000e+00 0.000000000000000e+00 0.000000000000000e+00

0.000000000000000e+00 0.000000000000000e+00 0.000000000000000e+00
0.000000000000000e+00 0.000000000000000e+00 0.000000000000000e+00
0.000000000000000e+00 0.000000000000000e+00 0.000000000000000e+00

0.000000000000000e+00 0.000000000000000e+00 0.000000000000000e+00
0.000000000000000e+00 0.000000000000000e+00 0.000000000000000e+00
0.000000000000000e+00 0.000000000000000e+00 0.000000000000000e+00

0.000000000000000e+00 0.000000000000000e+00 0.000000000000000e+00
0.000000000000000e+00 0.000000000000000e+00 0.000000000000000e+00
0.000000000000000e+00 0.000000000000000e+00 0.000000000000000e+00

0.000000000000000e+00 0.000000000000000e+00 0.000000000000000e+00
0.000000000000000e+00 0.000000000000000e+00 0.000000000000000e+00
0.000000000000000e+00 0.000000000000000e+00 0.000000000000000e+00

0.000000000000000e+00 0.000000000000000e+00 0.000000000000000e+00
0.000000000000000e+00 0.000000000000000e+00 0.000000000000000e+00
0.000000000000000e+00 0.000000000000000e+00 0.000000000000000e+00

0.000000000000000e+00 0.000000000000000e+00 0.000000000000000e+00
0.000000000000000e+00 0.000000000000000e+00 0.000000000000000e+00
0.000000000000000e+00 0.000000000000000e+00 0.000000000000000e+00

0.000000000000000e+00 0.000000000000000e+00 0.000000000000000e+00
0.000000000000000e+00 0.000000000000000e+00 0.000000000000000e+00
0.000000000000000e+00 0.000000000000000e+00 0.000000000000000e+00

0.000000000000000e+00 0.000000000000000e+00 0.000000000000000e+00
0.000000000000000e+00 0.000000000000000e+00 0.000000000000000e+00
0.000000000000000e+00 0.000000000000000e+00 0.000000000000000e+00

0.000000000000000e+00 0.000000000000000e+00 0.000000000000000e+00
0.000000000000000e+00 0.000000000000000e+00 0.000000000000000e+00
0.000000000000000e+00 0.000000000000000e+00 0.000000000000000e+00

0.000000000000000e+00 0.000000000000000e+00 0.000000000000000e+00
0.000000000000000e+00 0.000000000000000e+00 0.000000000000000e+00
0.000000000000000e+00 0.000000000000000e+00 0.000000000000000e+00

0.000000000000000e+00 0.000000000000000e+00 0.000000000000000e+00
0.000000000000000e+00 0.000000000000000e+00 0.000000000000000e+00
0.000000000000000e+00 0.000000000000000e+00 0.000000000000000e+00

0.000000000000000e+00 0.000000000000000e+00 0.000000000000000e+00
0.000000000000000e+00 0.000000000000000e+00 0.000000000000000e+00
0.000000000000000e+00 0.000000000000000e+00 0.000000000000000e+00

0.000000000000000e+00 0.000000000000000e+00 0.000000000000000e+00
0.000000000000000e+00 0.000000000000000e+00 0.000000000000000e+00
0.000000000000000e+00 0.000000000000000e+00 0.000000000000000e+00

0.000000000000000e+00 0.000000000000000e+00 0.000000000000000e+00
0.000000000000000e+00 0.000000000000000e+00 0.000000000000000e+00
0.000000000000000e+00 0.000000000000000e+00 0.000000000000000e+00

0.000000000000000e+00 0.000000000000000e+00 0.000000000000000e+00
0.000000000000000e+00 0.000000000000000e+00 0.000000000000000e+00
0.000000000000000e+00 0.000000000000000e+00 0.000000000000000e+00

0.000000000000000e+00 0.000000000000000e+00 0.000000000000000e+00
0.000000000000000e+00 0.000000000000000e+00 0.000000000000000e+00
0.000000000000000e+00 0.000000000000000e+00 0.000000000000000e+00

0.000000000000000e+00 0.000000000000000e+00 0.000000000000000e+00
0.000000000000000e+00 0.000000000000000e+00 0.000000000000000e+00
0.000000000000000e+00 0.000000000000000e+00 0.000000000000000e+00

0.000000000000000e+00 0.000000000000000e+00 0.000000000000000e+00
0.000000000000000e+00 0.000000000000000e+00 0.000000000000000e+00
0.000000000000000e+00 0.000000000000000e+00 0.000000000000000e+00

0.000000000000000e+00 0.000000000000000e+00 0.000000000000000e+00
0.000000000000000e+00 0.000000000000000e+00 0.000000000000000e+00
0.000000000000000e+00 0.000000000000000e+00 0.000000000000000e+00

0.000000000000000e+00 0.000000000000000e+00 0.000000000000000e+00
0.000000000000000e+00 0.000000000000000e+00 0.000000000000000e+00
0.000000000000000e+00 0.000000000000000e+00 0.000000000000000e+00

0.000000000000000e+00 0.000000000000000e+00 0.000000000000000e+00
0.000000000000000e+00 0.000000000000000e+00 0.000000000000000e+00
0.000000000000000e+00 0.000000000000000e+00 0.000000000000000e+00

0.000000000000000e+00 0.000000000000000e+00 0.000000000000000e+00
0.000000000000000e+00 0.000000000000000e+00 0.000000000000000e+00
0.000000000000000e+00 0.000000000000000e+00 0.000000000000000e+00

0.000000000000000e+00 0.000000000000000e+00 0.000000000000000e+00
0.000000000000000e+00 0.000000000000000e+00 0.000000000000000e+00
0.000000000000000e+00 0.000000000000000e+00 0.000000000000000e+00

0.000000000000000e+00 0.000000000000000e+00 0.000000000000000e+00
0.000000000000000e+00 0.000000000000000e+00 0.000000000000000e+00
0.000000000000000e+00 0.000000000000000e+00 0.000000000000000e+00

0.000000000000000e+00 0.000000000000000e+00 0.000000000000000e+00
0.000000000000000e+00 0.000000000000000e+00 0.000000000000000e+00
0.000000000000000e+00 0.000000000000000e+00 0.000000000000000e+00

0.000000000000000e+00 0.000000000000000e+00 0.000000000000000e+00
0.000000000000000e+00 0.000000000000000e+00 0.000000000000000e+00
0.000000000000000e+00 0.000000000000000e+00 0.000000000000000e+00

0.000000000000000e+00 0.000000000000000e+00 0.000000000000000e+00
0.000000000000000e+00 0.000000000000000e+00 0.000000000000000e+00
0.000000000000000e+00 0.000000000000000e+00 0.000000000000000e+00

0.000000000000000e+00 0.000000000000000e+00 0.000000000000000e+00
0.000000000000000e+00 0.000000000000000e+00 0.000000000000000e+00
0.000000000000000e+00 0.000000000000000e+00 0.000000000000000e+00

0.000000000000000e+00 0.000000000000000e+00 0.000000000000000e+00
0.000000000000000e+00 0.000000000000000e+00 0.000000000000000e+00
0.000000000000000e+00 0.000000000000000e+00 0.000000000000000e+00

0.000000000000000e+00 0.000000000000000e+00 0.000000000000000e+00
0.000000000000000e+00 0.000000000000000e+00 0.000000000000000e+00
0.000000000000000e+00 0.000000000000000e+00 0.000000000000000e+00

0.000000000000000e+00 0.000000000000000e+00 0.000000000000000e+00
0.000000000000000e+00 0.000000000000000e+00 0.000000000000000e+00
0.000000000000000e+00 0.000000000000000e+00 0.000000000000000e+00

0.000000000000000e+00 0.000000000000000e+00 0.000000000000000e+00
0.000000000000000e+00 0.000000000000000e+00 0.000000000000000e+00
0.000000000000000e+00 0.000000000000000e+00 0.000000000000000e+00

0.000000000000000e+00 0.000000000000000e+00 0.000000000000000e+00
0.000000000000000e+00 0.000000000000000e+00 0.000000000000000e+00
0.000000000000000e+00 0.000000000000000e+00 0.000000000000000e+00

0.000000000000000e+00 0.000000000000000e+00 0.000000000000000e+00
0.000000000000000e+00 0.000000000000000e+00 0.000000000000000e+00
0.000000000000000e+00 0.000000000000000e+00 0.000000000000000e+00

0.000000000000000e+00 0.000000000000000e+00 0.000000000000000e+00
0.000000000000000e+00 0.000000000000000e+00 0.000000000000000e+00
0.000000000000000e+00 0.000000000000000e+00 0.000000000000000e+00

0.000000000000000e+00 0.000000000000000e+00 0.000000000000000e+00
0.000000000000000e+00 0.000000000000000e+00 0.000000000000000e+00
0.000000000000000e+00 0.000000000000000e+00 0.000000000000000e+00

0.000000000000000e+00 0.000000000000000e+00 0.000000000000000e+00
0.000000000000000e+00 0.000000000000000e+00 0.000000000000000e+00
0.000000000000000e+00 0.000000000000000e+00 0.000000000000000e+00

0.000000000000000e+00 0.000000000000000e+00 0.000000000000000e+00
0.000000000000000e+00 0.000000000000000e+00 0.000000000000000e+00
0.000000000000000e+00 0.000000000000000e+00 0.000000000000000e+00

0.000000000000000e+00 0.000000000000000e+00 0.000000000000000e+00
0.000000000000000e+00 0.000000000000000e+00 0.000000000000000e+00
0.000000000000000e+00 0.000000000000000e+00 0.000000000000000e+00

0.000000000000000e+00 0.000000000000000e+00 0.000000000000000e+00
0.000000000000000e+00 0.000000000000000e+00 0.000000000000000e+00
0.000000000000000e+00 0.000000000000000e+00 0.000000000000000e+00

0.000000000000000e+00 0.000000000000000e+00 0.000000000000000e+00
0.000000000000000e+00 0.000000000000000e+00 0.000000000000000e+00
0.000000000000000e+00 0.000000000000000e+00 0.000000000000000e+00

0.000000000000000e+00 0.000000000000000e+00 0.000000000000000e+00
0.000000000000000e+00 0.000000000000000e+00 0.000000000000000e+00
0.000000000000000e+00 0.000000000000000e+00 0.000000000000000e+00

0.000000000000000e+00 0.000000000000000e+00 0.000000000000000e+00
0.000000000000000e+00 0.000000000000000e+00 0.000000000000000e+00
0.000000000000000e+00 0.000000000000000e+00 0.000000000000000e+00

0.000000000000000e+00 0.000000000000000e+00 0.000000000000000e+00
0.000000000000000e+00 0.000000000000000e+00 0.000000000000000e+00
0.000000000000000e+00 0.000000000000000e+00 0.000000000000000e+00

0.000000000000000e+00 0.000000000000000e+00 0.000000000000000e+00
0.000000000000000e+00 0.000000000000000e+00 0.000000000000000e+00
0.000000000000000e+00 0.000000000000000e+00 0.000000000000000e+00

0.000000000000000e+00 0.000000000000000e+00 0.000000000000000e+00
0.000000000000000e+00 0.000000000000000e+00 0.000000000000000e+00
0.000000000000000e+00 0.000000000000000e+00 0.000000000000000e+00

0.000000000000000e+00 0.000000000000000e+00 0.000000000000000e+00
0.000000000000000e+00 0.000000000000000e+00 0.000000000000000e+00
0.000000000000000e+00 0.000000000000000e+00 0.000000000000000e+00

0.000000000000000e+00 0.000000000000000e+00 0.000000000000000e+00
0.000000000000000e+00 0.000000000000000e+00 0.000000000000000e+00
0.000000000000000e+00 0.000000000000000e+00 0.000000000000000e+00

0.000000000000000e+00 0.000000000000000e+00 0.000000000000000e+00
0.000000000000000e+00 0.000000000000000e+00 0.000000000000000e+00
0.000000000000000e+00 0.000000000000000e+00 0.000000000000000e+00

0.000000000000000e+00 0.000000000000000e+00 0.000000000000000e+00
0.000000000000000e+00 0.000000000000000e+00 0.000000000000000e+00
0.000000000000000e+00 0.000000000000000e+00 0.000000000000000e+00

0.000000000000000e+00 0.000000000000000e+00 0.000000000000000e+00
0.000000000000000e+00 0.000000000000000e+00 0.000000000000000e+00
0.000000000000000e+00 0.000000000000000e+00 0.000000000000000e+00

0.000000000000000e+00 0.000000000000000e+00 0.000000000000000e+00
0.000000000000000e+00 0.000000000000000e+00 0.000000000000000e+00
0.000000000000000e+00 0.000000000000000e+00 0.000000000000000e+00

0.000000000000000e+00 0.000000000000000e+00 0.000000000000000e+00
0.000000000000000e+00 0.000000000000000e+00 0.000000000000000e+00
0.000000000000000e+00 0.000000000000000e+00 0.000000000000000e+00

0.000000000000000e+00 0.000000000000000e+00 0.000000000000000e+00
0.000000000000000e+00 0.000000000000000e+00 0.000000000000000e+00
0.000000000000000e+00 0.000000000000000e+00 0.000000000000000e+00

0.000000000000000e+00 0.000000000000000e+00 0.000000000000000e+00
0.000000000000000e+00 0.000000000000000e+00 0.000000000000000e+00
0.000000000000000e+00 0.000000000000000e+00 0.000000000000000e+00

0.000000000000000e+00 0.000000000000000e+00 0.000000000000000e+00
0.000000000000000e+00 0.000000000000000e+00 0.000000000000000e+00
0.000000000000000e+00 0.000000000000000e+00 0.000000000000000e+00

0.000000000000000e+00 0.000000000000000e+00 0.000000000000000e+00
0.000000000000000e+00 0.000000000000000e+00 0.000000000000000e+00
0.000000000000000e+00 0.000000000000000e+00 0.000000000000000e+00

0.000000000000000e+00 0.000000000000000e+00 0.000000000000000e+00
0.000000000000000e+00 0.000000000000000e+00 0.000000000000000e+00
0.000000000000000e+00 0.000000000000000e+00 0.000000000000000e+00

0.000000000000000e+00 0.000000000000000e+00 0.000000000000000e+00
0.000000000000000e+00 0.000000000000000e+00 0.000000000000000e+00
0.000000000000000e+00 0.000000000000000e+00 0.000000000000000e+00

0.000000000000000e+00 0.000000000000000e+00 0.000000000000000e+00
0.000000000000000e+00 0.000000000000000e+00 0.000000000000000e+00
0.000000000000000e+00 0.000000000000000e+00 0.000000000000000e+00

0.000000000000000e+00 0.000000000000000e+00 0.000000000000000e+00
0.000000000000000e+00 0.000000000000000e+00 0.000000000000000e+00
0.000000000000000e+00 0.000000000000000e+00 0.000000000000000e+00

0.000000000000000e+00 0.000000000000000e+00 0.000000000000000e+00
0.000000000000000e+00 0.000000000000000e+00 0.000000000000000e+00
0.000000000000000e+00 0.000000000000000e+00 0.000000000000000e+00

0.000000000000000e+00 0.000000000000000e+00 0.000000000000000e+00
0.000000000000000e+00 0.000000000000000e+00 0.000000000000000e+00
0.000000000000000e+00 0.000000000000000e+00 0.000000000000000e+00

0.000000000000000e+00 0.000000000000000e+00 0.000000000000000e+00
0.000000000000000e+00 0.000000000000000e+00 0.000000000000000e+00
0.000000000000000e+00 0.000000000000000e+00 0.000000000000000e+00

0.000000000000000e+00 0.000000000000000e+00 0.000000000000000e+00
0.000000000000000e+00 0.000000000000000e+00 0.000000000000000e+00
0.000000000000000e+00 0.000000000000000e+00 0.000000000000000e+00

0.000000000000000e+00 0.000000000000000e+00 0.000000000000000e+00
0.000000000000000e+00 0.000000000000000e+00 0.000000000000000e+00
0.000000000000000e+00 0.000000000000000e+00 0.000000000000000e+00

0.000000000000000e+00 0.000000000000000e+00 0.000000000000000e+00
0.000000000000000e+00 0.000000000000000e+00 0.000000000000000e+00
0.000000000000000e+00 0.000000000000000e+00 0.000000000000000e+00

0.000000000000000e+00 0.000000000000000e+00 0.000000000000000e+00
0.000000000000000e+00 0.000000000000000e+00 0.000000000000000e+00
0.000000000000000e+00 0.000000000000000e+00 0.000000000000000e+00

0.000000000000000e+00 0.000000000000000e+00 0.000000000000000e+00
0.000000000000000e+00 0.000000000000000e+00 0.000000000000000e+00
0.000000000000000e+00 0.000000000000000e+00 0.000000000000000e+00

0.000000000000000e+00 0.000000000000000e+00 0.000000000000000e+00
0.000000000000000e+00 0.000000000000000e+00 0.000000000000000e+00
0.000000000000000e+00 0.000000000000000e+00 0.000000000000000e+00

0.000000000000000e+00 0.000000000000000e+00 0.000000000000000e+00
0.000000000000000e+00 0.000000000000000e+00 0.000000000000000e+00
0.000000000000000e+00 0.000000000000000e+00 0.000000000000000e+00

0.000000000000000e+00 0.000000000000000e+00 0.000000000000000e+00
0.000000000000000e+00 0.000000000000000e+00 0.000000000000000e+00
0.000000000000000e+00 0.000000000000000e+00 0.000000000000000e+00

0.000000000000000e+00 0.000000000000000e+00 0.000000000000000e+00
0.000000000000000e+00 0.000000000000000e+00 0.000000000000000e+00
0.000000000000000e+00 0.000000000000000e+00 0.000000000000000e+00

0.000000000000000e+00 0.000000000000000e+00 0.000000000000000e+00
0.000000000000000e+00 0.000000000000000e+00 0.000000000000000e+00
0.000000000000000e+00 0.000000000000000e+00 0.000000000000000e+00

0.000000000000000e+00 0.000000000000000e+00 0.000000000000000e+00
0.000000000000000e+00 0.000000000000000e+00 0.000000000000000e+00
0.000000000000000e+00 0.000000000000000e+00 0.000000000000000e+00

0.000000000000000e+00 0.000000000000000e+00 0.000000000000000e+00
0.000000000000000e+00 0.000000000000000e+00 0.000000000000000e+00
0.000000000000000e+00 0.000000000000000e+00 0.000000000000000e+00

0.000000000000000e+00 0.000000000000000e+00 0.000000000000000e+00
0.000000000000000e+00 0.000000000000000e+00 0.000000000000000e+00
0.000000000000000e+00 0.000000000000000e+00 0.000000000000000e+00

0.000000000000000e+00 0.000000000000000e+00 0.000000000000000e+00
0.000000000000000e+00 0.000000000000000e+00 0.000000000000000e+00
0.000000000000000e+00 0.000000000000000e+00 0.000000000000000e+00

0.000000000000000e+00 0.000000000000000e+00 0.000000000000000e+00
0.000000000000000e+00 0.000000000000000e+00 0.000000000000000e+00
0.000000000000000e+00 0.000000000000000e+00 0.000000000000000e+00

0.000000000000000e+00 0.000000000000000e+00 0.000000000000000e+00
0.000000000000000e+00 0.000000000000000e+00 0.000000000000000e+00
0.000000000000000e+00 0.000000000000000e+00 0.000000000000000e+00

0.000000000000000e+00 0.000000000000000e+00 0.000000000000000e+00
0.000000000000000e+00 0.000000000000000e+00 0.000000000000000e+00
0.000000000000000e+00 0.000000000000000e+00 0.000000000000000e+00

0.000000000000000e+00 0.000000000000000e+00 0.000000000000000e+00
0.000000000000000e+00 0.000000000000000e+00 0.000000000000000e+00
0.000000000000000e+00 0.000000000000000e+00 0.000000000000000e+00

0.000000000000000e+00 0.000000000000000e+00 0.000000000000000e+00
0.000000000000000e+00 0.000000000000000e+00 0.000000000000000e+00
0.000000000000000e+00 0.000000000000000e+00 0.000000000000000e+00

0.000000000000000e+00 0.000000000000000e+00 0.000000000000000e+00
0.000000000000000e+00 0.000000000000000e+00 0.000000000000000e+00
0.000000000000000e+00 0.000000000000000e+00 0.000000000000000e+00

0.000000000000000e+00 0.000000000000000e+00 0.000000000000000e+00
0.000000000000000e+00 0.000000000000000e+00 0.000000000000000e+00
0.000000000000000e+00 0.000000000000000e+00 0.000000000000000e+00

0.000000000000000e+00 0.000000000000000e+00 0.000000000000000e+00
0.000000000000000e+00 0.000000000000000e+00 0.000000000000000e+00
0.000000000000000e+00 0.000000000000000e+00 0.000000000000000e+00

0.000000000000000e+00 0.000000000000000e+00 0.000000000000000e+00
0.000000000000000e+00 0.000000000000000e+00 0.000000000000000e+00
0.000000000000000e+00 0.000000000000000e+00 0.000000000000000e+00

0.000000000000000e+00 0.000000000000000e+00 0.000000000000000e+00
0.000000000000000e+00 0.000000000000000e+00 0.000000000000000e+00
0.000000000000000e+00 0.000000000000000e+00 0.000000000000000e+00

0.000000000000000e+00 0.000000000000000e+00 0.000000000000000e+00
0.000000000000000e+00 0.000000000000000e+00 0.000000000000000e+00
0.000000000000000e+00 0.000000000000000e+00 0.000000000000000e+00

0.000000000000000e+00 0.000000000000000e+00 0.000000000000000e+00
0.000000000000000e+00 0.000000000000000e+00 0.000000000000000e+00
0.000000000000000e+00 0.000000000000000e+00 0.000000000000000e+00

0.000000000000000e+00 0.000000000000000e+00 0.000000000000000e+00
0.000000000000000e+00 0.000000000000000e+00 0.000000000000000e+00
0.000000000000000e+00 0.000000000000000e+00 0.000000000000000e+00

0.000000000000000e+00 0.000000000000000e+00 0.000000000000000e+00
0.000000000000000e+00 0.000000000000000e+00 0.000000000000000e+00
0.000000000000000e+00 0.000000000000000e+00 0.000000000000000e+00

0.000000000000000e+00 0.000000000000000e+00 0.000000000000000e+00
0.000000000000000e+00 0.000000000000000e+00 0.000000000000000e+00
0.000000000000000e+00 0.000000000000000e+00 0.000000000000000e+00

0.000000000000000e+00 0.000000000000000e+00 0.000000000000000e+00
0.000000000000000e+00 0.000000000000000e+00 0.000000000000000e+00
0.000000000000000e+00 0.000000000000000e+00 0.000000000000000e+00

0.000000000000000e+00 0.000000000000000e+00 0.000000000000000e+00
0.000000000000000e+00 0.000000000000000e+00 0.000000000000000e+00
0.000000000000000e+00 0.000000000000000e+00 0.000000000000000e+00

0.000000000000000e+00 0.000000000000000e+00 0.000000000000000e+00
0.000000000000000e+00 0.000000000000000e+00 0.000000000000000e+00
0.000000000000000e+00 0.000000000000000e+00 0.000000000000000e+00

0.000000000000000e+00 0.000000000000000e+00 0.000000000000000e+00
0.000000000000000e+00 0.000000000000000e+00 0.000000000000000e+00
0.000000000000000e+00 0.000000000000000e+00 0.000000000000000e+00

0.000000000000000e+00 0.000000000000000e+00 0.000000000000000e+00
0.000000000000000e+00 0.000000000000000e+00 0.000000000000000e+00
0.000000000000000e+00 0.000000000000000e+00 0.000000000000000e+00

0.000000000000000e+00 0.000000000000000e+00 0.000000000000000e+00
0.000000000000000e+00 0.000000000000000e+00 0.000000000000000e+00
0.000000000000000e+00 0.000000000000000e+00 0.000000000000000e+00

0.000000000000000e+00 0.000000000000000e+00 0.000000000000000e+00
0.000000000000000e+00 0.000000000000000e+00 0.000000000000000e+00
0.000000000000000e+00 0.000000000000000e+00 0.000000000000000e+00

0.000000000000000e+00 0.000000000000000e+00 0.000000000000000e+00
0.000000000000000e+00 0.000000000000000e+00 0.000000000000000e+00
0.000000000000000e+00 0.000000000000000e+00 0.000000000000000e+00

0.000000000000000e+00 0.000000000000000e+00 0.000000000000000e+00
0.000000000000000e+00 0.000000000000000e+00 0.000000000000000e+00
0.000000000000000e+00 0.000000000000000e+00 0.000000000000000e+00

0.000000000000000e+00 0.000000000000000e+00 0.000000000000000e+00
0.000000000000000e+00 0.000000000000000e+00 0.000000000000000e+00
0.000000000000000e+00 0.000000000000000e+00 0.000000000000000e+00

0.000000000000000e+00 0.000000000000000e+00 0.000000000000000e+00
0.000000000000000e+00 0.000000000000000e+00 0.000000000000000e+00
0.000000000000000e+00 0.000000000000000e+00 0.000000000000000e+00

0.000000000000000e+00 0.000000000000000e+00 0.000000000000000e+00
0.000000000000000e+00 0.000000000000000e+00 0.000000000000000e+00
0.000000000000000e+00 0.000000000000000e+00 0.000000000000000e+00

0.000000000000000e+00 0.000000000000000e+00 0.000000000000000e+00
0.000000000000000e+00 0.000000000000000e+00 0.000000000000000e+00
0.000000000000000e+00 0.000000000000000e+00 0.000000000000000e+00

0.000000000000000e+00 0.000000000000000e+00 0.000000000000000e+00
0.000000000000000e+00 0.000000000000000e+00 0.000000000000000e+00
0.000000000000000e+00 0.000000000000000e+00 0.000000000000000e+00

0.000000000000000e+00 0.000000000000000e+00 0.000000000000000e+00
0.000000000000000e+00 0.000000000000000e+00 0.000000000000000e+00
0.000000000000000e+00 0.000000000000000e+00 0.000000000000000e+00

0.000000000000000e+00 0.000000000000000e+00 0.000000000000000e+00
0.000000000000000e+00 0.000000000000000e+00 0.000000000000000e+00
0.000000000000000e+00 0.000000000000000e+00 0.000000000000000e+00

0.000000000000000e+00 0.000000000000000e+00 0.000000000000000e+00
0.000000000000000e+00 0.000000000000000e+00 0.000000000000000e+00
0.000000000000000e+00 0.000000000000000e+00 0.000000000000000e+00

0.000000000000000e+00 0.000000000000000e+00 0.000000000000000e+00
0.000000000000000e+00 0.000000000000000e+00 0.000000000000000e+00
0.000000000000000e+00 0.000000000000000e+00 0.000000000000000e+00

0.000000000000000e+00 0.000000000000000e+00 0.000000000000000e+00
0.000000000000000e+00 0.000000000000000e+00 0.000000000000000e+00
0.000000000000000e+00 0.000000000000000e+00 0.000000000000000e+00

0.000000000000000e+00 0.000000000000000e+00 0.000000000000000e+00
0.000000000000000e+00 0.000000000000000e+00 0.000000000000000e+00
0.000000000000000e+00 0.000000000000000e+00 0.000000000000000e+00

0.000000000000000e+00 0.000000000000000e+00 0.000000000000000e+00
0.000000000000000e+00 0.000000000000000e+00 0.000000000000000e+00
0.000000000000000e+00 0.000000000000000e+00 0.000000000000000e+00

0.000000000000000e+00 0.000000000000000e+00 0.000000000000000e+00
0.000000000000000e+00 0.000000000000000e+00 0.000000000000000e+00
0.000000000000000e+00 0.000000000000000e+00 0.000000000000000e+00

0.000000000000000e+00 0.000000000000000e+00 0.000000000000000e+00
0.000000000000000e+00 0.000000000000000e+00 0.000000000000000e+00
0.000000000000000e+00 0.000000000000000e+00 0.000000000000000e+00

0.000000000000000e+00 0.000000000000000e+00 0.000000000000000e+00
0.000000000000000e+00 0.000000000000000e+00 0.000000000000000e+00
0.000000000000000e+00 0.000000000000000e+00 0.000000000000000e+00

0.000000000000000e+00 0.000000000000000e+00 0.000000000000000e+00
0.000000000000000e+00 0.000000000000000e+00 0.000000000000000e+00
0.000000000000000e+00 0.000000000000000e+00 0.000000000000000e+00

0.000000000000000e+00 0.000000000000000e+00 0.000000000000000e+00
0.000000000000000e+00 0.000000000000000e+00 0.000000000000000e+00
0.000000000000000e+00 0.000000000000000e+00 0.000000000000000e+00

0.000000000000000e+00 0.000000000000000e+00 0.000000000000000e+00
0.000000000000000e+00 0.000000000000000e+00 0.000000000000000e+00
0.000000000000000e+00 0.000000000000000e+00 0.000000000000000e+00

0.000000000000000e+00 0.000000000000000e+00 0.000000000000000e+00
0.000000000000000e+00 0.000000000000000e+00 0.000000000000000e+00
0.000000000000000e+00 0.000000000000000e+00 0.000000000000000e+00

0.000000000000000e+00 0.000000000000000e+00 0.000000000000000e+00
0.000000000000000e+00 0.000000000000000e+00 0.000000000000000e+00
0.000000000000000e+00 0.000000000000000e+00 0.000000000000000e+00

0.000000000000000e+00 0.000000000000000e+00 0.000000000000000e+00
0.000000000000000e+00 0.000000000000000e+00 0.000000000000000e+00
0.000000000000000e+00 0.000000000000000e+00 0.000000000000000e+00

0.000000000000000e+00 0.000000000000000e+00 0.000000000000000e+00
0.000000000000000e+00 0.000000000000000e+00 0.000000000000000e+00
0.000000000000000e+00 0.000000000000000e+00 0.000000000000000e+00

0.000000000000000e+00 0.000000000000000e+00 0.000000000000000e+00
0.000000000000000e+00 0.000000000000000e+00 0.000000000000000e+00
0.000000000000000e+00 0.000000000000000e+00 0.000000000000000e+00

0.000000000000000e+00 0.000000000000000e+00 0.000000000000000e+00
0.000000000000000e+00 0.000000000000000e+00 0.000000000000000e+00
0.000000000000000e+00 0.000000000000000e+00 0.000000000000000e+00

0.000000000000000e+00 0.000000000000000e+00 0.000000000000000e+00
0.000000000000000e+00 0.000000000000000e+00 0.000000000000000e+00
0.000000000000000e+00 0.000000000000000e+00 0.000000000000000e+00

0.000000000000000e+00 0.000000000000000e+00 0.000000000000000e+00
0.000000000000000e+00 0.000000000000000e+00 0.000000000000000e+00
0.000000000000000e+00 0.000000000000000e+00 0.000000000000000e+00

0.000000000000000e+00 0.000000000000000e+00 0.000000000000000e+00
0.000000000000000e+00 0.000000000000000e+00 0.000000000000000e+00
0.000000000000000e+00 0.000000000000000e+00 0.000000000000000e+00

0.000000000000000e+00 0.000000000000000e+00 0.000000000000000e+00
0.000000000000000e+00 0.000000000000000e+00 0.000000000000000e+00
0.000000000000000e+00 0.000000000000000e+00 0.000000000000000e+00

0.000000000000000e+00 0.000000000000000e+00 0.000000000000000e+00
0.000000000000000e+00 0.000000000000000e+00 0.000000000000000e+00
0.000000000000000e+00 0.000000000000000e+00 0.000000000000000e+00

0.000000000000000e+00 0.000000000000000e+00 0.000000000000000e+00
0.000000000000000e+00 0.000000000000000e+00 0.000000000000000e+00
0.000000000000000e+00 0.000000000000000e+00 0.000000000000000e+00

0.000000000000000e+00 0.000000000000000e+00 0.000000000000000e+00
0.000000000000000e+00 0.000000000000000e+00 0.000000000000000e+00
0.000000000000000e+00 0.000000000000000e+00 0.000000000000000e+00

0.000000000000000e+00 0.000000000000000e+00 0.000000000000000e+00
0.000000000000000e+00 0.000000000000000e+00 0.000000000000000e+00
0.000000000000000e+00 0.000000000000000e+00 0.000000000000000e+00

0.000000000000000e+00 0.000000000000000e+00 0.000000000000000e+00
0.000000000000000e+00 0.000000000000000e+00 0.000000000000000e+00
0.000000000000000e+00 0.000000000000000e+00 0.000000000000000e+00

0.000000000000000e+00 0.000000000000000e+00 0.000000000000000e+00
0.000000000000000e+00 0.000000000000000e+00 0.000000000000000e+00
0.000000000000000e+00 0.000000000000000e+00 0.000000000000000e+00

0.000000000000000e+00 0.000000000000000e+00 0.000000000000000e+00
0.000000000000000e+00 0.000000000000000e+00 0.000000000000000e+00
0.000000000000000e+00 0.000000000000000e+00 0.000000000000000e+00

0.000000000000000e+00 0.000000000000000e+00 0.000000000000000e+00
0.000000000000000e+00 0.000000000000000e+00 0.000000000000000e+00
0.000000000000000e+00 0.000000000000000e+00 0.000000000000000e+00

0.000000000000000e+00 0.000000000000000e+00 0.000000000000000e+00
0.000000000000000e+00 0.000000000000000e+00 0.000000000000000e+00
0.000000000000000e+00 0.000000000000000e+00 0.000000000000000e+00

0.000000000000000e+00 0.000000000000000e+00 0.000000000000000e+00
0.000000000000000e+00 0.000000000000000e+00 0.000000000000000e+00
0.000000000000000e+00 0.000000000000000e+00 0.000000000000000e+00

0.000000000000000e+00 0.000000000000000e+00 0.000000000000000e+00
0.000000000000000e+00 0.000000000000000e+00 0.000000000000000e+00
0.000000000000000e+00 0.000000000000000e+00 0.000000000000000e+00

0.000000000000000e+00 0.000000000000000e+00 0.000000000000000e+00
0.000000000000000e+00 0.000000000000000e+00 0.000000000000000e+00
0.000000000000000e+00 0.000000000000000e+00 0.000000000000000e+00

0.000000000000000e+00 0.000000000000000e+00 0.000000000000000e+00
0.000000000000000e+00 0.000000000000000e+00 0.000000000000000e+00
0.000000000000000e+00 0.000000000000000e+00 0.000000000000000e+00

0.000000000000000e+00 0.000000000000000e+00 0.000000000000000e+00
0.000000000000000e+00 0.000000000000000e+00 0.000000000000000e+00
0.000000000000000e+00 0.000000000000000e+00 0.000000000000000e+00

0.000000000000000e+00 0.000000000000000e+00 0.000000000000000e+00
0.000000000000000e+00 0.000000000000000e+00 0.000000000000000e+00
0.000000000000000e+00 0.000000000000000e+00 0.000000000000000e+00

0.000000000000000e+00 0.000000000000000e+00 0.000000000000000e+00
0.000000000000000e+00 0.000000000000000e+00 0.000000000000000e+00
0.000000000000000e+00 0.000000000000000e+00 0.000000000000000e+00

0.000000000000000e+00 0.000000000000000e+00 0.000000000000000e+00
0.000000000000000e+00 0.000000000000000e+00 0.000000000000000e+00
0.000000000000000e+00 0.000000000000000e+00 0.000000000000000e+00

0.000000000000000e+00 0.000000000000000e+00 0.000000000000000e+00
0.000000000000000e+00 0.000000000000000e+00 0.000000000000000e+00
0.000000000000000e+00 0.000000000000000e+00 0.000000000000000e+00

0.000000000000000e+00 0.000000000000000e+00 0.000000000000000e+00
0.000000000000000e+00 0.000000000000000e+00 0.000000000000000e+00
0.000000000000000e+00 0.000000000000000e+00 0.000000000000000e+00

0.000000000000000e+00 0.000000000000000e+00 0.000000000000000e+00
0.000000000000000e+00 0.000000000000000e+00 0.000000000000000e+00
0.000000000000000e+00 0.000000000000000e+00 0.000000000000000e+00

0.000000000000000e+00 0.000000000000000e+00 0.000000000000000e+00
0.000000000000000e+00 0.000000000000000e+00 0.000000000000000e+00
0.000000000000000e+00 0.000000000000000e+00 0.000000000000000e+00

0.000000000000000e+00 0.000000000000000e+00 0.000000000000000e+00
0.000000000000000e+00 0.000000000000000e+00 0.000000000000000e+00
0.000000000000000e+00 0.000000000000000e+00 0.000000000000000e+00

0.000000000000000e+00 0.000000000000000e+00 0.000000000000000e+00
0.000000000000000e+00 0.000000000000000e+00 0.000000000000000e+00
0.000000000000000e+00 0.000000000000000e+00 0.000000000000000e+00

0.000000000000000e+00 0.000000000000000e+00 0.000000000000000e+00
0.000000000000000e+00 0.000000000000000e+00 0.000000000000000e+00
0.000000000000000e+00 0.000000000000000e+00 0.000000000000000e+00

0.000000000000000e+00 0.000000000000000e+00 0.000000000000000e+00
0.000000000000000e+00 0.000000000000000e+00 0.000000000000000e+00
0.000000000000000e+00 0.000000000000000e+00 0.000000000000000e+00

0.000000000000000e+00 0.000000000000000e+00 0.000000000000000e+00
0.000000000000000e+00 0.000000000000000e+00 0.000000000000000e+00
0.000000000000000e+00 0.000000000000000e+00 0.000000000000000e+00

0.000000000000000e+00 0.000000000000000e+00 0.000000000000000e+00
0.000000000000000e+00 0.000000000000000e+00 0.000000000000000e+00
0.000000000000000e+00 0.000000000000000e+00 0.000000000000000e+00

0.000000000000000e+00 0.000000000000000e+00 0.000000000000000e+00
0.000000000000000e+00 0.000000000000000e+00 0.000000000000000e+00
0.000000000000000e+00 0.000000000000000e+00 0.000000000000000e+00

0.000000000000000e+00 0.000000000000000e+00 0.000000000000000e+00
0.000000000000000e+00 0.000000000000000e+00 0.000000000000000e+00
0.000000000000000e+00 0.000000000000000e+00 0.000000000000000e+00

0.000000000000000e+00 0.000000000000000e+00 0.000000000000000e+00
0.000000000000000e+00 0.000000000000000e+00 0.000000000000000e+00
0.000000000000000e+00 0.000000000000000e+00 0.000000000000000e+00

0.000000000000000e+00 0.000000000000000e+00 0.000000000000000e+00
0.000000000000000e+00 0.000000000000000e+00 0.000000000000000e+00
0.000000000000000e+00 0.000000000000000e+00 0.000000000000000e+00

0.000000000000000e+00 0.000000000000000e+00 0.000000000000000e+00
0.000000000000000e+00 0.000000000000000e+00 0.000000000000000e+00
0.000000000000000e+00 0.000000000000000e+00 0.000000000000000e+00

0.000000000000000e+00 0.000000000000000e+00 0.000000000000000e+00
0.000000000000000e+00 0.000000000000000e+00 0.000000000000000e+00
0.000000000000000e+00 0.000000000000000e+00 0.000000000000000e+00

0.000000000000000e+00 0.000000000000000e+00 0.000000000000000e+00
0.000000000000000e+00 0.000000000000000e+00 0.000000000000000e+00
0.000000000000000e+00 0.000000000000000e+00 0.000000000000000e+00

0.000000000000000e+00 0.000000000000000e+00 0.000000000000000e+00
0.000000000000000e+00 0.000000000000000e+00 0.000000000000000e+00
0.000000000000000e+00 0.000000000000000e+00 0.000000000000000e+00

0.000000000000000e+00 0.000000000000000e+00 0.000000000000000e+00
0.000000000000000e+00 0.000000000000000e+00 0.000000000000000e+00
0.000000000000000e+00 0.000000000000000e+00 0.000000000000000e+00

0.000000000000000e+00 0.000000000000000e+00 0.000000000000000e+00
0.000000000000000e+00 0.000000000000000e+00 0.000000000000000e+00
0.000000000000000e+00 0.000000000000000e+00 0.000000000000000e+00

0.000000000000000e+00 0.000000000000000e+00 0.000000000000000e+00
0.000000000000000e+00 0.000000000000000e+00 0.000000000000000e+00
0.000000000000000e+00 0.000000000000000e+00 0.000000000000000e+00

0.000000000000000e+00 0.000000000000000e+00 0.000000000000000e+00
0.000000000000000e+00 0.000000000000000e+00 0.000000000000000e+00
0.000000000000000e+00 0.000000000000000e+00 0.000000000000000e+00

0.000000000000000e+00 0.000000000000000e+00 0.000000000000000e+00
0.000000000000000e+00 0.000000000000000e+00 0.000000000000000e+00
0.000000000000000e+00 0.000000000000000e+00 0.000000000000000e+00

0.000000000000000e+00 0.000000000000000e+00 0.000000000000000e+00
0.000000000000000e+00 0.000000000000000e+00 0.000000000000000e+00
0.000000000000000e+00 0.000000000000000e+00 0.000000000000000e+00

0.000000000000000e+00 0.000000000000000e+00 0.000000000000000e+00
0.000000000000000e+00 0.000000000000000e+00 0.000000000000000e+00
0.000000000000000e+00 0.000000000000000e+00 0.000000000000000e+00

0.000000000000000e+00 0.000000000000000e+00 0.000000000000000e+00
0.000000000000000e+00 0.000000000000000e+00 0.000000000000000e+00
0.000000000000000e+00 0.000000000000000e+00 0.000000000000000e+00

0.000000000000000e+00 0.000000000000000e+00 0.000000000000000e+00
0.000000000000000e+00 0.000000000000000e+00 0.000000000000000e+00
0.000000000000000e+00 0.000000000000000e+00 0.000000000000000e+00

0.000000000000000e+00 0.000000000000000e+00 0.000000000000000e+00
0.000000000000000e+00 0.000000000000000e+00 0.000000000000000e+00
0.000000000000000e+00 0.000000000000000e+00 0.000000000000000e+00

0.000000000000000e+00 0.000000000000000e+00 0.000000000000000e+00
0.000000000000000e+00 0.000000000000000e+00 0.000000000000000e+00
0.000000000000000e+00 0.000000000000000e+00 0.000000000000000e+00

0.000000000000000e+00 0.000000000000000e+00 0.000000000000000e+00
0.000000000000000e+00 0.000000000000000e+00 0.000000000000000e+00
0.000000000000000e+00 0.000000000000000e+00 0.000000000000000e+00

0.000000000000000e+00 0.000000000000000e+00 0.000000000000000e+00
0.000000000000000e+00 0.000000000000000e+00 0.000000000000000e+00
0.000000000000000e+00 0.000000000000000e+00 0.000000000000000e+00

0.000000000000000e+00 0.000000000000000e+00 0.000000000000000e+00
0.000000000000000e+00 0.000000000000000e+00 0.000000000000000e+00
0.000000000000000e+00 0.000000000000000e+00 0.000000000000000e+00

0.000000000000000e+00 0.000000000000000e+00 0.000000000000000e+00
0.000000000000000e+00 0.000000000000000e+00 0.000000000000000e+00
0.000000000000000e+00 0.000000000000000e+00 0.000000000000000e+00

0.000000000000000e+00 0.000000000000000e+00 0.000000000000000e+00
0.000000000000000e+00 0.000000000000000e+00 0.000000000000000e+00
0.000000000000000e+00 0.000000000000000e+00 0.000000000000000e+00

0.000000000000000e+00 0.000000000000000e+00 0.000000000000000e+00
0.000000000000000e+00 0.000000000000000e+00 0.000000000000000e+00
0.000000000000000e+00 0.000000000000000e+00 0.000000000000000e+00

0.000000000000000e+00 0.000000000000000e+00 0.000000000000000e+00
0.000000000000000e+00 0.000000000000000e+00 0.000000000000000e+00
0.000000000000000e+00 0.000000000000000e+00 0.000000000000000e+00

0.000000000000000e+00 0.000000000000000e+00 0.000000000000000e+00
0.000000000000000e+00 0.000000000000000e+00 0.000000000000000e+00
0.000000000000000e+00 0.000000000000000e+00 0.000000000000000e+00

0.000000000000000e+00 0.000000000000000e+00 0.000000000000000e+00
0.000000000000000e+00 0.000000000000000e+00 0.000000000000000e+00
0.000000000000000e+00 0.000000000000000e+00 0.000000000000000e+00

0.000000000000000e+00 0.000000000000000e+00 0.000000000000000e+00
0.000000000000000e+00 0.000000000000000e+00 0.000000000000000e+00
0.000000000000000e+00 0.000000000000000e+00 0.000000000000000e+00

0.000000000000000e+00 0.000000000000000e+00 0.000000000000000e+00
0.000000000000000e+00 0.000000000000000e+00 0.000000000000000e+00
0.000000000000000e+00 0.000000000000000e+00 0.000000000000000e+00

0.000000000000000e+00 0.000000000000000e+00 0.000000000000000e+00
0.000000000000000e+00 0.000000000000000e+00 0.000000000000000e+00
0.000000000000000e+00 0.000000000000000e+00 0.000000000000000e+00

0.000000000000000e+00 0.000000000000000e+00 0.000000000000000e+00
0.000000000000000e+00 0.000000000000000e+00 0.000000000000000e+00
0.000000000000000e+00 0.000000000000000e+00 0.000000000000000e+00

0.000000000000000e+00 0.000000000000000e+00 0.000000000000000e+00
0.000000000000000e+00 0.000000000000000e+00 0.000000000000000e+00
0.000000000000000e+00 0.000000000000000e+00 0.000000000000000e+00

0.000000000000000e+00 0.000000000000000e+00 0.000000000000000e+00
0.000000000000000e+00 0.000000000000000e+00 0.000000000000000e+00
0.000000000000000e+00 0.000000000000000e+00 0.000000000000000e+00

0.000000000000000e+00 0.000000000000000e+00 0.000000000000000e+00
0.000000000000000e+00 0.000000000000000e+00 0.000000000000000e+00
0.000000000000000e+00 0.000000000000000e+00 0.000000000000000e+00

0.000000000000000e+00 0.000000000000000e+00 0.000000000000000e+00
0.000000000000000e+00 0.000000000000000e+00 0.000000000000000e+00
0.000000000000000e+00 0.000000000000000e+00 0.000000000000000e+00

0.000000000000000e+00 0.000000000000000e+00 0.000000000000000e+00
0.000000000000000e+00 0.000000000000000e+00 0.000000000000000e+00
0.000000000000000e+00 0.000000000000000e+00 0.000000000000000e+00

0.000000000000000e+00 0.000000000000000e+00 0.000000000000000e+00
0.000000000000000e+00 0.000000000000000e+00 0.000000000000000e+00
0.000000000000000e+00 0.000000000000000e+00 0.000000000000000e+00

0.000000000000000e+00 0.000000000000000e+00 0.000000000000000e+00
0.000000000000000e+00 0.000000000000000e+00 0.000000000000000e+00
0.000000000000000e+00 0.000000000000000e+00 0.000000000000000e+00

0.000000000000000e+00 0.000000000000000e+00 0.000000000000000e+00
0.000000000000000e+00 0.000000000000000e+00 0.000000000000000e+00
0.000000000000000e+00 0.000000000000000e+00 0.000000000000000e+00

0.000000000000000e+00 0.000000000000000e+00 0.000000000000000e+00
0.000000000000000e+00 0.000000000000000e+00 0.000000000000000e+00
0.000000000000000e+00 0.000000000000000e+00 0.000000000000000e+00

0.000000000000000e+00 0.000000000000000e+00 0.000000000000000e+00
0.000000000000000e+00 0.000000000000000e+00 0.000000000000000e+00
0.000000000000000e+00 0.000000000000000e+00 0.000000000000000e+00

0.000000000000000e+00 0.000000000000000e+00 0.000000000000000e+00
0.000000000000000e+00 0.000000000000000e+00 0.000000000000000e+00
0.000000000000000e+00 0.000000000000000e+00 0.000000000000000e+00

0.000000000000000e+00 0.000000000000000e+00 0.000000000000000e+00
0.000000000000000e+00 0.000000000000000e+00 0.000000000000000e+00
0.000000000000000e+00 0.000000000000000e+00 0.000000000000000e+00

0.000000000000000e+00 0.000000000000000e+00 0.000000000000000e+00
0.000000000000000e+00 0.000000000000000e+00 0.000000000000000e+00
0.000000000000000e+00 0.000000000000000e+00 0.000000000000000e+00

0.000000000000000e+00 0.000000000000000e+00 0.000000000000000e+00
0.000000000000000e+00 0.000000000000000e+00 0.000000000000000e+00
0.000000000000000e+00 0.000000000000000e+00 0.000000000000000e+00

0.000000000000000e+00 0.000000000000000e+00 0.000000000000000e+00
0.000000000000000e+00 0.000000000000000e+00 0.000000000000000e+00
0.000000000000000e+00 0.000000000000000e+00 0.000000000000000e+00

0.000000000000000e+00 0.000000000000000e+00 0.000000000000000e+00
0.000000000000000e+00 0.000000000000000e+00 0.000000000000000e+00
0.000000000000000e+00 0.000000000000000e+00 0.000000000000000e+00

0.000000000000000e+00 0.000000000000000e+00 0.000000000000000e+00
0.000000000000000e+00 0.000000000000000e+00 0.000000000000000e+00
0.000000000000000e+00 0.000000000000000e+00 0.000000000000000e+00

0.000000000000000e+00 0.000000000000000e+00 0.000000000000000e+00
0.000000000000000e+00 0.000000000000000e+00 0.000000000000000e+00
0.000000000000000e+00 0.000000000000000e+00 0.000000000000000e+00

0.000000000000000e+00 0.000000000000000e+00 0.000000000000000e+00
0.000000000000000e+00 0.000000000000000e+00 0.000000000000000e+00
0.000000000000000e+00 0.000000000000000e+00 0.000000000000000e+00

0.000000000000000e+00 0.000000000000000e+00 0.000000000000000e+00
0.000000000000000e+00 0.000000000000000e+00 0.000000000000000e+00
0.000000000000000e+00 0.000000000000000e+00 0.000000000000000e+00

0.000000000000000e+00 0.000000000000000e+00 0.000000000000000e+00
0.000000000000000e+00 0.000000000000000e+00 0.000000000000000e+00
0.000000000000000e+00 0.000000000000000e+00 0.000000000000000e+00

0.000000000000000e+00 0.000000000000000e+00 0.000000000000000e+00
0.000000000000000e+00 0.000000000000000e+00 0.000000000000000e+00
0.000000000000000e+00 0.000000000000000e+00 0.000000000000000e+00

0.000000000000000e+00 0.000000000000000e+00 0.000000000000000e+00
0.000000000000000e+00 0.000000000000000e+00 0.000000000000000e+00
0.000000000000000e+00 0.000000000000000e+00 0.000000000000000e+00

0.000000000000000e+00 0.000000000000000e+00 0.000000000000000e+00
0.000000000000000e+00 0.000000000000000e+00 0.000000000000000e+00
0.000000000000000e+00 0.000000000000000e+00 0.000000000000000e+00

0.000000000000000e+00 0.000000000000000e+00 0.000000000000000e+00
0.000000000000000e+00 0.000000000000000e+00 0.000000000000000e+00
0.000000000000000e+00 0.000000000000000e+00 0.000000000000000e+00

0.000000000000000e+00 0.000000000000000e+00 0.000000000000000e+00
0.000000000000000e+00 0.000000000000000e+00 0.000000000000000e+00
0.000000000000000e+00 0.000000000000000e+00 0.000000000000000e+00

0.000000000000000e+00 0.000000000000000e+00 0.000000000000000e+00
0.000000000000000e+00 0.000000000000000e+00 0.000000000000000e+00
0.000000000000000e+00 0.000000000000000e+00 0.000000000000000e+00

0.000000000000000e+00 0.000000000000000e+00 0.000000000000000e+00
0.000000000000000e+00 0.000000000000000e+00 0.000000000000000e+00
0.000000000000000e+00 0.000000000000000e+00 0.000000000000000e+00

0.000000000000000e+00 0.000000000000000e+00 0.000000000000000e+00
0.000000000000000e+00 0.000000000000000e+00 0.000000000000000e+00
0.000000000000000e+00 0.000000000000000e+00 0.000000000000000e+00

0.000000000000000e+00 0.000000000000000e+00 0.000000000000000e+00
0.000000000000000e+00 0.000000000000000e+00 0.000000000000000e+00
0.000000000000000e+00 0.000000000000000e+00 0.000000000000000e+00

0.000000000000000e+00 0.000000000000000e+00 0.000000000000000e+00
0.000000000000000e+00 0.000000000000000e+00 0.000000000000000e+00
0.000000000000000e+00 0.000000000000000e+00 0.000000000000000e+00

0.000000000000000e+00 0.000000000000000e+00 0.000000000000000e+00
0.000000000000000e+00 0.000000000000000e+00 0.000000000000000e+00
0.000000000000000e+00 0.000000000000000e+00 0.000000000000000e+00

0.000000000000000e+00 0.000000000000000e+00 0.000000000000000e+00
0.000000000000000e+00 0.000000000000000e+00 0.000000000000000e+00
0.000000000000000e+00 0.000000000000000e+00 0.000000000000000e+00

0.000000000000000e+00 0.000000000000000e+00 0.000000000000000e+00
0.000000000000000e+00 0.000000000000000e+00 0.000000000000000e+00
0.000000000000000e+00 0.000000000000000e+00 0.000000000000000e+00

0.000000000000000e+00 0.000000000000000e+00 0.000000000000000e+00
0.000000000000000e+00 0.000000000000000e+00 0.000000000000000e+00
0.000000000000000e+00 0.000000000000000e+00 0.000000000000000e+00

0.000000000000000e+00 0.000000000000000e+00 0.000000000000000e+00
0.000000000000000e+00 0.000000000000000e+00 0.000000000000000e+00
0.000000000000000e+00 0.000000000000000e+00 0.000000000000000e+00

0.000000000000000e+00 0.000000000000000e+00 0.000000000000000e+00
0.000000000000000e+00 0.000000000000000e+00 0.000000000000000e+00
0.000000000000000e+00 0.000000000000000e+00 0.000000000000000e+00

0.000000000000000e+00 0.000000000000000e+00 0.000000000000000e+00
0.000000000000000e+00 0.000000000000000e+00 0.000000000000000e+00
0.000000000000000e+00 0.000000000000000e+00 0.000000000000000e+00

0.000000000000000e+00 0.000000000000000e+00 0.000000000000000e+00
0.000000000000000e+00 0.000000000000000e+00 0.000000000000000e+00
0.000000000000000e+00 0.000000000000000e+00 0.000000000000000e+00

0.000000000000000e+00 0.000000000000000e+00 0.000000000000000e+00
0.000000000000000e+00 0.000000000000000e+00 0.000000000000000e+00
0.000000000000000e+00 0.000000000000000e+00 0.000000000000000e+00

0.000000000000000e+00 0.000000000000000e+00 0.000000000000000e+00
0.000000000000000e+00 0.000000000000000e+00 0.000000000000000e+00
0.000000000000000e+00 0.000000000000000e+00 0.000000000000000e+00

0.000000000000000e+00 0.000000000000000e+00 0.000000000000000e+00
0.000000000000000e+00 0.000000000000000e+00 0.000000000000000e+00
0.000000000000000e+00 0.000000000000000e+00 0.000000000000000e+00

0.000000000000000e+00 0.000000000000000e+00 0.000000000000000e+00
0.000000000000000e+00 0.000000000000000e+00 0.000000000000000e+00
0.000000000000000e+00 0.000000000000000e+00 0.000000000000000e+00

0.000000000000000e+00 0.000000000000000e+00 0.000000000000000e+00
0.000000000000000e+00 0.000000000000000e+00 0.000000000000000e+00
0.000000000000000e+00 0.000000000000000e+00 0.000000000000000e+00

0.000000000000000e+00 0.000000000000000e+00 0.000000000000000e+00
0.000000000000000e+00 0.000000000000000e+00 0.000000000000000e+00
0.000000000000000e+00 0.000000000000000e+00 0.000000000000000e+00

0.000000000000000e+00 0.000000000000000e+00 0.000000000000000e+00
0.000000000000000e+00 0.000000000000000e+00 0.000000000000000e+00
0.000000000000000e+00 0.000000000000000e+00 0.000000000000000e+00

0.000000000000000e+00 0.000000000000000e+00 0.000000000000000e+00
0.000000000000000e+00 0.000000000000000e+00 0.000000000000000e+00
0.000000000000000e+00 0.000000000000000e+00 0.000000000000000e+00

0.000000000000000e+00 0.000000000000000e+00 0.000000000000000e+00
0.000000000000000e+00 0.000000000000000e+00 0.000000000000000e+00
0.000000000000000e+00 0.000000000000000e+00 0.000000000000000e+00

0.000000000000000e+00 0.000000000000000e+00 0.000000000000000e+00
0.000000000000000e+00 0.000000000000000e+00 0.000000000000000e+00
0.000000000000000e+00 0.000000000000000e+00 0.000000000000000e+00

0.000000000000000e+00 0.000000000000000e+00 0.000000000000000e+00
0.000000000000000e+00 0.000000000000000e+00 0.000000000000000e+00
0.000000000000000e+00 0.000000000000000e+00 0.000000000000000e+00

0.000000000000000e+00 0.000000000000000e+00 0.000000000000000e+00
0.000000000000000e+00 0.000000000000000e+00 0.000000000000000e+00
0.000000000000000e+00 0.000000000000000e+00 0.000000000000000e+00

0.000000000000000e+00 0.000000000000000e+00 0.000000000000000e+00
0.000000000000000e+00 0.000000000000000e+00 0.000000000000000e+00
0.000000000000000e+00 0.000000000000000e+00 0.000000000000000e+00

0.000000000000000e+00 0.000000000000000e+00 0.000000000000000e+00
0.000000000000000e+00 0.000000000000000e+00 0.000000000000000e+00
0.000000000000000e+00 0.000000000000000e+00 0.000000000000000e+00

0.000000000000000e+00 0.000000000000000e+00 0.000000000000000e+00
0.000000000000000e+00 0.000000000000000e+00 0.000000000000000e+00
0.000000000000000e+00 0.000000000000000e+00 0.000000000000000e+00

0.000000000000000e+00 0.000000000000000e+00 0.000000000000000e+00
0.000000000000000e+00 0.000000000000000e+00 0.000000000000000e+00
0.000000000000000e+00 0.000000000000000e+00 0.000000000000000e+00

0.000000000000000e+00 0.000000000000000e+00 0.000000000000000e+00
0.000000000000000e+00 0.000000000000000e+00 0.000000000000000e+00
0.000000000000000e+00 0.000000000000000e+00 0.000000000000000e+00

0.000000000000000e+00 0.000000000000000e+00 0.000000000000000e+00
0.000000000000000e+00 0.000000000000000e+00 0.000000000000000e+00
0.000000000000000e+00 0.000000000000000e+00 0.000000000000000e+00

0.000000000000000e+00 0.000000000000000e+00 0.000000000000000e+00
0.000000000000000e+00 0.000000000000000e+00 0.000000000000000e+00
0.000000000000000e+00 0.000000000000000e+00 0.000000000000000e+00

0.000000000000000e+00 0.000000000000000e+00 0.000000000000000e+00
0.000000000000000e+00 0.000000000000000e+00 0.000000000000000e+00
0.000000000000000e+00 0.000000000000000e+00 0.000000000000000e+00

0.000000000000000e+00 0.000000000000000e+00 0.000000000000000e+00
0.000000000000000e+00 0.000000000000000e+00 0.000000000000000e+00
0.000000000000000e+00 0.000000000000000e+00 0.000000000000000e+00

0.000000000000000e+00 0.000000000000000e+00 0.000000000000000e+00
0.000000000000000e+00 0.000000000000000e+00 0.000000000000000e+00
0.000000000000000e+00 0.000000000000000e+00 0.000000000000000e+00

0.000000000000000e+00 0.000000000000000e+00 0.000000000000000e+00
0.000000000000000e+00 0.000000000000000e+00 0.000000000000000e+00
0.000000000000000e+00 0.000000000000000e+00 0.000000000000000e+00

0.000000000000000e+00 0.000000000000000e+00 0.000000000000000e+00
0.000000000000000e+00 0.000000000000000e+00 0.000000000000000e+00
0.000000000000000e+00 0.000000000000000e+00 0.000000000000000e+00

0.000000000000000e+00 0.000000000000000e+00 0.000000000000000e+00
0.000000000000000e+00 0.000000000000000e+00 0.000000000000000e+00
0.000000000000000e+00 0.000000000000000e+00 0.000000000000000e+00

0.000000000000000e+00 0.000000000000000e+00 0.000000000000000e+00
0.000000000000000e+00 0.000000000000000e+00 0.000000000000000e+00
0.000000000000000e+00 0.000000000000000e+00 0.000000000000000e+00

0.000000000000000e+00 0.000000000000000e+00 0.000000000000000e+00
0.000000000000000e+00 0.000000000000000e+00 0.000000000000000e+00
0.000000000000000e+00 0.000000000000000e+00 0.000000000000000e+00

0.000000000000000e+00 0.000000000000000e+00 0.000000000000000e+00
0.000000000000000e+00 0.000000000000000e+00 0.000000000000000e+00
0.000000000000000e+00 0.000000000000000e+00 0.000000000000000e+00

0.000000000000000e+00 0.000000000000000e+00 0.000000000000000e+00
0.000000000000000e+00 0.000000000000000e+00 0.000000000000000e+00
0.000000000000000e+00 0.000000000000000e+00 0.000000000000000e+00

0.000000000000000e+00 0.000000000000000e+00 0.000000000000000e+00
0.000000000000000e+00 0.000000000000000e+00 0.000000000000000e+00
0.000000000000000e+00 0.000000000000000e+00 0.000000000000000e+00

0.000000000000000e+00 0.000000000000000e+00 0.000000000000000e+00
0.000000000000000e+00 0.000000000000000e+00 0.000000000000000e+00
0.000000000000000e+00 0.000000000000000e+00 0.000000000000000e+00

0.000000000000000e+00 0.000000000000000e+00 0.000000000000000e+00
0.000000000000000e+00 0.000000000000000e+00 0.000000000000000e+00
0.000000000000000e+00 0.000000000000000e+00 0.000000000000000e+00

0.000000000000000e+00 0.000000000000000e+00 0.000000000000000e+00
0.000000000000000e+00 0.000000000000000e+00 0.000000000000000e+00
0.000000000000000e+00 0.000000000000000e+00 0.000000000000000e+00

0.000000000000000e+00 0.000000000000000e+00 0.000000000000000e+00
0.000000000000000e+00 0.000000000000000e+00 0.000000000000000e+00
0.000000000000000e+00 0.000000000000000e+00 0.000000000000000e+00

0.000000000000000e+00 0.000000000000000e+00 0.000000000000000e+00
0.000000000000000e+00 0.000000000000000e+00 0.000000000000000e+00
0.000000000000000e+00 0.000000000000000e+00 0.000000000000000e+00

0.000000000000000e+00 0.000000000000000e+00 0.000000000000000e+00
0.000000000000000e+00 0.000000000000000e+00 0.000000000000000e+00
0.000000000000000e+00 0.000000000000000e+00 0.000000000000000e+00

0.000000000000000e+00 0.000000000000000e+00 0.000000000000000e+00
0.000000000000000e+00 0.000000000000000e+00 0.000000000000000e+00
0.000000000000000e+00 0.000000000000000e+00 0.000000000000000e+00

0.000000000000000e+00 0.000000000000000e+00 0.000000000000000e+00
0.000000000000000e+00 0.000000000000000e+00 0.000000000000000e+00
0.000000000000000e+00 0.000000000000000e+00 0.000000000000000e+00

0.000000000000000e+00 0.000000000000000e+00 0.000000000000000e+00
0.000000000000000e+00 0.000000000000000e+00 0.000000000000000e+00
0.000000000000000e+00 0.000000000000000e+00 0.000000000000000e+00

0.000000000000000e+00 0.000000000000000e+00 0.000000000000000e+00
0.000000000000000e+00 0.000000000000000e+00 0.000000000000000e+00
0.000000000000000e+00 0.000000000000000e+00 0.000000000000000e+00

0.000000000000000e+00 0.000000000000000e+00 0.000000000000000e+00
0.000000000000000e+00 0.000000000000000e+00 0.000000000000000e+00
0.000000000000000e+00 0.000000000000000e+00 0.000000000000000e+00

0.000000000000000e+00 0.000000000000000e+00 0.000000000000000e+00
0.000000000000000e+00 0.000000000000000e+00 0.000000000000000e+00
0.000000000000000e+00 0.000000000000000e+00 0.000000000000000e+00

0.000000000000000e+00 0.000000000000000e+00 0.000000000000000e+00
0.000000000000000e+00 0.000000000000000e+00 0.000000000000000e+00
0.000000000000000e+00 0.000000000000000e+00 0.000000000000000e+00

0.000000000000000e+00 0.000000000000000e+00 0.000000000000000e+00
0.000000000000000e+00 0.000000000000000e+00 0.000000000000000e+00
0.000000000000000e+00 0.000000000000000e+00 0.000000000000000e+00

0.000000000000000e+00 0.000000000000000e+00 0.000000000000000e+00
0.000000000000000e+00 0.000000000000000e+00 0.000000000000000e+00
0.000000000000000e+00 0.000000000000000e+00 0.000000000000000e+00

0.000000000000000e+00 0.000000000000000e+00 0.000000000000000e+00
0.000000000000000e+00 0.000000000000000e+00 0.000000000000000e+00
0.000000000000000e+00 0.000000000000000e+00 0.000000000000000e+00

0.000000000000000e+00 0.000000000000000e+00 0.000000000000000e+00
0.000000000000000e+00 0.000000000000000e+00 0.000000000000000e+00
0.000000000000000e+00 0.000000000000000e+00 0.000000000000000e+00

0.000000000000000e+00 0.000000000000000e+00 0.000000000000000e+00
0.000000000000000e+00 0.000000000000000e+00 0.000000000000000e+00
0.000000000000000e+00 0.000000000000000e+00 0.000000000000000e+00

0.000000000000000e+00 0.000000000000000e+00 0.000000000000000e+00
0.000000000000000e+00 0.000000000000000e+00 0.000000000000000e+00
0.000000000000000e+00 0.000000000000000e+00 0.000000000000000e+00

0.000000000000000e+00 0.000000000000000e+00 0.000000000000000e+00
0.000000000000000e+00 0.000000000000000e+00 0.000000000000000e+00
0.000000000000000e+00 0.000000000000000e+00 0.000000000000000e+00

0.000000000000000e+00 0.000000000000000e+00 0.000000000000000e+00
0.000000000000000e+00 0.000000000000000e+00 0.000000000000000e+00
0.000000000000000e+00 0.000000000000000e+00 0.000000000000000e+00

0.000000000000000e+00 0.000000000000000e+00 0.000000000000000e+00
0.000000000000000e+00 0.000000000000000e+00 0.000000000000000e+00
0.000000000000000e+00 0.000000000000000e+00 0.000000000000000e+00

0.000000000000000e+00 0.000000000000000e+00 0.000000000000000e+00
0.000000000000000e+00 0.000000000000000e+00 0.000000000000000e+00
0.000000000000000e+00 0.000000000000000e+00 0.000000000000000e+00

0.000000000000000e+00 0.000000000000000e+00 0.000000000000000e+00
0.000000000000000e+00 0.000000000000000e+00 0.000000000000000e+00
0.000000000000000e+00 0.000000000000000e+00 0.000000000000000e+00

0.000000000000000e+00 0.000000000000000e+00 0.000000000000000e+00
0.000000000000000e+00 0.000000000000000e+00 0.000000000000000e+00
0.000000000000000e+00 0.000000000000000e+00 0.000000000000000e+00

0.000000000000000e+00 0.000000000000000e+00 0.000000000000000e+00
0.000000000000000e+00 0.000000000000000e+00 0.000000000000000e+00
0.000000000000000e+00 0.000000000000000e+00 0.000000000000000e+00

0.000000000000000e+00 0.000000000000000e+00 0.000000000000000e+00
0.000000000000000e+00 0.000000000000000e+00 0.000000000000000e+00
0.000000000000000e+00 0.000000000000000e+00 0.000000000000000e+00

0.000000000000000e+00 0.000000000000000e+00 0.000000000000000e+00
0.000000000000000e+00 0.000000000000000e+00 0.000000000000000e+00
0.000000000000000e+00 0.000000000000000e+00 0.000000000000000e+00

0.000000000000000e+00 0.000000000000000e+00 0.000000000000000e+00
0.000000000000000e+00 0.000000000000000e+00 0.000000000000000e+00
0.000000000000000e+00 0.000000000000000e+00 0.000000000000000e+00

0.000000000000000e+00 0.000000000000000e+00 0.000000000000000e+00
0.000000000000000e+00 0.000000000000000e+00 0.000000000000000e+00
0.000000000000000e+00 0.000000000000000e+00 0.000000000000000e+00

0.000000000000000e+00 0.000000000000000e+00 0.000000000000000e+00
0.000000000000000e+00 0.000000000000000e+00 0.000000000000000e+00
0.000000000000000e+00 0.000000000000000e+00 0.000000000000000e+00

0.000000000000000e+00 0.000000000000000e+00 0.000000000000000e+00
0.000000000000000e+00 0.000000000000000e+00 0.000000000000000e+00
0.000000000000000e+00 0.000000000000000e+00 0.000000000000000e+00

0.000000000000000e+00 0.000000000000000e+00 0.000000000000000e+00
0.000000000000000e+00 0.000000000000000e+00 0.000000000000000e+00
0.000000000000000e+00 0.000000000000000e+00 0.000000000000000e+00

0.000000000000000e+00 0.000000000000000e+00 0.000000000000000e+00
0.000000000000000e+00 0.000000000000000e+00 0.000000000000000e+00
0.000000000000000e+00 0.000000000000000e+00 0.000000000000000e+00

0.000000000000000e+00 0.000000000000000e+00 0.000000000000000e+00
0.000000000000000e+00 0.000000000000000e+00 0.000000000000000e+00
0.000000000000000e+00 0.000000000000000e+00 0.000000000000000e+00

0.000000000000000e+00 0.000000000000000e+00 0.000000000000000e+00
0.000000000000000e+00 0.000000000000000e+00 0.000000000000000e+00
0.000000000000000e+00 0.000000000000000e+00 0.000000000000000e+00

0.000000000000000e+00 0.000000000000000e+00 0.000000000000000e+00
0.000000000000000e+00 0.000000000000000e+00 0.000000000000000e+00
0.000000000000000e+00 0.000000000000000e+00 0.000000000000000e+00

0.000000000000000e+00 0.000000000000000e+00 0.000000000000000e+00
0.000000000000000e+00 0.000000000000000e+00 0.000000000000000e+00
0.000000000000000e+00 0.000000000000000e+00 0.000000000000000e+00

0.000000000000000e+00 0.000000000000000e+00 0.000000000000000e+00
0.000000000000000e+00 0.000000000000000e+00 0.000000000000000e+00
0.000000000000000e+00 0.000000000000000e+00 0.000000000000000e+00

0.000000000000000e+00 0.000000000000000e+00 0.000000000000000e+00
0.000000000000000e+00 0.000000000000000e+00 0.000000000000000e+00
0.000000000000000e+00 0.000000000000000e+00 0.000000000000000e+00

0.000000000000000e+00 0.000000000000000e+00 0.000000000000000e+00
0.000000000000000e+00 0.000000000000000e+00 0.000000000000000e+00
0.000000000000000e+00 0.000000000000000e+00 0.000000000000000e+00

0.000000000000000e+00 0.000000000000000e+00 0.000000000000000e+00
0.000000000000000e+00 0.000000000000000e+00 0.000000000000000e+00
0.000000000000000e+00 0.000000000000000e+00 0.000000000000000e+00

0.000000000000000e+00 0.000000000000000e+00 0.000000000000000e+00
0.000000000000000e+00 0.000000000000000e+00 0.000000000000000e+00
0.000000000000000e+00 0.000000000000000e+00 0.000000000000000e+00

0.000000000000000e+00 0.000000000000000e+00 0.000000000000000e+00
0.000000000000000e+00 0.000000000000000e+00 0.000000000000000e+00
0.000000000000000e+00 0.000000000000000e+00 0.000000000000000e+00

0.000000000000000e+00 0.000000000000000e+00 0.000000000000000e+00
0.000000000000000e+00 0.000000000000000e+00 0.000000000000000e+00
0.000000000000000e+00 0.000000000000000e+00 0.000000000000000e+00

0.000000000000000e+00 0.000000000000000e+00 0.000000000000000e+00
0.000000000000000e+00 0.000000000000000e+00 0.000000000000000e+00
0.000000000000000e+00 0.000000000000000e+00 0.000000000000000e+00

0.000000000000000e+00 0.000000000000000e+00 0.000000000000000e+00
0.000000000000000e+00 0.000000000000000e+00 0.000000000000000e+00
0.000000000000000e+00 0.000000000000000e+00 0.000000000000000e+00

0.000000000000000e+00 0.000000000000000e+00 0.000000000000000e+00
0.000000000000000e+00 0.000000000000000e+00 0.000000000000000e+00
0.000000000000000e+00 0.000000000000000e+00 0.000000000000000e+00

0.000000000000000e+00 0.000000000000000e+00 0.000000000000000e+00
0.000000000000000e+00 0.000000000000000e+00 0.000000000000000e+00
0.000000000000000e+00 0.000000000000000e+00 0.000000000000000e+00

0.000000000000000e+00 0.000000000000000e+00 0.000000000000000e+00
0.000000000000000e+00 0.000000000000000e+00 0.000000000000000e+00
0.000000000000000e+00 0.000000000000000e+00 0.000000000000000e+00

0.000000000000000e+00 0.000000000000000e+00 0.000000000000000e+00
0.000000000000000e+00 0.000000000000000e+00 0.000000000000000e+00
0.000000000000000e+00 0.000000000000000e+00 0.000000000000000e+00

0.000000000000000e+00 0.000000000000000e+00 0.000000000000000e+00
0.000000000000000e+00 0.000000000000000e+00 0.000000000000000e+00
0.000000000000000e+00 0.000000000000000e+00 0.000000000000000e+00

0.000000000000000e+00 0.000000000000000e+00 0.000000000000000e+00
0.000000000000000e+00 0.000000000000000e+00 0.000000000000000e+00
0.000000000000000e+00 0.000000000000000e+00 0.000000000000000e+00

0.000000000000000e+00 0.000000000000000e+00 0.000000000000000e+00
0.000000000000000e+00 0.000000000000000e+00 0.000000000000000e+00
0.000000000000000e+00 0.000000000000000e+00 0.000000000000000e+00

0.000000000000000e+00 0.000000000000000e+00 0.000000000000000e+00
0.000000000000000e+00 0.000000000000000e+00 0.000000000000000e+00
0.000000000000000e+00 0.000000000000000e+00 0.000000000000000e+00

0.000000000000000e+00 0.000000000000000e+00 0.000000000000000e+00
0.000000000000000e+00 0.000000000000000e+00 0.000000000000000e+00
0.000000000000000e+00 0.000000000000000e+00 0.000000000000000e+00

0.000000000000000e+00 0.000000000000000e+00 0.000000000000000e+00
0.000000000000000e+00 0.000000000000000e+00 0.000000000000000e+00
0.000000000000000e+00 0.000000000000000e+00 0.000000000000000e+00

0.000000000000000e+00 0.000000000000000e+00 0.000000000000000e+00
0.000000000000000e+00 0.000000000000000e+00 0.000000000000000e+00
0.000000000000000e+00 0.000000000000000e+00 0.000000000000000e+00

0.000000000000000e+00 0.000000000000000e+00 0.000000000000000e+00
0.000000000000000e+00 0.000000000000000e+00 0.000000000000000e+00
0.000000000000000e+00 0.000000000000000e+00 0.000000000000000e+00

0.000000000000000e+00 0.000000000000000e+00 0.000000000000000e+00
0.000000000000000e+00 0.000000000000000e+00 0.000000000000000e+00
0.000000000000000e+00 0.000000000000000e+00 0.000000000000000e+00

0.000000000000000e+00 0.000000000000000e+00 0.000000000000000e+00
0.000000000000000e+00 0.000000000000000e+00 0.000000000000000e+00
0.000000000000000e+00 0.000000000000000e+00 0.000000000000000e+00

0.000000000000000e+00 0.000000000000000e+00 0.000000000000000e+00
0.000000000000000e+00 0.000000000000000e+00 0.000000000000000e+00
0.000000000000000e+00 0.000000000000000e+00 0.000000000000000e+00

0.000000000000000e+00 0.000000000000000e+00 0.000000000000000e+00
0.000000000000000e+00 0.000000000000000e+00 0.000000000000000e+00
0.000000000000000e+00 0.000000000000000e+00 0.000000000000000e+00

0.000000000000000e+00 0.000000000000000e+00 0.000000000000000e+00
0.000000000000000e+00 0.000000000000000e+00 0.000000000000000e+00
0.000000000000000e+00 0.000000000000000e+00 0.000000000000000e+00

0.000000000000000e+00 0.000000000000000e+00 0.000000000000000e+00
0.000000000000000e+00 0.000000000000000e+00 0.000000000000000e+00
0.000000000000000e+00 0.000000000000000e+00 0.000000000000000e+00

0.000000000000000e+00 0.000000000000000e+00 0.000000000000000e+00
0.000000000000000e+00 0.000000000000000e+00 0.000000000000000e+00
0.000000000000000e+00 0.000000000000000e+00 0.000000000000000e+00

0.000000000000000e+00 0.000000000000000e+00 0.000000000000000e+00
0.000000000000000e+00 0.000000000000000e+00 0.000000000000000e+00
0.000000000000000e+00 0.000000000000000e+00 0.000000000000000e+00

0.000000000000000e+00 0.000000000000000e+00 0.000000000000000e+00
0.000000000000000e+00 0.000000000000000e+00 0.000000000000000e+00
0.000000000000000e+00 0.000000000000000e+00 0.000000000000000e+00

0.000000000000000e+00 0.000000000000000e+00 0.000000000000000e+00
0.000000000000000e+00 0.000000000000000e+00 0.000000000000000e+00
0.000000000000000e+00 0.000000000000000e+00 0.000000000000000e+00

0.000000000000000e+00 0.000000000000000e+00 0.000000000000000e+00
0.000000000000000e+00 0.000000000000000e+00 0.000000000000000e+00
0.000000000000000e+00 0.000000000000000e+00 0.000000000000000e+00

0.000000000000000e+00 0.000000000000000e+00 0.000000000000000e+00
0.000000000000000e+00 0.000000000000000e+00 0.000000000000000e+00
0.000000000000000e+00 0.000000000000000e+00 0.000000000000000e+00

0.000000000000000e+00 0.000000000000000e+00 0.000000000000000e+00
0.000000000000000e+00 0.000000000000000e+00 0.000000000000000e+00
0.000000000000000e+00 0.000000000000000e+00 0.000000000000000e+00

0.000000000000000e+00 0.000000000000000e+00 0.000000000000000e+00
0.000000000000000e+00 0.000000000000000e+00 0.000000000000000e+00
0.000000000000000e+00 0.000000000000000e+00 0.000000000000000e+00

0.000000000000000e+00 0.000000000000000e+00 0.000000000000000e+00
0.000000000000000e+00 0.000000000000000e+00 0.000000000000000e+00
0.000000000000000e+00 0.000000000000000e+00 0.000000000000000e+00

0.000000000000000e+00 0.000000000000000e+00 0.000000000000000e+00
0.000000000000000e+00 0.000000000000000e+00 0.000000000000000e+00
0.000000000000000e+00 0.000000000000000e+00 0.000000000000000e+00

0.000000000000000e+00 0.000000000000000e+00 0.000000000000000e+00
0.000000000000000e+00 0.000000000000000e+00 0.000000000000000e+00
0.000000000000000e+00 0.000000000000000e+00 0.000000000000000e+00

0.000000000000000e+00 0.000000000000000e+00 0.000000000000000e+00
0.000000000000000e+00 0.000000000000000e+00 0.000000000000000e+00
0.000000000000000e+00 0.000000000000000e+00 0.000000000000000e+00

0.000000000000000e+00 0.000000000000000e+00 0.000000000000000e+00
0.000000000000000e+00 0.000000000000000e+00 0.000000000000000e+00
0.000000000000000e+00 0.000000000000000e+00 0.000000000000000e+00

0.000000000000000e+00 0.000000000000000e+00 0.000000000000000e+00
0.000000000000000e+00 0.000000000000000e+00 0.000000000000000e+00
0.000000000000000e+00 0.000000000000000e+00 0.000000000000000e+00

0.000000000000000e+00 0.000000000000000e+00 0.000000000000000e+00
0.000000000000000e+00 0.000000000000000e+00 0.000000000000000e+00
0.000000000000000e+00 0.000000000000000e+00 0.000000000000000e+00

0.000000000000000e+00 0.000000000000000e+00 0.000000000000000e+00
0.000000000000000e+00 0.000000000000000e+00 0.000000000000000e+00
0.000000000000000e+00 0.000000000000000e+00 0.000000000000000e+00

0.000000000000000e+00 0.000000000000000e+00 0.000000000000000e+00
0.000000000000000e+00 0.000000000000000e+00 0.000000000000000e+00
0.000000000000000e+00 0.000000000000000e+00 0.000000000000000e+00

0.000000000000000e+00 0.000000000000000e+00 0.000000000000000e+00
0.000000000000000e+00 0.000000000000000e+00 0.000000000000000e+00
0.000000000000000e+00 0.000000000000000e+00 0.000000000000000e+00

0.000000000000000e+00 0.000000000000000e+00 0.000000000000000e+00
0.000000000000000e+00 0.000000000000000e+00 0.000000000000000e+00
0.000000000000000e+00 0.000000000000000e+00 0.000000000000000e+00

0.000000000000000e+00 0.000000000000000e+00 0.000000000000000e+00
0.000000000000000e+00 0.000000000000000e+00 0.000000000000000e+00
0.000000000000000e+00 0.000000000000000e+00 0.000000000000000e+00

0.000000000000000e+00 0.000000000000000e+00 0.000000000000000e+00
0.000000000000000e+00 0.000000000000000e+00 0.000000000000000e+00
0.000000000000000e+00 0.000000000000000e+00 0.000000000000000e+00

0.000000000000000e+00 0.000000000000000e+00 0.000000000000000e+00
0.000000000000000e+00 0.000000000000000e+00 0.000000000000000e+00
0.000000000000000e+00 0.000000000000000e+00 0.000000000000000e+00

0.000000000000000e+00 0.000000000000000e+00 0.000000000000000e+00
0.000000000000000e+00 0.000000000000000e+00 0.000000000000000e+00
0.000000000000000e+00 0.000000000000000e+00 0.000000000000000e+00

0.000000000000000e+00 0.000000000000000e+00 0.000000000000000e+00
0.000000000000000e+00 0.000000000000000e+00 0.000000000000000e+00
0.000000000000000e+00 0.000000000000000e+00 0.000000000000000e+00

0.000000000000000e+00 0.000000000000000e+00 0.000000000000000e+00
0.000000000000000e+00 0.000000000000000e+00 0.000000000000000e+00
0.000000000000000e+00 0.000000000000000e+00 0.000000000000000e+00

0.000000000000000e+00 0.000000000000000e+00 0.000000000000000e+00
0.000000000000000e+00 0.000000000000000e+00 0.000000000000000e+00
0.000000000000000e+00 0.000000000000000e+00 0.000000000000000e+00

0.000000000000000e+00 0.000000000000000e+00 0.000000000000000e+00
0.000000000000000e+00 0.000000000000000e+00 0.000000000000000e+00
0.000000000000000e+00 0.000000000000000e+00 0.000000000000000e+00

0.000000000000000e+00 0.000000000000000e+00 0.000000000000000e+00
0.000000000000000e+00 0.000000000000000e+00 0.000000000000000e+00
0.000000000000000e+00 0.000000000000000e+00 0.000000000000000e+00

0.000000000000000e+00 0.000000000000000e+00 0.000000000000000e+00
0.000000000000000e+00 0.000000000000000e+00 0.000000000000000e+00
0.000000000000000e+00 0.000000000000000e+00 0.000000000000000e+00

0.000000000000000e+00 0.000000000000000e+00 0.000000000000000e+00
0.000000000000000e+00 0.000000000000000e+00 0.000000000000000e+00
0.000000000000000e+00 0.000000000000000e+00 0.000000000000000e+00

0.000000000000000e+00 0.000000000000000e+00 0.000000000000000e+00
0.000000000000000e+00 0.000000000000000e+00 0.000000000000000e+00
0.000000000000000e+00 0.000000000000000e+00 0.000000000000000e+00

0.000000000000000e+00 0.000000000000000e+00 0.000000000000000e+00
0.000000000000000e+00 0.000000000000000e+00 0.000000000000000e+00
0.000000000000000e+00 0.000000000000000e+00 0.000000000000000e+00

0.000000000000000e+00 0.000000000000000e+00 0.000000000000000e+00
0.000000000000000e+00 0.000000000000000e+00 0.000000000000000e+00
0.000000000000000e+00 0.000000000000000e+00 0.000000000000000e+00

0.000000000000000e+00 0.000000000000000e+00 0.000000000000000e+00
0.000000000000000e+00 0.000000000000000e+00 0.000000000000000e+00
0.000000000000000e+00 0.000000000000000e+00 0.000000000000000e+00

0.000000000000000e+00 0.000000000000000e+00 0.000000000000000e+00
0.000000000000000e+00 0.000000000000000e+00 0.000000000000000e+00
0.000000000000000e+00 0.000000000000000e+00 0.000000000000000e+00

0.000000000000000e+00 0.000000000000000e+00 0.000000000000000e+00
0.000000000000000e+00 0.000000000000000e+00 0.000000000000000e+00
0.000000000000000e+00 0.000000000000000e+00 0.000000000000000e+00

0.000000000000000e+00 0.000000000000000e+00 0.000000000000000e+00
0.000000000000000e+00 0.000000000000000e+00 0.000000000000000e+00
0.000000000000000e+00 0.000000000000000e+00 0.000000000000000e+00

0.000000000000000e+00 0.000000000000000e+00 0.000000000000000e+00
0.000000000000000e+00 0.000000000000000e+00 0.000000000000000e+00
0.000000000000000e+00 0.000000000000000e+00 0.000000000000000e+00

0.000000000000000e+00 0.000000000000000e+00 0.000000000000000e+00
0.000000000000000e+00 0.000000000000000e+00 0.000000000000000e+00
0.000000000000000e+00 0.000000000000000e+00 0.000000000000000e+00

0.000000000000000e+00 0.000000000000000e+00 0.000000000000000e+00
0.000000000000000e+00 0.000000000000000e+00 0.000000000000000e+00
0.000000000000000e+00 0.000000000000000e+00 0.000000000000000e+00

0.000000000000000e+00 0.000000000000000e+00 0.000000000000000e+00
0.000000000000000e+00 0.000000000000000e+00 0.000000000000000e+00
0.000000000000000e+00 0.000000000000000e+00 0.000000000000000e+00

0.000000000000000e+00 0.000000000000000e+00 0.000000000000000e+00
0.000000000000000e+00 0.000000000000000e+00 0.000000000000000e+00
0.000000000000000e+00 0.000000000000000e+00 0.000000000000000e+00

0.000000000000000e+00 0.000000000000000e+00 0.000000000000000e+00
0.000000000000000e+00 0.000000000000000e+00 0.000000000000000e+00
0.000000000000000e+00 0.000000000000000e+00 0.000000000000000e+00

0.000000000000000e+00 0.000000000000000e+00 0.000000000000000e+00
0.000000000000000e+00 0.000000000000000e+00 0.000000000000000e+00
0.000000000000000e+00 0.000000000000000e+00 0.000000000000000e+00

0.000000000000000e+00 0.000000000000000e+00 0.000000000000000e+00
0.000000000000000e+00 0.000000000000000e+00 0.000000000000000e+00
0.000000000000000e+00 0.000000000000000e+00 0.000000000000000e+00

0.000000000000000e+00 0.000000000000000e+00 0.000000000000000e+00
0.000000000000000e+00 0.000000000000000e+00 0.000000000000000e+00
0.000000000000000e+00 0.000000000000000e+00 0.000000000000000e+00

0.000000000000000e+00 0.000000000000000e+00 0.000000000000000e+00
0.000000000000000e+00 0.000000000000000e+00 0.000000000000000e+00
0.000000000000000e+00 0.000000000000000e+00 0.000000000000000e+00

0.000000000000000e+00 0.000000000000000e+00 0.000000000000000e+00
0.000000000000000e+00 0.000000000000000e+00 0.000000000000000e+00
0.000000000000000e+00 0.000000000000000e+00 0.000000000000000e+00

0.000000000000000e+00 0.000000000000000e+00 0.000000000000000e+00
0.000000000000000e+00 0.000000000000000e+00 0.000000000000000e+00
0.000000000000000e+00 0.000000000000000e+00 0.000000000000000e+00

0.000000000000000e+00 0.000000000000000e+00 0.000000000000000e+00
0.000000000000000e+00 0.000000000000000e+00 0.000000000000000e+00
0.000000000000000e+00 0.000000000000000e+00 0.000000000000000e+00

0.000000000000000e+00 0.000000000000000e+00 0.000000000000000e+00
0.000000000000000e+00 0.000000000000000e+00 0.000000000000000e+00
0.000000000000000e+00 0.000000000000000e+00 0.000000000000000e+00

0.000000000000000e+00 0.000000000000000e+00 0.000000000000000e+00
0.000000000000000e+00 0.000000000000000e+00 0.000000000000000e+00
0.000000000000000e+00 0.000000000000000e+00 0.000000000000000e+00

0.000000000000000e+00 0.000000000000000e+00 0.000000000000000e+00
0.000000000000000e+00 0.000000000000000e+00 0.000000000000000e+00
0.000000000000000e+00 0.000000000000000e+00 0.000000000000000e+00

0.000000000000000e+00 0.000000000000000e+00 0.000000000000000e+00
0.000000000000000e+00 0.000000000000000e+00 0.000000000000000e+00
0.000000000000000e+00 0.000000000000000e+00 0.000000000000000e+00

0.000000000000000e+00 0.000000000000000e+00 0.000000000000000e+00
0.000000000000000e+00 0.000000000000000e+00 0.000000000000000e+00
0.000000000000000e+00 0.000000000000000e+00 0.000000000000000e+00

0.000000000000000e+00 0.000000000000000e+00 0.000000000000000e+00
0.000000000000000e+00 0.000000000000000e+00 0.000000000000000e+00
0.000000000000000e+00 0.000000000000000e+00 0.000000000000000e+00

0.000000000000000e+00 0.000000000000000e+00 0.000000000000000e+00
0.000000000000000e+00 0.000000000000000e+00 0.000000000000000e+00
0.000000000000000e+00 0.000000000000000e+00 0.000000000000000e+00

0.000000000000000e+00 0.000000000000000e+00 0.000000000000000e+00
0.000000000000000e+00 0.000000000000000e+00 0.000000000000000e+00
0.000000000000000e+00 0.000000000000000e+00 0.000000000000000e+00

0.000000000000000e+00 0.000000000000000e+00 0.000000000000000e+00
0.000000000000000e+00 0.000000000000000e+00 0.000000000000000e+00
0.000000000000000e+00 0.000000000000000e+00 0.000000000000000e+00

0.000000000000000e+00 0.000000000000000e+00 0.000000000000000e+00
0.000000000000000e+00 0.000000000000000e+00 0.000000000000000e+00
0.000000000000000e+00 0.000000000000000e+00 0.000000000000000e+00

0.000000000000000e+00 0.000000000000000e+00 0.000000000000000e+00
0.000000000000000e+00 0.000000000000000e+00 0.000000000000000e+00
0.000000000000000e+00 0.000000000000000e+00 0.000000000000000e+00

0.000000000000000e+00 0.000000000000000e+00 0.000000000000000e+00
0.000000000000000e+00 0.000000000000000e+00 0.000000000000000e+00
0.000000000000000e+00 0.000000000000000e+00 0.000000000000000e+00

0.000000000000000e+00 0.000000000000000e+00 0.000000000000000e+00
0.000000000000000e+00 0.000000000000000e+00 0.000000000000000e+00
0.000000000000000e+00 0.000000000000000e+00 0.000000000000000e+00

0.000000000000000e+00 0.000000000000000e+00 0.000000000000000e+00
0.000000000000000e+00 0.000000000000000e+00 0.000000000000000e+00
0.000000000000000e+00 0.000000000000000e+00 0.000000000000000e+00

0.000000000000000e+00 0.000000000000000e+00 0.000000000000000e+00
0.000000000000000e+00 0.000000000000000e+00 0.000000000000000e+00
0.000000000000000e+00 0.000000000000000e+00 0.000000000000000e+00

0.000000000000000e+00 0.000000000000000e+00 0.000000000000000e+00
0.000000000000000e+00 0.000000000000000e+00 0.000000000000000e+00
0.000000000000000e+00 0.000000000000000e+00 0.000000000000000e+00

0.000000000000000e+00 0.000000000000000e+00 0.000000000000000e+00
0.000000000000000e+00 0.000000000000000e+00 0.000000000000000e+00
0.000000000000000e+00 0.000000000000000e+00 0.000000000000000e+00

0.000000000000000e+00 0.000000000000000e+00 0.000000000000000e+00
0.000000000000000e+00 0.000000000000000e+00 0.000000000000000e+00
0.000000000000000e+00 0.000000000000000e+00 0.000000000000000e+00

0.000000000000000e+00 0.000000000000000e+00 0.000000000000000e+00
0.000000000000000e+00 0.000000000000000e+00 0.000000000000000e+00
0.000000000000000e+00 0.000000000000000e+00 0.000000000000000e+00

0.000000000000000e+00 0.000000000000000e+00 0.000000000000000e+00
0.000000000000000e+00 0.000000000000000e+00 0.000000000000000e+00
0.000000000000000e+00 0.000000000000000e+00 0.000000000000000e+00

0.000000000000000e+00 0.000000000000000e+00 0.000000000000000e+00
0.000000000000000e+00 0.000000000000000e+00 0.000000000000000e+00
0.000000000000000e+00 0.000000000000000e+00 0.000000000000000e+00

0.000000000000000e+00 0.000000000000000e+00 0.000000000000000e+00
0.000000000000000e+00 0.000000000000000e+00 0.000000000000000e+00
0.000000000000000e+00 0.000000000000000e+00 0.000000000000000e+00

0.000000000000000e+00 0.000000000000000e+00 0.000000000000000e+00
0.000000000000000e+00 0.000000000000000e+00 0.000000000000000e+00
0.000000000000000e+00 0.000000000000000e+00 0.000000000000000e+00

0.000000000000000e+00 0.000000000000000e+00 0.000000000000000e+00
0.000000000000000e+00 0.000000000000000e+00 0.000000000000000e+00
0.000000000000000e+00 0.000000000000000e+00 0.000000000000000e+00

0.000000000000000e+00 0.000000000000000e+00 0.000000000000000e+00
0.000000000000000e+00 0.000000000000000e+00 0.000000000000000e+00
0.000000000000000e+00 0.000000000000000e+00 0.000000000000000e+00

0.000000000000000e+00 0.000000000000000e+00 0.000000000000000e+00
0.000000000000000e+00 0.000000000000000e+00 0.000000000000000e+00
0.000000000000000e+00 0.000000000000000e+00 0.000000000000000e+00

0.000000000000000e+00 0.000000000000000e+00 0.000000000000000e+00
0.000000000000000e+00 0.000000000000000e+00 0.000000000000000e+00
0.000000000000000e+00 0.000000000000000e+00 0.000000000000000e+00

0.000000000000000e+00 0.000000000000000e+00 0.000000000000000e+00
0.000000000000000e+00 0.000000000000000e+00 0.000000000000000e+00
0.000000000000000e+00 0.000000000000000e+00 0.000000000000000e+00

0.000000000000000e+00 0.000000000000000e+00 0.000000000000000e+00
0.000000000000000e+00 0.000000000000000e+00 0.000000000000000e+00
0.000000000000000e+00 0.000000000000000e+00 0.000000000000000e+00

0.000000000000000e+00 0.000000000000000e+00 0.000000000000000e+00
0.000000000000000e+00 0.000000000000000e+00 0.000000000000000e+00
0.000000000000000e+00 0.000000000000000e+00 0.000000000000000e+00

0.000000000000000e+00 0.000000000000000e+00 0.000000000000000e+00
0.000000000000000e+00 0.000000000000000e+00 0.000000000000000e+00
0.000000000000000e+00 0.000000000000000e+00 0.000000000000000e+00

0.000000000000000e+00 0.000000000000000e+00 0.000000000000000e+00
0.000000000000000e+00 0.000000000000000e+00 0.000000000000000e+00
0.000000000000000e+00 0.000000000000000e+00 0.000000000000000e+00

0.000000000000000e+00 0.000000000000000e+00 0.000000000000000e+00
0.000000000000000e+00 0.000000000000000e+00 0.000000000000000e+00
0.000000000000000e+00 0.000000000000000e+00 0.000000000000000e+00

0.000000000000000e+00 0.000000000000000e+00 0.000000000000000e+00
0.000000000000000e+00 0.000000000000000e+00 0.000000000000000e+00
0.000000000000000e+00 0.000000000000000e+00 0.000000000000000e+00

0.000000000000000e+00 0.000000000000000e+00 0.000000000000000e+00
0.000000000000000e+00 0.000000000000000e+00 0.000000000000000e+00
0.000000000000000e+00 0.000000000000000e+00 0.000000000000000e+00

0.000000000000000e+00 0.000000000000000e+00 0.000000000000000e+00
0.000000000000000e+00 0.000000000000000e+00 0.000000000000000e+00
0.000000000000000e+00 0.000000000000000e+00 0.000000000000000e+00

0.000000000000000e+00 0.000000000000000e+00 0.000000000000000e+00
0.000000000000000e+00 0.000000000000000e+00 0.000000000000000e+00
0.000000000000000e+00 0.000000000000000e+00 0.000000000000000e+00

0.000000000000000e+00 0.000000000000000e+00 0.000000000000000e+00
0.000000000000000e+00 0.000000000000000e+00 0.000000000000000e+00
0.000000000000000e+00 0.000000000000000e+00 0.000000000000000e+00

0.000000000000000e+00 0.000000000000000e+00 0.000000000000000e+00
0.000000000000000e+00 0.000000000000000e+00 0.000000000000000e+00
0.000000000000000e+00 0.000000000000000e+00 0.000000000000000e+00

0.000000000000000e+00 0.000000000000000e+00 0.000000000000000e+00
0.000000000000000e+00 0.000000000000000e+00 0.000000000000000e+00
0.000000000000000e+00 0.000000000000000e+00 0.000000000000000e+00

0.000000000000000e+00 0.000000000000000e+00 0.000000000000000e+00
0.000000000000000e+00 0.000000000000000e+00 0.000000000000000e+00
0.000000000000000e+00 0.000000000000000e+00 0.000000000000000e+00

0.000000000000000e+00 0.000000000000000e+00 0.000000000000000e+00
0.000000000000000e+00 0.000000000000000e+00 0.000000000000000e+00
0.000000000000000e+00 0.000000000000000e+00 0.000000000000000e+00

0.000000000000000e+00 0.000000000000000e+00 0.000000000000000e+00
0.000000000000000e+00 0.000000000000000e+00 0.000000000000000e+00
0.000000000000000e+00 0.000000000000000e+00 0.000000000000000e+00

0.000000000000000e+00 0.000000000000000e+00 0.000000000000000e+00
0.000000000000000e+00 0.000000000000000e+00 0.000000000000000e+00
0.000000000000000e+00 0.000000000000000e+00 0.000000000000000e+00

0.000000000000000e+00 0.000000000000000e+00 0.000000000000000e+00
0.000000000000000e+00 0.000000000000000e+00 0.000000000000000e+00
0.000000000000000e+00 0.000000000000000e+00 0.000000000000000e+00

0.000000000000000e+00 0.000000000000000e+00 0.000000000000000e+00
0.000000000000000e+00 0.000000000000000e+00 0.000000000000000e+00
0.000000000000000e+00 0.000000000000000e+00 0.000000000000000e+00

0.000000000000000e+00 0.000000000000000e+00 0.000000000000000e+00
0.000000000000000e+00 0.000000000000000e+00 0.000000000000000e+00
0.000000000000000e+00 0.000000000000000e+00 0.000000000000000e+00

0.000000000000000e+00 0.000000000000000e+00 0.000000000000000e+00
0.000000000000000e+00 0.000000000000000e+00 0.000000000000000e+00
0.000000000000000e+00 0.000000000000000e+00 0.000000000000000e+00

0.000000000000000e+00 0.000000000000000e+00 0.000000000000000e+00
0.000000000000000e+00 0.000000000000000e+00 0.000000000000000e+00
0.000000000000000e+00 0.000000000000000e+00 0.000000000000000e+00

0.000000000000000e+00 0.000000000000000e+00 0.000000000000000e+00
0.000000000000000e+00 0.000000000000000e+00 0.000000000000000e+00
0.000000000000000e+00 0.000000000000000e+00 0.000000000000000e+00

0.000000000000000e+00 0.000000000000000e+00 0.000000000000000e+00
0.000000000000000e+00 0.000000000000000e+00 0.000000000000000e+00
0.000000000000000e+00 0.000000000000000e+00 0.000000000000000e+00

0.000000000000000e+00 0.000000000000000e+00 0.000000000000000e+00
0.000000000000000e+00 0.000000000000000e+00 0.000000000000000e+00
0.000000000000000e+00 0.000000000000000e+00 0.000000000000000e+00

0.000000000000000e+00 0.000000000000000e+00 0.000000000000000e+00
0.000000000000000e+00 0.000000000000000e+00 0.000000000000000e+00
0.000000000000000e+00 0.000000000000000e+00 0.000000000000000e+00

0.000000000000000e+00 0.000000000000000e+00 0.000000000000000e+00
0.000000000000000e+00 0.000000000000000e+00 0.000000000000000e+00
0.000000000000000e+00 0.000000000000000e+00 0.000000000000000e+00

0.000000000000000e+00 0.000000000000000e+00 0.000000000000000e+00
0.000000000000000e+00 0.000000000000000e+00 0.000000000000000e+00
0.000000000000000e+00 0.000000000000000e+00 0.000000000000000e+00

0.000000000000000e+00 0.000000000000000e+00 0.000000000000000e+00
0.000000000000000e+00 0.000000000000000e+00 0.000000000000000e+00
0.000000000000000e+00 0.000000000000000e+00 0.000000000000000e+00

0.000000000000000e+00 0.000000000000000e+00 0.000000000000000e+00
0.000000000000000e+00 0.000000000000000e+00 0.000000000000000e+00
0.000000000000000e+00 0.000000000000000e+00 0.000000000000000e+00

0.000000000000000e+00 0.000000000000000e+00 0.000000000000000e+00
0.000000000000000e+00 0.000000000000000e+00 0.000000000000000e+00
0.000000000000000e+00 0.000000000000000e+00 0.000000000000000e+00

0.000000000000000e+00 0.000000000000000e+00 0.000000000000000e+00
0.000000000000000e+00 0.000000000000000e+00 0.000000000000000e+00
0.000000000000000e+00 0.000000000000000e+00 0.000000000000000e+00

0.000000000000000e+00 0.000000000000000e+00 0.000000000000000e+00
0.000000000000000e+00 0.000000000000000e+00 0.000000000000000e+00
0.000000000000000e+00 0.000000000000000e+00 0.000000000000000e+00

0.000000000000000e+00 0.000000000000000e+00 0.000000000000000e+00
0.000000000000000e+00 0.000000000000000e+00 0.000000000000000e+00
0.000000000000000e+00 0.000000000000000e+00 0.000000000000000e+00

0.000000000000000e+00 0.000000000000000e+00 0.000000000000000e+00
0.000000000000000e+00 0.000000000000000e+00 0.000000000000000e+00
0.000000000000000e+00 0.000000000000000e+00 0.000000000000000e+00

0.000000000000000e+00 0.000000000000000e+00 0.000000000000000e+00
0.000000000000000e+00 0.000000000000000e+00 0.000000000000000e+00
0.000000000000000e+00 0.000000000000000e+00 0.000000000000000e+00

0.000000000000000e+00 0.000000000000000e+00 0.000000000000000e+00
0.000000000000000e+00 0.000000000000000e+00 0.000000000000000e+00
0.000000000000000e+00 0.000000000000000e+00 0.000000000000000e+00

0.000000000000000e+00 0.000000000000000e+00 0.000000000000000e+00
0.000000000000000e+00 0.000000000000000e+00 0.000000000000000e+00
0.000000000000000e+00 0.000000000000000e+00 0.000000000000000e+00

0.000000000000000e+00 0.000000000000000e+00 0.000000000000000e+00
0.000000000000000e+00 0.000000000000000e+00 0.000000000000000e+00
0.000000000000000e+00 0.000000000000000e+00 0.000000000000000e+00

0.000000000000000e+00 0.000000000000000e+00 0.000000000000000e+00
0.000000000000000e+00 0.000000000000000e+00 0.000000000000000e+00
0.000000000000000e+00 0.000000000000000e+00 0.000000000000000e+00

0.000000000000000e+00 0.000000000000000e+00 0.000000000000000e+00
0.000000000000000e+00 0.000000000000000e+00 0.000000000000000e+00
0.000000000000000e+00 0.000000000000000e+00 0.000000000000000e+00

0.000000000000000e+00 0.000000000000000e+00 0.000000000000000e+00
0.000000000000000e+00 0.000000000000000e+00 0.000000000000000e+00
0.000000000000000e+00 0.000000000000000e+00 0.000000000000000e+00

0.000000000000000e+00 0.000000000000000e+00 0.000000000000000e+00
0.000000000000000e+00 0.000000000000000e+00 0.000000000000000e+00
0.000000000000000e+00 0.000000000000000e+00 0.000000000000000e+00

0.000000000000000e+00 0.000000000000000e+00 0.000000000000000e+00
0.000000000000000e+00 0.000000000000000e+00 0.000000000000000e+00
0.000000000000000e+00 0.000000000000000e+00 0.000000000000000e+00

0.000000000000000e+00 0.000000000000000e+00 0.000000000000000e+00
0.000000000000000e+00 0.000000000000000e+00 0.000000000000000e+00
0.000000000000000e+00 0.000000000000000e+00 0.000000000000000e+00

0.000000000000000e+00 0.000000000000000e+00 0.000000000000000e+00
0.000000000000000e+00 0.000000000000000e+00 0.000000000000000e+00
0.000000000000000e+00 0.000000000000000e+00 0.000000000000000e+00

0.000000000000000e+00 0.000000000000000e+00 0.000000000000000e+00
0.000000000000000e+00 0.000000000000000e+00 0.000000000000000e+00
0.000000000000000e+00 0.000000000000000e+00 0.000000000000000e+00

0.000000000000000e+00 0.000000000000000e+00 0.000000000000000e+00
0.000000000000000e+00 0.000000000000000e+00 0.000000000000000e+00
0.000000000000000e+00 0.000000000000000e+00 0.000000000000000e+00

0.000000000000000e+00 0.000000000000000e+00 0.000000000000000e+00
0.000000000000000e+00 0.000000000000000e+00 0.000000000000000e+00
0.000000000000000e+00 0.000000000000000e+00 0.000000000000000e+00

0.000000000000000e+00 0.000000000000000e+00 0.000000000000000e+00
0.000000000000000e+00 0.000000000000000e+00 0.000000000000000e+00
0.000000000000000e+00 0.000000000000000e+00 0.000000000000000e+00

0.000000000000000e+00 0.000000000000000e+00 0.000000000000000e+00
0.000000000000000e+00 0.000000000000000e+00 0.000000000000000e+00
0.000000000000000e+00 0.000000000000000e+00 0.000000000000000e+00

0.000000000000000e+00 0.000000000000000e+00 0.000000000000000e+00
0.000000000000000e+00 0.000000000000000e+00 0.000000000000000e+00
0.000000000000000e+00 0.000000000000000e+00 0.000000000000000e+00

0.000000000000000e+00 0.000000000000000e+00 0.000000000000000e+00
0.000000000000000e+00 0.000000000000000e+00 0.000000000000000e+00
0.000000000000000e+00 0.000000000000000e+00 0.000000000000000e+00

0.000000000000000e+00 0.000000000000000e+00 0.000000000000000e+00
0.000000000000000e+00 0.000000000000000e+00 0.000000000000000e+00
0.000000000000000e+00 0.000000000000000e+00 0.000000000000000e+00

0.000000000000000e+00 0.000000000000000e+00 0.000000000000000e+00
0.000000000000000e+00 0.000000000000000e+00 0.000000000000000e+00
0.000000000000000e+00 0.000000000000000e+00 0.000000000000000e+00

0.000000000000000e+00 0.000000000000000e+00 0.000000000000000e+00
0.000000000000000e+00 0.000000000000000e+00 0.000000000000000e+00
0.000000000000000e+00 0.000000000000000e+00 0.000000000000000e+00

0.000000000000000e+00 0.000000000000000e+00 0.000000000000000e+00
0.000000000000000e+00 0.000000000000000e+00 0.000000000000000e+00
0.000000000000000e+00 0.000000000000000e+00 0.000000000000000e+00

0.000000000000000e+00 0.000000000000000e+00 0.000000000000000e+00
0.000000000000000e+00 0.000000000000000e+00 0.000000000000000e+00
0.000000000000000e+00 0.000000000000000e+00 0.000000000000000e+00

0.000000000000000e+00 0.000000000000000e+00 0.000000000000000e+00
0.000000000000000e+00 0.000000000000000e+00 0.000000000000000e+00
0.000000000000000e+00 0.000000000000000e+00 0.000000000000000e+00

0.000000000000000e+00 0.000000000000000e+00 0.000000000000000e+00
0.000000000000000e+00 0.000000000000000e+00 0.000000000000000e+00
0.000000000000000e+00 0.000000000000000e+00 0.000000000000000e+00

0.000000000000000e+00 0.000000000000000e+00 0.000000000000000e+00
0.000000000000000e+00 0.000000000000000e+00 0.000000000000000e+00
0.000000000000000e+00 0.000000000000000e+00 0.000000000000000e+00

0.000000000000000e+00 0.000000000000000e+00 0.000000000000000e+00
0.000000000000000e+00 0.000000000000000e+00 0.000000000000000e+00
0.000000000000000e+00 0.000000000000000e+00 0.000000000000000e+00

0.000000000000000e+00 0.000000000000000e+00 0.000000000000000e+00
0.000000000000000e+00 0.000000000000000e+00 0.000000000000000e+00
0.000000000000000e+00 0.000000000000000e+00 0.000000000000000e+00

0.000000000000000e+00 0.000000000000000e+00 0.000000000000000e+00
0.000000000000000e+00 0.000000000000000e+00 0.000000000000000e+00
0.000000000000000e+00 0.000000000000000e+00 0.000000000000000e+00

0.000000000000000e+00 0.000000000000000e+00 0.000000000000000e+00
0.000000000000000e+00 0.000000000000000e+00 0.000000000000000e+00
0.000000000000000e+00 0.000000000000000e+00 0.000000000000000e+00

0.000000000000000e+00 0.000000000000000e+00 0.000000000000000e+00
0.000000000000000e+00 0.000000000000000e+00 0.000000000000000e+00
0.000000000000000e+00 0.000000000000000e+00 0.000000000000000e+00

0.000000000000000e+00 0.000000000000000e+00 0.000000000000000e+00
0.000000000000000e+00 0.000000000000000e+00 0.000000000000000e+00
0.000000000000000e+00 0.000000000000000e+00 0.000000000000000e+00

0.000000000000000e+00 0.000000000000000e+00 0.000000000000000e+00
0.000000000000000e+00 0.000000000000000e+00 0.000000000000000e+00
0.000000000000000e+00 0.000000000000000e+00 0.000000000000000e+00

0.000000000000000e+00 0.000000000000000e+00 0.000000000000000e+00
0.000000000000000e+00 0.000000000000000e+00 0.000000000000000e+00
0.000000000000000e+00 0.000000000000000e+00 0.000000000000000e+00

0.000000000000000e+00 0.000000000000000e+00 0.000000000000000e+00
0.000000000000000e+00 0.000000000000000e+00 0.000000000000000e+00
0.000000000000000e+00 0.000000000000000e+00 0.000000000000000e+00

0.000000000000000e+00 0.000000000000000e+00 0.000000000000000e+00
0.000000000000000e+00 0.000000000000000e+00 0.000000000000000e+00
0.000000000000000e+00 0.000000000000000e+00 0.000000000000000e+00

0.000000000000000e+00 0.000000000000000e+00 0.000000000000000e+00
0.000000000000000e+00 0.000000000000000e+00 0.000000000000000e+00
0.000000000000000e+00 0.000000000000000e+00 0.000000000000000e+00

0.000000000000000e+00 0.000000000000000e+00 0.000000000000000e+00
0.000000000000000e+00 0.000000000000000e+00 0.000000000000000e+00
0.000000000000000e+00 0.000000000000000e+00 0.000000000000000e+00

0.000000000000000e+00 0.000000000000000e+00 0.000000000000000e+00
0.000000000000000e+00 0.000000000000000e+00 0.000000000000000e+00
0.000000000000000e+00 0.000000000000000e+00 0.000000000000000e+00

0.000000000000000e+00 0.000000000000000e+00 0.000000000000000e+00
0.000000000000000e+00 0.000000000000000e+00 0.000000000000000e+00
0.000000000000000e+00 0.000000000000000e+00 0.000000000000000e+00

0.000000000000000e+00 0.000000000000000e+00 0.000000000000000e+00
0.000000000000000e+00 0.000000000000000e+00 0.000000000000000e+00
0.000000000000000e+00 0.000000000000000e+00 0.000000000000000e+00

0.000000000000000e+00 0.000000000000000e+00 0.000000000000000e+00
0.000000000000000e+00 0.000000000000000e+00 0.000000000000000e+00
0.000000000000000e+00 0.000000000000000e+00 0.000000000000000e+00

0.000000000000000e+00 0.000000000000000e+00 0.000000000000000e+00
0.000000000000000e+00 0.000000000000000e+00 0.000000000000000e+00
0.000000000000000e+00 0.000000000000000e+00 0.000000000000000e+00

0.000000000000000e+00 0.000000000000000e+00 0.000000000000000e+00
0.000000000000000e+00 0.000000000000000e+00 0.000000000000000e+00
0.000000000000000e+00 0.000000000000000e+00 0.000000000000000e+00

0.000000000000000e+00 0.000000000000000e+00 0.000000000000000e+00
0.000000000000000e+00 0.000000000000000e+00 0.000000000000000e+00
0.000000000000000e+00 0.000000000000000e+00 0.000000000000000e+00

0.000000000000000e+00 0.000000000000000e+00 0.000000000000000e+00
0.000000000000000e+00 0.000000000000000e+00 0.000000000000000e+00
0.000000000000000e+00 0.000000000000000e+00 0.000000000000000e+00

0.000000000000000e+00 0.000000000000000e+00 0.000000000000000e+00
0.000000000000000e+00 0.000000000000000e+00 0.000000000000000e+00
0.000000000000000e+00 0.000000000000000e+00 0.000000000000000e+00

0.000000000000000e+00 0.000000000000000e+00 0.000000000000000e+00
0.000000000000000e+00 0.000000000000000e+00 0.000000000000000e+00
0.000000000000000e+00 0.000000000000000e+00 0.000000000000000e+00

0.000000000000000e+00 0.000000000000000e+00 0.000000000000000e+00
0.000000000000000e+00 0.000000000000000e+00 0.000000000000000e+00
0.000000000000000e+00 0.000000000000000e+00 0.000000000000000e+00

0.000000000000000e+00 0.000000000000000e+00 0.000000000000000e+00
0.000000000000000e+00 0.000000000000000e+00 0.000000000000000e+00
0.000000000000000e+00 0.000000000000000e+00 0.000000000000000e+00

0.000000000000000e+00 0.000000000000000e+00 0.000000000000000e+00
0.000000000000000e+00 0.000000000000000e+00 0.000000000000000e+00
0.000000000000000e+00 0.000000000000000e+00 0.000000000000000e+00

0.000000000000000e+00 0.000000000000000e+00 0.000000000000000e+00
0.000000000000000e+00 0.000000000000000e+00 0.000000000000000e+00
0.000000000000000e+00 0.000000000000000e+00 0.000000000000000e+00

0.000000000000000e+00 0.000000000000000e+00 0.000000000000000e+00
0.000000000000000e+00 0.000000000000000e+00 0.000000000000000e+00
0.000000000000000e+00 0.000000000000000e+00 0.000000000000000e+00

0.000000000000000e+00 0.000000000000000e+00 0.000000000000000e+00
0.000000000000000e+00 0.000000000000000e+00 0.000000000000000e+00
0.000000000000000e+00 0.000000000000000e+00 0.000000000000000e+00

0.000000000000000e+00 0.000000000000000e+00 0.000000000000000e+00
0.000000000000000e+00 0.000000000000000e+00 0.000000000000000e+00
0.000000000000000e+00 0.000000000000000e+00 0.000000000000000e+00

0.000000000000000e+00 0.000000000000000e+00 0.000000000000000e+00
0.000000000000000e+00 0.000000000000000e+00 0.000000000000000e+00
0.000000000000000e+00 0.000000000000000e+00 0.000000000000000e+00

0.000000000000000e+00 0.000000000000000e+00 0.000000000000000e+00
0.000000000000000e+00 0.000000000000000e+00 0.000000000000000e+00
0.000000000000000e+00 0.000000000000000e+00 0.000000000000000e+00

0.000000000000000e+00 0.000000000000000e+00 0.000000000000000e+00
0.000000000000000e+00 0.000000000000000e+00 0.000000000000000e+00
0.000000000000000e+00 0.000000000000000e+00 0.000000000000000e+00

0.000000000000000e+00 0.000000000000000e+00 0.000000000000000e+00
0.000000000000000e+00 0.000000000000000e+00 0.000000000000000e+00
0.000000000000000e+00 0.000000000000000e+00 0.000000000000000e+00

0.000000000000000e+00 0.000000000000000e+00 0.000000000000000e+00
0.000000000000000e+00 0.000000000000000e+00 0.000000000000000e+00
0.000000000000000e+00 0.000000000000000e+00 0.000000000000000e+00

0.000000000000000e+00 0.000000000000000e+00 0.000000000000000e+00
0.000000000000000e+00 0.000000000000000e+00 0.000000000000000e+00
0.000000000000000e+00 0.000000000000000e+00 0.000000000000000e+00

0.000000000000000e+00 0.000000000000000e+00 0.000000000000000e+00
0.000000000000000e+00 0.000000000000000e+00 0.000000000000000e+00
0.000000000000000e+00 0.000000000000000e+00 0.000000000000000e+00

0.000000000000000e+00 0.000000000000000e+00 0.000000000000000e+00
0.000000000000000e+00 0.000000000000000e+00 0.000000000000000e+00
0.000000000000000e+00 0.000000000000000e+00 0.000000000000000e+00

0.000000000000000e+00 0.000000000000000e+00 0.000000000000000e+00
0.000000000000000e+00 0.000000000000000e+00 0.000000000000000e+00
0.000000000000000e+00 0.000000000000000e+00 0.000000000000000e+00

0.000000000000000e+00 0.000000000000000e+00 0.000000000000000e+00
0.000000000000000e+00 0.000000000000000e+00 0.000000000000000e+00
0.000000000000000e+00 0.000000000000000e+00 0.000000000000000e+00

0.000000000000000e+00 0.000000000000000e+00 0.000000000000000e+00
0.000000000000000e+00 0.000000000000000e+00 0.000000000000000e+00
0.000000000000000e+00 0.000000000000000e+00 0.000000000000000e+00

0.000000000000000e+00 0.000000000000000e+00 0.000000000000000e+00
0.000000000000000e+00 0.000000000000000e+00 0.000000000000000e+00
0.000000000000000e+00 0.000000000000000e+00 0.000000000000000e+00

0.000000000000000e+00 0.000000000000000e+00 0.000000000000000e+00
0.000000000000000e+00 0.000000000000000e+00 0.000000000000000e+00
0.000000000000000e+00 0.000000000000000e+00 0.000000000000000e+00

0.000000000000000e+00 0.000000000000000e+00 0.000000000000000e+00
0.000000000000000e+00 0.000000000000000e+00 0.000000000000000e+00
0.000000000000000e+00 0.000000000000000e+00 0.000000000000000e+00

0.000000000000000e+00 0.000000000000000e+00 0.000000000000000e+00
0.000000000000000e+00 0.000000000000000e+00 0.000000000000000e+00
0.000000000000000e+00 0.000000000000000e+00 0.000000000000000e+00

0.000000000000000e+00 0.000000000000000e+00 0.000000000000000e+00
0.000000000000000e+00 0.000000000000000e+00 0.000000000000000e+00
0.000000000000000e+00 0.000000000000000e+00 0.000000000000000e+00

0.000000000000000e+00 0.000000000000000e+00 0.000000000000000e+00
0.000000000000000e+00 0.000000000000000e+00 0.000000000000000e+00
0.000000000000000e+00 0.000000000000000e+00 0.000000000000000e+00

0.000000000000000e+00 0.000000000000000e+00 0.000000000000000e+00
0.000000000000000e+00 0.000000000000000e+00 0.000000000000000e+00
0.000000000000000e+00 0.000000000000000e+00 0.000000000000000e+00

0.000000000000000e+00 0.000000000000000e+00 0.000000000000000e+00
0.000000000000000e+00 0.000000000000000e+00 0.000000000000000e+00
0.000000000000000e+00 0.000000000000000e+00 0.000000000000000e+00

0.000000000000000e+00 0.000000000000000e+00 0.000000000000000e+00
0.000000000000000e+00 0.000000000000000e+00 0.000000000000000e+00
0.000000000000000e+00 0.000000000000000e+00 0.000000000000000e+00

0.000000000000000e+00 0.000000000000000e+00 0.000000000000000e+00
0.000000000000000e+00 0.000000000000000e+00 0.000000000000000e+00
0.000000000000000e+00 0.000000000000000e+00 0.000000000000000e+00

0.000000000000000e+00 0.000000000000000e+00 0.000000000000000e+00
0.000000000000000e+00 0.000000000000000e+00 0.000000000000000e+00
0.000000000000000e+00 0.000000000000000e+00 0.000000000000000e+00

0.000000000000000e+00 0.000000000000000e+00 0.000000000000000e+00
0.000000000000000e+00 0.000000000000000e+00 0.000000000000000e+00
0.000000000000000e+00 0.000000000000000e+00 0.000000000000000e+00

0.000000000000000e+00 0.000000000000000e+00 0.000000000000000e+00
0.000000000000000e+00 0.000000000000000e+00 0.000000000000000e+00
0.000000000000000e+00 0.000000000000000e+00 0.000000000000000e+00

0.000000000000000e+00 0.000000000000000e+00 0.000000000000000e+00
0.000000000000000e+00 0.000000000000000e+00 0.000000000000000e+00
0.000000000000000e+00 0.000000000000000e+00 0.000000000000000e+00

0.000000000000000e+00 0.000000000000000e+00 0.000000000000000e+00
0.000000000000000e+00 0.000000000000000e+00 0.000000000000000e+00
0.000000000000000e+00 0.000000000000000e+00 0.000000000000000e+00

0.000000000000000e+00 0.000000000000000e+00 0.000000000000000e+00
0.000000000000000e+00 0.000000000000000e+00 0.000000000000000e+00
0.000000000000000e+00 0.000000000000000e+00 0.000000000000000e+00

0.000000000000000e+00 0.000000000000000e+00 0.000000000000000e+00
0.000000000000000e+00 0.000000000000000e+00 0.000000000000000e+00
0.000000000000000e+00 0.000000000000000e+00 0.000000000000000e+00

0.000000000000000e+00 0.000000000000000e+00 0.000000000000000e+00
0.000000000000000e+00 0.000000000000000e+00 0.000000000000000e+00
0.000000000000000e+00 0.000000000000000e+00 0.000000000000000e+00

0.000000000000000e+00 0.000000000000000e+00 0.000000000000000e+00
0.000000000000000e+00 0.000000000000000e+00 0.000000000000000e+00
0.000000000000000e+00 0.000000000000000e+00 0.000000000000000e+00

0.000000000000000e+00 0.000000000000000e+00 0.000000000000000e+00
0.000000000000000e+00 0.000000000000000e+00 0.000000000000000e+00
0.000000000000000e+00 0.000000000000000e+00 0.000000000000000e+00

0.000000000000000e+00 0.000000000000000e+00 0.000000000000000e+00
0.000000000000000e+00 0.000000000000000e+00 0.000000000000000e+00
0.000000000000000e+00 0.000000000000000e+00 0.000000000000000e+00

0.000000000000000e+00 0.000000000000000e+00 0.000000000000000e+00
0.000000000000000e+00 0.000000000000000e+00 0.000000000000000e+00
0.000000000000000e+00 0.000000000000000e+00 0.000000000000000e+00

0.000000000000000e+00 0.000000000000000e+00 0.000000000000000e+00
0.000000000000000e+00 0.000000000000000e+00 0.000000000000000e+00
0.000000000000000e+00 0.000000000000000e+00 0.000000000000000e+00

0.000000000000000e+00 0.000000000000000e+00 0.000000000000000e+00
0.000000000000000e+00 0.000000000000000e+00 0.000000000000000e+00
0.000000000000000e+00 0.000000000000000e+00 0.000000000000000e+00

0.000000000000000e+00 0.000000000000000e+00 0.000000000000000e+00
0.000000000000000e+00 0.000000000000000e+00 0.000000000000000e+00
0.000000000000000e+00 0.000000000000000e+00 0.000000000000000e+00

0.000000000000000e+00 0.000000000000000e+00 0.000000000000000e+00
0.000000000000000e+00 0.000000000000000e+00 0.000000000000000e+00
0.000000000000000e+00 0.000000000000000e+00 0.000000000000000e+00

0.000000000000000e+00 0.000000000000000e+00 0.000000000000000e+00
0.000000000000000e+00 0.000000000000000e+00 0.000000000000000e+00
0.000000000000000e+00 0.000000000000000e+00 0.000000000000000e+00

0.000000000000000e+00 0.000000000000000e+00 0.000000000000000e+00
0.000000000000000e+00 0.000000000000000e+00 0.000000000000000e+00
0.000000000000000e+00 0.000000000000000e+00 0.000000000000000e+00

0.000000000000000e+00 0.000000000000000e+00 0.000000000000000e+00
0.000000000000000e+00 0.000000000000000e+00 0.000000000000000e+00
0.000000000000000e+00 0.000000000000000e+00 0.000000000000000e+00

0.000000000000000e+00 0.000000000000000e+00 0.000000000000000e+00
0.000000000000000e+00 0.000000000000000e+00 0.000000000000000e+00
0.000000000000000e+00 0.000000000000000e+00 0.000000000000000e+00

0.000000000000000e+00 0.000000000000000e+00 0.000000000000000e+00
0.000000000000000e+00 0.000000000000000e+00 0.000000000000000e+00
0.000000000000000e+00 0.000000000000000e+00 0.000000000000000e+00

0.000000000000000e+00 0.000000000000000e+00 0.000000000000000e+00
0.000000000000000e+00 0.000000000000000e+00 0.000000000000000e+00
0.000000000000000e+00 0.000000000000000e+00 0.000000000000000e+00

0.000000000000000e+00 0.000000000000000e+00 0.000000000000000e+00
0.000000000000000e+00 0.000000000000000e+00 0.000000000000000e+00
0.000000000000000e+00 0.000000000000000e+00 0.000000000000000e+00

0.000000000000000e+00 0.000000000000000e+00 0.000000000000000e+00
0.000000000000000e+00 0.000000000000000e+00 0.000000000000000e+00
0.000000000000000e+00 0.000000000000000e+00 0.000000000000000e+00

0.000000000000000e+00 0.000000000000000e+00 0.000000000000000e+00
0.000000000000000e+00 0.000000000000000e+00 0.000000000000000e+00
0.000000000000000e+00 0.000000000000000e+00 0.000000000000000e+00

0.000000000000000e+00 0.000000000000000e+00 0.000000000000000e+00
0.000000000000000e+00 0.000000000000000e+00 0.000000000000000e+00
0.000000000000000e+00 0.000000000000000e+00 0.000000000000000e+00

0.000000000000000e+00 0.000000000000000e+00 0.000000000000000e+00
0.000000000000000e+00 0.000000000000000e+00 0.000000000000000e+00
0.000000000000000e+00 0.000000000000000e+00 0.000000000000000e+00

0.000000000000000e+00 0.000000000000000e+00 0.000000000000000e+00
0.000000000000000e+00 0.000000000000000e+00 0.000000000000000e+00
0.000000000000000e+00 0.000000000000000e+00 0.000000000000000e+00

0.000000000000000e+00 0.000000000000000e+00 0.000000000000000e+00
0.000000000000000e+00 0.000000000000000e+00 0.000000000000000e+00
0.000000000000000e+00 0.000000000000000e+00 0.000000000000000e+00

0.000000000000000e+00 0.000000000000000e+00 0.000000000000000e+00
0.000000000000000e+00 0.000000000000000e+00 0.000000000000000e+00
0.000000000000000e+00 0.000000000000000e+00 0.000000000000000e+00

0.000000000000000e+00 0.000000000000000e+00 0.000000000000000e+00
0.000000000000000e+00 0.000000000000000e+00 0.000000000000000e+00
0.000000000000000e+00 0.000000000000000e+00 0.000000000000000e+00

0.000000000000000e+00 0.000000000000000e+00 0.000000000000000e+00
0.000000000000000e+00 0.000000000000000e+00 0.000000000000000e+00
0.000000000000000e+00 0.000000000000000e+00 0.000000000000000e+00

0.000000000000000e+00 0.000000000000000e+00 0.000000000000000e+00
0.000000000000000e+00 0.000000000000000e+00 0.000000000000000e+00
0.000000000000000e+00 0.000000000000000e+00 0.000000000000000e+00

0.000000000000000e+00 0.000000000000000e+00 0.000000000000000e+00
0.000000000000000e+00 0.000000000000000e+00 0.000000000000000e+00
0.000000000000000e+00 0.000000000000000e+00 0.000000000000000e+00

0.000000000000000e+00 0.000000000000000e+00 0.000000000000000e+00
0.000000000000000e+00 0.000000000000000e+00 0.000000000000000e+00
0.000000000000000e+00 0.000000000000000e+00 0.000000000000000e+00

0.000000000000000e+00 0.000000000000000e+00 0.000000000000000e+00
0.000000000000000e+00 0.000000000000000e+00 0.000000000000000e+00
0.000000000000000e+00 0.000000000000000e+00 0.000000000000000e+00

0.000000000000000e+00 0.000000000000000e+00 0.000000000000000e+00
0.000000000000000e+00 0.000000000000000e+00 0.000000000000000e+00
0.000000000000000e+00 0.000000000000000e+00 0.000000000000000e+00

0.000000000000000e+00 0.000000000000000e+00 0.000000000000000e+00
0.000000000000000e+00 0.000000000000000e+00 0.000000000000000e+00
0.000000000000000e+00 0.000000000000000e+00 0.000000000000000e+00

0.000000000000000e+00 0.000000000000000e+00 0.000000000000000e+00
0.000000000000000e+00 0.000000000000000e+00 0.000000000000000e+00
0.000000000000000e+00 0.000000000000000e+00 0.000000000000000e+00

0.000000000000000e+00 0.000000000000000e+00 0.000000000000000e+00
0.000000000000000e+00 0.000000000000000e+00 0.000000000000000e+00
0.000000000000000e+00 0.000000000000000e+00 0.000000000000000e+00

0.000000000000000e+00 0.000000000000000e+00 0.000000000000000e+00
0.000000000000000e+00 0.000000000000000e+00 0.000000000000000e+00
0.000000000000000e+00 0.000000000000000e+00 0.000000000000000e+00

0.000000000000000e+00 0.000000000000000e+00 0.000000000000000e+00
0.000000000000000e+00 0.000000000000000e+00 0.000000000000000e+00
0.000000000000000e+00 0.000000000000000e+00 0.000000000000000e+00

0.000000000000000e+00 0.000000000000000e+00 0.000000000000000e+00
0.000000000000000e+00 0.000000000000000e+00 0.000000000000000e+00
0.000000000000000e+00 0.000000000000000e+00 0.000000000000000e+00

0.000000000000000e+00 0.000000000000000e+00 0.000000000000000e+00
0.000000000000000e+00 0.000000000000000e+00 0.000000000000000e+00
0.000000000000000e+00 0.000000000000000e+00 0.000000000000000e+00

0.000000000000000e+00 0.000000000000000e+00 0.000000000000000e+00
0.000000000000000e+00 0.000000000000000e+00 0.000000000000000e+00
0.000000000000000e+00 0.000000000000000e+00 0.000000000000000e+00

0.000000000000000e+00 0.000000000000000e+00 0.000000000000000e+00
0.000000000000000e+00 0.000000000000000e+00 0.000000000000000e+00
0.000000000000000e+00 0.000000000000000e+00 0.000000000000000e+00

0.000000000000000e+00 0.000000000000000e+00 0.000000000000000e+00
0.000000000000000e+00 0.000000000000000e+00 0.000000000000000e+00
0.000000000000000e+00 0.000000000000000e+00 0.000000000000000e+00

0.000000000000000e+00 0.000000000000000e+00 0.000000000000000e+00
0.000000000000000e+00 0.000000000000000e+00 0.000000000000000e+00
0.000000000000000e+00 0.000000000000000e+00 0.000000000000000e+00

0.000000000000000e+00 0.000000000000000e+00 0.000000000000000e+00
0.000000000000000e+00 0.000000000000000e+00 0.000000000000000e+00
0.000000000000000e+00 0.000000000000000e+00 0.000000000000000e+00

0.000000000000000e+00 0.000000000000000e+00 0.000000000000000e+00
0.000000000000000e+00 0.000000000000000e+00 0.000000000000000e+00
0.000000000000000e+00 0.000000000000000e+00 0.000000000000000e+00

0.000000000000000e+00 0.000000000000000e+00 0.000000000000000e+00
0.000000000000000e+00 0.000000000000000e+00 0.000000000000000e+00
0.000000000000000e+00 0.000000000000000e+00 0.000000000000000e+00

0.000000000000000e+00 0.000000000000000e+00 0.000000000000000e+00
0.000000000000000e+00 0.000000000000000e+00 0.000000000000000e+00
0.000000000000000e+00 0.000000000000000e+00 0.000000000000000e+00

0.000000000000000e+00 0.000000000000000e+00 0.000000000000000e+00
0.000000000000000e+00 0.000000000000000e+00 0.000000000000000e+00
0.000000000000000e+00 0.000000000000000e+00 0.000000000000000e+00

0.000000000000000e+00 0.000000000000000e+00 0.000000000000000e+00
0.000000000000000e+00 0.000000000000000e+00 0.000000000000000e+00
0.000000000000000e+00 0.000000000000000e+00 0.000000000000000e+00

0.000000000000000e+00 0.000000000000000e+00 0.000000000000000e+00
0.000000000000000e+00 0.000000000000000e+00 0.000000000000000e+00
0.000000000000000e+00 0.000000000000000e+00 0.000000000000000e+00

0.000000000000000e+00 0.000000000000000e+00 0.000000000000000e+00
0.000000000000000e+00 0.000000000000000e+00 0.000000000000000e+00
0.000000000000000e+00 0.000000000000000e+00 0.000000000000000e+00

0.000000000000000e+00 0.000000000000000e+00 0.000000000000000e+00
0.000000000000000e+00 0.000000000000000e+00 0.000000000000000e+00
0.000000000000000e+00 0.000000000000000e+00 0.000000000000000e+00

0.000000000000000e+00 0.000000000000000e+00 0.000000000000000e+00
0.000000000000000e+00 0.000000000000000e+00 0.000000000000000e+00
0.000000000000000e+00 0.000000000000000e+00 0.000000000000000e+00

0.000000000000000e+00 0.000000000000000e+00 0.000000000000000e+00
0.000000000000000e+00 0.000000000000000e+00 0.000000000000000e+00
0.000000000000000e+00 0.000000000000000e+00 0.000000000000000e+00

0.000000000000000e+00 0.000000000000000e+00 0.000000000000000e+00
0.000000000000000e+00 0.000000000000000e+00 0.000000000000000e+00
0.000000000000000e+00 0.000000000000000e+00 0.000000000000000e+00

0.000000000000000e+00 0.000000000000000e+00 0.000000000000000e+00
0.000000000000000e+00 0.000000000000000e+00 0.000000000000000e+00
0.000000000000000e+00 0.000000000000000e+00 0.000000000000000e+00

0.000000000000000e+00 0.000000000000000e+00 0.000000000000000e+00
0.000000000000000e+00 0.000000000000000e+00 0.000000000000000e+00
0.000000000000000e+00 0.000000000000000e+00 0.000000000000000e+00

0.000000000000000e+00 0.000000000000000e+00 0.000000000000000e+00
0.000000000000000e+00 0.000000000000000e+00 0.000000000000000e+00
0.000000000000000e+00 0.000000000000000e+00 0.000000000000000e+00

0.000000000000000e+00 0.000000000000000e+00 0.000000000000000e+00
0.000000000000000e+00 0.000000000000000e+00 0.000000000000000e+00
0.000000000000000e+00 0.000000000000000e+00 0.000000000000000e+00

0.000000000000000e+00 0.000000000000000e+00 0.000000000000000e+00
0.000000000000000e+00 0.000000000000000e+00 0.000000000000000e+00
0.000000000000000e+00 0.000000000000000e+00 0.000000000000000e+00

0.000000000000000e+00 0.000000000000000e+00 0.000000000000000e+00
0.000000000000000e+00 0.000000000000000e+00 0.000000000000000e+00
0.000000000000000e+00 0.000000000000000e+00 0.000000000000000e+00

0.000000000000000e+00 0.000000000000000e+00 0.000000000000000e+00
0.000000000000000e+00 0.000000000000000e+00 0.000000000000000e+00
0.000000000000000e+00 0.000000000000000e+00 0.000000000000000e+00

0.000000000000000e+00 0.000000000000000e+00 0.000000000000000e+00
0.000000000000000e+00 0.000000000000000e+00 0.000000000000000e+00
0.000000000000000e+00 0.000000000000000e+00 0.000000000000000e+00

0.000000000000000e+00 0.000000000000000e+00 0.000000000000000e+00
0.000000000000000e+00 0.000000000000000e+00 0.000000000000000e+00
0.000000000000000e+00 0.000000000000000e+00 0.000000000000000e+00

0.000000000000000e+00 0.000000000000000e+00 0.000000000000000e+00
0.000000000000000e+00 0.000000000000000e+00 0.000000000000000e+00
0.000000000000000e+00 0.000000000000000e+00 0.000000000000000e+00

0.000000000000000e+00 0.000000000000000e+00 0.000000000000000e+00
0.000000000000000e+00 0.000000000000000e+00 0.000000000000000e+00
0.000000000000000e+00 0.000000000000000e+00 0.000000000000000e+00

0.000000000000000e+00 0.000000000000000e+00 0.000000000000000e+00
0.000000000000000e+00 0.000000000000000e+00 0.000000000000000e+00
0.000000000000000e+00 0.000000000000000e+00 0.000000000000000e+00

0.000000000000000e+00 0.000000000000000e+00 0.000000000000000e+00
0.000000000000000e+00 0.000000000000000e+00 0.000000000000000e+00
0.000000000000000e+00 0.000000000000000e+00 0.000000000000000e+00

0.000000000000000e+00 0.000000000000000e+00 0.000000000000000e+00
0.000000000000000e+00 0.000000000000000e+00 0.000000000000000e+00
0.000000000000000e+00 0.000000000000000e+00 0.000000000000000e+00

0.000000000000000e+00 0.000000000000000e+00 0.000000000000000e+00
0.000000000000000e+00 0.000000000000000e+00 0.000000000000000e+00
0.000000000000000e+00 0.000000000000000e+00 0.000000000000000e+00

0.000000000000000e+00 0.000000000000000e+00 0.000000000000000e+00
0.000000000000000e+00 0.000000000000000e+00 0.000000000000000e+00
0.000000000000000e+00 0.000000000000000e+00 0.000000000000000e+00

0.000000000000000e+00 0.000000000000000e+00 0.000000000000000e+00
0.000000000000000e+00 0.000000000000000e+00 0.000000000000000e+00
0.000000000000000e+00 0.000000000000000e+00 0.000000000000000e+00

0.000000000000000e+00 0.000000000000000e+00 0.000000000000000e+00
0.000000000000000e+00 0.000000000000000e+00 0.000000000000000e+00
0.000000000000000e+00 0.000000000000000e+00 0.000000000000000e+00

0.000000000000000e+00 0.000000000000000e+00 0.000000000000000e+00
0.000000000000000e+00 0.000000000000000e+00 0.000000000000000e+00
0.000000000000000e+00 0.000000000000000e+00 0.000000000000000e+00

0.000000000000000e+00 0.000000000000000e+00 0.000000000000000e+00
0.000000000000000e+00 0.000000000000000e+00 0.000000000000000e+00
0.000000000000000e+00 0.000000000000000e+00 0.000000000000000e+00

0.000000000000000e+00 0.000000000000000e+00 0.000000000000000e+00
0.000000000000000e+00 0.000000000000000e+00 0.000000000000000e+00
0.000000000000000e+00 0.000000000000000e+00 0.000000000000000e+00

0.000000000000000e+00 0.000000000000000e+00 0.000000000000000e+00
0.000000000000000e+00 0.000000000000000e+00 0.000000000000000e+00
0.000000000000000e+00 0.000000000000000e+00 0.000000000000000e+00

0.000000000000000e+00 0.000000000000000e+00 0.000000000000000e+00
0.000000000000000e+00 0.000000000000000e+00 0.000000000000000e+00
0.000000000000000e+00 0.000000000000000e+00 0.000000000000000e+00

0.000000000000000e+00 0.000000000000000e+00 0.000000000000000e+00
0.000000000000000e+00 0.000000000000000e+00 0.000000000000000e+00
0.000000000000000e+00 0.000000000000000e+00 0.000000000000000e+00

0.000000000000000e+00 0.000000000000000e+00 0.000000000000000e+00
0.000000000000000e+00 0.000000000000000e+00 0.000000000000000e+00
0.000000000000000e+00 0.000000000000000e+00 0.000000000000000e+00

0.000000000000000e+00 0.000000000000000e+00 0.000000000000000e+00
0.000000000000000e+00 0.000000000000000e+00 0.000000000000000e+00
0.000000000000000e+00 0.000000000000000e+00 0.000000000000000e+00

0.000000000000000e+00 0.000000000000000e+00 0.000000000000000e+00
0.000000000000000e+00 0.000000000000000e+00 0.000000000000000e+00
0.000000000000000e+00 0.000000000000000e+00 0.000000000000000e+00

0.000000000000000e+00 0.000000000000000e+00 0.000000000000000e+00
0.000000000000000e+00 0.000000000000000e+00 0.000000000000000e+00
0.000000000000000e+00 0.000000000000000e+00 0.000000000000000e+00

0.000000000000000e+00 0.000000000000000e+00 0.000000000000000e+00
0.000000000000000e+00 0.000000000000000e+00 0.000000000000000e+00
0.000000000000000e+00 0.000000000000000e+00 0.000000000000000e+00

0.000000000000000e+00 0.000000000000000e+00 0.000000000000000e+00
0.000000000000000e+00 0.000000000000000e+00 0.000000000000000e+00
0.000000000000000e+00 0.000000000000000e+00 0.000000000000000e+00

0.000000000000000e+00 0.000000000000000e+00 0.000000000000000e+00
0.000000000000000e+00 0.000000000000000e+00 0.000000000000000e+00
0.000000000000000e+00 0.000000000000000e+00 0.000000000000000e+00

0.000000000000000e+00 0.000000000000000e+00 0.000000000000000e+00
0.000000000000000e+00 0.000000000000000e+00 0.000000000000000e+00
0.000000000000000e+00 0.000000000000000e+00 0.000000000000000e+00

0.000000000000000e+00 0.000000000000000e+00 0.000000000000000e+00
0.000000000000000e+00 0.000000000000000e+00 0.000000000000000e+00
0.000000000000000e+00 0.000000000000000e+00 0.000000000000000e+00

0.000000000000000e+00 0.000000000000000e+00 0.000000000000000e+00
0.000000000000000e+00 0.000000000000000e+00 0.000000000000000e+00
0.000000000000000e+00 0.000000000000000e+00 0.000000000000000e+00

0.000000000000000e+00 0.000000000000000e+00 0.000000000000000e+00
0.000000000000000e+00 0.000000000000000e+00 0.000000000000000e+00
0.000000000000000e+00 0.000000000000000e+00 0.000000000000000e+00

0.000000000000000e+00 0.000000000000000e+00 0.000000000000000e+00
0.000000000000000e+00 0.000000000000000e+00 0.000000000000000e+00
0.000000000000000e+00 0.000000000000000e+00 0.000000000000000e+00

0.000000000000000e+00 0.000000000000000e+00 0.000000000000000e+00
0.000000000000000e+00 0.000000000000000e+00 0.000000000000000e+00
0.000000000000000e+00 0.000000000000000e+00 0.000000000000000e+00

0.000000000000000e+00 0.000000000000000e+00 0.000000000000000e+00
0.000000000000000e+00 0.000000000000000e+00 0.000000000000000e+00
0.000000000000000e+00 0.000000000000000e+00 0.000000000000000e+00

0.000000000000000e+00 0.000000000000000e+00 0.000000000000000e+00
0.000000000000000e+00 0.000000000000000e+00 0.000000000000000e+00
0.000000000000000e+00 0.000000000000000e+00 0.000000000000000e+00

0.000000000000000e+00 0.000000000000000e+00 0.000000000000000e+00
0.000000000000000e+00 0.000000000000000e+00 0.000000000000000e+00
0.000000000000000e+00 0.000000000000000e+00 0.000000000000000e+00

0.000000000000000e+00 0.000000000000000e+00 0.000000000000000e+00
0.000000000000000e+00 0.000000000000000e+00 0.000000000000000e+00
0.000000000000000e+00 0.000000000000000e+00 0.000000000000000e+00

0.000000000000000e+00 0.000000000000000e+00 0.000000000000000e+00
0.000000000000000e+00 0.000000000000000e+00 0.000000000000000e+00
0.000000000000000e+00 0.000000000000000e+00 0.000000000000000e+00

0.000000000000000e+00 0.000000000000000e+00 0.000000000000000e+00
0.000000000000000e+00 0.000000000000000e+00 0.000000000000000e+00
0.000000000000000e+00 0.000000000000000e+00 0.000000000000000e+00

0.000000000000000e+00 0.000000000000000e+00 0.000000000000000e+00
0.000000000000000e+00 0.000000000000000e+00 0.000000000000000e+00
0.000000000000000e+00 0.000000000000000e+00 0.000000000000000e+00

0.000000000000000e+00 0.000000000000000e+00 0.000000000000000e+00
0.000000000000000e+00 0.000000000000000e+00 0.000000000000000e+00
0.000000000000000e+00 0.000000000000000e+00 0.000000000000000e+00

0.000000000000000e+00 0.000000000000000e+00 0.000000000000000e+00
0.000000000000000e+00 0.000000000000000e+00 0.000000000000000e+00
0.000000000000000e+00 0.000000000000000e+00 0.000000000000000e+00

0.000000000000000e+00 0.000000000000000e+00 0.000000000000000e+00
0.000000000000000e+00 0.000000000000000e+00 0.000000000000000e+00
0.000000000000000e+00 0.000000000000000e+00 0.000000000000000e+00

0.000000000000000e+00 0.000000000000000e+00 0.000000000000000e+00
0.000000000000000e+00 0.000000000000000e+00 0.000000000000000e+00
0.000000000000000e+00 0.000000000000000e+00 0.000000000000000e+00

0.000000000000000e+00 0.000000000000000e+00 0.000000000000000e+00
0.000000000000000e+00 0.000000000000000e+00 0.000000000000000e+00
0.000000000000000e+00 0.000000000000000e+00 0.000000000000000e+00

0.000000000000000e+00 0.000000000000000e+00 0.000000000000000e+00
0.000000000000000e+00 0.000000000000000e+00 0.000000000000000e+00
0.000000000000000e+00 0.000000000000000e+00 0.000000000000000e+00

0.000000000000000e+00 0.000000000000000e+00 0.000000000000000e+00
0.000000000000000e+00 0.000000000000000e+00 0.000000000000000e+00
0.000000000000000e+00 0.000000000000000e+00 0.000000000000000e+00

0.000000000000000e+00 0.000000000000000e+00 0.000000000000000e+00
0.000000000000000e+00 0.000000000000000e+00 0.000000000000000e+00
0.000000000000000e+00 0.000000000000000e+00 0.000000000000000e+00

0.000000000000000e+00 0.000000000000000e+00 0.000000000000000e+00
0.000000000000000e+00 0.000000000000000e+00 0.000000000000000e+00
0.000000000000000e+00 0.000000000000000e+00 0.000000000000000e+00

0.000000000000000e+00 0.000000000000000e+00 0.000000000000000e+00
0.000000000000000e+00 0.000000000000000e+00 0.000000000000000e+00
0.000000000000000e+00 0.000000000000000e+00 0.000000000000000e+00

0.000000000000000e+00 0.000000000000000e+00 0.000000000000000e+00
0.000000000000000e+00 0.000000000000000e+00 0.000000000000000e+00
0.000000000000000e+00 0.000000000000000e+00 0.000000000000000e+00

0.000000000000000e+00 0.000000000000000e+00 0.000000000000000e+00
0.000000000000000e+00 0.000000000000000e+00 0.000000000000000e+00
0.000000000000000e+00 0.000000000000000e+00 0.000000000000000e+00

0.000000000000000e+00 0.000000000000000e+00 0.000000000000000e+00
0.000000000000000e+00 0.000000000000000e+00 0.000000000000000e+00
0.000000000000000e+00 0.000000000000000e+00 0.000000000000000e+00

0.000000000000000e+00 0.000000000000000e+00 0.000000000000000e+00
0.000000000000000e+00 0.000000000000000e+00 0.000000000000000e+00
0.000000000000000e+00 0.000000000000000e+00 0.000000000000000e+00

0.000000000000000e+00 0.000000000000000e+00 0.000000000000000e+00
0.000000000000000e+00 0.000000000000000e+00 0.000000000000000e+00
0.000000000000000e+00 0.000000000000000e+00 0.000000000000000e+00

0.000000000000000e+00 0.000000000000000e+00 0.000000000000000e+00
0.000000000000000e+00 0.000000000000000e+00 0.000000000000000e+00
0.000000000000000e+00 0.000000000000000e+00 0.000000000000000e+00

0.000000000000000e+00 0.000000000000000e+00 0.000000000000000e+00
0.000000000000000e+00 0.000000000000000e+00 0.000000000000000e+00
0.000000000000000e+00 0.000000000000000e+00 0.000000000000000e+00

0.000000000000000e+00 0.000000000000000e+00 0.000000000000000e+00
0.000000000000000e+00 0.000000000000000e+00 0.000000000000000e+00
0.000000000000000e+00 0.000000000000000e+00 0.000000000000000e+00

0.000000000000000e+00 0.000000000000000e+00 0.000000000000000e+00
0.000000000000000e+00 0.000000000000000e+00 0.000000000000000e+00
0.000000000000000e+00 0.000000000000000e+00 0.000000000000000e+00

0.000000000000000e+00 0.000000000000000e+00 0.000000000000000e+00
0.000000000000000e+00 0.000000000000000e+00 0.000000000000000e+00
0.000000000000000e+00 0.000000000000000e+00 0.000000000000000e+00

0.000000000000000e+00 0.000000000000000e+00 0.000000000000000e+00
0.000000000000000e+00 0.000000000000000e+00 0.000000000000000e+00
0.000000000000000e+00 0.000000000000000e+00 0.000000000000000e+00

0.000000000000000e+00 0.000000000000000e+00 0.000000000000000e+00
0.000000000000000e+00 0.000000000000000e+00 0.000000000000000e+00
0.000000000000000e+00 0.000000000000000e+00 0.000000000000000e+00

0.000000000000000e+00 0.000000000000000e+00 0.000000000000000e+00
0.000000000000000e+00 0.000000000000000e+00 0.000000000000000e+00
0.000000000000000e+00 0.000000000000000e+00 0.000000000000000e+00

0.000000000000000e+00 0.000000000000000e+00 0.000000000000000e+00
0.000000000000000e+00 0.000000000000000e+00 0.000000000000000e+00
0.000000000000000e+00 0.000000000000000e+00 0.000000000000000e+00

0.000000000000000e+00 0.000000000000000e+00 0.000000000000000e+00
0.000000000000000e+00 0.000000000000000e+00 0.000000000000000e+00
0.000000000000000e+00 0.000000000000000e+00 0.000000000000000e+00

0.000000000000000e+00 0.000000000000000e+00 0.000000000000000e+00
0.000000000000000e+00 0.000000000000000e+00 0.000000000000000e+00
0.000000000000000e+00 0.000000000000000e+00 0.000000000000000e+00

0.000000000000000e+00 0.000000000000000e+00 0.000000000000000e+00
0.000000000000000e+00 0.000000000000000e+00 0.000000000000000e+00
0.000000000000000e+00 0.000000000000000e+00 0.000000000000000e+00

0.000000000000000e+00 0.000000000000000e+00 0.000000000000000e+00
0.000000000000000e+00 0.000000000000000e+00 0.000000000000000e+00
0.000000000000000e+00 0.000000000000000e+00 0.000000000000000e+00

0.000000000000000e+00 0.000000000000000e+00 0.000000000000000e+00
0.000000000000000e+00 0.000000000000000e+00 0.000000000000000e+00
0.000000000000000e+00 0.000000000000000e+00 0.000000000000000e+00

0.000000000000000e+00 0.000000000000000e+00 0.000000000000000e+00
0.000000000000000e+00 0.000000000000000e+00 0.000000000000000e+00
0.000000000000000e+00 0.000000000000000e+00 0.000000000000000e+00

0.000000000000000e+00 0.000000000000000e+00 0.000000000000000e+00
0.000000000000000e+00 0.000000000000000e+00 0.000000000000000e+00
0.000000000000000e+00 0.000000000000000e+00 0.000000000000000e+00

0.000000000000000e+00 0.000000000000000e+00 0.000000000000000e+00
0.000000000000000e+00 0.000000000000000e+00 0.000000000000000e+00
0.000000000000000e+00 0.000000000000000e+00 0.000000000000000e+00

0.000000000000000e+00 0.000000000000000e+00 0.000000000000000e+00
0.000000000000000e+00 0.000000000000000e+00 0.000000000000000e+00
0.000000000000000e+00 0.000000000000000e+00 0.000000000000000e+00

0.000000000000000e+00 0.000000000000000e+00 0.000000000000000e+00
0.000000000000000e+00 0.000000000000000e+00 0.000000000000000e+00
0.000000000000000e+00 0.000000000000000e+00 0.000000000000000e+00

0.000000000000000e+00 0.000000000000000e+00 0.000000000000000e+00
0.000000000000000e+00 0.000000000000000e+00 0.000000000000000e+00
0.000000000000000e+00 0.000000000000000e+00 0.000000000000000e+00

0.000000000000000e+00 0.000000000000000e+00 0.000000000000000e+00
0.000000000000000e+00 0.000000000000000e+00 0.000000000000000e+00
0.000000000000000e+00 0.000000000000000e+00 0.000000000000000e+00

0.000000000000000e+00 0.000000000000000e+00 0.000000000000000e+00
0.000000000000000e+00 0.000000000000000e+00 0.000000000000000e+00
0.000000000000000e+00 0.000000000000000e+00 0.000000000000000e+00

0.000000000000000e+00 0.000000000000000e+00 0.000000000000000e+00
0.000000000000000e+00 0.000000000000000e+00 0.000000000000000e+00
0.000000000000000e+00 0.000000000000000e+00 0.000000000000000e+00

0.000000000000000e+00 0.000000000000000e+00 0.000000000000000e+00
0.000000000000000e+00 0.000000000000000e+00 0.000000000000000e+00
0.000000000000000e+00 0.000000000000000e+00 0.000000000000000e+00

0.000000000000000e+00 0.000000000000000e+00 0.000000000000000e+00
0.000000000000000e+00 0.000000000000000e+00 0.000000000000000e+00
0.000000000000000e+00 0.000000000000000e+00 0.000000000000000e+00

0.000000000000000e+00 0.000000000000000e+00 0.000000000000000e+00
0.000000000000000e+00 0.000000000000000e+00 0.000000000000000e+00
0.000000000000000e+00 0.000000000000000e+00 0.000000000000000e+00

0.000000000000000e+00 0.000000000000000e+00 0.000000000000000e+00
0.000000000000000e+00 0.000000000000000e+00 0.000000000000000e+00
0.000000000000000e+00 0.000000000000000e+00 0.000000000000000e+00

0.000000000000000e+00 0.000000000000000e+00 0.000000000000000e+00
0.000000000000000e+00 0.000000000000000e+00 0.000000000000000e+00
0.000000000000000e+00 0.000000000000000e+00 0.000000000000000e+00

0.000000000000000e+00 0.000000000000000e+00 0.000000000000000e+00
0.000000000000000e+00 0.000000000000000e+00 0.000000000000000e+00
0.000000000000000e+00 0.000000000000000e+00 0.000000000000000e+00

0.000000000000000e+00 0.000000000000000e+00 0.000000000000000e+00
0.000000000000000e+00 0.000000000000000e+00 0.000000000000000e+00
0.000000000000000e+00 0.000000000000000e+00 0.000000000000000e+00

0.000000000000000e+00 0.000000000000000e+00 0.000000000000000e+00
0.000000000000000e+00 0.000000000000000e+00 0.000000000000000e+00
0.000000000000000e+00 0.000000000000000e+00 0.000000000000000e+00

0.000000000000000e+00 0.000000000000000e+00 0.000000000000000e+00
0.000000000000000e+00 0.000000000000000e+00 0.000000000000000e+00
0.000000000000000e+00 0.000000000000000e+00 0.000000000000000e+00

0.000000000000000e+00 0.000000000000000e+00 0.000000000000000e+00
0.000000000000000e+00 0.000000000000000e+00 0.000000000000000e+00
0.000000000000000e+00 0.000000000000000e+00 0.000000000000000e+00

0.000000000000000e+00 0.000000000000000e+00 0.000000000000000e+00
0.000000000000000e+00 0.000000000000000e+00 0.000000000000000e+00
0.000000000000000e+00 0.000000000000000e+00 0.000000000000000e+00

0.000000000000000e+00 0.000000000000000e+00 0.000000000000000e+00
0.000000000000000e+00 0.000000000000000e+00 0.000000000000000e+00
0.000000000000000e+00 0.000000000000000e+00 0.000000000000000e+00

0.000000000000000e+00 0.000000000000000e+00 0.000000000000000e+00
0.000000000000000e+00 0.000000000000000e+00 0.000000000000000e+00
0.000000000000000e+00 0.000000000000000e+00 0.000000000000000e+00

0.000000000000000e+00 0.000000000000000e+00 0.000000000000000e+00
0.000000000000000e+00 0.000000000000000e+00 0.000000000000000e+00
0.000000000000000e+00 0.000000000000000e+00 0.000000000000000e+00

0.000000000000000e+00 0.000000000000000e+00 0.000000000000000e+00
0.000000000000000e+00 0.000000000000000e+00 0.000000000000000e+00
0.000000000000000e+00 0.000000000000000e+00 0.000000000000000e+00

0.000000000000000e+00 0.000000000000000e+00 0.000000000000000e+00
0.000000000000000e+00 0.000000000000000e+00 0.000000000000000e+00
0.000000000000000e+00 0.000000000000000e+00 0.000000000000000e+00

0.000000000000000e+00 0.000000000000000e+00 0.000000000000000e+00
0.000000000000000e+00 0.000000000000000e+00 0.000000000000000e+00
0.000000000000000e+00 0.000000000000000e+00 0.000000000000000e+00

0.000000000000000e+00 0.000000000000000e+00 0.000000000000000e+00
0.000000000000000e+00 0.000000000000000e+00 0.000000000000000e+00
0.000000000000000e+00 0.000000000000000e+00 0.000000000000000e+00

0.000000000000000e+00 0.000000000000000e+00 0.000000000000000e+00
0.000000000000000e+00 0.000000000000000e+00 0.000000000000000e+00
0.000000000000000e+00 0.000000000000000e+00 0.000000000000000e+00

0.000000000000000e+00 0.000000000000000e+00 0.000000000000000e+00
0.000000000000000e+00 0.000000000000000e+00 0.000000000000000e+00
0.000000000000000e+00 0.000000000000000e+00 0.000000000000000e+00

0.000000000000000e+00 0.000000000000000e+00 0.000000000000000e+00
0.000000000000000e+00 0.000000000000000e+00 0.000000000000000e+00
0.000000000000000e+00 0.000000000000000e+00 0.000000000000000e+00

0.000000000000000e+00 0.000000000000000e+00 0.000000000000000e+00
0.000000000000000e+00 0.000000000000000e+00 0.000000000000000e+00
0.000000000000000e+00 0.000000000000000e+00 0.000000000000000e+00

0.000000000000000e+00 0.000000000000000e+00 0.000000000000000e+00
0.000000000000000e+00 0.000000000000000e+00 0.000000000000000e+00
0.000000000000000e+00 0.000000000000000e+00 0.000000000000000e+00

0.000000000000000e+00 0.000000000000000e+00 0.000000000000000e+00
0.000000000000000e+00 0.000000000000000e+00 0.000000000000000e+00
0.000000000000000e+00 0.000000000000000e+00 0.000000000000000e+00

0.000000000000000e+00 0.000000000000000e+00 0.000000000000000e+00
0.000000000000000e+00 0.000000000000000e+00 0.000000000000000e+00
0.000000000000000e+00 0.000000000000000e+00 0.000000000000000e+00

0.000000000000000e+00 0.000000000000000e+00 0.000000000000000e+00
0.000000000000000e+00 0.000000000000000e+00 0.000000000000000e+00
0.000000000000000e+00 0.000000000000000e+00 0.000000000000000e+00

0.000000000000000e+00 0.000000000000000e+00 0.000000000000000e+00
0.000000000000000e+00 0.000000000000000e+00 0.000000000000000e+00
0.000000000000000e+00 0.000000000000000e+00 0.000000000000000e+00

0.000000000000000e+00 0.000000000000000e+00 0.000000000000000e+00
0.000000000000000e+00 0.000000000000000e+00 0.000000000000000e+00
0.000000000000000e+00 0.000000000000000e+00 0.000000000000000e+00

0.000000000000000e+00 0.000000000000000e+00 0.000000000000000e+00
0.000000000000000e+00 0.000000000000000e+00 0.000000000000000e+00
0.000000000000000e+00 0.000000000000000e+00 0.000000000000000e+00

0.000000000000000e+00 0.000000000000000e+00 0.000000000000000e+00
0.000000000000000e+00 0.000000000000000e+00 0.000000000000000e+00
0.000000000000000e+00 0.000000000000000e+00 0.000000000000000e+00

0.000000000000000e+00 0.000000000000000e+00 0.000000000000000e+00
0.000000000000000e+00 0.000000000000000e+00 0.000000000000000e+00
0.000000000000000e+00 0.000000000000000e+00 0.000000000000000e+00

0.000000000000000e+00 0.000000000000000e+00 0.000000000000000e+00
0.000000000000000e+00 0.000000000000000e+00 0.000000000000000e+00
0.000000000000000e+00 0.000000000000000e+00 0.000000000000000e+00

0.000000000000000e+00 0.000000000000000e+00 0.000000000000000e+00
0.000000000000000e+00 0.000000000000000e+00 0.000000000000000e+00
0.000000000000000e+00 0.000000000000000e+00 0.000000000000000e+00

0.000000000000000e+00 0.000000000000000e+00 0.000000000000000e+00
0.000000000000000e+00 0.000000000000000e+00 0.000000000000000e+00
0.000000000000000e+00 0.000000000000000e+00 0.000000000000000e+00

0.000000000000000e+00 0.000000000000000e+00 0.000000000000000e+00
0.000000000000000e+00 0.000000000000000e+00 0.000000000000000e+00
0.000000000000000e+00 0.000000000000000e+00 0.000000000000000e+00

0.000000000000000e+00 0.000000000000000e+00 0.000000000000000e+00
0.000000000000000e+00 0.000000000000000e+00 0.000000000000000e+00
0.000000000000000e+00 0.000000000000000e+00 0.000000000000000e+00

0.000000000000000e+00 0.000000000000000e+00 0.000000000000000e+00
0.000000000000000e+00 0.000000000000000e+00 0.000000000000000e+00
0.000000000000000e+00 0.000000000000000e+00 0.000000000000000e+00

0.000000000000000e+00 0.000000000000000e+00 0.000000000000000e+00
0.000000000000000e+00 0.000000000000000e+00 0.000000000000000e+00
0.000000000000000e+00 0.000000000000000e+00 0.000000000000000e+00

0.000000000000000e+00 0.000000000000000e+00 0.000000000000000e+00
0.000000000000000e+00 0.000000000000000e+00 0.000000000000000e+00
0.000000000000000e+00 0.000000000000000e+00 0.000000000000000e+00

0.000000000000000e+00 0.000000000000000e+00 0.000000000000000e+00
0.000000000000000e+00 0.000000000000000e+00 0.000000000000000e+00
0.000000000000000e+00 0.000000000000000e+00 0.000000000000000e+00

0.000000000000000e+00 0.000000000000000e+00 0.000000000000000e+00
0.000000000000000e+00 0.000000000000000e+00 0.000000000000000e+00
0.000000000000000e+00 0.000000000000000e+00 0.000000000000000e+00

0.000000000000000e+00 0.000000000000000e+00 0.000000000000000e+00
0.000000000000000e+00 0.000000000000000e+00 0.000000000000000e+00
0.000000000000000e+00 0.000000000000000e+00 0.000000000000000e+00

0.000000000000000e+00 0.000000000000000e+00 0.000000000000000e+00
0.000000000000000e+00 0.000000000000000e+00 0.000000000000000e+00
0.000000000000000e+00 0.000000000000000e+00 0.000000000000000e+00

0.000000000000000e+00 0.000000000000000e+00 0.000000000000000e+00
0.000000000000000e+00 0.000000000000000e+00 0.000000000000000e+00
0.000000000000000e+00 0.000000000000000e+00 0.000000000000000e+00

0.000000000000000e+00 0.000000000000000e+00 0.000000000000000e+00
0.000000000000000e+00 0.000000000000000e+00 0.000000000000000e+00
0.000000000000000e+00 0.000000000000000e+00 0.000000000000000e+00

0.000000000000000e+00 0.000000000000000e+00 0.000000000000000e+00
0.000000000000000e+00 0.000000000000000e+00 0.000000000000000e+00
0.000000000000000e+00 0.000000000000000e+00 0.000000000000000e+00

0.000000000000000e+00 0.000000000000000e+00 0.000000000000000e+00
0.000000000000000e+00 0.000000000000000e+00 0.000000000000000e+00
0.000000000000000e+00 0.000000000000000e+00 0.000000000000000e+00

0.000000000000000e+00 0.000000000000000e+00 0.000000000000000e+00
0.000000000000000e+00 0.000000000000000e+00 0.000000000000000e+00
0.000000000000000e+00 0.000000000000000e+00 0.000000000000000e+00

0.000000000000000e+00 0.000000000000000e+00 0.000000000000000e+00
0.000000000000000e+00 0.000000000000000e+00 0.000000000000000e+00
0.000000000000000e+00 0.000000000000000e+00 0.000000000000000e+00

0.000000000000000e+00 0.000000000000000e+00 0.000000000000000e+00
0.000000000000000e+00 0.000000000000000e+00 0.000000000000000e+00
0.000000000000000e+00 0.000000000000000e+00 0.000000000000000e+00

0.000000000000000e+00 0.000000000000000e+00 0.000000000000000e+00
0.000000000000000e+00 0.000000000000000e+00 0.000000000000000e+00
0.000000000000000e+00 0.000000000000000e+00 0.000000000000000e+00

0.000000000000000e+00 0.000000000000000e+00 0.000000000000000e+00
0.000000000000000e+00 0.000000000000000e+00 0.000000000000000e+00
0.000000000000000e+00 0.000000000000000e+00 0.000000000000000e+00

0.000000000000000e+00 0.000000000000000e+00 0.000000000000000e+00
0.000000000000000e+00 0.000000000000000e+00 0.000000000000000e+00
0.000000000000000e+00 0.000000000000000e+00 0.000000000000000e+00

0.000000000000000e+00 0.000000000000000e+00 0.000000000000000e+00
0.000000000000000e+00 0.000000000000000e+00 0.000000000000000e+00
0.000000000000000e+00 0.000000000000000e+00 0.000000000000000e+00

0.000000000000000e+00 0.000000000000000e+00 0.000000000000000e+00
0.000000000000000e+00 0.000000000000000e+00 0.000000000000000e+00
0.000000000000000e+00 0.000000000000000e+00 0.000000000000000e+00

0.000000000000000e+00 0.000000000000000e+00 0.000000000000000e+00
0.000000000000000e+00 0.000000000000000e+00 0.000000000000000e+00
0.000000000000000e+00 0.000000000000000e+00 0.000000000000000e+00

0.000000000000000e+00 0.000000000000000e+00 0.000000000000000e+00
0.000000000000000e+00 0.000000000000000e+00 0.000000000000000e+00
0.000000000000000e+00 0.000000000000000e+00 0.000000000000000e+00

0.000000000000000e+00 0.000000000000000e+00 0.000000000000000e+00
0.000000000000000e+00 0.000000000000000e+00 0.000000000000000e+00
0.000000000000000e+00 0.000000000000000e+00 0.000000000000000e+00

0.000000000000000e+00 0.000000000000000e+00 0.000000000000000e+00
0.000000000000000e+00 0.000000000000000e+00 0.000000000000000e+00
0.000000000000000e+00 0.000000000000000e+00 0.000000000000000e+00

0.000000000000000e+00 0.000000000000000e+00 0.000000000000000e+00
0.000000000000000e+00 0.000000000000000e+00 0.000000000000000e+00
0.000000000000000e+00 0.000000000000000e+00 0.000000000000000e+00

0.000000000000000e+00 0.000000000000000e+00 0.000000000000000e+00
0.000000000000000e+00 0.000000000000000e+00 0.000000000000000e+00
0.000000000000000e+00 0.000000000000000e+00 0.000000000000000e+00

0.000000000000000e+00 0.000000000000000e+00 0.000000000000000e+00
0.000000000000000e+00 0.000000000000000e+00 0.000000000000000e+00
0.000000000000000e+00 0.000000000000000e+00 0.000000000000000e+00

0.000000000000000e+00 0.000000000000000e+00 0.000000000000000e+00
0.000000000000000e+00 0.000000000000000e+00 0.000000000000000e+00
0.000000000000000e+00 0.000000000000000e+00 0.000000000000000e+00

0.000000000000000e+00 0.000000000000000e+00 0.000000000000000e+00
0.000000000000000e+00 0.000000000000000e+00 0.000000000000000e+00
0.000000000000000e+00 0.000000000000000e+00 0.000000000000000e+00

0.000000000000000e+00 0.000000000000000e+00 0.000000000000000e+00
0.000000000000000e+00 0.000000000000000e+00 0.000000000000000e+00
0.000000000000000e+00 0.000000000000000e+00 0.000000000000000e+00

0.000000000000000e+00 0.000000000000000e+00 0.000000000000000e+00
0.000000000000000e+00 0.000000000000000e+00 0.000000000000000e+00
0.000000000000000e+00 0.000000000000000e+00 0.000000000000000e+00

0.000000000000000e+00 0.000000000000000e+00 0.000000000000000e+00
0.000000000000000e+00 0.000000000000000e+00 0.000000000000000e+00
0.000000000000000e+00 0.000000000000000e+00 0.000000000000000e+00

0.000000000000000e+00 0.000000000000000e+00 0.000000000000000e+00
0.000000000000000e+00 0.000000000000000e+00 0.000000000000000e+00
0.000000000000000e+00 0.000000000000000e+00 0.000000000000000e+00

0.000000000000000e+00 0.000000000000000e+00 0.000000000000000e+00
0.000000000000000e+00 0.000000000000000e+00 0.000000000000000e+00
0.000000000000000e+00 0.000000000000000e+00 0.000000000000000e+00

0.000000000000000e+00 0.000000000000000e+00 0.000000000000000e+00
0.000000000000000e+00 0.000000000000000e+00 0.000000000000000e+00
0.000000000000000e+00 0.000000000000000e+00 0.000000000000000e+00

0.000000000000000e+00 0.000000000000000e+00 0.000000000000000e+00
0.000000000000000e+00 0.000000000000000e+00 0.000000000000000e+00
0.000000000000000e+00 0.000000000000000e+00 0.000000000000000e+00

0.000000000000000e+00 0.000000000000000e+00 0.000000000000000e+00
0.000000000000000e+00 0.000000000000000e+00 0.000000000000000e+00
0.000000000000000e+00 0.000000000000000e+00 0.000000000000000e+00

0.000000000000000e+00 0.000000000000000e+00 0.000000000000000e+00
0.000000000000000e+00 0.000000000000000e+00 0.000000000000000e+00
0.000000000000000e+00 0.000000000000000e+00 0.000000000000000e+00

0.000000000000000e+00 0.000000000000000e+00 0.000000000000000e+00
0.000000000000000e+00 0.000000000000000e+00 0.000000000000000e+00
0.000000000000000e+00 0.000000000000000e+00 0.000000000000000e+00

0.000000000000000e+00 0.000000000000000e+00 0.000000000000000e+00
0.000000000000000e+00 0.000000000000000e+00 0.000000000000000e+00
0.000000000000000e+00 0.000000000000000e+00 0.000000000000000e+00

0.000000000000000e+00 0.000000000000000e+00 0.000000000000000e+00
0.000000000000000e+00 0.000000000000000e+00 0.000000000000000e+00
0.000000000000000e+00 0.000000000000000e+00 0.000000000000000e+00

0.000000000000000e+00 0.000000000000000e+00 0.000000000000000e+00
0.000000000000000e+00 0.000000000000000e+00 0.000000000000000e+00
0.000000000000000e+00 0.000000000000000e+00 0.000000000000000e+00

0.000000000000000e+00 0.000000000000000e+00 0.000000000000000e+00
0.000000000000000e+00 0.000000000000000e+00 0.000000000000000e+00
0.000000000000000e+00 0.000000000000000e+00 0.000000000000000e+00

0.000000000000000e+00 0.000000000000000e+00 0.000000000000000e+00
0.000000000000000e+00 0.000000000000000e+00 0.000000000000000e+00
0.000000000000000e+00 0.000000000000000e+00 0.000000000000000e+00

0.000000000000000e+00 0.000000000000000e+00 0.000000000000000e+00
0.000000000000000e+00 0.000000000000000e+00 0.000000000000000e+00
0.000000000000000e+00 0.000000000000000e+00 0.000000000000000e+00

0.000000000000000e+00 0.000000000000000e+00 0.000000000000000e+00
0.000000000000000e+00 0.000000000000000e+00 0.000000000000000e+00
0.000000000000000e+00 0.000000000000000e+00 0.000000000000000e+00

0.000000000000000e+00 0.000000000000000e+00 0.000000000000000e+00
0.000000000000000e+00 0.000000000000000e+00 0.000000000000000e+00
0.000000000000000e+00 0.000000000000000e+00 0.000000000000000e+00

0.000000000000000e+00 0.000000000000000e+00 0.000000000000000e+00
0.000000000000000e+00 0.000000000000000e+00 0.000000000000000e+00
0.000000000000000e+00 0.000000000000000e+00 0.000000000000000e+00

0.000000000000000e+00 0.000000000000000e+00 0.000000000000000e+00
0.000000000000000e+00 0.000000000000000e+00 0.000000000000000e+00
0.000000000000000e+00 0.000000000000000e+00 0.000000000000000e+00

0.000000000000000e+00 0.000000000000000e+00 0.000000000000000e+00
0.000000000000000e+00 0.000000000000000e+00 0.000000000000000e+00
0.000000000000000e+00 0.000000000000000e+00 0.000000000000000e+00

0.000000000000000e+00 0.000000000000000e+00 0.000000000000000e+00
0.000000000000000e+00 0.000000000000000e+00 0.000000000000000e+00
0.000000000000000e+00 0.000000000000000e+00 0.000000000000000e+00

0.000000000000000e+00 0.000000000000000e+00 0.000000000000000e+00
0.000000000000000e+00 0.000000000000000e+00 0.000000000000000e+00
0.000000000000000e+00 0.000000000000000e+00 0.000000000000000e+00

0.000000000000000e+00 0.000000000000000e+00 0.000000000000000e+00
0.000000000000000e+00 0.000000000000000e+00 0.000000000000000e+00
0.000000000000000e+00 0.000000000000000e+00 0.000000000000000e+00

0.000000000000000e+00 0.000000000000000e+00 0.000000000000000e+00
0.000000000000000e+00 0.000000000000000e+00 0.000000000000000e+00
0.000000000000000e+00 0.000000000000000e+00 0.000000000000000e+00

0.000000000000000e+00 0.000000000000000e+00 0.000000000000000e+00
0.000000000000000e+00 0.000000000000000e+00 0.000000000000000e+00
0.000000000000000e+00 0.000000000000000e+00 0.000000000000000e+00

0.000000000000000e+00 0.000000000000000e+00 0.000000000000000e+00
0.000000000000000e+00 0.000000000000000e+00 0.000000000000000e+00
0.000000000000000e+00 0.000000000000000e+00 0.000000000000000e+00

0.000000000000000e+00 0.000000000000000e+00 0.000000000000000e+00
0.000000000000000e+00 0.000000000000000e+00 0.000000000000000e+00
0.000000000000000e+00 0.000000000000000e+00 0.000000000000000e+00

0.000000000000000e+00 0.000000000000000e+00 0.000000000000000e+00
0.000000000000000e+00 0.000000000000000e+00 0.000000000000000e+00
0.000000000000000e+00 0.000000000000000e+00 0.000000000000000e+00

0.000000000000000e+00 0.000000000000000e+00 0.000000000000000e+00
0.000000000000000e+00 0.000000000000000e+00 0.000000000000000e+00
0.000000000000000e+00 0.000000000000000e+00 0.000000000000000e+00

0.000000000000000e+00 0.000000000000000e+00 0.000000000000000e+00
0.000000000000000e+00 0.000000000000000e+00 0.000000000000000e+00
0.000000000000000e+00 0.000000000000000e+00 0.000000000000000e+00

0.000000000000000e+00 0.000000000000000e+00 0.000000000000000e+00
0.000000000000000e+00 0.000000000000000e+00 0.000000000000000e+00
0.000000000000000e+00 0.000000000000000e+00 0.000000000000000e+00

0.000000000000000e+00 0.000000000000000e+00 0.000000000000000e+00
0.000000000000000e+00 0.000000000000000e+00 0.000000000000000e+00
0.000000000000000e+00 0.000000000000000e+00 0.000000000000000e+00

0.000000000000000e+00 0.000000000000000e+00 0.000000000000000e+00
0.000000000000000e+00 0.000000000000000e+00 0.000000000000000e+00
0.000000000000000e+00 0.000000000000000e+00 0.000000000000000e+00

0.000000000000000e+00 0.000000000000000e+00 0.000000000000000e+00
0.000000000000000e+00 0.000000000000000e+00 0.000000000000000e+00
0.000000000000000e+00 0.000000000000000e+00 0.000000000000000e+00

0.000000000000000e+00 0.000000000000000e+00 0.000000000000000e+00
0.000000000000000e+00 0.000000000000000e+00 0.000000000000000e+00
0.000000000000000e+00 0.000000000000000e+00 0.000000000000000e+00

0.000000000000000e+00 0.000000000000000e+00 0.000000000000000e+00
0.000000000000000e+00 0.000000000000000e+00 0.000000000000000e+00
0.000000000000000e+00 0.000000000000000e+00 0.000000000000000e+00

0.000000000000000e+00 0.000000000000000e+00 0.000000000000000e+00
0.000000000000000e+00 0.000000000000000e+00 0.000000000000000e+00
0.000000000000000e+00 0.000000000000000e+00 0.000000000000000e+00

0.000000000000000e+00 0.000000000000000e+00 0.000000000000000e+00
0.000000000000000e+00 0.000000000000000e+00 0.000000000000000e+00
0.000000000000000e+00 0.000000000000000e+00 0.000000000000000e+00

0.000000000000000e+00 0.000000000000000e+00 0.000000000000000e+00
0.000000000000000e+00 0.000000000000000e+00 0.000000000000000e+00
0.000000000000000e+00 0.000000000000000e+00 0.000000000000000e+00

0.000000000000000e+00 0.000000000000000e+00 0.000000000000000e+00
0.000000000000000e+00 0.000000000000000e+00 0.000000000000000e+00
0.000000000000000e+00 0.000000000000000e+00 0.000000000000000e+00

0.000000000000000e+00 0.000000000000000e+00 0.000000000000000e+00
0.000000000000000e+00 0.000000000000000e+00 0.000000000000000e+00
0.000000000000000e+00 0.000000000000000e+00 0.000000000000000e+00

0.000000000000000e+00 0.000000000000000e+00 0.000000000000000e+00
0.000000000000000e+00 0.000000000000000e+00 0.000000000000000e+00
0.000000000000000e+00 0.000000000000000e+00 0.000000000000000e+00

0.000000000000000e+00 0.000000000000000e+00 0.000000000000000e+00
0.000000000000000e+00 0.000000000000000e+00 0.000000000000000e+00
0.000000000000000e+00 0.000000000000000e+00 0.000000000000000e+00

0.000000000000000e+00 0.000000000000000e+00 0.000000000000000e+00
0.000000000000000e+00 0.000000000000000e+00 0.000000000000000e+00
0.000000000000000e+00 0.000000000000000e+00 0.000000000000000e+00

0.000000000000000e+00 0.000000000000000e+00 0.000000000000000e+00
0.000000000000000e+00 0.000000000000000e+00 0.000000000000000e+00
0.000000000000000e+00 0.000000000000000e+00 0.000000000000000e+00

0.000000000000000e+00 0.000000000000000e+00 0.000000000000000e+00
0.000000000000000e+00 0.000000000000000e+00 0.000000000000000e+00
0.000000000000000e+00 0.000000000000000e+00 0.000000000000000e+00

0.000000000000000e+00 0.000000000000000e+00 0.000000000000000e+00
0.000000000000000e+00 0.000000000000000e+00 0.000000000000000e+00
0.000000000000000e+00 0.000000000000000e+00 0.000000000000000e+00

0.000000000000000e+00 0.000000000000000e+00 0.000000000000000e+00
0.000000000000000e+00 0.000000000000000e+00 0.000000000000000e+00
0.000000000000000e+00 0.000000000000000e+00 0.000000000000000e+00

0.000000000000000e+00 0.000000000000000e+00 0.000000000000000e+00
0.000000000000000e+00 0.000000000000000e+00 0.000000000000000e+00
0.000000000000000e+00 0.000000000000000e+00 0.000000000000000e+00

0.000000000000000e+00 0.000000000000000e+00 0.000000000000000e+00
0.000000000000000e+00 0.000000000000000e+00 0.000000000000000e+00
0.000000000000000e+00 0.000000000000000e+00 0.000000000000000e+00

0.000000000000000e+00 0.000000000000000e+00 0.000000000000000e+00
0.000000000000000e+00 0.000000000000000e+00 0.000000000000000e+00
0.000000000000000e+00 0.000000000000000e+00 0.000000000000000e+00

0.000000000000000e+00 0.000000000000000e+00 0.000000000000000e+00
0.000000000000000e+00 0.000000000000000e+00 0.000000000000000e+00
0.000000000000000e+00 0.000000000000000e+00 0.000000000000000e+00

0.000000000000000e+00 0.000000000000000e+00 0.000000000000000e+00
0.000000000000000e+00 0.000000000000000e+00 0.000000000000000e+00
0.000000000000000e+00 0.000000000000000e+00 0.000000000000000e+00

0.000000000000000e+00 0.000000000000000e+00 0.000000000000000e+00
0.000000000000000e+00 0.000000000000000e+00 0.000000000000000e+00
0.000000000000000e+00 0.000000000000000e+00 0.000000000000000e+00

0.000000000000000e+00 0.000000000000000e+00 0.000000000000000e+00
0.000000000000000e+00 0.000000000000000e+00 0.000000000000000e+00
0.000000000000000e+00 0.000000000000000e+00 0.000000000000000e+00

0.000000000000000e+00 0.000000000000000e+00 0.000000000000000e+00
0.000000000000000e+00 0.000000000000000e+00 0.000000000000000e+00
0.000000000000000e+00 0.000000000000000e+00 0.000000000000000e+00

0.000000000000000e+00 0.000000000000000e+00 0.000000000000000e+00
0.000000000000000e+00 0.000000000000000e+00 0.000000000000000e+00
0.000000000000000e+00 0.000000000000000e+00 0.000000000000000e+00

0.000000000000000e+00 0.000000000000000e+00 0.000000000000000e+00
0.000000000000000e+00 0.000000000000000e+00 0.000000000000000e+00
0.000000000000000e+00 0.000000000000000e+00 0.000000000000000e+00

0.000000000000000e+00 0.000000000000000e+00 0.000000000000000e+00
0.000000000000000e+00 0.000000000000000e+00 0.000000000000000e+00
0.000000000000000e+00 0.000000000000000e+00 0.000000000000000e+00

0.000000000000000e+00 0.000000000000000e+00 0.000000000000000e+00
0.000000000000000e+00 0.000000000000000e+00 0.000000000000000e+00
0.000000000000000e+00 0.000000000000000e+00 0.000000000000000e+00

0.000000000000000e+00 0.000000000000000e+00 0.000000000000000e+00
0.000000000000000e+00 0.000000000000000e+00 0.000000000000000e+00
0.000000000000000e+00 0.000000000000000e+00 0.000000000000000e+00

0.000000000000000e+00 0.000000000000000e+00 0.000000000000000e+00
0.000000000000000e+00 0.000000000000000e+00 0.000000000000000e+00
0.000000000000000e+00 0.000000000000000e+00 0.000000000000000e+00

0.000000000000000e+00 0.000000000000000e+00 0.000000000000000e+00
0.000000000000000e+00 0.000000000000000e+00 0.000000000000000e+00
0.000000000000000e+00 0.000000000000000e+00 0.000000000000000e+00

0.000000000000000e+00 0.000000000000000e+00 0.000000000000000e+00
0.000000000000000e+00 0.000000000000000e+00 0.000000000000000e+00
0.000000000000000e+00 0.000000000000000e+00 0.000000000000000e+00

0.000000000000000e+00 0.000000000000000e+00 0.000000000000000e+00
0.000000000000000e+00 0.000000000000000e+00 0.000000000000000e+00
0.000000000000000e+00 0.000000000000000e+00 0.000000000000000e+00

0.000000000000000e+00 0.000000000000000e+00 0.000000000000000e+00
0.000000000000000e+00 0.000000000000000e+00 0.000000000000000e+00
0.000000000000000e+00 0.000000000000000e+00 0.000000000000000e+00

0.000000000000000e+00 0.000000000000000e+00 0.000000000000000e+00
0.000000000000000e+00 0.000000000000000e+00 0.000000000000000e+00
0.000000000000000e+00 0.000000000000000e+00 0.000000000000000e+00

0.000000000000000e+00 0.000000000000000e+00 0.000000000000000e+00
0.000000000000000e+00 0.000000000000000e+00 0.000000000000000e+00
0.000000000000000e+00 0.000000000000000e+00 0.000000000000000e+00

0.000000000000000e+00 0.000000000000000e+00 0.000000000000000e+00
0.000000000000000e+00 0.000000000000000e+00 0.000000000000000e+00
0.000000000000000e+00 0.000000000000000e+00 0.000000000000000e+00

0.000000000000000e+00 0.000000000000000e+00 0.000000000000000e+00
0.000000000000000e+00 0.000000000000000e+00 0.000000000000000e+00
0.000000000000000e+00 0.000000000000000e+00 0.000000000000000e+00

0.000000000000000e+00 0.000000000000000e+00 0.000000000000000e+00
0.000000000000000e+00 0.000000000000000e+00 0.000000000000000e+00
0.000000000000000e+00 0.000000000000000e+00 0.000000000000000e+00

0.000000000000000e+00 0.000000000000000e+00 0.000000000000000e+00
0.000000000000000e+00 0.000000000000000e+00 0.000000000000000e+00
0.000000000000000e+00 0.000000000000000e+00 0.000000000000000e+00

0.000000000000000e+00 0.000000000000000e+00 0.000000000000000e+00
0.000000000000000e+00 0.000000000000000e+00 0.000000000000000e+00
0.000000000000000e+00 0.000000000000000e+00 0.000000000000000e+00

0.000000000000000e+00 0.000000000000000e+00 0.000000000000000e+00
0.000000000000000e+00 0.000000000000000e+00 0.000000000000000e+00
0.000000000000000e+00 0.000000000000000e+00 0.000000000000000e+00

0.000000000000000e+00 0.000000000000000e+00 0.000000000000000e+00
0.000000000000000e+00 0.000000000000000e+00 0.000000000000000e+00
0.000000000000000e+00 0.000000000000000e+00 0.000000000000000e+00

0.000000000000000e+00 0.000000000000000e+00 0.000000000000000e+00
0.000000000000000e+00 0.000000000000000e+00 0.000000000000000e+00
0.000000000000000e+00 0.000000000000000e+00 0.000000000000000e+00

0.000000000000000e+00 0.000000000000000e+00 0.000000000000000e+00
0.000000000000000e+00 0.000000000000000e+00 0.000000000000000e+00
0.000000000000000e+00 0.000000000000000e+00 0.000000000000000e+00

0.000000000000000e+00 0.000000000000000e+00 0.000000000000000e+00
0.000000000000000e+00 0.000000000000000e+00 0.000000000000000e+00
0.000000000000000e+00 0.000000000000000e+00 0.000000000000000e+00

0.000000000000000e+00 0.000000000000000e+00 0.000000000000000e+00
0.000000000000000e+00 0.000000000000000e+00 0.000000000000000e+00
0.000000000000000e+00 0.000000000000000e+00 0.000000000000000e+00

0.000000000000000e+00 0.000000000000000e+00 0.000000000000000e+00
0.000000000000000e+00 0.000000000000000e+00 0.000000000000000e+00
0.000000000000000e+00 0.000000000000000e+00 0.000000000000000e+00

0.000000000000000e+00 0.000000000000000e+00 0.000000000000000e+00
0.000000000000000e+00 0.000000000000000e+00 0.000000000000000e+00
0.000000000000000e+00 0.000000000000000e+00 0.000000000000000e+00

0.000000000000000e+00 0.000000000000000e+00 0.000000000000000e+00
0.000000000000000e+00 0.000000000000000e+00 0.000000000000000e+00
0.000000000000000e+00 0.000000000000000e+00 0.000000000000000e+00

0.000000000000000e+00 0.000000000000000e+00 0.000000000000000e+00
0.000000000000000e+00 0.000000000000000e+00 0.000000000000000e+00
0.000000000000000e+00 0.000000000000000e+00 0.000000000000000e+00

0.000000000000000e+00 0.000000000000000e+00 0.000000000000000e+00
0.000000000000000e+00 0.000000000000000e+00 0.000000000000000e+00
0.000000000000000e+00 0.000000000000000e+00 0.000000000000000e+00

0.000000000000000e+00 0.000000000000000e+00 0.000000000000000e+00
0.000000000000000e+00 0.000000000000000e+00 0.000000000000000e+00
0.000000000000000e+00 0.000000000000000e+00 0.000000000000000e+00

0.000000000000000e+00 0.000000000000000e+00 0.000000000000000e+00
0.000000000000000e+00 0.000000000000000e+00 0.000000000000000e+00
0.000000000000000e+00 0.000000000000000e+00 0.000000000000000e+00

0.000000000000000e+00 0.000000000000000e+00 0.000000000000000e+00
0.000000000000000e+00 0.000000000000000e+00 0.000000000000000e+00
0.000000000000000e+00 0.000000000000000e+00 0.000000000000000e+00

0.000000000000000e+00 0.000000000000000e+00 0.000000000000000e+00
0.000000000000000e+00 0.000000000000000e+00 0.000000000000000e+00
0.000000000000000e+00 0.000000000000000e+00 0.000000000000000e+00

0.000000000000000e+00 0.000000000000000e+00 0.000000000000000e+00
0.000000000000000e+00 0.000000000000000e+00 0.000000000000000e+00
0.000000000000000e+00 0.000000000000000e+00 0.000000000000000e+00

0.000000000000000e+00 0.000000000000000e+00 0.000000000000000e+00
0.000000000000000e+00 0.000000000000000e+00 0.000000000000000e+00
0.000000000000000e+00 0.000000000000000e+00 0.000000000000000e+00

0.000000000000000e+00 0.000000000000000e+00 0.000000000000000e+00
0.000000000000000e+00 0.000000000000000e+00 0.000000000000000e+00
0.000000000000000e+00 0.000000000000000e+00 0.000000000000000e+00

0.000000000000000e+00 0.000000000000000e+00 0.000000000000000e+00
0.000000000000000e+00 0.000000000000000e+00 0.000000000000000e+00
0.000000000000000e+00 0.000000000000000e+00 0.000000000000000e+00

0.000000000000000e+00 0.000000000000000e+00 0.000000000000000e+00
0.000000000000000e+00 0.000000000000000e+00 0.000000000000000e+00
0.000000000000000e+00 0.000000000000000e+00 0.000000000000000e+00

0.000000000000000e+00 0.000000000000000e+00 0.000000000000000e+00
0.000000000000000e+00 0.000000000000000e+00 0.000000000000000e+00
0.000000000000000e+00 0.000000000000000e+00 0.000000000000000e+00

0.000000000000000e+00 0.000000000000000e+00 0.000000000000000e+00
0.000000000000000e+00 0.000000000000000e+00 0.000000000000000e+00
0.000000000000000e+00 0.000000000000000e+00 0.000000000000000e+00

0.000000000000000e+00 0.000000000000000e+00 0.000000000000000e+00
0.000000000000000e+00 0.000000000000000e+00 0.000000000000000e+00
0.000000000000000e+00 0.000000000000000e+00 0.000000000000000e+00

0.000000000000000e+00 0.000000000000000e+00 0.000000000000000e+00
0.000000000000000e+00 0.000000000000000e+00 0.000000000000000e+00
0.000000000000000e+00 0.000000000000000e+00 0.000000000000000e+00

0.000000000000000e+00 0.000000000000000e+00 0.000000000000000e+00
0.000000000000000e+00 0.000000000000000e+00 0.000000000000000e+00
0.000000000000000e+00 0.000000000000000e+00 0.000000000000000e+00

0.000000000000000e+00 0.000000000000000e+00 0.000000000000000e+00
0.000000000000000e+00 0.000000000000000e+00 0.000000000000000e+00
0.000000000000000e+00 0.000000000000000e+00 0.000000000000000e+00

0.000000000000000e+00 0.000000000000000e+00 0.000000000000000e+00
0.000000000000000e+00 0.000000000000000e+00 0.000000000000000e+00
0.000000000000000e+00 0.000000000000000e+00 0.000000000000000e+00

0.000000000000000e+00 0.000000000000000e+00 0.000000000000000e+00
0.000000000000000e+00 0.000000000000000e+00 0.000000000000000e+00
0.000000000000000e+00 0.000000000000000e+00 0.000000000000000e+00

0.000000000000000e+00 0.000000000000000e+00 0.000000000000000e+00
0.000000000000000e+00 0.000000000000000e+00 0.000000000000000e+00
0.000000000000000e+00 0.000000000000000e+00 0.000000000000000e+00

0.000000000000000e+00 0.000000000000000e+00 0.000000000000000e+00
0.000000000000000e+00 0.000000000000000e+00 0.000000000000000e+00
0.000000000000000e+00 0.000000000000000e+00 0.000000000000000e+00

0.000000000000000e+00 0.000000000000000e+00 0.000000000000000e+00
0.000000000000000e+00 0.000000000000000e+00 0.000000000000000e+00
0.000000000000000e+00 0.000000000000000e+00 0.000000000000000e+00

0.000000000000000e+00 0.000000000000000e+00 0.000000000000000e+00
0.000000000000000e+00 0.000000000000000e+00 0.000000000000000e+00
0.000000000000000e+00 0.000000000000000e+00 0.000000000000000e+00

0.000000000000000e+00 0.000000000000000e+00 0.000000000000000e+00
0.000000000000000e+00 0.000000000000000e+00 0.000000000000000e+00
0.000000000000000e+00 0.000000000000000e+00 0.000000000000000e+00

0.000000000000000e+00 0.000000000000000e+00 0.000000000000000e+00
0.000000000000000e+00 0.000000000000000e+00 0.000000000000000e+00
0.000000000000000e+00 0.000000000000000e+00 0.000000000000000e+00

0.000000000000000e+00 0.000000000000000e+00 0.000000000000000e+00
0.000000000000000e+00 0.000000000000000e+00 0.000000000000000e+00
0.000000000000000e+00 0.000000000000000e+00 0.000000000000000e+00

0.000000000000000e+00 0.000000000000000e+00 0.000000000000000e+00
0.000000000000000e+00 0.000000000000000e+00 0.000000000000000e+00
0.000000000000000e+00 0.000000000000000e+00 0.000000000000000e+00

0.000000000000000e+00 0.000000000000000e+00 0.000000000000000e+00
0.000000000000000e+00 0.000000000000000e+00 0.000000000000000e+00
0.000000000000000e+00 0.000000000000000e+00 0.000000000000000e+00

0.000000000000000e+00 0.000000000000000e+00 0.000000000000000e+00
0.000000000000000e+00 0.000000000000000e+00 0.000000000000000e+00
0.000000000000000e+00 0.000000000000000e+00 0.000000000000000e+00

0.000000000000000e+00 0.000000000000000e+00 0.000000000000000e+00
0.000000000000000e+00 0.000000000000000e+00 0.000000000000000e+00
0.000000000000000e+00 0.000000000000000e+00 0.000000000000000e+00

0.000000000000000e+00 0.000000000000000e+00 0.000000000000000e+00
0.000000000000000e+00 0.000000000000000e+00 0.000000000000000e+00
0.000000000000000e+00 0.000000000000000e+00 0.000000000000000e+00

0.000000000000000e+00 0.000000000000000e+00 0.000000000000000e+00
0.000000000000000e+00 0.000000000000000e+00 0.000000000000000e+00
0.000000000000000e+00 0.000000000000000e+00 0.000000000000000e+00

0.000000000000000e+00 0.000000000000000e+00 0.000000000000000e+00
0.000000000000000e+00 0.000000000000000e+00 0.000000000000000e+00
0.000000000000000e+00 0.000000000000000e+00 0.000000000000000e+00

0.000000000000000e+00 0.000000000000000e+00 0.000000000000000e+00
0.000000000000000e+00 0.000000000000000e+00 0.000000000000000e+00
0.000000000000000e+00 0.000000000000000e+00 0.000000000000000e+00

0.000000000000000e+00 0.000000000000000e+00 0.000000000000000e+00
0.000000000000000e+00 0.000000000000000e+00 0.000000000000000e+00
0.000000000000000e+00 0.000000000000000e+00 0.000000000000000e+00

0.000000000000000e+00 0.000000000000000e+00 0.000000000000000e+00
0.000000000000000e+00 0.000000000000000e+00 0.000000000000000e+00
0.000000000000000e+00 0.000000000000000e+00 0.000000000000000e+00

0.000000000000000e+00 0.000000000000000e+00 0.000000000000000e+00
0.000000000000000e+00 0.000000000000000e+00 0.000000000000000e+00
0.000000000000000e+00 0.000000000000000e+00 0.000000000000000e+00

0.000000000000000e+00 0.000000000000000e+00 0.000000000000000e+00
0.000000000000000e+00 0.000000000000000e+00 0.000000000000000e+00
0.000000000000000e+00 0.000000000000000e+00 0.000000000000000e+00

0.000000000000000e+00 0.000000000000000e+00 0.000000000000000e+00
0.000000000000000e+00 0.000000000000000e+00 0.000000000000000e+00
0.000000000000000e+00 0.000000000000000e+00 0.000000000000000e+00

0.000000000000000e+00 0.000000000000000e+00 0.000000000000000e+00
0.000000000000000e+00 0.000000000000000e+00 0.000000000000000e+00
0.000000000000000e+00 0.000000000000000e+00 0.000000000000000e+00

 1.145506814987161e-17 -9.215943799395795e-20 -1.028715416162916e+00
-9.215943799395795e-20 -1.885519369899149e-17  4.151423421402529e-01
-1.028715416162916e+00  4.151423421402529e-01  9.083225696500722e-18

 1.134632039672976e-17 -8.206458026663865e-20 -1.023345763029563e+00
-8.206458026663865e-20 -7.395609510194385e-18  4.176534121802717e-01
-1.023345763029563e+00  4.176534121802717e-01  8.794548605027165e-18

 1.159262764465422e-17 -3.481402610014626e-20 -1.034022549709346e+00
-3.481402610014626e-20  2.898754838426512e-17  4.121244649603844e-01
-1.034022549709346e+00  4.121244649603844e-01  9.469453463832181e-18

 1.155376325189854e-17 -4.362101591494884e-20 -1.033149761845199e+00
-4.362101591494884e-20  1.477085799114420e-17  4.250725937729598e-01
-1.033149761845199e+00  4.250725937729598e-01  9.295616590309241e-18

 1.060548829914108e-17  5.000622857554876e-20 -9.942326688142351e-01
 5.000622857554876e-20  5.083711624637521e-17  4.597053806072921e-01
-9.942326688142351e-01  4.597053806072921e-01  6.418120776151240e-18

 1.097026661418621e-17 -8.461615737490441e-20 -1.004996605410072e+00
-8.461615737490441e-20  3.451777182505822e-18  4.016736672356719e-01
-1.004996605410072e+00  4.016736672356719e-01  7.988385521356616e-18

 1.091946739231906e-17 -3.178214658937588e-20 -1.003884785528870e+00
-3.178214658937588e-20  3.904424903378228e-17  4.002327553410799e-01
-1.003884785528870e+00  4.002327553410799e-01  7.858944819810710e-18

 1.147289165987665e-17 -7.514413344593414e-20 -1.029838104958908e+00
-7.514413344593414e-20  9.546678971742295e-18  4.281446629486377e-01
-1.029838104958908e+00  4.281446629486377e-01  9.086584792889896e-18

 1.145959141579460e-17 -7.407345207737956e-20 -1.029745397041299e+00
-7.407345207737956e-20  5.607631756733842e-18  4.164164441921753e-01
-1.029745397041299e+00  4.164164441921753e-01  9.093611561024631e-18

 1.138725468375110e-17 -1.045737066494916e-19 -1.027124695507988e+00
-1.045737066494916e-19 -2.407970169827137e-17  4.180148757407607e-01
-1.027124695507988e+00  4.180148757407607e-01  8.904162023121389e-18

 1.125120106475000e-17 -8.222674009391707e-20 -1.020531023237841e+00
-8.222674009391707e-20 -2.576513568016576e-18  4.210690376897577e-01
-1.020531023237841e+00  4.210690376897577e-01  8.555669350466786e-18

 1.119134805053111e-17 -1.041499680785614e-19 -1.017111423101593e+00
-1.041499680785614e-19 -3.121680831755862e-17  4.206832904629952e-01
-1.017111423101593e+00  4.206832904629952e-01  8.435612095376082e-18

 1.118931803636888e-17 -1.240395231880899e-19 -1.015980808222331e+00
-1.240395231880899e-19 -6.968307725136913e-17  4.201514196197327e-01
-1.015980808222331e+00  4.201514196197327e-01  8.458263228328736e-18

 1.119240866010417e-17 -8.008799275577321e-20 -1.015531889770849e+00
-8.008799275577321e-20 -1.023412325056936e-17  4.176074993850499e-01
-1.015531889770849e+00  4.176074993850499e-01  8.478304968072962e-18

 1.118745088203013e-17 -6.698043685653519e-20 -1.015076627863211e+00
-6.698043685653519e-20  7.172423928881425e-18  4.203594613497827e-01
-1.015076627863211e+00  4.203594613497827e-01  8.488382954751747e-18

 1.117207000442403e-17 -5.628537711400440e-20 -1.013751309739021e+00
-5.628537711400440e-20  1.883405680369770e-17  4.186147127257404e-01
-1.013751309739021e+00  4.186147127257404e-01  8.466441724281289e-18

 1.113978290927710e-17 -7.398126620962004e-20 -1.012119327731965e+00
-7.398126620962004e-20 -1.873872056784884e-17  4.174093167779272e-01
-1.012119327731965e+00  4.174093167779272e-01  8.407165060227730e-18

 1.110961731806963e-17 -4.652857904930047e-20 -1.010946790905028e+00
-4.652857904930047e-20  2.572654656148633e-17  4.171550858692344e-01
-1.010946790905028e+00  4.171550858692344e-01  8.347512237528807e-18

 1.111735746414637e-17 -7.092993699122805e-20 -1.011256873689153e+00
-7.092993699122805e-20 -2.690735137221404e-17  4.174147294967701e-01
-1.011256873689153e+00  4.174147294967701e-01  8.380949387870046e-18

 1.112684703440158e-17 -6.266131510275990e-20 -1.011550324653422e+00
-6.266131510275990e-20 -2.077976106487587e-17  4.173799620433770e-01
-1.011550324653422e+00  4.173799620433770e-01  8.407001424105811e-18

 1.111420906597010e-17 -8.208951495633550e-20 -1.011516359392555e+00
-8.208951495633550e-20 -7.232994737691584e-17  4.174580168430336e-01
-1.011516359392555e+00  4.174580168430336e-01  8.387979889788905e-18

 1.109221829124449e-17 -5.149131644086969e-20 -1.010374598556985e+00
-5.149131644086969e-20  3.307761722889268e-18  4.166001680685882e-01
-1.010374598556985e+00  4.166001680685882e-01  8.360838385475787e-18

 1.107892315366553e-17 -3.976099618186299e-20 -1.009689383818107e+00
-3.976099618186299e-20  3.081738935656209e-17  4.168554577257186e-01
-1.009689383818107e+00  4.168554577257186e-01  8.327259441733055e-18

 1.105646099310967e-17 -3.632198806080367e-20 -1.009287453365856e+00
-3.632198806080367e-20  3.995332284250097e-17  4.168374103937287e-01
-1.009287453365856e+00  4.168374103937287e-01  8.300805068085883e-18

 1.105635792396733e-17 -3.686962085459591e-20 -1.009379755832978e+00
-3.686962085459591e-20  3.080306432278649e-17  4.157982169973184e-01
-1.009379755832978e+00  4.157982169973184e-01  8.303241434315045e-18

 1.107502126654383e-17 -3.429123812569276e-20 -1.011336148277289e+00
-3.429123812569276e-20  4.546941105653726e-17  4.190480351274800e-01
-1.011336148277289e+00  4.190480351274800e-01  8.360443369369297e-18

 1.118778782394632e-17 -3.977836571568379e-20 -1.016119422157157e+00
-3.977836571568379e-20  1.392428807801391e-17  4.121331874204844e-01
-1.016119422157157e+00  4.121331874204844e-01  8.723235420694932e-18

 1.106097783476831e-17 -3.484491456622971e-20 -1.010869268180925e+00
-3.484491456622971e-20  7.654158394244161e-17  4.180318820560049e-01
-1.010869268180925e+00  4.180318820560049e-01  8.304437373568413e-18

 1.109804292922400e-17 -3.482290015738422e-20 -1.012539277332629e+00
-3.482290015738422e-20  5.089116958632738e-17  4.138086141347890e-01
-1.012539277332629e+00  4.138086141347890e-01  8.484459755111727e-18

 1.103418478459704e-17 -3.085343323523031e-20 -1.009257006281793e+00
-3.085343323523031e-20 -2.233148212653561e-17  4.193566994104878e-01
-1.009257006281793e+00  4.193566994104878e-01  8.181606048519283e-18

 1.104393538946885e-17 -3.948714308089578e-20 -1.011900908573510e+00
-3.948714308089578e-20 -3.231863760543633e-18  4.148889811202217e-01
-1.011900908573510e+00  4.148889811202217e-01  8.424758293386688e-18

 1.110316751902503e-17 -3.495558962502977e-20 -1.013061556515976e+00
-3.495558962502977e-20  7.000985931739530e-17  4.172562838310162e-01
-1.013061556515976e+00  4.172562838310162e-01  8.440752913763224e-18

 1.107605930436017e-17 -3.644616055255791e-20 -1.012567204028583e+00
-3.644616055255791e-20  1.648045114019538e-17  4.169961477590179e-01
-1.012567204028583e+00  4.169961477590179e-01  8.459830062641290e-18

 1.071956722519219e-17 -2.872278339167612e-20 -9.977814179246780e-01
-2.872278339167612e-20 -3.393584402405530e-17  4.264429234070464e-01
-9.977814179246780e-01  4.264429234070464e-01  7.418882673083389e-18

 1.076378303392714e-17 -3.103393090256578e-20 -1.000383865739001e+00
-3.103393090256578e-20 -1.994375875563747e-17  4.226242532642196e-01
-1.000383865739001e+00  4.226242532642196e-01  7.596817594135685e-18

 1.091202280962098e-17 -4.847699724457622e-20 -1.006762284773539e+00
-4.847699724457622e-20  5.091464997549363e-17  4.191976706076806e-01
-1.006762284773539e+00  4.191976706076806e-01  8.071526091114535e-18

 1.121739863397879e-17 -3.421421930235839e-20 -1.019372376206351e+00
-3.421421930235839e-20 -1.561371106975560e-17  4.126262241322526e-01
-1.019372376206351e+00  4.126262241322526e-01  8.937835729420463e-18

 1.117223228411396e-17 -3.189933102238049e-20 -1.017603004775342e+00
-3.189933102238049e-20 -1.205767216240181e-17  4.142123626496117e-01
-1.017603004775342e+00  4.142123626496117e-01  8.804798591299245e-18

 1.081187687626963e-17 -3.724180705913199e-20 -1.003454002540519e+00
-3.724180705913199e-20  5.509940750131647e-18  4.211384818080836e-01
-1.003454002540519e+00  4.211384818080836e-01  7.833577474988472e-18

 1.079044170183482e-17 -5.610683392390506e-20 -1.002924897230240e+00
-5.610683392390506e-20  5.162364717153512e-17  4.214503821391655e-01
-1.002924897230240e+00  4.214503821391655e-01  7.798687937323662e-18

 1.093564306968650e-17 -3.137490834751161e-20 -1.009037785954327e+00
-3.137490834751161e-20 -3.511183087816437e-17  4.182887845930922e-01
-1.009037785954327e+00  4.182887845930922e-01  8.182452009564257e-18

 1.107170987910627e-17 -4.634061168725548e-20 -1.015899337681448e+00
-4.634061168725548e-20  3.262446277110839e-18  4.147047235240395e-01
-1.015899337681448e+00  4.147047235240395e-01  8.669599449065969e-18

 1.101594719351067e-17 -2.935651869180083e-20 -1.013722058012787e+00
-2.935651869180083e-20 -3.563386189185075e-17  4.209497255069548e-01
-1.013722058012787e+00  4.209497255069548e-01  8.456281741169316e-18

 1.092715003913988e-17 -3.626330340723239e-20 -1.009898846552519e+00
-3.626330340723239e-20 -1.424496036553198e-17  4.179172580427751e-01
-1.009898846552519e+00  4.179172580427751e-01  8.260740082639318e-18

 1.096986399551902e-17 -7.300362441086215e-20 -1.011900019398391e+00
-7.300362441086215e-20  7.501894981927560e-17  4.074185716386201e-01
-1.011900019398391e+00  4.074185716386201e-01  8.527771022514991e-18

 1.087852880524034e-17 -1.936858802693258e-20 -1.007588122057589e+00
-1.936858802693258e-20 -2.792181401024601e-17  4.176306738815475e-01
-1.007588122057589e+00  4.176306738815475e-01  8.114398636065125e-18

 1.059144412597611e-17 -6.597749049702525e-20 -9.976579114701354e-01
-6.597749049702525e-20  6.743974777071315e-17  4.358250223440246e-01
-9.976579114701354e-01  4.358250223440246e-01  7.281423676414136e-18

 1.087610886745434e-17 -3.855835854839400e-20 -1.009554717644120e+00
-3.855835854839400e-20  8.838442061983945e-18  4.209592273954887e-01
-1.009554717644120e+00  4.209592273954887e-01  8.197735110528739e-18

 1.096396344292004e-17 -2.598048691761340e-20 -1.013086528505293e+00
-2.598048691761340e-20 -2.417819349777883e-17  4.122349797002828e-01
-1.013086528505293e+00  4.122349797002828e-01  8.511890052382851e-18

 1.098191290326136e-17 -3.557942277594655e-20 -1.014931139329283e+00
-3.557942277594655e-20 -9.581550447286487e-19  4.138106107181893e-01
-1.014931139329283e+00  4.138106107181893e-01  8.573516087095210e-18

 1.104588303197916e-17 -3.397671640205588e-20 -1.018599060965948e+00
-3.397671640205588e-20 -8.218048977697239e-18  4.156268395746190e-01
-1.018599060965948e+00  4.156268395746190e-01  8.768401719986182e-18

 1.092801966153787e-17 -1.805600765174378e-20 -1.013226772343463e+00
-1.805600765174378e-20 -3.951033692353919e-17  4.156387854979944e-01
-1.013226772343463e+00  4.156387854979944e-01  8.405484990653174e-18

 1.085982090705419e-17 -2.133980593510321e-20 -1.011283541075560e+00
-2.133980593510321e-20 -3.205581004405115e-17  4.158558801258461e-01
-1.011283541075560e+00  4.158558801258461e-01  8.312105377050307e-18

 1.087571595116214e-17 -2.455504014394874e-20 -1.011535984638640e+00
-2.455504014394874e-20 -2.591707066422236e-17  4.182848138016071e-01
-1.011535984638640e+00  4.182848138016071e-01  8.293578379218104e-18

 1.078878926942355e-17 -4.454840296389389e-20 -1.009003223333322e+00
-4.454840296389389e-20  1.235794183267984e-17  4.207803304220860e-01
-1.009003223333322e+00  4.207803304220860e-01  8.143447682316742e-18

 1.092444242488995e-17 -6.054358363581785e-20 -1.014122091896433e+00
-6.054358363581785e-20  3.727212796027119e-17  4.160805250575770e-01
-1.014122091896433e+00  4.160805250575770e-01  8.520346974034966e-18

 1.078473983585334e-17 -7.802427073319546e-20 -1.009100484903822e+00
-7.802427073319546e-20  5.991597001488830e-17  4.210736419255202e-01
-1.009100484903822e+00  4.210736419255202e-01  8.217639537839330e-18

 1.045660610583256e-17 -4.746149707022012e-20 -9.952757631691791e-01
-4.746149707022012e-20  1.642825726559566e-17  4.305431842470546e-01
-9.952757631691791e-01  4.305431842470546e-01  7.279254419803739e-18

 1.035115867838542e-17 -5.726671136497809e-20 -9.913979741358310e-01
-5.726671136497809e-20  2.534574694896757e-17  4.244414130224554e-01
-9.913979741358310e-01  4.244414130224554e-01  7.072216839668142e-18

 1.134896568512736e-17 -3.396642584249816e-20 -1.032763190640835e+00
-3.396642584249816e-20  2.567696828173950e-17  3.771088350944417e-01
-1.032763190640835e+00  3.771088350944417e-01  1.019196452382860e-17

 1.031488569079194e-17 -3.224925934838437e-20 -9.908057261455538e-01
-3.224925934838437e-20 -5.530251477233121e-17  4.374396821845868e-01
-9.908057261455538e-01  4.374396821845868e-01  6.879482898628980e-18

 9.941655521424351e-18 -8.517307433245465e-20 -9.770347980009256e-01
-8.517307433245465e-20  2.568953660354708e-17  4.682161342375450e-01
-9.770347980009256e-01  4.682161342375450e-01  5.628414682855842e-18

 1.091106526886760e-17 -5.482915872060333e-20 -1.017101007267166e+00
-5.482915872060333e-20  1.412267702187805e-17  4.163556812491945e-01
-1.017101007267166e+00  4.163556812491945e-01  8.716443154663223e-18

 1.066958491716559e-17 -3.164395085697056e-20 -1.007622215622894e+00
-3.164395085697056e-20 -2.438738607303810e-17  4.164393850715708e-01
-1.007622215622894e+00  4.164393850715708e-01  8.106357056510952e-18

 1.060882950261356e-17 -5.132796817366021e-20 -1.005554120248304e+00
-5.132796817366021e-20  6.658699359850412e-18  4.218087020824354e-01
-1.005554120248304e+00  4.218087020824354e-01  7.908649559488398e-18

 1.065527292298278e-17 -3.490869339967683e-20 -1.008189978546768e+00
-3.490869339967683e-20 -1.989035939152060e-17  4.191803993429941e-01
-1.008189978546768e+00  4.191803993429941e-01  8.118828660717883e-18

 1.065925560892875e-17 -5.884487877885496e-20 -1.009188204837142e+00
-5.884487877885496e-20  1.569755555791644e-17  4.213349767653991e-01
-1.009188204837142e+00  4.213349767653991e-01  8.116370846577240e-18

 1.068049172231396e-17 -5.228499895935474e-20 -1.010744202145144e+00
-5.228499895935474e-20 -2.727144235461800e-19  4.196840671247852e-01
-1.010744202145144e+00  4.196840671247852e-01  8.249834459049227e-18

 1.060888668750591e-17 -5.315844963313656e-20 -1.008461592206542e+00
-5.315844963313656e-20 -2.818221234617348e-19  4.241316562331292e-01
-1.008461592206542e+00  4.241316562331292e-01  8.038553451705090e-18

 1.067596867390844e-17 -4.790618678607488e-20 -1.011594491571858e+00
-4.790618678607488e-20 -4.775820611850663e-18  4.182915331110955e-01
-1.011594491571858e+00  4.182915331110955e-01  8.305307476830706e-18

 1.068878474818415e-17 -9.675787282022987e-20 -1.013064997152052e+00
-9.675787282022987e-20  7.409769645265009e-17  4.154317484906677e-01
-1.013064997152052e+00  4.154317484906677e-01  8.402222710062104e-18

 1.053953395079489e-17 -3.071422073364375e-20 -1.007987817139997e+00
-3.071422073364375e-20 -5.058114592154259e-17  4.273571854322823e-01
-1.007987817139997e+00  4.273571854322823e-01  7.944952822238697e-18

 1.049839602329128e-17 -5.827390274225156e-20 -1.006280301397030e+00
-5.827390274225156e-20 -6.101921944610961e-18  4.260937106267066e-01
-1.006280301397030e+00  4.260937106267066e-01  7.859864721473407e-18

 1.074461442272412e-17 -7.704758204283412e-20 -1.017002287100276e+00
-7.704758204283412e-20  2.584951926694907e-17  4.137766337201869e-01
-1.017002287100276e+00  4.137766337201869e-01  8.648146256649586e-18

 1.054910182380548e-17 -8.216041842558042e-20 -1.009765553611637e+00
-8.216041842558042e-20  4.186436231365950e-17  4.203560648074653e-01
-1.009765553611637e+00  4.203560648074653e-01  8.126271842147519e-18

 1.055736648509343e-17 -4.476857033628706e-20 -1.011203392700995e+00
-4.476857033628706e-20 -4.428842970094319e-17  4.241721555024945e-01
-1.011203392700995e+00  4.241721555024945e-01  8.158833432629135e-18

 1.057707707557137e-17 -1.081787013300416e-19 -1.012364533601228e+00
-1.081787013300416e-19  8.308570784476958e-17  4.223046779017067e-01
-1.012364533601228e+00  4.223046779017067e-01  8.236052882662421e-18

 1.054993782777448e-17 -7.827142080885636e-20 -1.011888931045798e+00
-7.827142080885636e-20  2.251724343381688e-17  4.199437402995310e-01
-1.011888931045798e+00  4.199437402995310e-01  8.252418119426141e-18

 1.056848348661486e-17 -4.934494375215849e-20 -1.012539817978555e+00
-4.934494375215849e-20 -3.749726842349729e-17  4.198450830618904e-01
-1.012539817978555e+00  4.198450830618904e-01  8.285239431439926e-18

 1.051293663133199e-17 -5.858404964682680e-20 -1.011386798765062e+00
-5.858404964682680e-20 -2.583532310631403e-17  4.219111511850789e-01
-1.011386798765062e+00  4.219111511850789e-01  8.210502255306877e-18

 1.052143313771214e-17 -6.903078875002194e-20 -1.011696511144699e+00
-6.903078875002194e-20  5.280122543872797e-18  4.227326943530015e-01
-1.011696511144699e+00  4.227326943530015e-01  8.201856244820921e-18

 1.049262132029966e-17 -5.034390686410835e-20 -1.011558714466033e+00
-5.034390686410835e-20 -5.299609927471498e-17  4.204770139517878e-01
-1.011558714466033e+00  4.204770139517878e-01  8.249602728692660e-18

 1.050678073327547e-17 -7.159819845430343e-20 -1.012266272304388e+00
-7.159819845430343e-20  5.815422599361567e-18  4.188885996347009e-01
-1.012266272304388e+00  4.188885996347009e-01  8.336555441304920e-18

 1.046941277823081e-17 -8.635936008216766e-20 -1.011843988840383e+00
-8.635936008216766e-20  4.637089726767388e-17  4.210138833585513e-01
-1.011843988840383e+00  4.210138833585513e-01  8.257941001866087e-18

 1.044457108079950e-17 -5.613801582918343e-20 -1.011411717660086e+00
-5.613801582918343e-20 -3.692739567264075e-17  4.212417095970252e-01
-1.011411717660086e+00  4.212417095970252e-01  8.235837529888732e-18

 1.040493940404783e-17 -7.171733573333028e-20 -1.010903152878334e+00
-7.171733573333028e-20  2.048022653601784e-17  4.198152331392371e-01
-1.010903152878334e+00  4.198152331392371e-01  8.231240845722081e-18

 1.041200957587701e-17 -8.516583517931187e-20 -1.011836006932712e+00
-8.516583517931187e-20  8.272677825969873e-17  4.202946689966657e-01
-1.011836006932712e+00  4.202946689966657e-01  8.271463821800015e-18

 1.041535815371590e-17 -7.618395312682331e-20 -1.013410943122037e+00
-7.618395312682331e-20  3.231683099132368e-17  4.202050495780425e-01
-1.013410943122037e+00  4.202050495780425e-01  8.313529775395798e-18

 1.037447486362098e-17 -6.435461456501167e-20 -1.012980555595911e+00
-6.435461456501167e-20 -1.805969808781880e-17  4.200248378222182e-01
-1.012980555595911e+00  4.200248378222182e-01  8.302947800889565e-18

 1.034758392306884e-17 -6.857834854609702e-20 -1.012705895424721e+00
-6.857834854609702e-20 -6.033267527881704e-18  4.205377185458930e-01
-1.012705895424721e+00  4.205377185458930e-01  8.273828118583462e-18

 1.030446452904970e-17 -7.885496501886793e-20 -1.012504396088639e+00
-7.885496501886793e-20  6.630179269518309e-17  4.197087652130527e-01
-1.012504396088639e+00  4.197087652130527e-01  8.277115665935210e-18

 1.029285619857726e-17 -7.917207500087755e-20 -1.012635400156955e+00
-7.917207500087755e-20  6.413981548466043e-17  4.199622046368910e-01
-1.012635400156955e+00  4.199622046368910e-01  8.271377668565205e-18

 1.028558878115668e-17 -8.041919597249216e-20 -1.012875033886206e+00
-8.041919597249216e-20  6.198227256570963e-17  4.201145063716571e-01
-1.012875033886206e+00  4.201145063716571e-01  8.278242390521460e-18

 1.022120976844340e-17 -7.710209327326388e-20 -1.012798026995558e+00
-7.710209327326388e-20  2.716583343143335e-17  4.200239700199508e-01
-1.012798026995558e+00  4.200239700199508e-01  8.266041041407725e-18

 1.018616019815803e-17 -8.037585035151445e-20 -1.012737360622887e+00
-8.037585035151445e-20 -4.754345792074488e-18  4.200094939715558e-01
-1.012737360622887e+00  4.200094939715558e-01  8.290006414525441e-18

 1.011973878947041e-17 -8.422396287388059e-20 -1.010989803229955e+00
-8.422396287388059e-20  4.865160973522544e-17  4.215414963087605e-01
-1.010989803229955e+00  4.215414963087605e-01  8.194542356621132e-18

 1.013685094476127e-17 -8.966451751834630e-20 -1.011605509993865e+00
-8.966451751834630e-20  1.276719865208333e-16  4.182276476590002e-01
-1.011605509993865e+00  4.182276476590002e-01  8.278607568773724e-18

 1.010018738370284e-17 -6.940034188779777e-20 -1.010959794623245e+00
-6.940034188779777e-20 -4.855766518458983e-17  4.164642737769868e-01
-1.010959794623245e+00  4.164642737769868e-01  8.290072520499474e-18

 1.007298742463907e-17 -7.358981900935576e-20 -1.010938353498726e+00
-7.358981900935576e-20  4.610471033381809e-17  4.188608439400902e-01
-1.010938353498726e+00  4.188608439400902e-01  8.250796612524035e-18

 1.009818186590351e-17 -6.768710567328587e-20 -1.013134937660555e+00
-6.768710567328587e-20 -4.234694487614918e-17  4.174238961732670e-01
-1.013134937660555e+00  4.174238961732670e-01  8.414492716091852e-18

 1.002814285293753e-17 -6.462612735203170e-20 -1.011469844972027e+00
-6.462612735203170e-20 -4.248246689434844e-17  4.206953408499909e-01
-1.011469844972027e+00  4.206953408499909e-01  8.243356635879050e-18

 1.006107029447430e-17 -6.582760274159401e-20 -1.013861484316144e+00
-6.582760274159401e-20  5.768865255079234e-18  4.140995608691193e-01
-1.013861484316144e+00  4.140995608691193e-01  8.467832249554105e-18

 1.003754364783473e-17 -6.886290590924098e-20 -1.014255142850902e+00
-6.886290590924098e-20  7.733063427483285e-17  4.120889536172518e-01
-1.014255142850902e+00  4.120889536172518e-01  8.484583783927276e-18

 1.000165178283674e-17 -6.460299717306482e-20 -1.013918874268570e+00
-6.460299717306482e-20 -2.598162953073496e-17  4.157435581626913e-01
-1.013918874268570e+00  4.157435581626913e-01  8.441049618010876e-18

 9.791067388120139e-18 -7.084650205684720e-20 -1.005934942239996e+00
-7.084650205684720e-20  6.716645896885167e-17  4.242203554858294e-01
-1.005934942239996e+00  4.242203554858294e-01  7.843030500524711e-18

 9.829862238782080e-18 -6.268372334889828e-20 -1.008336777443690e+00
-6.268372334889828e-20 -1.122479969222833e-16  4.209579304641075e-01
-1.008336777443690e+00  4.209579304641075e-01  8.023099193960166e-18

 9.855150342137216e-18 -6.936365686613559e-20 -1.011251943064328e+00
-6.936365686613559e-20  8.806854952385443e-17  4.167740716404175e-01
-1.011251943064328e+00  4.167740716404175e-01  8.271163364734547e-18

 9.957517037706365e-18 -7.353575841060584e-20 -1.016481570139582e+00
-7.353575841060584e-20  4.161665872292237e-17  4.114434448196674e-01
-1.016481570139582e+00  4.114434448196674e-01  8.617895323533853e-18

 9.773549839305442e-18 -5.796878754600546e-20 -1.011031182958263e+00
-5.796878754600546e-20 -6.770065651544606e-17  4.163960798756673e-01
-1.011031182958263e+00  4.163960798756673e-01  8.236084148825316e-18

 9.822375208693318e-18 -6.771008852793207e-20 -1.013425451070147e+00
-6.771008852793207e-20  7.381618256409679e-17  4.159285927500068e-01
-1.013425451070147e+00  4.159285927500068e-01  8.366301021416964e-18

 9.749322324545288e-18 -6.418147638348117e-20 -1.012463486904853e+00
-6.418147638348117e-20  4.173633808693772e-17  4.158081537921685e-01
-1.012463486904853e+00  4.158081537921685e-01  8.330915091681080e-18

 9.654573420515610e-18 -6.799820686324430e-20 -1.009382331902436e+00
-6.799820686324430e-20  2.979915469146960e-17  4.173925130472798e-01
-1.009382331902436e+00  4.173925130472798e-01  8.098721213006706e-18

 9.637296370189057e-18 -5.238362633452640e-20 -1.010056849400591e+00
-5.238362633452640e-20 -6.698044277231067e-17  4.141171809691495e-01
-1.010056849400591e+00  4.141171809691495e-01  8.204887750263847e-18

 9.681548331874769e-18 -6.170882953146243e-20 -1.013067573778204e+00
-6.170882953146243e-20  1.139879243823755e-17  4.117241171822469e-01
-1.013067573778204e+00  4.117241171822469e-01  8.429158071467003e-18

 9.717928112135242e-18 -5.334283973259879e-20 -1.016358464905321e+00
-5.334283973259879e-20 -4.843097692856701e-17  4.110905343486182e-01
-1.016358464905321e+00  4.110905343486182e-01  8.617886297347349e-18

 9.519667637654103e-18 -4.200006939413745e-20 -1.010106534318170e+00
-4.200006939413745e-20 -7.912038704819681e-17  4.148584055739550e-01
-1.010106534318170e+00  4.148584055739550e-01  8.207899901939700e-18

 9.347991494523598e-18 -8.673119370772029e-20 -1.005706366768896e+00
-8.673119370772029e-20  4.530761328387973e-17  4.139596795021308e-01
-1.005706366768896e+00  4.139596795021308e-01  7.951616586713016e-18

 9.387536333018920e-18 -8.403520148970878e-20 -1.009731393657985e+00
-8.403520148970878e-20  1.604206025112104e-17  4.119321844034688e-01
-1.009731393657985e+00  4.119321844034688e-01  8.220450131696600e-18

 9.306670192969023e-18 -1.065769360443779e-19 -1.007940092801060e+00
-1.065769360443779e-19  6.799894930515360e-17  4.152272725677825e-01
-1.007940092801060e+00  4.152272725677825e-01  8.051312666669252e-18

 9.209735465810506e-18 -7.419983265416036e-20 -1.005737562360728e+00
-7.419983265416036e-20 -2.471616139081808e-17  4.168232192110261e-01
-1.005737562360728e+00  4.168232192110261e-01  7.922210715640442e-18

 9.207995121551049e-18 -1.558580829991255e-19 -1.006876016721671e+00
-1.558580829991255e-19  1.085398069056529e-16  4.122372707269642e-01
-1.006876016721671e+00  4.122372707269642e-01  8.095539884477798e-18

 9.034699664607945e-18 -8.725524820234315e-20 -1.001383090472295e+00
-8.725524820234315e-20 -3.139667873027957e-17  4.172078178994213e-01
-1.001383090472295e+00  4.172078178994213e-01  7.805450226642270e-18

 8.870192100754569e-18 -9.906585238913203e-20 -9.950140103024042e-01
-9.906585238913203e-20 -3.167908984380347e-17  4.193939529662533e-01
-9.950140103024042e-01  4.193939529662533e-01  7.561590492162010e-18

 8.435830474223476e-18 -1.400615589736869e-19 -9.781429508399085e-01
-1.400615589736869e-19  2.443609150327310e-17  4.315267629631874e-01
-9.781429508399085e-01  4.315267629631874e-01  6.511554439541158e-18

 8.076729521681336e-18 -1.392625052272725e-19 -9.639769270832584e-01
-1.392625052272725e-19  1.039282382072260e-17  4.321372830469030e-01
-9.639769270832584e-01  4.321372830469030e-01  5.715981155407914e-18

 8.524332230966551e-18 -2.247489941613868e-19 -9.822485849313798e-01
-2.247489941613868e-19  7.604937615238291e-17  3.815752175927206e-01
-9.822485849313798e-01  3.815752175927206e-01  7.541807164389937e-18

 9.330573654054916e-18 -9.358360371408400e-20 -1.016679918270100e+00
-9.358360371408400e-20 -2.165614825097826e-17  3.558139927463891e-01
-1.016679918270100e+00  3.558139927463891e-01  1.003506307113183e-17

 7.545435365181311e-18 -1.175632653669350e-19 -9.459818144044368e-01
-1.175632653669350e-19 -6.984430815037480e-17  4.412744603591517e-01
-9.459818144044368e-01  4.412744603591517e-01  4.525081169865743e-18

 8.313986302055033e-18 -1.845102706393477e-19 -9.828222495960185e-01
-1.845102706393477e-19  3.915942053225734e-18  4.265212472747834e-01
-9.828222495960185e-01  4.265212472747834e-01  6.882620267578195e-18

 8.387265314175958e-18 -1.610209357513212e-19 -9.920198533605334e-01
-1.610209357513212e-19 -4.648533506675317e-17  4.207220216872138e-01
-9.920198533605334e-01  4.207220216872138e-01  7.241631329891431e-18

 8.529722258236668e-18 -1.587016275563511e-19 -1.001775305730990e+00
-1.587016275563511e-19 -6.265026471715314e-17  4.184142646841265e-01
-1.001775305730990e+00  4.184142646841265e-01  7.709916562484372e-18

 8.494249611418588e-18 -1.988081570309620e-19 -1.004835726540885e+00
-1.988081570309620e-19 -9.466974712194766e-18  4.212105550667585e-01
-1.004835726540885e+00  4.212105550667585e-01  7.742730412492351e-18

 8.474623446090480e-18 -1.737015339301789e-19 -1.008485093712066e+00
-1.737015339301789e-19 -5.701252203397357e-17  4.155424566528544e-01
-1.008485093712066e+00  4.155424566528544e-01  7.826546453374848e-18

 8.775651151891327e-18 -2.367416739182871e-19 -1.026586450667603e+00
-2.367416739182871e-19  1.393255888455368e-16  4.002119476222100e-01
-1.026586450667603e+00  4.002119476222100e-01  8.945226651139030e-18

 8.074615945907247e-18 -2.436942280673848e-19 -1.001088757178879e+00
-2.436942280673848e-19  9.419015321546220e-18  4.472420962443430e-01
-1.001088757178879e+00  4.472420962443430e-01  6.756793959760588e-18

 8.641847099707764e-18 -2.295748506062561e-19 -1.028332118646204e+00
-2.295748506062561e-19 -4.746463557873627e-18  4.300716869383541e-01
-1.028332118646204e+00  4.300716869383541e-01  8.617033945360822e-18

 8.559489837331458e-18 -2.477350029202258e-19 -1.027863018937657e+00
-2.477350029202258e-19  6.582789093704896e-17  4.089117681245072e-01
-1.027863018937657e+00  4.089117681245072e-01  8.767944730450804e-18

 8.542139030982541e-18 -2.436070008093660e-19 -1.028176731022862e+00
-2.436070008093660e-19 -7.304740025644899e-18  3.998927005200172e-01
-1.028176731022862e+00  3.998927005200172e-01  8.962807397932860e-18

 8.042148121011862e-18 -2.727871019964769e-19 -1.011251969396540e+00
-2.727871019964769e-19  1.127513863828127e-16  4.176797487771229e-01
-1.011251969396540e+00  4.176797487771229e-01  7.704621735392001e-18

 7.885638809136941e-18 -2.623147449670352e-19 -1.008343540142610e+00
-2.623147449670352e-19 -1.612336293828224e-17  4.211856406291805e-01
-1.008343540142610e+00  4.211856406291805e-01  7.502063150915524e-18

 7.859195550750191e-18 -2.721163715987426e-19 -1.010922267930255e+00
-2.721163715987426e-19 -3.564978889125691e-17  4.126158226277791e-01
-1.010922267930255e+00  4.126158226277791e-01  7.788776073963158e-18

 7.766972869801230e-18 -2.713945507412796e-19 -1.009756089557456e+00
-2.713945507412796e-19 -8.607230935691897e-17  4.169173834574925e-01
-1.009756089557456e+00  4.169173834574925e-01  7.686080946074208e-18

 7.605762042884713e-18 -3.158432724646383e-19 -1.007092937315703e+00
-3.158432724646383e-19  6.563840975672118e-17  4.243657626188213e-01
-1.007092937315703e+00  4.243657626188213e-01  7.417816705679762e-18

 7.564465540472425e-18 -3.064347811478173e-19 -1.008979996949836e+00
-3.064347811478173e-19 -6.048088055070589e-17  4.194163952787165e-01
-1.008979996949836e+00  4.194163952787165e-01  7.591686148608067e-18

 7.420879194255990e-18 -3.356687435694577e-19 -1.007767248030957e+00
-3.356687435694577e-19  1.107277149642958e-17  4.169772398475235e-01
-1.007767248030957e+00  4.169772398475235e-01  7.515250722241818e-18

 7.212731736557985e-18 -3.684102689546792e-19 -1.006763190076618e+00
-3.684102689546792e-19  3.369597188705393e-17  4.184370317193248e-01
-1.006763190076618e+00  4.184370317193248e-01  7.410271153981447e-18

 7.019815303225763e-18 -3.903932410866268e-19 -1.007569093682408e+00
-3.903932410866268e-19 -4.226400843303753e-17  4.182193652895058e-01
-1.007569093682408e+00  4.182193652895058e-01  7.421449481755875e-18

 6.834827426377422e-18 -4.226591481551822e-19 -1.007599324408295e+00
-4.226591481551822e-19 -4.257650418383194e-17  4.175765348540735e-01
-1.007599324408295e+00  4.175765348540735e-01  7.371495409901673e-18

 6.574832693985173e-18 -4.726049439128671e-19 -1.007424136330383e+00
-4.726049439128671e-19  3.816018506766753e-17  4.176464700754388e-01
-1.007424136330383e+00  4.176464700754388e-01  7.292274235187711e-18

 6.349180876783408e-18 -5.013655909071124e-19 -1.007114200708181e+00
-5.013655909071124e-19 -4.331317020963972e-17  4.168578940362317e-01
-1.007114200708181e+00  4.168578940362317e-01  7.215674849788937e-18

 6.158408784070813e-18 -5.572413415823763e-19 -1.007156184078160e+00
-5.572413415823763e-19  1.765308681372115e-16  4.166679353695580e-01
-1.007156184078160e+00  4.166679353695580e-01  7.162044210595307e-18

 5.897815390372411e-18 -5.914683511000229e-19 -1.007327305637537e+00
-5.914683511000229e-19  2.621818522730013e-17  4.169178945474472e-01
-1.007327305637537e+00  4.169178945474472e-01  7.099954108954387e-18

 5.466506107213230e-18 -6.712741335492161e-19 -1.007571417844030e+00
-6.712741335492161e-19 -2.727402177063979e-17  4.163367818373616e-01
-1.007571417844030e+00  4.163367818373616e-01  6.987921403607937e-18

 5.063952685397658e-18 -7.675330603337631e-19 -1.007728894028946e+00
-7.675330603337631e-19  7.745022274121026e-17  4.160988013818430e-01
-1.007728894028946e+00  4.160988013818430e-01  6.839383234897217e-18

 4.794033532872781e-18 -8.224140452905060e-19 -1.007781306068458e+00
-8.224140452905060e-19  1.022714678274819e-16  4.157928780504196e-01
-1.007781306068458e+00  4.157928780504196e-01  6.751342727096279e-18

 4.389837668046617e-18 -8.923785128960591e-19 -1.007670903146651e+00
-8.923785128960591e-19 -1.962070298513150e-17  4.164376268464520e-01
-1.007670903146651e+00  4.164376268464520e-01  6.617431635755367e-18

 3.973829720999688e-18 -9.980827204533662e-19 -1.008524278585563e+00
-9.980827204533662e-19 -4.098694888057679e-17  4.161088726763394e-01
-1.008524278585563e+00  4.161088726763394e-01  6.498832883731632e-18

 3.554370803944175e-18 -1.103874259548193e-18 -1.009122984320425e+00
-1.103874259548193e-18 -6.237951207701046e-17  4.164107072815893e-01
-1.009122984320425e+00  4.164107072815893e-01  6.367077399204097e-18

 2.874111264798074e-18 -1.250183579115558e-18 -1.009481325367934e+00
-1.250183579115558e-18 -1.670194092274733e-16  4.161562629048565e-01
-1.009481325367934e+00  4.161562629048565e-01  6.156973772070617e-18

 2.232683103855986e-18 -1.451450937592867e-18 -1.010165459761289e+00
-1.451450937592867e-18  4.153159298701553e-17  4.163842803892356e-01
-1.010165459761289e+00  4.163842803892356e-01  5.958386225021885e-18

 1.521487728915458e-18 -1.640810620537722e-18 -1.010254958368807e+00
-1.640810620537722e-18 -1.980775505568919e-17  4.162170973856651e-01
-1.010254958368807e+00  4.162170973856651e-01  5.748945396411986e-18

 8.859811221567734e-19 -1.836948183255699e-18 -1.008422972967816e+00
-1.836948183255699e-18  1.086968357280276e-16  4.173526890085607e-01
-1.008422972967816e+00  4.173526890085607e-01  5.443113373023495e-18

 2.280538202274120e-19 -2.005536625831653e-18 -1.008196919428276e+00
-2.005536625831653e-18 -3.306629689247312e-17  4.159586944013944e-01
-1.008196919428276e+00  4.159586944013944e-01  5.233178600432385e-18

-1.031959217761385e-18 -2.399071911003492e-18 -1.007159177750109e+00
-2.399071911003492e-18  7.083509827718227e-18  4.158087268344162e-01
-1.007159177750109e+00  4.158087268344162e-01  4.788917698636176e-18

-2.518659922237360e-18 -2.918545917489403e-18 -1.006944575905991e+00
-2.918545917489403e-18  1.037809951608161e-16  4.154629562686501e-01
-1.006944575905991e+00  4.154629562686501e-01  4.315624525976629e-18

-4.604714387999776e-18 -3.649187629523841e-18 -1.005602477886505e+00
-3.649187629523841e-18  1.009824742063275e-16  4.148937604794923e-01
-1.005602477886505e+00  4.148937604794923e-01  3.612627116981669e-18

-6.935236480427982e-18 -4.439825249151631e-18 -1.002177558227403e+00
-4.439825249151631e-18 -5.720572282459985e-17  4.160163741157447e-01
-1.002177558227403e+00  4.160163741157447e-01  2.739734309561391e-18

-9.047056292659248e-18 -5.233798587958211e-18 -9.956674726785186e-01
-5.233798587958211e-18 -6.073311055283001e-17  4.191307519765081e-01
-9.956674726785186e-01  4.191307519765081e-01  1.740333422519372e-18

-1.225954513946585e-17 -6.481740519682408e-18 -9.786794682257041e-01
-6.481740519682408e-18  1.490411855475119e-17  4.193825211410390e-01
-9.786794682257041e-01  4.193825211410390e-01 -1.491255073778358e-19

-1.343440690568061e-17 -7.328347534846993e-18 -1.004419666465054e+00
-7.328347534846993e-18  8.836611152973981e-17  3.853678430340647e-01
-1.004419666465054e+00  3.853678430340647e-01  1.283247254323804e-18

-1.637547238260332e-17 -8.231176456911657e-18 -9.883508164204268e-01
-8.231176456911657e-18 -1.648037162185575e-17  4.195336180903779e-01
-9.883508164204268e-01  4.195336180903779e-01 -1.102245744723801e-18

-2.144167770349266e-17 -1.051516609634926e-17 -1.006006499987573e+00
-1.051516609634926e-17 -7.746277793336431e-17  4.168447442044503e-01
-1.006006499987573e+00  4.168447442044503e-01 -2.023149287474670e-18

-2.519200153314374e-17 -1.227214966849818e-17 -1.007396365175335e+00
-1.227214966849818e-17  7.056403925801894e-17  4.136996356127156e-01
-1.007396365175335e+00  4.136996356127156e-01 -3.237397431442139e-18

-3.090161558926848e-17 -1.487012309645814e-17 -1.008329360115821e+00
-1.487012309645814e-17 -1.028775757510706e-16  4.195942815391472e-01
-1.008329360115821e+00  4.195942815391472e-01 -5.204022192628915e-18

-3.921006405139530e-17 -1.889945074170244e-17 -1.008584840803063e+00
-1.889945074170244e-17 -2.796541270430862e-18  4.187281090255914e-01
-1.008584840803063e+00  4.187281090255914e-01 -7.973467732885385e-18

-4.709751654559324e-17 -2.285884168641347e-17 -1.010459646615685e+00
-2.285884168641347e-17 -1.514439668760666e-17  4.206001681578464e-01
-1.010459646615685e+00  4.206001681578464e-01 -1.051687610135245e-17

-6.135008408009688e-17 -3.020498603075462e-17 -1.013009964028969e+00
-3.020498603075462e-17 -1.257323299557243e-16  4.211785908553364e-01
-1.013009964028969e+00  4.211785908553364e-01 -1.502253716744224e-17

-7.541367691418503e-17 -3.774044066038716e-17 -1.014159541759351e+00
-3.774044066038716e-17 -2.887847335333542e-17  4.217724649031447e-01
-1.014159541759351e+00  4.217724649031447e-01 -1.945807460955795e-17

-8.677828798790208e-17 -4.384961241976413e-17 -1.014846234215781e+00
-4.384961241976413e-17 -2.640991593955879e-16  4.224131379069372e-01
-1.014846234215781e+00  4.224131379069372e-01 -2.300774679654365e-17

-1.091632304801888e-16 -5.621756016044059e-17 -1.015425328863478e+00
-5.621756016044059e-17 -2.946037526212296e-16  4.229834585873757e-01
-1.015425328863478e+00  4.229834585873757e-01 -2.995093716423857e-17

-1.332798479554754e-16 -6.972074555733068e-17 -1.016211906071502e+00
-6.972074555733068e-17 -1.460345095563314e-16  4.234171571553773e-01
-1.016211906071502e+00  4.234171571553773e-01 -3.728813658029320e-17

-1.772613206970428e-16 -9.436451324741610e-17 -1.015499629529662e+00
-9.436451324741610e-17 -3.462717955843515e-16  4.236661190535091e-01
-1.015499629529662e+00  4.236661190535091e-01 -5.052126706847663e-17

-2.774821440865743e-16 -1.498284411580165e-16 -1.014979991411973e+00
-1.498284411580165e-16 -4.803994747387684e-16  4.236261751759131e-01
-1.014979991411973e+00  4.236261751759131e-01 -7.996706817086651e-17

-4.171078068626922e-16 -2.234371616345304e-16 -1.014400354225125e+00
-2.234371616345304e-16 -4.554250427142647e-16  4.232979677825408e-01
-1.014400354225125e+00  4.232979677825408e-01 -1.201649968562127e-16

-5.988350466941212e-16 -3.116538378379858e-16 -1.014452954834695e+00
-3.116538378379858e-16 -5.491453857178999e-16  4.231387685464799e-01
-1.014452954834695e+00  4.231387685464799e-01 -1.720641722127278e-16

-8.919481122341418e-16 -4.365655374373240e-16 -1.014810652317063e+00
-4.365655374373240e-16 -6.811740643271882e-16  4.225029786475111e-01
-1.014810652317063e+00  4.225029786475111e-01 -2.562546167306822e-16

-1.332736373619299e-15 -5.889567804283942e-16 -1.016698077553415e+00
-5.889567804283942e-16 -1.096797857750255e-15  4.219591022755619e-01
-1.016698077553415e+00  4.219591022755619e-01 -3.862678128565670e-16

-2.026860458518837e-15 -7.580916302885029e-16 -1.015862361672800e+00
-7.580916302885029e-16 -1.429705058883504e-15  4.253672744211324e-01
-1.015862361672800e+00  4.253672744211324e-01 -6.034676156507984e-16

-2.642340689545025e-15 -8.493651471793161e-16 -1.015042477349449e+00
-8.493651471793161e-16 -1.363627494513665e-15  4.236975288641619e-01
-1.015042477349449e+00  4.236975288641619e-01 -8.109688672887266e-16

-3.355036475615157e-15 -9.000714289109485e-16 -1.018922114042342e+00
-9.000714289109485e-16 -1.509129352129598e-15  4.177387756723467e-01
-1.018922114042342e+00  4.177387756723467e-01 -1.069601076336664e-15

-4.720946470905370e-15 -8.333009061777485e-16 -1.016409508157505e+00
-8.333009061777485e-16 -1.619327524188706e-15  4.226057643070150e-01
-1.016409508157505e+00  4.226057643070150e-01 -1.633697965052715e-15

-6.968669416057536e-15 -5.595372807714500e-16 -1.015475654950102e+00
-5.595372807714500e-16 -2.488277614250544e-15  4.245327076306092e-01
-1.015475654950102e+00  4.245327076306092e-01 -2.670193021611301e-15

-9.590921009947129e-15 -1.631944154859266e-17 -1.015913274891516e+00
-1.631944154859266e-17 -2.859981647230129e-15  4.216857532370395e-01
-1.015913274891516e+00  4.216857532370395e-01 -4.041776499331242e-15

-1.412388949045610e-14  1.188474782195521e-15 -1.015657940128064e+00
 1.188474782195521e-15 -3.153832154887214e-15  4.207967194858787e-01
-1.015657940128064e+00  4.207967194858787e-01 -6.568700401083304e-15

 1.380897601020100e-14  2.405805318442148e-14 -1.014005571080499e+00
 2.405805318442148e-14  2.981988952716553e-14  4.219766044714418e-01
-1.014005571080499e+00  4.219766044714418e-01 -2.405301582011838e-15

-6.428521683802418e-13 -1.548872478460328e-13 -1.014372462271611e+00
-1.548872478460328e-13 -2.826541476835970e-13  4.208102803812813e-01
-1.014372462271611e+00  4.208102803812813e-01 -2.123693716257814e-13

 1.755656396169592e-14  3.540952139439961e-15 -1.016197619446635e+00
 3.540952139439961e-15  2.342829727806595e-14  4.158351782443431e-01
-1.016197619446635e+00  4.158351782443431e-01 -4.271683017691160e-15

-7.999366298960772e-15 -1.149886416849657e-14 -1.023807334183894e+00
-1.149886416849657e-14 -2.473528743972257e-16  4.113231711863259e-01
-1.023807334183894e+00  4.113231711863259e-01 -8.184567284956679e-15

-6.462599556672487e-13 -1.497235229105701e-13 -1.014547874796235e+00
-1.497235229105701e-13 -3.229877854668148e-13  4.175652326855074e-01
-1.014547874796235e+00  4.175652326855074e-01 -1.587502336983802e-13

-4.346667727547833e-15 -8.695466784588319e-15 -1.009818496272271e+00
-8.695466784588319e-15  9.136535630498514e-16  4.382467217569074e-01
-1.009818496272271e+00  4.382467217569074e-01 -4.416887654581727e-15

-3.351386926033363e-15 -6.774083659243116e-15 -1.002482360025371e+00
-6.774083659243116e-15  1.316360352590340e-15  4.382369803429303e-01
-1.002482360025371e+00  4.382369803429303e-01 -3.213402320648555e-15

-2.659230169839188e-15 -4.346134835722190e-15 -1.007451589682000e+00
-4.346134835722190e-15  1.277406361906407e-15  4.090922404861879e-01
-1.007451589682000e+00  4.090922404861879e-01 -2.015695331073958e-15

-1.920930529249733e-15 -2.106464505175300e-15 -9.969292174782051e-01
-2.106464505175300e-15  1.037605810561767e-15  4.151152261739042e-01
-9.969292174782051e-01  4.151152261739042e-01 -1.088036905132385e-15

-1.381547822407133e-15 -1.025788606436785e-15 -1.007129628611892e+00
-1.025788606436785e-15  6.770879508349789e-16  4.189852577542716e-01
-1.007129628611892e+00  4.189852577542716e-01 -6.443833909903886e-16

-9.675108663412653e-16 -4.985694972131934e-16 -1.012272365093893e+00
-4.985694972131934e-16  4.178942823551777e-16  4.164362482772216e-01
-1.012272365093893e+00  4.164362482772216e-01 -3.998893132329277e-16

-6.741022947593620e-16 -2.443506754782234e-16 -1.010986172013757e+00
-2.443506754782234e-16  2.212019751326345e-16  4.146235731136747e-01
-1.010986172013757e+00  4.146235731136747e-01 -2.579960646533937e-16

-4.781215510495834e-16 -1.226852324880104e-16 -1.009797810659794e+00
-1.226852324880104e-16  1.059168835946450e-16  4.153342918516693e-01
-1.009797810659794e+00  4.153342918516693e-01 -1.737061316212301e-16

-3.812734438203200e-16 -7.715153027994763e-17 -1.009961753314735e+00
-7.715153027994763e-17  3.016528254817045e-17  4.149532961719258e-01
-1.009961753314735e+00  4.149532961719258e-01 -1.347352090934958e-16

-2.819738669494463e-16 -3.980221869423735e-17 -1.009087372403279e+00
-3.980221869423735e-17 -2.029855483986227e-17  4.153213432274464e-01
-1.009087372403279e+00  4.153213432274464e-01 -9.629834327223242e-17

-2.040570913841800e-16 -1.856703246450982e-17 -1.008167790787934e+00
-1.856703246450982e-17 -4.462774376954328e-19  4.132431121247044e-01
-1.008167790787934e+00  4.132431121247044e-01 -6.729644483176724e-17

-1.684348575115140e-16 -1.100518075481771e-17 -1.009343195079731e+00
-1.100518075481771e-17 -2.883486074708836e-18  4.133330047805528e-01
-1.009343195079731e+00  4.133330047805528e-01 -5.423341379225665e-17

-1.384588450050907e-16 -5.955523919677275e-18 -1.011079498231661e+00
-5.955523919677275e-18 -1.979837168994996e-17  4.156789086800388e-01
-1.011079498231661e+00  4.156789086800388e-01 -4.334225298759740e-17

-1.100332703550260e-16 -2.268370288499534e-18 -1.011046578480548e+00
-2.268370288499534e-18  1.604786002497974e-17  4.168833503775884e-01
-1.011046578480548e+00  4.168833503775884e-01 -3.319719237817354e-17

-9.128453745830786e-17 -3.509041983739479e-19 -1.007844487713116e+00
-3.509041983739479e-19 -1.788216322016820e-17  4.128003302721722e-01
-1.007844487713116e+00  4.128003302721722e-01 -2.667048648327789e-17

-7.605314800660660e-17  6.854603532530458e-19 -1.004995583051165e+00
 6.854603532530458e-19 -7.084523246394551e-18  4.129744449030898e-01
-1.004995583051165e+00  4.129744449030898e-01 -2.143518516796446e-17

-6.434671512774145e-17  1.328968506171611e-18 -1.006430699330386e+00
 1.328968506171611e-18 -2.283806626126787e-17  4.184250809378824e-01
-1.006430699330386e+00  4.184250809378824e-01 -1.733189843351284e-17

-5.710244222292581e-17  1.573765179305180e-18 -1.009167548193709e+00
 1.573765179305180e-18 -5.103036148998281e-18  4.141275749832456e-01
-1.009167548193709e+00  4.141275749832456e-01 -1.456797515877962e-17

-4.678007382817186e-17  1.802570913898541e-18 -1.007363299801608e+00
 1.802570913898541e-18 -1.377637965424128e-17  4.136746859651126e-01
-1.007363299801608e+00  4.136746859651126e-01 -1.102310358371405e-17

-3.747138814061696e-17  1.847231025874171e-18 -1.005731464142241e+00
 1.847231025874171e-18 -1.318622747544126e-17  4.134013724920436e-01
-1.005731464142241e+00  4.134013724920436e-01 -7.828686375479317e-18

-3.007835340680895e-17  1.775150577643516e-18 -1.004628202360419e+00
 1.775150577643516e-18 -1.265271861903058e-17  4.142526223014497e-01
-1.004628202360419e+00  4.142526223014497e-01 -5.268827664150207e-18

-2.513250564429449e-17  1.678096638374399e-18 -1.000497324640167e+00
 1.678096638374399e-18 -1.549107855449489e-18  4.176160873603548e-01
-1.000497324640167e+00  4.176160873603548e-01 -3.748886939711613e-18

-2.203158180552766e-17  1.592098013419140e-18 -9.919461527351852e-01
 1.592098013419140e-18 -4.623496494941646e-18  4.194976031037405e-01
-9.919461527351852e-01  4.194976031037405e-01 -3.109296130354442e-18

-1.869882064714783e-17  1.501475101039458e-18 -9.939956928990645e-01
 1.501475101039458e-18  2.292674002419241e-18  4.012398621543659e-01
-9.939956928990645e-01  4.012398621543659e-01 -1.612753282748362e-18

-1.652130895687738e-17  1.410017708300649e-18 -1.006250704280223e+00
 1.410017708300649e-18  5.831449963525153e-19  3.979284771331376e-01
-1.006250704280223e+00  3.979284771331376e-01 -1.274614315753537e-19

-1.544600641771093e-17  1.294923199409465e-18 -9.880571775213705e-01
 1.294923199409465e-18 -8.145853216656383e-18  4.318735824070217e-01
-9.880571775213705e-01  4.318735824070217e-01 -1.167328816870705e-18

-1.309668421423342e-17  1.219308180069565e-18 -1.002122956533170e+00
 1.219308180069565e-18  1.728125881481550e-18  4.155481169828898e-01
-1.002122956533170e+00  4.155481169828898e-01  5.393959892463331e-19

-1.123821031879869e-17  1.115360559831863e-18 -1.002981757114721e+00
 1.115360559831863e-18 -8.173602467462300e-18  4.115965836642657e-01
-1.002981757114721e+00  4.115965836642657e-01  1.190209427345361e-18

-8.221970049297620e-18  9.390663369303315e-19 -1.006129184006660e+00
 9.390663369303315e-19 -4.449038868512192e-18  4.149740113519148e-01
-1.006129184006660e+00  4.149740113519148e-01  2.286912352464281e-18

-5.519552179038714e-18  7.821295660419840e-19 -1.007981001126683e+00
 7.821295660419840e-19 -1.446689936644095e-17  4.154291320231713e-01
-1.007981001126683e+00  4.154291320231713e-01  3.237501108916537e-18

-3.730472576301332e-18  6.743465128133384e-19 -1.008382996574168e+00
 6.743465128133384e-19 -1.894064564332898e-18  4.154624184203565e-01
-1.008382996574168e+00  4.154624184203565e-01  3.830600192208713e-18

-2.558721636361690e-18  6.026634281945641e-19 -1.008742140080161e+00
 6.026634281945641e-19  6.124515286928596e-18  4.157385018039937e-01
-1.008742140080161e+00  4.157385018039937e-01  4.220068035420047e-18

-1.627833411946868e-18  5.295446240210259e-19 -1.009391842992881e+00
 5.295446240210259e-19 -6.479504028720865e-18  4.175292355485988e-01
-1.009391842992881e+00  4.175292355485988e-01  4.533242522745752e-18

-7.445347849352210e-19  4.678465698547890e-19 -1.010171380058211e+00
 4.678465698547890e-19 -1.596647562521702e-17  4.164231877662420e-01
-1.010171380058211e+00  4.164231877662420e-01  4.873598636072389e-18

 1.179813815051390e-19  4.176599657739183e-19 -1.009987809867340e+00
 4.176599657739183e-19  1.511652724055385e-17  4.169536362351050e-01
-1.009987809867340e+00  4.169536362351050e-01  5.139196290857813e-18

 8.865383792114012e-19  3.631059898786468e-19 -1.010136402137486e+00
 3.631059898786468e-19  1.209769101172624e-17  4.171027816035949e-01
-1.010136402137486e+00  4.171027816035949e-01  5.411989849757927e-18

 1.651008890484648e-18  3.090495832335261e-19 -1.009890813179238e+00
 3.090495832335261e-19  9.069203868432965e-18  4.172840763805978e-01
-1.009890813179238e+00  4.172840763805978e-01  5.674867060018727e-18

 2.371847177657728e-18  2.479499481988198e-19 -1.009410511135422e+00
 2.479499481988198e-19 -4.402059267587748e-18  4.173019595987230e-01
-1.009410511135422e+00  4.173019595987230e-01  5.886839902116133e-18

 2.897684249468217e-18  2.114786003667316e-19 -1.008495149385893e+00
 2.114786003667316e-19 -4.073086232829774e-18  4.171987269323903e-01
-1.008495149385893e+00  4.171987269323903e-01  6.044050791336753e-18

 3.282378926716587e-18  2.062441532632058e-19 -1.009818073917227e+00
 2.062441532632058e-19  1.170260673690983e-17  4.152586384090154e-01
-1.009818073917227e+00  4.152586384090154e-01  6.276899727031853e-18

 3.552203630013867e-18  1.730361833639188e-19 -1.009123897936025e+00
 1.730361833639188e-19  5.795618909406636e-18  4.170762373318634e-01
-1.009123897936025e+00  4.170762373318634e-01  6.304504749514741e-18

 4.075616807515980e-18  1.456053811907155e-19 -1.008316336945270e+00
 1.456053811907155e-19  8.740794066791910e-18  4.164542450630722e-01
-1.008316336945270e+00  4.164542450630722e-01  6.474553414512809e-18

 4.447649312892609e-18  1.267273579967732e-19 -1.007419000150981e+00
 1.267273579967732e-19  5.647266629219963e-18  4.170532839080698e-01
-1.007419000150981e+00  4.170532839080698e-01  6.526489813479791e-18

 4.679743011580902e-18  1.070078215298018e-19 -1.006516939733329e+00
 1.070078215298018e-19  1.224103426398476e-17  4.160373770365239e-01
-1.006516939733329e+00  4.160373770365239e-01  6.603026315622472e-18

 5.034140774402851e-18  8.191115596324503e-20 -1.007821444911991e+00
 8.191115596324503e-20  7.112914555388357e-19  4.143613322103936e-01
-1.007821444911991e+00  4.143613322103936e-01  6.818756585054296e-18

 5.262821173538418e-18  7.733564339105571e-20 -1.005970055731974e+00
 7.733564339105571e-20  8.030519003734921e-18  4.193002216190356e-01
-1.005970055731974e+00  4.193002216190356e-01  6.730358839073418e-18

 5.406785632671417e-18  7.178731639538005e-20 -1.005249295139062e+00
 7.178731639538005e-20  7.624458434132511e-18  4.178828214531348e-01
-1.005249295139062e+00  4.178828214531348e-01  6.774223734093134e-18

 5.627142725818208e-18  5.985629432923408e-20 -1.009112388437832e+00
 5.985629432923408e-20  1.433080601167142e-17  4.126638878241563e-01
-1.009112388437832e+00  4.126638878241563e-01  7.087905188644793e-18

 5.834411503637175e-18  4.545343838791822e-20 -1.006369622603195e+00
 4.545343838791822e-20  1.307096547813678e-17  4.137320337141225e-01
-1.006369622603195e+00  4.137320337141225e-01  7.003271875220270e-18

 6.029308314295562e-18  2.353379588601697e-20 -1.006211795381063e+00
 2.353379588601697e-20  7.599487328126307e-18  4.155334698517939e-01
-1.006211795381063e+00  4.155334698517939e-01  7.043603639840472e-18

 6.165594773169768e-18  2.437863274098173e-20 -1.007402597986595e+00
 2.437863274098173e-20  6.599434744316061e-19  4.163695240659887e-01
-1.007402597986595e+00  4.163695240659887e-01  7.114216031014111e-18

 6.399115536365627e-18 -2.518629091051403e-21 -1.007370722575557e+00
-2.518629091051403e-21  1.139570330229865e-17  4.148182838265759e-01
-1.007370722575557e+00  4.148182838265759e-01  7.234476979578732e-18

 6.605964659849956e-18 -1.110516733454146e-21 -1.007961729534127e+00
-1.110516733454146e-21  5.312607999165419e-18  4.128025010135198e-01
-1.007961729534127e+00  4.128025010135198e-01  7.353983787674234e-18

 6.745978307482539e-18 -1.098618344593776e-20 -1.005842497515475e+00
-1.098618344593776e-20 -2.117114296043621e-18  4.138700605340325e-01
-1.005842497515475e+00  4.138700605340325e-01  7.329873041459508e-18

 6.930078372564585e-18 -2.184367127776924e-20 -1.004743579353124e+00
-2.184367127776924e-20 -1.485558582486081e-17  4.141275205990180e-01
-1.004743579353124e+00  4.141275205990180e-01  7.372983437385300e-18

 7.076694970480709e-18 -2.435604804442733e-20 -1.004313599114911e+00
-2.435604804442733e-20  6.239062498500172e-18  4.123029306372640e-01
-1.004313599114911e+00  4.123029306372640e-01  7.431848859842998e-18

 7.137784259765893e-18 -3.326530209235675e-20 -1.001058340493197e+00
-3.326530209235675e-20  2.328632839181331e-17  4.126702118870609e-01
-1.001058340493197e+00  4.126702118870609e-01  7.344688530071305e-18

 7.288413547366650e-18 -3.391593014169508e-20 -1.001118965053711e+00
-3.391593014169508e-20  3.953322703682637e-18  4.114134421320213e-01
-1.001118965053711e+00  4.114134421320213e-01  7.436614749426294e-18

 7.420247760648636e-18 -4.001091198611238e-20 -9.994752771151041e-01
-4.001091198611238e-20  1.265666307201933e-17  4.108220364814438e-01
-9.994752771151041e-01  4.108220364814438e-01  7.471066490227219e-18

 7.570385243950257e-18 -3.704705468454467e-20 -9.983219458481650e-01
-3.704705468454467e-20  1.260728846115319e-17  4.114126049448167e-01
-9.983219458481650e-01  4.114126049448167e-01  7.519005662879543e-18

 7.856228648221769e-18 -4.021231536256031e-20 -1.003815011288171e+00
-4.021231536256031e-20 -6.878578341332717e-21  4.036451457258265e-01
-1.003815011288171e+00  4.036451457258265e-01  7.987224987882373e-18

 7.730959982172919e-18 -3.036125262568697e-20 -9.955640789773391e-01
-3.036125262568697e-20  4.217191062669787e-19  4.089476582679286e-01
-9.955640789773391e-01  4.089476582679286e-01  7.467453333189136e-18

 7.871948605164499e-18 -2.371395523760193e-20 -9.979855424799674e-01
-2.371395523760193e-20  2.305754862144610e-17  4.028331700943578e-01
-9.979855424799674e-01  4.028331700943578e-01  7.673973743825274e-18

 8.050215831578162e-18 -2.167762903525334e-20 -1.002072150230875e+00
-2.167762903525334e-20  1.349204613035193e-17  4.079974501241065e-01
-1.002072150230875e+00  4.079974501241065e-01  7.854646902427865e-18

 8.317234139667378e-18 -1.006901454461988e-20 -1.008755653189032e+00
-1.006901454461988e-20  1.663756898071184e-17  4.080534346070389e-01
-1.008755653189032e+00  4.080534346070389e-01  8.306632100747457e-18

 8.306311892162635e-18 -6.215586285785039e-21 -1.005139456063059e+00
-6.215586285785039e-21  6.530348936547160e-18  4.074917073554674e-01
-1.005139456063059e+00  4.074917073554674e-01  8.101331856160314e-18

 8.185214287458695e-18 -6.760787943451098e-21 -9.974131422493776e-01
-6.760787943451098e-21  9.407943917017086e-18  4.107046685259894e-01
-9.974131422493776e-01  4.107046685259894e-01  7.591990975280046e-18

 8.226637166975226e-18 -2.639684865629810e-20 -9.949770221548356e-01
-2.639684865629810e-20  3.552225577402963e-18  4.028296020679477e-01
-9.949770221548356e-01  4.028296020679477e-01  7.585632101567343e-18

 8.280930029865352e-18 -2.126654287096446e-20 -9.954428370835465e-01
-2.126654287096446e-20  1.039504086063526e-17  3.998336760725247e-01
-9.954428370835465e-01  3.998336760725247e-01  7.632807852847179e-18

 8.057319042356482e-18 -1.664327464505074e-20 -9.839019363244894e-01
-1.664327464505074e-20  1.082799544977741e-17  4.266604356615640e-01
-9.839019363244894e-01  4.266604356615640e-01  6.608043000736707e-18

 8.220748424808935e-18 -1.092119013069430e-20 -9.871485078633907e-01
-1.092119013069430e-20  2.306730212111724e-17  4.155161036490277e-01
-9.871485078633907e-01  4.155161036490277e-01  6.880109990195122e-18

 8.480122308707798e-18 -2.120935347356010e-20 -9.962079612045633e-01
-2.120935347356010e-20  1.332995153216808e-17  3.904803330674441e-01
-9.962079612045633e-01  3.904803330674441e-01  7.643681074062923e-18

 9.091629422763352e-18 -3.551150252929184e-20 -1.020708903771612e+00
-3.551150252929184e-20  5.104615043188965e-18  4.110503097240608e-01
-1.020708903771612e+00  4.110503097240608e-01  8.768442215070014e-18

 9.380782050474551e-18 -2.154524832654439e-20 -1.029631575646066e+00
-2.154524832654439e-20 -1.077225252764250e-19  4.120052864992741e-01
-1.029631575646066e+00  4.120052864992741e-01  9.194535219257990e-18

 8.979447489894215e-18 -5.014344992564587e-20 -1.007466186696170e+00
-5.014344992564587e-20  7.217165322412731e-20  4.016730738928535e-01
-1.007466186696170e+00  4.016730738928535e-01  8.072681917357349e-18

 8.916670399256328e-18 -3.000476075821791e-20 -1.001348957331598e+00
-3.000476075821791e-20  1.736999993355822e-17  4.106650407583436e-01
-1.001348957331598e+00  4.106650407583436e-01  7.678735219991978e-18

 8.902215983169556e-18 -2.758190395548387e-20 -9.971079284535904e-01
-2.758190395548387e-20  1.828723518802069e-17  4.144664547131440e-01
-9.971079284535904e-01  4.144664547131440e-01  7.469545393795151e-18

 8.957748115039651e-18 -2.934329865688260e-20 -9.956166704316555e-01
-2.934329865688260e-20  2.562880065657107e-17  4.146381965256769e-01
-9.956166704316555e-01  4.146381965256769e-01  7.387332652056041e-18

 9.340367638558560e-18 -4.942161992443283e-20 -1.009301220131985e+00
-4.942161992443283e-20 -4.414019808285452e-18  4.065808107541007e-01
-1.009301220131985e+00  4.065808107541007e-01  8.337269563779432e-18

 9.199172685034554e-18 -3.760320889115745e-20 -1.003202441013646e+00
-3.760320889115745e-20  1.864804428962173e-17  4.170568294202058e-01
-1.003202441013646e+00  4.170568294202058e-01  7.767328917315002e-18

 9.300462636769399e-18 -2.923324581721469e-20 -1.005600196484484e+00
-2.923324581721469e-20  3.050248386306672e-17  4.139301978969865e-01
-1.005600196484484e+00  4.139301978969865e-01  7.963025913797830e-18

 9.567962413929682e-18 -4.947162722811480e-20 -1.015633487916532e+00
-4.947162722811480e-20  1.721324123025365e-17  4.032068804714161e-01
-1.015633487916532e+00  4.032068804714161e-01  8.704814536661594e-18

 9.347767890343072e-18 -2.332815708278104e-20 -1.004870892213117e+00
-2.332815708278104e-20  3.855245902877584e-17  4.134307230525012e-01
-1.004870892213117e+00  4.134307230525012e-01  7.908551610235006e-18

 9.408330797700318e-18 -7.712369624519946e-20 -1.005253752209597e+00
-7.712369624519946e-20 -2.963042765412098e-18  4.107517481475056e-01
-1.005253752209597e+00  4.107517481475056e-01  8.002285233932146e-18

 9.275887040500239e-18 -5.963681096408783e-20 -9.990153091059124e-01
-5.963681096408783e-20  1.135580467362042e-17  4.172636583555987e-01
-9.990153091059124e-01  4.172636583555987e-01  7.515790692739977e-18

 9.388459403906956e-18 -8.359968553953096e-20 -1.001238931148763e+00
-8.359968553953096e-20 -2.368141079562060e-18  4.133217004252094e-01
-1.001238931148763e+00  4.133217004252094e-01  7.718921807640909e-18

 9.512400583531773e-18 -7.777567312752016e-20 -1.003187978984193e+00
-7.777567312752016e-20  1.365779295165812e-17  4.159861940376384e-01
-1.003187978984193e+00  4.159861940376384e-01  7.833943579090630e-18

 9.536648804530114e-18 -7.641998293025293e-20 -1.002667704541070e+00
-7.641998293025293e-20  2.167231961433701e-17  4.148070355661644e-01
-1.002667704541070e+00  4.148070355661644e-01  7.824700956610948e-18

 9.627303500320134e-18 -9.428893887895097e-20 -1.003861424972524e+00
-9.428893887895097e-20  9.876666027676780e-18  4.158698275277959e-01
-1.003861424972524e+00  4.158698275277959e-01  7.898509473332940e-18

 9.654278623307047e-18 -8.557704177689225e-20 -1.001730700027476e+00
-8.557704177689225e-20  1.281950313569922e-17  4.159308163110306e-01
-1.001730700027476e+00  4.159308163110306e-01  7.820577587518488e-18

 9.780972823950969e-18 -8.470118585508813e-20 -1.004505518065629e+00
-8.470118585508813e-20  1.782394169686894e-17  4.094697262931225e-01
-1.004505518065629e+00  4.094697262931225e-01  8.070672805302593e-18

 9.697206666997956e-18 -1.033783428824228e-19 -9.999913411904050e-01
-1.033783428824228e-19  2.782859761936516e-18  4.263561610957225e-01
-9.999913411904050e-01  4.263561610957225e-01  7.577542070107709e-18

 9.683204142051991e-18 -8.029238799286062e-20 -9.987534534195027e-01
-8.029238799286062e-20  2.513307170234747e-17  4.259105864123074e-01
-9.987534534195027e-01  4.259105864123074e-01  7.532703767297785e-18

 9.992218385447839e-18 -8.335719469927644e-20 -1.009035895235673e+00
-8.335719469927644e-20  2.917183185844672e-17  4.031561058514374e-01
-1.009035895235673e+00  4.031561058514374e-01  8.452369306221040e-18

 9.827308737557750e-18 -1.060280434106881e-19 -1.001913795150648e+00
-1.060280434106881e-19  6.955695178020205e-18  4.083263900757532e-01
-1.001913795150648e+00  4.083263900757532e-01  7.948058381300939e-18

 9.751569978074593e-18 -9.001652563743648e-20 -9.981554323276469e-01
-9.001652563743648e-20  1.880434998099851e-17  4.213296719569470e-01
-9.981554323276469e-01  4.213296719569470e-01  7.562208777761036e-18

 9.904376680860378e-18 -1.299803327069707e-19 -1.003333878114198e+00
-1.299803327069707e-19 -1.254830021625461e-17  4.174793215667659e-01
-1.003333878114198e+00  4.174793215667659e-01  7.943621926024462e-18

 9.913066911335374e-18 -1.371006382549494e-19 -1.002706390963939e+00
-1.371006382549494e-19 -9.866717674983396e-18  4.166806425891387e-01
-1.002706390963939e+00  4.166806425891387e-01  7.872059097399226e-18

 9.917199541462995e-18 -9.227873908956933e-20 -1.001620249030825e+00
-9.227873908956933e-20  2.557918187051469e-17  4.172687428929623e-01
-1.001620249030825e+00  4.172687428929623e-01  7.825605788627013e-18

 1.000387209389830e-17 -1.690302251957459e-19 -1.004883811025020e+00
-1.690302251957459e-19 -3.347816646683647e-17  4.149623873987617e-01
-1.004883811025020e+00  4.149623873987617e-01  8.030138035287830e-18

 1.003644710541637e-17 -7.928693880482225e-20 -1.005112056115368e+00
-7.928693880482225e-20  3.600340615419451e-17  4.167250156920168e-01
-1.005112056115368e+00  4.167250156920168e-01  8.011655766376748e-18

 1.008782645478917e-17 -1.222311169417433e-19 -1.006237636151242e+00
-1.222311169417433e-19  4.828043365627094e-19  4.163463738787750e-01
-1.006237636151242e+00  4.163463738787750e-01  8.069353657639121e-18

 1.007870116787905e-17 -1.404973188293432e-19 -1.005077707131089e+00
-1.404973188293432e-19 -1.154817772406529e-17  4.183478727427954e-01
-1.005077707131089e+00  4.183478727427954e-01  7.965708479826322e-18

 1.014128698257216e-17 -5.449786835434371e-20 -1.006524013564147e+00
-5.449786835434371e-20  5.176044316021093e-17  4.162036838011141e-01
-1.006524013564147e+00  4.162036838011141e-01  8.058039118395387e-18

 1.018348158798900e-17 -1.193780112663062e-19 -1.007895011827354e+00
-1.193780112663062e-19  9.441663894498544e-18  4.139384419159408e-01
-1.007895011827354e+00  4.139384419159408e-01  8.174386007276670e-18

 1.016097845839822e-17 -1.347161714937669e-19 -1.006292402908396e+00
-1.347161714937669e-19 -4.555963627768412e-18  4.178776492531580e-01
-1.006292402908396e+00  4.178776492531580e-01  8.028898823999110e-18

 1.017939493387710e-17 -1.137843721875902e-19 -1.006252067481894e+00
-1.137843721875902e-19  1.618665760178688e-17  4.192376798908802e-01
-1.006252067481894e+00  4.192376798908802e-01  8.030299203504998e-18

 1.021606168593590e-17 -1.535025714287128e-19 -1.006597206340285e+00
-1.535025714287128e-19 -1.337340169079308e-17  4.164572026610863e-01
-1.006597206340285e+00  4.164572026610863e-01  8.095606450027801e-18

 1.023488317183311e-17 -1.102686837171541e-19 -1.007027335397389e+00
-1.102686837171541e-19  1.744820932901412e-17  4.149331613939876e-01
-1.007027335397389e+00  4.149331613939876e-01  8.121979775621582e-18

 1.023092260526806e-17 -1.196117511406259e-19 -1.005775197988752e+00
-1.196117511406259e-19  1.271788775988295e-17  4.178232070334763e-01
-1.005775197988752e+00  4.178232070334763e-01  8.027300557296258e-18

 1.025969816530163e-17 -1.231486055686470e-19 -1.006905239615254e+00
-1.231486055686470e-19  5.219750245688462e-18  4.188418605377321e-01
-1.006905239615254e+00  4.188418605377321e-01  8.064818538781031e-18

 1.030833997706087e-17 -1.026729373457226e-19 -1.007088850982728e+00
-1.026729373457226e-19  2.334294227318682e-17  4.172508940639158e-01
-1.007088850982728e+00  4.172508940639158e-01  8.117206906861880e-18

 1.029266109804088e-17 -1.064590321561889e-19 -1.005729358495265e+00
-1.064590321561889e-19  2.447982691230613e-17  4.182589993553648e-01
-1.005729358495265e+00  4.182589993553648e-01  8.038842814939359e-18

 1.031168326770034e-17 -1.238834781545168e-19 -1.005663374162921e+00
-1.238834781545168e-19  1.512007833531742e-17  4.174376029812209e-01
-1.005663374162921e+00  4.174376029812209e-01  8.020991426818524e-18

 1.036853343756905e-17 -1.485226597537400e-19 -1.007245338860157e+00
-1.485226597537400e-19 -1.146415541369278e-17  4.157159001587147e-01
-1.007245338860157e+00  4.157159001587147e-01  8.149500788560725e-18

 1.030340808396944e-17 -1.198036358268960e-19 -1.003579181645239e+00
-1.198036358268960e-19  7.370278155829166e-18  4.208625921677555e-01
-1.003579181645239e+00  4.208625921677555e-01  7.895009933875666e-18

 1.031838165474527e-17 -1.482228829156069e-19 -1.004301214981921e+00
-1.482228829156069e-19 -3.463440718783034e-18  4.218373582287831e-01
-1.004301214981921e+00  4.218373582287831e-01  7.901472365887862e-18

 1.037698758769359e-17 -1.609341386754683e-19 -1.005597613759444e+00
-1.609341386754683e-19 -1.890450025713688e-17  4.178037227723345e-01
-1.005597613759444e+00  4.178037227723345e-01  8.003437195113333e-18

 1.044401391564347e-17 -1.339089765332134e-19 -1.008149943317897e+00
-1.339089765332134e-19  3.907268842266774e-18  4.122222773171844e-01
-1.008149943317897e+00  4.122222773171844e-01  8.235619871958107e-18

 1.048175301482821e-17 -1.424110842572475e-19 -1.009004669388356e+00
-1.424110842572475e-19  7.307562194305516e-18  4.192904773228823e-01
-1.009004669388356e+00  4.192904773228823e-01  8.191780032545887e-18

 1.038807514893606e-17 -1.309632831835627e-19 -1.005152852254235e+00
-1.309632831835627e-19  1.237117392690451e-17  4.286621563987504e-01
-1.005152852254235e+00  4.286621563987504e-01  7.875249019889683e-18

 1.044703970838150e-17 -1.410068950618476e-19 -1.006241103768474e+00
-1.410068950618476e-19 -3.631583054516226e-18  4.189449292845913e-01
-1.006241103768474e+00  4.189449292845913e-01  8.070927581524076e-18

 1.050223900205611e-17 -1.484951499412300e-19 -1.008182522884731e+00
-1.484951499412300e-19 -3.340797175688306e-18  4.097467085612296e-01
-1.008182522884731e+00  4.097467085612296e-01  8.278487729935308e-18

 1.038788008257946e-17 -1.422422149112997e-19 -1.003210615460949e+00
-1.422422149112997e-19  8.463075692784985e-18  4.203964751277496e-01
-1.003210615460949e+00  4.203964751277496e-01  7.828107411431415e-18

 1.028486032846576e-17 -1.158418096218512e-19 -9.983472672229212e-01
-1.158418096218512e-19  3.115390340973251e-17  4.285351874889734e-01
-9.983472672229212e-01  4.285351874889734e-01  7.456422710480707e-18

 1.052710884725893e-17 -1.469234664521515e-19 -1.008341034961597e+00
-1.469234664521515e-19  1.479836532061968e-18  4.199898323512444e-01
-1.008341034961597e+00  4.199898323512444e-01  8.157400924841182e-18

 1.057608230347578e-17 -1.154057611151913e-19 -1.009260841527969e+00
-1.154057611151913e-19  2.296828715763902e-17  4.186495381446990e-01
-1.009260841527969e+00  4.186495381446990e-01  8.179993254756892e-18

 1.054004617584435e-17 -1.264215134240840e-19 -1.007894988771320e+00
-1.264215134240840e-19  2.325925684109646e-17  4.193985549195077e-01
-1.007894988771320e+00  4.193985549195077e-01  8.109694442328334e-18

 1.058214234137266e-17 -1.439559730446012e-19 -1.009094529787501e+00
-1.439559730446012e-19  1.894087133198090e-17  4.201015406537960e-01
-1.009094529787501e+00  4.201015406537960e-01  8.145241855329441e-18

 1.059044950658660e-17 -1.526167875087002e-19 -1.009070007197848e+00
-1.526167875087002e-19  1.079594724382647e-17  4.196148364132617e-01
-1.009070007197848e+00  4.196148364132617e-01  8.168710408719782e-18

 1.060185577036618e-17 -1.281838042221444e-19 -1.008911622984826e+00
-1.281838042221444e-19  1.767713553743172e-17  4.199633594042219e-01
-1.008911622984826e+00  4.199633594042219e-01  8.159579124769152e-18

 1.062869171740055e-17 -1.434142028157922e-19 -1.008651600341927e+00
-1.434142028157922e-19  1.588322649580890e-17  4.192447239553141e-01
-1.008651600341927e+00  4.192447239553141e-01  8.184518033752998e-18

 1.061038207677298e-17 -1.475646111397782e-19 -1.007418178064710e+00
-1.475646111397782e-19  1.897097494275691e-17  4.205746969397132e-01
-1.007418178064710e+00  4.205746969397132e-01  8.109254518005224e-18

 1.075126780074950e-17 -1.230509104803786e-19 -1.011852377874535e+00
-1.230509104803786e-19  2.152000785830256e-17  4.155594545926849e-01
-1.011852377874535e+00  4.155594545926849e-01  8.407654945418608e-18

 1.069427971771678e-17 -1.137015609012485e-19 -1.009687391458779e+00
-1.137015609012485e-19  8.008090742557705e-18  4.199393582943750e-01
-1.009687391458779e+00  4.199393582943750e-01  8.274667673342008e-18

 1.066275108471165e-17 -1.291659127158623e-19 -1.007043479901261e+00
-1.291659127158623e-19  1.250501988741740e-17  4.180593894362128e-01
-1.007043479901261e+00  4.180593894362128e-01  8.160710963130978e-18

 1.057847094485540e-17 -1.415650576426095e-19 -1.002754970055163e+00
-1.415650576426095e-19  1.927970328438650e-17  4.231330028024589e-01
-1.002754970055163e+00  4.231330028024589e-01  7.852630677272094e-18

 1.084387848264795e-17 -1.420037929380130e-19 -1.012286415563774e+00
-1.420037929380130e-19  3.039968843553126e-18  4.161932359687018e-01
-1.012286415563774e+00  4.161932359687018e-01  8.527022148608863e-18

 1.066170790011709e-17 -1.347918114440487e-19 -1.005320096011564e+00
-1.347918114440487e-19  2.041943214947665e-17  4.207460940685086e-01
-1.005320096011564e+00  4.207460940685086e-01  8.029437424666756e-18

 1.066390501842764e-17 -1.269803484992533e-19 -1.003968412680826e+00
-1.269803484992533e-19  1.447863902952254e-17  4.198714952079316e-01
-1.003968412680826e+00  4.198714952079316e-01  7.933173582842193e-18

 1.075908544780789e-17 -1.276076311149662e-19 -1.008426196594822e+00
-1.276076311149662e-19  6.495680100962104e-18  4.176686664411983e-01
-1.008426196594822e+00  4.176686664411983e-01  8.277544675958630e-18

 1.094342865280798e-17 -1.246530003114829e-19 -1.014827244279998e+00
-1.246530003114829e-19  1.787561988956196e-17  4.181846007384932e-01
-1.014827244279998e+00  4.181846007384932e-01  8.667418799166081e-18

 1.076975139879043e-17 -1.319669042053156e-19 -1.008133249241321e+00
-1.319669042053156e-19  8.728943470112174e-18  4.225465581847901e-01
-1.008133249241321e+00  4.225465581847901e-01  8.185602040602268e-18

 1.065908452122531e-17 -1.388763321683052e-19 -1.003161193310148e+00
-1.388763321683052e-19  2.060728208536671e-17  4.188577059102506e-01
-1.003161193310148e+00  4.188577059102506e-01  7.905217992450030e-18

 1.073552456600998e-17 -1.249038635413831e-19 -1.005782985367326e+00
-1.249038635413831e-19  3.420945780033329e-18  4.149082131200769e-01
-1.005782985367326e+00  4.149082131200769e-01  8.131784773485527e-18

 1.089650039637133e-17 -1.280235781475969e-19 -1.011630806460519e+00
-1.280235781475969e-19  1.899008166090297e-17  4.202087540278538e-01
-1.011630806460519e+00  4.202087540278538e-01  8.418305578077949e-18

 1.086875017389325e-17 -1.168219985893052e-19 -1.011219270388391e+00
-1.168219985893052e-19  5.465125160878488e-18  4.212420426841840e-01
-1.011219270388391e+00  4.212420426841840e-01  8.372028704177323e-18

 1.080209828557311e-17 -1.064382496891182e-19 -1.008101656418755e+00
-1.064382496891182e-19  9.087072896664566e-18  4.185347185102519e-01
-1.008101656418755e+00  4.185347185102519e-01  8.186101411556779e-18

 1.091930313599249e-17 -1.197301969686803e-19 -1.012550288988614e+00
-1.197301969686803e-19  1.066314389521256e-17  4.131672101168788e-01
-1.012550288988614e+00  4.131672101168788e-01  8.524711718749878e-18

 1.083539922673862e-17 -1.130508581646668e-19 -1.008541372864204e+00
-1.130508581646668e-19  1.749637449595781e-17  4.201845786681296e-01
-1.008541372864204e+00  4.201845786681296e-01  8.201543641979092e-18

 1.081762128151864e-17 -1.097193831515458e-19 -1.007754940181583e+00
-1.097193831515458e-19 -4.611599794626874e-18  4.176019097546330e-01
-1.007754940181583e+00  4.176019097546330e-01  8.113455388432935e-18

 1.101088244376005e-17 -1.121816094023128e-19 -1.016179664407747e+00
-1.121816094023128e-19  3.085458271966324e-17  4.207587768282532e-01
-1.016179664407747e+00  4.207587768282532e-01  8.550338942998895e-18

 1.091850079283826e-17 -1.112574260025168e-19 -1.011975730468843e+00
-1.112574260025168e-19  1.811092653354137e-17  4.226733116500945e-01
-1.011975730468843e+00  4.226733116500945e-01  8.245953471709352e-18

 1.132727313597583e-17 -4.637600300660631e-20 -1.029300484158075e+00
-4.637600300660631e-20  1.816871641804008e-17  3.790781521730902e-01
-1.029300484158075e+00  3.790781521730902e-01  9.583191668462137e-18

 1.070959983171123e-17 -1.317943656104905e-19 -1.004339288924756e+00
-1.317943656104905e-19  4.854907167337423e-18  4.440899674167023e-01
-1.004339288924756e+00  4.440899674167023e-01  7.379739557007222e-18

 1.095639802416824e-17 -1.532975177534364e-19 -1.015090673110777e+00
-1.532975177534364e-19  1.552054332578110e-17  4.634392411039406e-01
-1.015090673110777e+00  4.634392411039406e-01  7.903428289881182e-18

 1.103131485481881e-17 -1.215427631236880e-19 -1.015544103574462e+00
-1.215427631236880e-19  1.551669227058882e-17  4.120828280454302e-01
-1.015544103574462e+00  4.120828280454302e-01  8.490678806791611e-18

 1.087588736314596e-17 -1.150978372583760e-19 -1.007865091740595e+00
-1.150978372583760e-19  9.225215762457860e-18  4.136549586528253e-01
-1.007865091740595e+00  4.136549586528253e-01  8.084782237708823e-18

 1.084087161628281e-17 -1.153610201998399e-19 -1.006211107812260e+00
-1.153610201998399e-19  2.182223792255262e-17  4.244998976219775e-01
-1.006211107812260e+00  4.244998976219775e-01  7.895714677311324e-18

 1.095815397776382e-17 -1.163659850993637e-19 -1.010539897997457e+00
-1.163659850993637e-19  3.535267690219299e-17  4.231825539560460e-01
-1.010539897997457e+00  4.231825539560460e-01  8.217280420595880e-18

 1.096591896869458e-17 -1.153328513441193e-19 -1.010136708051565e+00
-1.153328513441193e-19  2.158335427117367e-17  4.209615671275472e-01
-1.010136708051565e+00  4.209615671275472e-01  8.233111069993079e-18

 1.086929026416402e-17 -1.147605352003408e-19 -1.006485185052427e+00
-1.147605352003408e-19  1.504511342726616e-17  4.243713207855463e-01
-1.006485185052427e+00  4.243713207855463e-01  7.937913447082753e-18

 1.092697533573487e-17 -1.169387548033295e-19 -1.008138350803702e+00
-1.169387548033295e-19  1.835406199811986e-17  4.213606366982851e-01
-1.008138350803702e+00  4.213606366982851e-01  8.088477431302876e-18

 1.103229674022767e-17 -1.192918055991559e-19 -1.012054636069923e+00
-1.192918055991559e-19  1.619186372560060e-17  4.211719267916382e-01
-1.012054636069923e+00  4.211719267916382e-01  8.311030973042213e-18

 1.108779738941764e-17 -1.218493455479894e-19 -1.014526558759719e+00
-1.218493455479894e-19  1.190430086941383e-19  4.209455319378455e-01
-1.014526558759719e+00  4.209455319378455e-01  8.453566330346409e-18

 1.097182300797737e-17 -1.216413682766327e-19 -1.009313003214686e+00
-1.216413682766327e-19  1.050225643425905e-18  4.269499281848784e-01
-1.009313003214686e+00  4.269499281848784e-01  8.079874694755882e-18

 1.107246051360739e-17 -1.109043885197896e-19 -1.012791770062786e+00
-1.109043885197896e-19  1.174089799340967e-17  4.093557634266642e-01
-1.012791770062786e+00  4.093557634266642e-01  8.478083121581637e-18

 1.107512154805835e-17 -1.108510731835141e-19 -1.012959095209958e+00
-1.108510731835141e-19  2.103474651123612e-17  4.147680081368585e-01
-1.012959095209958e+00  4.147680081368585e-01  8.411376872011734e-18

 1.106239382281829e-17 -1.285975309846052e-19 -1.012777417032119e+00
-1.285975309846052e-19 -5.560077733039941e-18  4.285853131238927e-01
-1.012777417032119e+00  4.285853131238927e-01  8.265390380308685e-18

 1.113704083064011e-17 -1.099246094302818e-19 -1.015626509299083e+00
-1.099246094302818e-19  3.324061196474046e-17  4.199035660136111e-01
-1.015626509299083e+00  4.199035660136111e-01  8.499080120739587e-18

 1.109844672136538e-17 -1.058720132499350e-19 -1.013520920440913e+00
-1.058720132499350e-19  2.566826359081343e-17  4.204268807669844e-01
-1.013520920440913e+00  4.204268807669844e-01  8.374791061306294e-18

 1.108048011628499e-17 -1.194460415435768e-19 -1.012746502317317e+00
-1.194460415435768e-19  7.778819319758721e-19  4.220782517912885e-01
-1.012746502317317e+00  4.220782517912885e-01  8.300592950846532e-18

 1.110074703957345e-17 -9.753651489925728e-20 -1.013246738737187e+00
-9.753651489925728e-20  3.512582036269980e-17  4.218922542606714e-01
-1.013246738737187e+00  4.218922542606714e-01  8.324462930736315e-18

 1.111293592707890e-17 -1.092622747295903e-19 -1.013369577921013e+00
-1.092622747295903e-19  2.053285472855463e-17  4.201870212826747e-01
-1.013369577921013e+00  4.201870212826747e-01  8.385714753323849e-18

 1.115042296251614e-17 -9.440875973698185e-20 -1.014575051733983e+00
-9.440875973698185e-20  2.813619978957281e-17  4.205596824119161e-01
-1.014575051733983e+00  4.205596824119161e-01  8.462820924339848e-18

 1.113454323564579e-17 -1.133187578197304e-19 -1.013633816202085e+00
-1.133187578197304e-19  5.599055787538283e-18  4.202384748751765e-01
-1.013633816202085e+00  4.202384748751765e-01  8.409687023325020e-18

 1.113640899085699e-17 -1.077579495677063e-19 -1.013086381598855e+00
-1.077579495677063e-19  6.490537467116613e-18  4.197747176890470e-01
-1.013086381598855e+00  4.197747176890470e-01  8.392075384054276e-18

 1.115646188558028e-17 -1.018238163388839e-19 -1.014022795134373e+00
-1.018238163388839e-19  7.342392002458144e-18  4.197109296277873e-01
-1.014022795134373e+00  4.197109296277873e-01  8.434326582958358e-18

 1.135274520830546e-17 -1.141052669085831e-19 -1.021874724035011e+00
-1.141052669085831e-19 -5.748460171876783e-18  4.130133849873841e-01
-1.021874724035011e+00  4.130133849873841e-01  9.004611554153890e-18

 1.122510185134426e-17 -7.046689355783451e-20 -1.017248200063492e+00
-7.046689355783451e-20  3.791770772361948e-17  4.210410034956568e-01
-1.017248200063492e+00  4.210410034956568e-01  8.589491637406815e-18

 1.118548659865092e-17 -8.963174012612768e-20 -1.015016759983531e+00
-8.963174012612768e-20  1.426984469491828e-17  4.249612481940033e-01
-1.015016759983531e+00  4.249612481940033e-01  8.377436198028099e-18

 1.125368658782464e-17 -1.504602718896595e-19 -1.017970980882399e+00
-1.504602718896595e-19 -3.248971478218339e-17  4.173073019729143e-01
-1.017970980882399e+00  4.173073019729143e-01  8.683638883537439e-18

 1.119370434992363e-17 -8.029170687612232e-20 -1.015188160133890e+00
-8.029170687612232e-20  1.235777798342426e-17  4.182750947558199e-01
-1.015188160133890e+00  4.182750947558199e-01  8.506659514589266e-18

 1.120281256329909e-17 -1.075539316593897e-19 -1.015529854666585e+00
-1.075539316593897e-19 -7.147495103661724e-18  4.184442918807150e-01
-1.015529854666585e+00  4.184442918807150e-01  8.521095753305283e-18

 1.123351783168516e-17 -1.991632970231326e-20 -1.016477640977234e+00
-1.991632970231326e-20  5.981579639878554e-17  4.187377926725665e-01
-1.016477640977234e+00  4.187377926725665e-01  8.570236511409934e-18

 1.125043365252118e-17 -7.740201715908374e-20 -1.017744990945102e+00
-7.740201715908374e-20  6.724375255149904e-18  4.180971033201394e-01
-1.017744990945102e+00  4.180971033201394e-01  8.593834821849173e-18

 1.124191141718539e-17 -4.215247022580603e-20 -1.018360971510095e+00
-4.215247022580603e-20  2.831909717007447e-17  4.201601817837655e-01
-1.018360971510095e+00  4.201601817837655e-01  8.533210093890233e-18

 1.132007377257395e-17 -8.485056170078257e-20 -1.021008345366893e+00
-8.485056170078257e-20 -5.188635681669928e-21  4.182696324288161e-01
-1.021008345366893e+00  4.182696324288161e-01  8.666670810644236e-18

 1.133136774178517e-17 -1.227704059900030e-19 -1.021740568462004e+00
-1.227704059900030e-19  1.192869473516136e-17  4.291027770537700e-01
-1.021740568462004e+00  4.291027770537700e-01  8.493139822178389e-18

 1.132345262163458e-17 -1.186644845298010e-19 -1.021777246247214e+00
-1.186644845298010e-19  1.326141207347422e-17  4.290171224126703e-01
-1.021777246247214e+00  4.290171224126703e-01  8.536310992548071e-18

 1.129089160829155e-17 -1.217088549144021e-19 -1.020565152090478e+00
-1.217088549144021e-19  1.244132107784400e-17  4.289271663976435e-01
-1.020565152090478e+00  4.289271663976435e-01  8.447977970028914e-18

 1.135701632430165e-17 -1.276056155279118e-19 -1.022571466561384e+00
-1.276056155279118e-19  1.584132411517487e-17  4.287440757272086e-01
-1.022571466561384e+00  4.287440757272086e-01  8.540075398092457e-18

 1.130621068190469e-17 -1.303637542527131e-19 -1.021112586964791e+00
-1.303637542527131e-19  1.446754105184499e-17  4.308276981089671e-01
-1.021112586964791e+00  4.308276981089671e-01  8.483652103487857e-18

 1.129048669059129e-17 -1.349537398494651e-19 -1.019749424016237e+00
-1.349537398494651e-19  1.539348495966616e-17  4.272237169152870e-01
-1.019749424016237e+00  4.272237169152870e-01  8.411289525710686e-18

 1.123296758556585e-17 -1.252919464746244e-19 -1.018052193725895e+00
-1.252919464746244e-19  1.046536911492306e-17  4.267750547634048e-01
-1.018052193725895e+00  4.267750547634048e-01  8.334654452795598e-18

 1.122502965980516e-17 -1.265920737763546e-19 -1.018151218287778e+00
-1.265920737763546e-19  1.393340009004958e-17  4.331303549628225e-01
-1.018151218287778e+00  4.331303549628225e-01  8.261657090147692e-18

 1.127057185161012e-17 -1.331372691311664e-19 -1.019769908840837e+00
-1.331372691311664e-19  1.532292365925749e-17  4.305997018449610e-01
-1.019769908840837e+00  4.305997018449610e-01  8.407641593681937e-18

 1.121853898554487e-17 -1.323165611375071e-19 -1.017443374584949e+00
-1.323165611375071e-19  1.611596947051756e-17  4.301220561279138e-01
-1.017443374584949e+00  4.301220561279138e-01  8.284038251967362e-18

 1.120044327045563e-17 -1.315614905943895e-19 -1.016508226578358e+00
-1.315614905943895e-19  1.669921626129467e-17  4.307100288537224e-01
-1.016508226578358e+00  4.307100288537224e-01  8.236455767258008e-18

 1.118863300088518e-17 -1.294827380891667e-19 -1.016336084017809e+00
-1.294827380891667e-19  1.129603498650190e-17  4.304871880606212e-01
-1.016336084017809e+00  4.304871880606212e-01  8.226477057195000e-18

 1.116997953673163e-17 -1.298734392748632e-19 -1.015527478924623e+00
-1.298734392748632e-19  1.228114644252530e-17  4.317920573503014e-01
-1.015527478924623e+00  4.317920573503014e-01  8.177921971801952e-18

 1.113466463186563e-17 -1.306628629364026e-19 -1.014077387061788e+00
-1.306628629364026e-19  1.523669962780258e-17  4.314308180637132e-01
-1.014077387061788e+00  4.314308180637132e-01  8.091187318338978e-18

 1.117997544178006e-17 -1.255358398162634e-19 -1.015828204092278e+00
-1.255358398162634e-19  1.428469163492593e-17  4.266565189169221e-01
-1.015828204092278e+00  4.266565189169221e-01  8.261860909254925e-18

 1.114844949071444e-17 -1.252329152218917e-19 -1.014142007959443e+00
-1.252329152218917e-19  1.464334326045292e-17  4.299267920490650e-01
-1.014142007959443e+00  4.299267920490650e-01  8.145843438174806e-18

 1.108914798230531e-17 -1.295940053576045e-19 -1.012263751198244e+00
-1.295940053576045e-19  1.202715598253501e-17  4.345393377529457e-01
-1.012263751198244e+00  4.345393377529457e-01  7.956031498942862e-18

 1.117048900922678e-17 -1.274002361238996e-19 -1.015645439818953e+00
-1.274002361238996e-19  1.358249126490147e-17  4.303252024403461e-01
-1.015645439818953e+00  4.303252024403461e-01  8.209345279821799e-18

 1.114064588118113e-17 -1.224284976371100e-19 -1.014157467280349e+00
-1.224284976371100e-19  1.245234947632664e-17  4.292062255363934e-01
-1.014157467280349e+00  4.292062255363934e-01  8.151448705181512e-18

 1.115394103296377e-17 -1.219231036406248e-19 -1.014632133563504e+00
-1.219231036406248e-19  1.275907325700927e-17  4.286433846764767e-01
-1.014632133563504e+00  4.286433846764767e-01  8.189857973889071e-18

 1.115550816012495e-17 -1.210536550124796e-19 -1.015367535230912e+00
-1.210536550124796e-19  1.531036803649334e-17  4.309693358985514e-01
-1.015367535230912e+00  4.309693358985514e-01  8.178007487309172e-18

 1.115094399630768e-17 -1.204934588615094e-19 -1.014974361667129e+00
-1.204934588615094e-19  1.233379622945774e-17  4.291239412354961e-01
-1.014974361667129e+00  4.291239412354961e-01  8.208282932969614e-18

 1.110433654926249e-17 -1.196708192920096e-19 -1.013184585856660e+00
-1.196708192920096e-19  1.272361384840792e-17  4.308226431617153e-01
-1.013184585856660e+00  4.308226431617153e-01  8.091433420866735e-18

 1.115406402007415e-17 -1.171256179696575e-19 -1.014859613442689e+00
-1.171256179696575e-19  1.175696142479840e-17  4.265068708224835e-01
-1.014859613442689e+00  4.265068708224835e-01  8.265795813248958e-18

 1.115191869325473e-17 -1.189836240008046e-19 -1.015243186447366e+00
-1.189836240008046e-19  1.439564690072930e-17  4.261018642211751e-01
-1.015243186447366e+00  4.261018642211751e-01  8.279817724152527e-18

 1.111491393022710e-17 -1.191960935535335e-19 -1.014043228940621e+00
-1.191960935535335e-19  1.437837964163611e-17  4.293041211741521e-01
-1.014043228940621e+00  4.293041211741521e-01  8.169723744101534e-18

 1.114041535622447e-17 -1.194193474226737e-19 -1.015540634481747e+00
-1.194193474226737e-19  1.337626702435003e-17  4.290025387180632e-01
-1.015540634481747e+00  4.290025387180632e-01  8.258631428805324e-18

 1.110953960599798e-17 -1.185358324456315e-19 -1.014718841356185e+00
-1.185358324456315e-19  1.331156701855163e-17  4.267211452771167e-01
-1.014718841356185e+00  4.267211452771167e-01  8.219132731015223e-18

 1.105559065674147e-17 -1.146186837750621e-19 -1.012545129729493e+00
-1.146186837750621e-19  1.453292936800902e-17  4.289194170582062e-01
-1.012545129729493e+00  4.289194170582062e-01  8.080675776563516e-18

 1.106820776771941e-17 -1.126463905892062e-19 -1.013198422276847e+00
-1.126463905892062e-19  1.159671203201805e-17  4.286098777697064e-01
-1.013198422276847e+00  4.286098777697064e-01  8.134887443784347e-18

 1.099872097377176e-17 -1.153840088489767e-19 -1.010364223093277e+00
-1.153840088489767e-19  1.261984401384399e-17  4.298763060540800e-01
-1.010364223093277e+00  4.298763060540800e-01  7.957059928134054e-18

 1.106957357319874e-17 -1.131741862158873e-19 -1.013355904638880e+00
-1.131741862158873e-19  1.112560589139469e-17  4.256593264475833e-01
-1.013355904638880e+00  4.256593264475833e-01  8.179053166030907e-18

 1.120517171526083e-17 -1.102177070884428e-19 -1.018454854421614e+00
-1.102177070884428e-19  1.315310462327498e-17  4.198342071465915e-01
-1.018454854421614e+00  4.198342071465915e-01  8.559311536698250e-18

 1.086907292104958e-17 -1.098361726591076e-19 -1.005122794601923e+00
-1.098361726591076e-19  1.236183678075056e-17  4.336986371983024e-01
-1.005122794601923e+00  4.336986371983024e-01  7.587127958074957e-18

 1.100979734439247e-17 -1.078662052157798e-19 -1.011725078998768e+00
-1.078662052157798e-19  1.412922797182232e-17  4.321489839647157e-01
-1.011725078998768e+00  4.321489839647157e-01  8.000621320926265e-18

 1.105477432716284e-17 -1.089411812663675e-19 -1.013750785424850e+00
-1.089411812663675e-19  1.127505775075952e-17  4.274475930760442e-01
-1.013750785424850e+00  4.274475930760442e-01  8.177883503459150e-18

 1.106058232361155e-17 -1.079441005365654e-19 -1.014231017877436e+00
-1.079441005365654e-19  1.360178026359980e-17  4.254266154071113e-01
-1.014231017877436e+00  4.254266154071113e-01  8.220292396314715e-18

 1.102808171860741e-17 -1.077421188018069e-19 -1.013131740768875e+00
-1.077421188018069e-19  1.455937920920693e-17  4.281154853488784e-01
-1.013131740768875e+00  4.281154853488784e-01  8.138732871926220e-18

 1.105252969331206e-17 -1.081627222858122e-19 -1.014331350901778e+00
-1.081627222858122e-19  1.209788697866710e-17  4.270025123384453e-01
-1.014331350901778e+00  4.270025123384453e-01  8.210793424696431e-18

 1.104309319205042e-17 -1.073317814029860e-19 -1.014959435504722e+00
-1.073317814029860e-19  1.257674703632302e-17  4.270381473858114e-01
-1.014959435504722e+00  4.270381473858114e-01  8.229490935618859e-18

 1.103614188590286e-17 -1.069807479826941e-19 -1.015657942309954e+00
-1.069807479826941e-19  1.315017307525386e-17  4.266845178751522e-01
-1.015657942309954e+00  4.266845178751522e-01  8.247157336395824e-18

 1.104899834887850e-17 -1.079117215383604e-19 -1.016673411388077e+00
-1.079117215383604e-19  1.094122146511418e-17  4.263643232220172e-01
-1.016673411388077e+00  4.263643232220172e-01  8.298837889933202e-18

 1.102773228099427e-17 -1.083941700787373e-19 -1.016275049647644e+00
-1.083941700787373e-19  1.337340860327001e-17  4.283567287405585e-01
-1.016275049647644e+00  4.283567287405585e-01  8.248900319012454e-18

 1.099658059727864e-17 -1.104811716752113e-19 -1.014978585239042e+00
-1.104811716752113e-19  1.207329278304526e-17  4.295902303485388e-01
-1.014978585239042e+00  4.295902303485388e-01  8.126001163689746e-18

 1.110782218678497e-17 -1.096600517096212e-19 -1.019441322740793e+00
-1.096600517096212e-19  1.210013714630815e-17  4.237855344285997e-01
-1.019441322740793e+00  4.237855344285997e-01  8.472452535466898e-18

 1.108096645140144e-17 -1.086002970437150e-19 -1.018845537362616e+00
-1.086002970437150e-19  1.343684286021797e-17  4.247745909330052e-01
-1.018845537362616e+00  4.247745909330052e-01  8.414124650873360e-18

 1.098687353427107e-17 -1.102937424898384e-19 -1.015903490241432e+00
-1.102937424898384e-19  1.300178759218682e-17  4.290415015662674e-01
-1.015903490241432e+00  4.290415015662674e-01  8.192293040344385e-18

 1.102797700238810e-17 -1.119874276723571e-19 -1.017904021947760e+00
-1.119874276723571e-19  1.187563291438319e-17  4.278494034295038e-01
-1.017904021947760e+00  4.278494034295038e-01  8.313774830489849e-18

 1.100181656161692e-17 -1.120306707562385e-19 -1.017050757673166e+00
-1.120306707562385e-19  1.234635570510359e-17  4.269157026429444e-01
-1.017050757673166e+00  4.269157026429444e-01  8.302377719582424e-18

 1.098306608372973e-17 -1.142865454869389e-19 -1.016629063233840e+00
-1.142865454869389e-19  1.248293856935564e-17  4.271496991500435e-01
-1.016629063233840e+00  4.271496991500435e-01  8.265421445058402e-18

 1.095089376011814e-17 -1.138467285703407e-19 -1.016381584820145e+00
-1.138467285703407e-19  1.406774520473918e-17  4.274678455923436e-01
-1.016381584820145e+00  4.274678455923436e-01  8.229787250303061e-18

 1.092494763793016e-17 -1.177259087295979e-19 -1.016393666243394e+00
-1.177259087295979e-19  1.340196681948564e-17  4.272737102921634e-01
-1.016393666243394e+00  4.272737102921634e-01  8.172236599276321e-18

 1.109749190759952e-17 -1.220959774027273e-19 -1.023948590751831e+00
-1.220959774027273e-19  1.353827164824827e-17  4.180559692756803e-01
-1.023948590751831e+00  4.180559692756803e-01  8.743136104658953e-18

 1.125086858697786e-17 -1.297566456890632e-19 -1.031000752495342e+00
-1.297566456890632e-19  1.199723227755316e-17  4.337649877330143e-01
-1.031000752495342e+00  4.337649877330143e-01  9.026945188873061e-18

 9.356219352753094e-18 -1.613518990276132e-19 -9.543577699304199e-01
-1.613518990276132e-19  7.670227828811490e-18  5.064556377253903e-01
-9.543577699304199e-01  5.064556377253903e-01  3.303084248057034e-18

 1.065472599871302e-17 -1.152712712490370e-19 -1.006669004467429e+00
-1.152712712490370e-19  1.411643885004536e-17  4.387510474812636e-01
-1.006669004467429e+00  4.387510474812636e-01  7.427037912829946e-18

 1.254755386692230e-17 -7.244059527965624e-20 -1.084232875952249e+00
-7.244059527965624e-20  1.481849390009655e-17  3.496827028785428e-01
-1.084232875952249e+00  3.496827028785428e-01  1.333018159495605e-17

 1.103943943065309e-17 -1.061348321732178e-19 -1.022123144557805e+00
-1.061348321732178e-19  1.444701259357070e-17  4.038073530573817e-01
-1.022123144557805e+00  4.038073530573817e-01  8.790905297115540e-18

 1.049835495041178e-17 -1.040196938531821e-19 -1.001277366261442e+00
-1.040196938531821e-19  1.336916302227095e-17  4.441978449171437e-01
-1.001277366261442e+00  4.441978449171437e-01  6.990318418833727e-18

 1.084669202148826e-17 -1.215290435332585e-19 -1.015563375742673e+00
-1.215290435332585e-19  1.352538697463705e-17  4.418495780832736e-01
-1.015563375742673e+00  4.418495780832736e-01  8.042458219462118e-18

 1.097927903225959e-17 -1.128768546260198e-19 -1.020600170494097e+00
-1.128768546260198e-19  1.332829760587718e-17  4.218733045613008e-01
-1.020600170494097e+00  4.218733045613008e-01  8.598109150202801e-18

 1.096777664867465e-17 -1.118002726766178e-19 -1.020224744004768e+00
-1.118002726766178e-19  1.260605914277358e-17  4.116956370033014e-01
-1.020224744004768e+00  4.116956370033014e-01  8.690290741922721e-18

 1.071320394566985e-17 -1.190554931885133e-19 -1.010156634454732e+00
-1.190554931885133e-19  1.156692962846155e-17  4.290725083603782e-01
-1.010156634454732e+00  4.290725083603782e-01  7.889683527556642e-18

 1.080233035614009e-17 -1.181136961660857e-19 -1.015059980320654e+00
-1.181136961660857e-19  1.298888073827601e-17  4.284476336883914e-01
-1.015059980320654e+00  4.284476336883914e-01  8.193924781763414e-18

 1.081300107669994e-17 -1.197757028014716e-19 -1.015975192103042e+00
-1.197757028014716e-19  1.323314717816206e-17  4.267515357823943e-01
-1.015975192103042e+00  4.267515357823943e-01  8.249977672205517e-18

 1.078354675701783e-17 -1.195677132805876e-19 -1.016096631064663e+00
-1.195677132805876e-19  1.293679226334903e-17  4.267733732278460e-01
-1.016096631064663e+00  4.267733732278460e-01  8.238496075244693e-18

 1.075350548823389e-17 -1.203704557305437e-19 -1.015479743427053e+00
-1.203704557305437e-19  1.218637283421682e-17  4.266276172131905e-01
-1.015479743427053e+00  4.266276172131905e-01  8.215394824597890e-18

 1.073682877721342e-17 -1.225724285885987e-19 -1.015203944483973e+00
-1.225724285885987e-19  1.278676140473585e-17  4.265309337502695e-01
-1.015203944483973e+00  4.265309337502695e-01  8.195719751389986e-18

 1.070683559967638e-17 -1.223234278379942e-19 -1.015315811332304e+00
-1.223234278379942e-19  1.359432141392308e-17  4.266289425463123e-01
-1.015315811332304e+00  4.266289425463123e-01  8.186363333253132e-18

 1.069602730357524e-17 -1.224157984695524e-19 -1.015541390133523e+00
-1.224157984695524e-19  1.266353409248453e-17  4.266154581502529e-01
-1.015541390133523e+00  4.266154581502529e-01  8.190023843973014e-18

 1.066783550167275e-17 -1.213886759196609e-19 -1.014784101656059e+00
-1.213886759196609e-19  1.072433871765449e-17  4.262478244420195e-01
-1.014784101656059e+00  4.262478244420195e-01  8.179164766539333e-18

 1.065707461581360e-17 -1.227215484644956e-19 -1.014713673663011e+00
-1.227215484644956e-19  1.062830807446929e-17  4.262812926387766e-01
-1.014713673663011e+00  4.262812926387766e-01  8.177834662400184e-18

 1.061934564384209e-17 -1.225632317449000e-19 -1.014512638837983e+00
-1.225632317449000e-19  1.007966180989130e-17  4.260953352307800e-01
-1.014512638837983e+00  4.260953352307800e-01  8.166620597221478e-18

 1.060444821758544e-17 -1.237746174783703e-19 -1.014949412671079e+00
-1.237746174783703e-19  1.184371500052278e-17  4.261993628436778e-01
-1.014949412671079e+00  4.261993628436778e-01  8.172428885419167e-18

 1.056865281995474e-17 -1.239384691217872e-19 -1.014254771118891e+00
-1.239384691217872e-19  1.309419322017741e-17  4.260689125785244e-01
-1.014254771118891e+00  4.260689125785244e-01  8.155451296985138e-18

 1.054164970247791e-17 -1.252563367270961e-19 -1.014640341218197e+00
-1.252563367270961e-19  1.235755815217930e-17  4.261187393829744e-01
-1.014640341218197e+00  4.261187393829744e-01  8.159338036551899e-18

 1.052015932946279e-17 -1.248751707330735e-19 -1.014632028932674e+00
-1.248751707330735e-19  1.277785406271044e-17  4.261962737563044e-01
-1.014632028932674e+00  4.261962737563044e-01  8.156149542045629e-18

 1.050001647224342e-17 -1.231141189358271e-19 -1.014748518375391e+00
-1.231141189358271e-19  1.276871476827421e-17  4.259413303349382e-01
-1.014748518375391e+00  4.259413303349382e-01  8.160361561003803e-18

 1.048550548597088e-17 -1.298836105624857e-19 -1.014946189489133e+00
-1.298836105624857e-19  1.122098084060511e-17  4.262014896777311e-01
-1.014946189489133e+00  4.262014896777311e-01  8.159566632605117e-18

 1.045308417426827e-17 -1.271532747767638e-19 -1.014449237966987e+00
-1.271532747767638e-19  1.401459723828219e-17  4.259155152405411e-01
-1.014449237966987e+00  4.259155152405411e-01  8.152017255442367e-18

 1.043798104005562e-17 -1.297930807897440e-19 -1.014574617480871e+00
-1.297930807897440e-19  1.428952294370796e-17  4.257976663951949e-01
-1.014574617480871e+00  4.257976663951949e-01  8.149392001458499e-18

 1.039910044672141e-17 -1.309554268158959e-19 -1.015021638869512e+00
-1.309554268158959e-19  1.391707420534090e-17  4.259323524417347e-01
-1.015021638869512e+00  4.259323524417347e-01  8.158231691930533e-18

 1.038569351008028e-17 -1.305726017595392e-19 -1.016400694098390e+00
-1.305726017595392e-19  1.262231118880705e-17  4.260017475539341e-01
-1.016400694098390e+00  4.260017475539341e-01  8.211683975948900e-18

 1.031678193926367e-17 -1.365441080939909e-19 -1.014675492181819e+00
-1.365441080939909e-19  1.053915167997791e-17  4.288559701699396e-01
-1.014675492181819e+00  4.288559701699396e-01  8.060792866184819e-18

 1.029467338655592e-17 -1.373562902667672e-19 -1.014722933478615e+00
-1.373562902667672e-19  1.340436289345395e-17  4.248870483810963e-01
-1.014722933478615e+00  4.248870483810963e-01  8.090505666473822e-18

 1.057456551152310e-17 -1.386270751401630e-19 -1.026965786986955e+00
-1.386270751401630e-19  1.382937957026356e-17  4.146051561489953e-01
-1.026965786986955e+00  4.146051561489953e-01  8.958241485625219e-18

 1.019169709494202e-17 -1.323164887466293e-19 -1.012066264476617e+00
-1.323164887466293e-19  1.251681935065755e-17  4.327129111486755e-01
-1.012066264476617e+00  4.327129111486755e-01  7.822231029086339e-18

 1.010532265098489e-17 -1.392476939538388e-19 -1.009870879056558e+00
-1.392476939538388e-19  1.126775082259932e-17  4.397207941622781e-01
-1.009870879056558e+00  4.397207941622781e-01  7.558820656914797e-18

 1.036196126272702e-17 -1.345923653980552e-19 -1.020984914945412e+00
-1.345923653980552e-19  1.201750137156713e-17  4.231571033555260e-01
-1.020984914945412e+00  4.231571033555260e-01  8.449027425637255e-18

 1.027013852776395e-17 -1.361866448284347e-19 -1.018012049676917e+00
-1.361866448284347e-19  1.237553684739212e-17  4.234154586274544e-01
-1.018012049676917e+00  4.234154586274544e-01  8.255183787948664e-18

 1.017116451114515e-17 -1.374544281624527e-19 -1.015092345611949e+00
-1.374544281624527e-19  1.242635104922017e-17  4.280564672601768e-01
-1.015092345611949e+00  4.280564672601768e-01  8.053935229307932e-18

 1.014969139286779e-17 -1.391465282139191e-19 -1.015107349257723e+00
-1.391465282139191e-19  1.176662268419187e-17  4.265336613488546e-01
-1.015107349257723e+00  4.265336613488546e-01  8.066985923358047e-18

 1.011009071424712e-17 -1.433138254425972e-19 -1.016324164989344e+00
-1.433138254425972e-19  1.042063983960592e-17  4.275199222800422e-01
-1.016324164989344e+00  4.275199222800422e-01  8.091658535773989e-18

 1.020821700503132e-17 -1.447635640576620e-19 -1.023418767519123e+00
-1.447635640576620e-19  1.178119279773180e-17  4.240809101946547e-01
-1.023418767519123e+00  4.240809101946547e-01  8.484864125459307e-18

 1.011123365814115e-17 -1.426973050278781e-19 -1.021017593313045e+00
-1.426973050278781e-19  1.149061257078510e-17  4.342339472803335e-01
-1.021017593313045e+00  4.342339472803335e-01  8.188576964367777e-18

 9.948670037730834e-18 -1.564375908118518e-19 -1.015341322309449e+00
-1.564375908118518e-19  1.300465009940499e-17  4.395508070777190e-01
-1.015341322309449e+00  4.395508070777190e-01  7.846829067105582e-18

 9.067323256576915e-18 -2.471913354627275e-19 -9.774815207451727e-01
-2.471913354627275e-19  1.279706061586438e-17  4.451382223163164e-01
-9.774815207451727e-01  4.451382223163164e-01  5.459223501107009e-18

 1.340934739038561e-17 -7.649555295391872e-19 -1.144112517386745e+00
-7.649555295391872e-19  1.886701298154066e-17  2.671313695689655e-01
-1.144112517386745e+00  2.671313695689655e-01  1.833488864240091e-17

 9.391158310477691e-18  1.917977956435787e-21 -1.005214776837930e+00
 1.917977956435787e-21  1.370864519721972e-17  4.931051969718953e-01
-1.005214776837930e+00  4.931051969718953e-01  5.986554071656152e-18

 8.962542842629514e-18  2.995876151859532e-20 -9.944696222411820e-01
 2.995876151859532e-20  4.556148870799591e-18  5.718664533351293e-01
-9.944696222411820e-01  5.718664533351293e-01  4.481057202353178e-18

 1.036065140650519e-17  2.737877726752926e-20 -1.044223568561846e+00
 2.737877726752926e-20  1.300737396389162e-17  3.752754336338825e-01
-1.044223568561846e+00  3.752754336338825e-01  9.626691240334418e-18

 9.385606138096727e-18 -1.330248157865779e-19 -9.993613208152847e-01
-1.330248157865779e-19  1.097725376487802e-17  4.279423633685259e-01
-9.993613208152847e-01  4.279423633685259e-01  6.915053581985265e-18

 9.490384835340371e-18 -1.410266837654869e-19 -1.005445878496384e+00
-1.410266837654869e-19  1.136613559716795e-17  4.297648542655822e-01
-1.005445878496384e+00  4.297648542655822e-01  7.417154634307469e-18

 9.635692593413322e-18 -1.400046720951140e-19 -1.015524571414954e+00
-1.400046720951140e-19  1.116591577901180e-17  4.262032002522083e-01
-1.015524571414954e+00  4.262032002522083e-01  8.041335713112677e-18

 9.540605886820729e-18 -1.443793621923078e-19 -1.015844484367084e+00
-1.443793621923078e-19  1.101821940701314e-17  4.247324723751203e-01
-1.015844484367084e+00  4.247324723751203e-01  8.044298845138076e-18

 9.447362848789833e-18 -1.469856861676060e-19 -1.015360292476656e+00
-1.469856861676060e-19  1.163854049040432e-17  4.232758200376960e-01
-1.015360292476656e+00  4.232758200376960e-01  7.996851142744806e-18

 9.394163161718017e-18 -1.500268844212368e-19 -1.015103680066558e+00
-1.500268844212368e-19  1.080414936946222e-17  4.257398930268339e-01
-1.015103680066558e+00  4.257398930268339e-01  7.950498813253928e-18

 9.342882105468431e-18 -1.497238120575913e-19 -1.015378541038337e+00
-1.497238120575913e-19  1.087569322383904e-17  4.253762399561339e-01
-1.015378541038337e+00  4.253762399561339e-01  7.982616866110112e-18

 9.267989869167087e-18 -1.528779688808845e-19 -1.014354734563047e+00
-1.528779688808845e-19  1.076134771054299e-17  4.243205426393201e-01
-1.014354734563047e+00  4.243205426393201e-01  7.915910698673500e-18

 9.168735736726531e-18 -1.522573216138031e-19 -1.013725524577128e+00
-1.522573216138031e-19  1.062893808672904e-17  4.246220407492881e-01
-1.013725524577128e+00  4.246220407492881e-01  7.851084847135287e-18

 9.109872060559182e-18 -1.556133912160680e-19 -1.014016686473588e+00
-1.556133912160680e-19  1.014664051725262e-17  4.245970810294840e-01
-1.014016686473588e+00  4.245970810294840e-01  7.844520597216748e-18

 9.040241086274638e-18 -1.566140025604865e-19 -1.014179457705860e+00
-1.566140025604865e-19  9.530108427269144e-18  4.243804019438995e-01
-1.014179457705860e+00  4.243804019438995e-01  7.858594663885737e-18

 8.985584430160791e-18 -1.588400740743498e-19 -1.014955912324852e+00
-1.588400740743498e-19  9.261615235868293e-18  4.254541147548076e-01
-1.014955912324852e+00  4.254541147548076e-01  7.866923898701565e-18

 8.886856127757218e-18 -1.579297826483165e-19 -1.014621973653826e+00
-1.579297826483165e-19  9.875708033059872e-18  4.252364004904368e-01
-1.014621973653826e+00  4.252364004904368e-01  7.806097527684091e-18

 8.739820836661759e-18 -1.608441696693867e-19 -1.012358569886020e+00
-1.608441696693867e-19  1.081550338139755e-17  4.242294533491900e-01
-1.012358569886020e+00  4.242294533491900e-01  7.676389465322989e-18

 8.685970251725953e-18 -1.645191935661164e-19 -1.014558149921369e+00
-1.645191935661164e-19  9.406642496408462e-18  4.243767492574615e-01
-1.014558149921369e+00  4.243767492574615e-01  7.747756599953889e-18

 8.609574688968988e-18 -1.635606437632569e-19 -1.015267344304857e+00
-1.635606437632569e-19  9.554970194838681e-18  4.247936364208884e-01
-1.015267344304857e+00  4.247936364208884e-01  7.780410296258816e-18

 8.523474830793586e-18 -1.667740424411628e-19 -1.015796588979709e+00
-1.667740424411628e-19  9.024493088351690e-18  4.254480178923284e-01
-1.015796588979709e+00  4.254480178923284e-01  7.749989183696727e-18

 8.414534176828191e-18 -1.654169968804884e-19 -1.015040687885524e+00
-1.654169968804884e-19  8.903499922720749e-18  4.239147270155543e-01
-1.015040687885524e+00  4.239147270155543e-01  7.718376994695330e-18

 8.281634259586761e-18 -1.676033682553289e-19 -1.014393934225577e+00
-1.676033682553289e-19  1.107813985543444e-17  4.240720357721275e-01
-1.014393934225577e+00  4.240720357721275e-01  7.649857393461792e-18

 8.155609967521083e-18 -1.686306171628653e-19 -1.014274355747901e+00
-1.686306171628653e-19  1.044616824471951e-17  4.243366964332195e-01
-1.014274355747901e+00  4.243366964332195e-01  7.608839368636176e-18

 7.988723999987962e-18 -1.704815382836210e-19 -1.014375989142663e+00
-1.704815382836210e-19  8.340098322950091e-18  4.239052217506342e-01
-1.014375989142663e+00  4.239052217506342e-01  7.577212769970605e-18

 7.812247517207347e-18 -1.719752804593052e-19 -1.015493015864169e+00
-1.719752804593052e-19  7.652744776043594e-18  4.238685297200316e-01
-1.015493015864169e+00  4.238685297200316e-01  7.593604073336891e-18

 7.692566356090512e-18 -1.756991215449311e-19 -1.014901168584681e+00
-1.756991215449311e-19  9.280126846617241e-18  4.262677465026152e-01
-1.014901168584681e+00  4.262677465026152e-01  7.473844514516184e-18

 7.518320552756687e-18 -1.734880908078382e-19 -1.013402921210471e+00
-1.734880908078382e-19  9.239766195532648e-18  4.251371743364827e-01
-1.013402921210471e+00  4.251371743364827e-01  7.426779218958785e-18

 7.290492972943310e-18 -1.754552468125868e-19 -1.009802890714008e+00
-1.754552468125868e-19  9.060947138517321e-18  4.253290071576263e-01
-1.009802890714008e+00  4.253290071576263e-01  7.187411992768299e-18

 6.906070758656439e-18 -1.755688050147854e-19 -1.004693266002006e+00
-1.755688050147854e-19  6.983305142012137e-18  4.284755091562057e-01
-1.004693266002006e+00  4.284755091562057e-01  6.809274430000340e-18

 6.378886098533747e-18 -1.839541859145222e-19 -9.942464405024721e-01
-1.839541859145222e-19  7.504412829393599e-18  4.272317339636026e-01
-9.942464405024721e-01  4.272317339636026e-01  6.002025120433356e-18

 6.576769717726305e-18 -2.106280537044648e-19 -1.019026578091446e+00
-2.106280537044648e-19  8.201263347414023e-18  4.155539972195204e-01
-1.019026578091446e+00  4.155539972195204e-01  7.254987830872183e-18

 7.323474343926046e-18 -1.628665299582707e-19 -1.066756779880140e+00
-1.628665299582707e-19  7.805637242353693e-18  4.313522673081862e-01
-1.066756779880140e+00  4.313522673081862e-01  9.582886359280038e-18

 6.668814154760911e-18 -2.129996878334043e-19 -1.050942617774768e+00
-2.129996878334043e-19  6.716066592000536e-18  4.243997737276055e-01
-1.050942617774768e+00  4.243997737276055e-01  8.721732081533526e-18

 6.028794679519271e-18 -1.393094538191830e-19 -1.031259109999856e+00
-1.393094538191830e-19  1.150661224840913e-17  3.894755314652669e-01
-1.031259109999856e+00  3.894755314652669e-01  7.925394209107452e-18

 5.079877546779388e-18 -1.835271678828806e-19 -1.000437112393731e+00
-1.835271678828806e-19  7.139148352851981e-18  4.268758660043625e-01
-1.000437112393731e+00  4.268758660043625e-01  5.793088725876062e-18

 4.881450780010133e-18 -1.898011810343453e-19 -1.001064989471405e+00
-1.898011810343453e-19  7.911606281599662e-18  4.358984563004322e-01
-1.001064989471405e+00  4.358984563004322e-01  5.765342188532270e-18

 4.817582573771897e-18 -1.922959387413964e-19 -1.007720114061290e+00
-1.922959387413964e-19  5.644370487439899e-18  4.275573519692668e-01
-1.007720114061290e+00  4.275573519692668e-01  6.212711508751268e-18

 4.412476727103763e-18 -1.936580817639065e-19 -1.007902751592459e+00
-1.936580817639065e-19  6.008112850940469e-18  4.256495899229639e-01
-1.007902751592459e+00  4.256495899229639e-01  6.081188796984956e-18

 4.135709251326785e-18 -1.969146891374411e-19 -1.016713605566866e+00
-1.969146891374411e-19  6.072525463898625e-18  4.225344177126154e-01
-1.016713605566866e+00  4.225344177126154e-01  6.427375317048282e-18

 3.961783038662258e-18 -1.993841726024948e-19 -1.029052234484883e+00
-1.993841726024948e-19  5.770040564335232e-18  4.248757113979694e-01
-1.029052234484883e+00  4.248757113979694e-01  6.931204392035481e-18

 3.321818242431654e-18 -2.150827816706022e-19 -1.026576860344454e+00
-2.150827816706022e-19  5.839491427962368e-18  4.320170003101126e-01
-1.026576860344454e+00  4.320170003101126e-01  6.606881984645689e-18

 2.449653041999426e-18 -1.759499757897210e-19 -1.010137328977196e+00
-1.759499757897210e-19  5.571591819011796e-18  4.090845293685065e-01
-1.010137328977196e+00  4.090845293685065e-01  5.698463930825907e-18

 1.673931342328327e-18 -1.941814207503032e-19 -9.991763798031000e-01
-1.941814207503032e-19  5.696724878451341e-18  4.170948248045704e-01
-9.991763798031000e-01  4.170948248045704e-01  4.818039330465027e-18

 1.343261785604645e-18 -1.975730606718856e-19 -1.016897837121550e+00
-1.975730606718856e-19  5.008209383976031e-18  4.329873505987778e-01
-1.016897837121550e+00  4.329873505987778e-01  5.446141609199289e-18

 7.717515440294121e-19 -2.060570403840027e-19 -1.020635307861593e+00
-2.060570403840027e-19  2.444510932471588e-18  4.246956681573248e-01
-1.020635307861593e+00  4.246956681573248e-01  5.477406235820259e-18

-3.123494652933986e-19 -2.057385887384505e-19 -1.016145210271732e+00
-2.057385887384505e-19  4.090668095398105e-18  4.231139387910928e-01
-1.016145210271732e+00  4.231139387910928e-01  4.876818468190259e-18

-1.046113519839679e-18 -2.068665738927637e-19 -1.015438161648875e+00
-2.068665738927637e-19  1.347249961820357e-18  4.234993567364900e-01
-1.015438161648875e+00  4.234993567364900e-01  4.596939684010238e-18

-1.906367467290715e-18 -2.090570725145815e-19 -1.015119930650991e+00
-2.090570725145815e-19  8.710618693243662e-19  4.245162621887354e-01
-1.015119930650991e+00  4.245162621887354e-01  4.270070883712041e-18

-2.925623635536082e-18 -2.111237977746340e-19 -1.015888937170807e+00
-2.111237977746340e-19  1.284127514578766e-18  4.249877506559706e-01
-1.015888937170807e+00  4.249877506559706e-01  3.910021325534520e-18

-3.874371758692227e-18 -2.159263200278960e-19 -1.014415990528958e+00
-2.159263200278960e-19  1.197733860509205e-18  4.246461600980803e-01
-1.014415990528958e+00  4.246461600980803e-01  3.562583675963005e-18

-5.130304566354821e-18 -2.238494820855888e-19 -1.014621518689363e+00
-2.238494820855888e-19  5.904644885815738e-19  4.235597031856317e-01
-1.014621518689363e+00  4.235597031856317e-01  3.130484624769487e-18

-6.405558701347797e-18 -2.308663379301127e-19 -1.014595073604782e+00
-2.308663379301127e-19 -1.332744282049047e-18  4.262920754825936e-01
-1.014595073604782e+00  4.262920754825936e-01  2.644247820911440e-18

-7.843029204011689e-18 -2.445296902589532e-19 -1.015226880941151e+00
-2.445296902589532e-19 -2.144597586654644e-18  4.235577861190524e-01
-1.015226880941151e+00  4.235577861190524e-01  2.206770708412490e-18

-9.339926116531447e-18 -2.605977233538310e-19 -1.011569691891512e+00
-2.605977233538310e-19 -1.794790366357887e-18  4.278619218293727e-01
-1.011569691891512e+00  4.278619218293727e-01  1.413219909834278e-18

-1.039907023604899e-17 -2.683438716775475e-19 -1.012861226506599e+00
-2.683438716775475e-19 -7.904855606023883e-19  4.260831378101229e-01
-1.012861226506599e+00  4.260831378101229e-01  1.116428987654285e-18

-1.243025302051347e-17 -3.010121914865612e-19 -1.014134555580599e+00
-3.010121914865612e-19 -3.499427903125758e-18  4.262494054003441e-01
-1.014134555580599e+00  4.262494054003441e-01  4.855056713532890e-19

-1.448210080818381e-17 -3.313513028715564e-19 -1.017925977633116e+00
-3.313513028715564e-19 -6.072409386229560e-18  4.223862499717502e-01
-1.017925977633116e+00  4.223862499717502e-01 -5.553135175341893e-20

-1.674283547434575e-17 -3.805958345197407e-19 -1.015705929195645e+00
-3.805958345197407e-19 -3.187559840917773e-18  4.260352910079914e-01
-1.015705929195645e+00  4.260352910079914e-01 -9.803653443221469e-19

-1.973612536436757e-17 -4.433575104416562e-19 -1.012678732333201e+00
-4.433575104416562e-19 -4.959399142038333e-18  4.258391484827401e-01
-1.012678732333201e+00  4.258391484827401e-01 -2.220735422382387e-18

-2.344873157873205e-17 -5.478617686840937e-19 -1.008849995058861e+00
-5.478617686840937e-19 -7.210629610132978e-18  4.260861338576368e-01
-1.008849995058861e+00  4.260861338576368e-01 -3.783101217908553e-18

-2.583582165167920e-17 -6.352621302052340e-19 -1.017449675635479e+00
-6.352621302052340e-19 -8.662610395609744e-18  4.227945924208840e-01
-1.017449675635479e+00  4.227945924208840e-01 -4.139513319208463e-18

-2.870757181705741e-17 -7.658293298301517e-19 -1.023246874915529e+00
-7.658293298301517e-19 -7.740218772451301e-18  4.245311103255435e-01
-1.023246874915529e+00  4.245311103255435e-01 -4.904643131878198e-18

-3.481477388808008e-17 -1.026810700784579e-18 -1.017010879997125e+00
-1.026810700784579e-18 -8.479964457532091e-18  4.243831215257998e-01
-1.017010879997125e+00  4.243831215257998e-01 -7.467049695704065e-18

-4.240008003060339e-17 -1.453989414339053e-18 -1.017718154869434e+00
-1.453989414339053e-18 -1.285387286633142e-17  4.241072435603238e-01
-1.017718154869434e+00  4.241072435603238e-01 -1.015866885502116e-17

-5.268969567630503e-17 -2.181128123529397e-18 -1.022149680319542e+00
-2.181128123529397e-18 -1.378310340604011e-17  4.227191487784051e-01
-1.022149680319542e+00  4.227191487784051e-01 -1.359574320488853e-17

-6.055754328500298e-17 -2.769589835872999e-18 -1.008964003053382e+00
-2.769589835872999e-18 -1.486585203360864e-17  4.308756044865265e-01
-1.008964003053382e+00  4.308756044865265e-01 -1.719589175084725e-17

-6.821008383715821e-17 -3.489461801508526e-18 -1.005887164285897e+00
-3.489461801508526e-18 -1.638304092566940e-17  4.293264165558632e-01
-1.005887164285897e+00  4.293264165558632e-01 -2.010916503927867e-17

-8.240276681488628e-17 -5.055820289693233e-18 -1.011541436077969e+00
-5.055820289693233e-18 -1.678759796049570e-17  4.280382492785967e-01
-1.011541436077969e+00  4.280382492785967e-01 -2.492001739351015e-17

-9.814121384714846e-17 -7.088153868244641e-18 -1.011922021722987e+00
-7.088153868244641e-18 -1.624296195479453e-17  4.292013847638662e-01
-1.011922021722987e+00  4.292013847638662e-01 -3.067806744174547e-17

-1.079933273521653e-16 -1.253555694027969e-17 -1.015091369030841e+00
-1.253555694027969e-17  2.186927275757563e-18  4.231584120317118e-01
-1.015091369030841e+00  4.231584120317118e-01 -4.317702222251667e-17

-1.503770311424382e-16 -2.236618140535211e-17 -1.017845389775790e+00
-2.236618140535211e-17  8.915756039442957e-18  4.211409257079898e-01
-1.017845389775790e+00  4.211409257079898e-01 -6.025417749069440e-17

-2.072224062489587e-16 -2.951708849434543e-17 -1.014793682605525e+00
-2.951708849434543e-17 -7.074226625494730e-18  4.221045839864798e-01
-1.014793682605525e+00  4.221045839864798e-01 -7.086644150792293e-17

-2.626176988232945e-16 -4.589863132717313e-17 -1.008402608634627e+00
-4.589863132717313e-17  5.749550074628503e-18  4.275386912552444e-01
-1.008402608634627e+00  4.275386912552444e-01 -9.226088910153447e-17

-3.566042631346210e-16 -8.011737105916136e-17 -1.004544987920890e+00
-8.011737105916136e-17  6.516166170877263e-17  4.236746931123493e-01
-1.004544987920890e+00  4.236746931123493e-01 -1.375576504667415e-16

-4.270654049287788e-16 -1.119961474837971e-16 -1.006292536460127e+00
-1.119961474837971e-16  5.559264432170458e-17  4.293463733206080e-01
-1.006292536460127e+00  4.293463733206080e-01 -1.572647516578040e-16

-4.898335652872840e-16 -1.450897889633697e-16 -1.014106161486241e+00
-1.450897889633697e-16  8.467149319457412e-17  4.261047062671124e-01
-1.014106161486241e+00  4.261047062671124e-01 -1.830587986506742e-16

-6.378659448418697e-16 -2.314501698423509e-16 -1.015521224664984e+00
-2.314501698423509e-16  1.492244889796719e-16  4.250717585824773e-01
-1.015521224664984e+00  4.250717585824773e-01 -2.459871624070602e-16

-8.791276378074262e-16 -4.141792135341800e-16 -1.013923817786661e+00
-4.141792135341800e-16  2.723860580824931e-16  4.225232400699024e-01
-1.013923817786661e+00  4.225232400699024e-01 -3.573249089201115e-16

-1.131519030767366e-15 -6.864433531327249e-16 -1.014106415965305e+00
-6.864433531327249e-16  4.922582442047483e-16  4.241332198639135e-01
-1.014106415965305e+00  4.241332198639135e-01 -5.114466518068985e-16

-1.576990400529192e-15 -1.214435501654593e-15 -1.013684341373216e+00
-1.214435501654593e-15  6.740290825793874e-16  4.241957974099705e-01
-1.013684341373216e+00  4.241957974099705e-01 -7.470358683916704e-16

-1.956185537143427e-15 -1.832946095444028e-15 -1.013490982732990e+00
-1.832946095444028e-15  8.743666948660731e-16  4.222101452297721e-01
-1.013490982732990e+00  4.222101452297721e-01 -1.014326776471117e-15

-2.543392091211420e-15 -3.038263037667633e-15 -1.011355789574971e+00
-3.038263037667633e-15  1.100799727414283e-15  4.239311975672598e-01
-1.011355789574971e+00  4.239311975672598e-01 -1.522074495804310e-15

-4.103036125163585e-15 -6.741541043445255e-15 -1.011692698872849e+00
-6.741541043445255e-15  8.498842818609787e-16  4.235302473860004e-01
-1.011692698872849e+00  4.235302473860004e-01 -3.274682983287187e-15

-8.362907161906130e-15 -1.169035233754776e-14 -1.012498070609929e+00
-1.169035233754776e-14 -9.659096877132459e-16  4.236895298398531e-01
-1.012498070609929e+00  4.236895298398531e-01 -7.288271510496457e-15

-1.035173105432656e-14 -7.670165355865855e-15 -1.012540414797275e+00
-7.670165355865855e-15  8.594730351493314e-15  4.231887428134168e-01
-1.012540414797275e+00  4.231887428134168e-01 -1.266606501500894e-14

 1.196303566697542e-13  3.253954128654198e-14 -1.012490264739760e+00
 3.253954128654198e-14  7.460126694244811e-14  4.228448628197451e-01
-1.012490264739760e+00  4.228448628197451e-01  2.817738622996787e-14

-6.183375214931589e-13 -1.392567884796853e-13 -1.012370811718017e+00
-1.392567884796853e-13 -3.043367325175466e-13  4.232377842036155e-01
-1.012370811718017e+00  4.232377842036155e-01 -1.522492426434737e-13

-1.174869722741099e-14  1.667523806608128e-14 -1.014268055786536e+00
 1.667523806608128e-14  1.846996945179470e-14  4.269841039782764e-01
-1.014268055786536e+00  4.269841039782764e-01 -1.016783893000350e-14

-6.515511045691414e-13 -1.386937597295172e-13 -1.013367905422021e+00
-1.386937597295172e-13 -3.093085504159028e-13  4.263399185112827e-01
-1.013367905422021e+00  4.263399185112827e-01 -1.661349327423919e-13

-1.573537193613476e-14 -3.697580375673932e-17 -1.015050113551204e+00
-3.697580375673932e-17 -4.263016399477535e-15  4.257614244093482e-01
-1.015050113551204e+00  4.257614244093482e-01 -6.753260532355029e-15

-9.436915528290520e-15 -9.639165522499547e-16 -1.012523292267456e+00
-9.639165522499547e-16 -3.358208087240265e-15  4.292664614836458e-01
-1.012523292267456e+00  4.292664614836458e-01 -3.653937069878616e-15

-6.934038104633373e-15 -1.211185330971116e-15 -1.012544856597712e+00
-1.211185330971116e-15 -2.806811665168380e-15  4.278530392908872e-01
-1.012544856597712e+00  4.278530392908872e-01 -2.486152659013106e-15

-4.235934654206878e-15 -1.198804137426550e-15 -1.013064103875467e+00
-1.198804137426550e-15 -2.164753585772308e-15  4.268656664886534e-01
-1.013064103875467e+00  4.268656664886534e-01 -1.385663969880379e-15

-2.897224432244945e-15 -1.029828491234068e-15 -1.016297975259605e+00
-1.029828491234068e-15 -1.795952390400407e-15  4.241636584422915e-01
-1.016297975259605e+00  4.241636584422915e-01 -9.067338046465893e-16

-2.184098354843513e-15 -8.799814025328826e-16 -1.017858054123019e+00
-8.799814025328826e-16 -1.574349986982691e-15  4.247626927898244e-01
-1.017858054123019e+00  4.247626927898244e-01 -6.966182764944356e-16

-1.320638390882758e-15 -6.149086143477238e-16 -1.014109325604679e+00
-6.149086143477238e-16 -1.170338129300183e-15  4.262593826307021e-01
-1.014109325604679e+00  4.262593826307021e-01 -4.000417167276756e-16

-7.850588586610618e-16 -3.924705498768483e-16 -1.014571938952950e+00
-3.924705498768483e-16 -8.113908895349071e-16  4.277707676000520e-01
-1.014571938952950e+00  4.277707676000520e-01 -2.533433589367337e-16

-5.777710887300828e-16 -2.966762106564030e-16 -1.014706218729393e+00
-2.966762106564030e-16 -6.846472606656758e-16  4.268923255453800e-01
-1.014706218729393e+00  4.268923255453800e-01 -1.774249374377893e-16

-4.005658328993527e-16 -2.060816388114913e-16 -1.015169875019947e+00
-2.060816388114913e-16 -5.168242344095767e-16  4.267778059110491e-01
-1.015169875019947e+00  4.267778059110491e-01 -1.240866136332401e-16

-3.028463931247820e-16 -1.538833407675521e-16 -1.018908723436232e+00
-1.538833407675521e-16 -4.194521901378949e-16  4.249137140832083e-01
-1.018908723436232e+00  4.249137140832083e-01 -9.397723080108042e-17

-2.556757453732704e-16 -1.284320643991962e-16 -1.016445869340307e+00
-1.284320643991962e-16 -3.705211893206409e-16  4.268706357245533e-01
-1.016445869340307e+00  4.268706357245533e-01 -7.956193022937973e-17

-2.202749216215780e-16 -1.091475891789327e-16 -1.015104482028407e+00
-1.091475891789327e-16 -3.225288170856727e-16  4.267342564824922e-01
-1.015104482028407e+00  4.267342564824922e-01 -6.851532676379942e-17

-1.839877667855752e-16 -8.950992395796764e-17 -1.017203334234110e+00
-8.950992395796764e-17 -2.782127561860300e-16  4.260469019916851e-01
-1.017203334234110e+00  4.260469019916851e-01 -5.688787521008025e-17

-1.525732893040621e-16 -7.253393721749568e-17 -1.017882877561580e+00
-7.253393721749568e-17 -2.316832264824043e-16  4.267042870959755e-01
-1.017882877561580e+00  4.267042870959755e-01 -4.679188051981536e-17

-1.295092473714133e-16 -6.032444136735764e-17 -1.019240184737326e+00
-6.032444136735764e-17 -2.062722767056940e-16  4.257754383014547e-01
-1.019240184737326e+00  4.257754383014547e-01 -3.924001488545885e-17

-1.101563274395168e-16 -5.016163103516302e-17 -1.017334216901470e+00
-5.016163103516302e-17 -1.792448813313496e-16  4.278258808611874e-01
-1.017334216901470e+00  4.278258808611874e-01 -3.298727160386528e-17

-9.330535077589124e-17 -4.158063805197795e-17 -1.019301721669181e+00
-4.158063805197795e-17 -1.531724593115759e-16  4.252370971944791e-01
-1.019301721669181e+00  4.252370971944791e-01 -2.728492352499277e-17

-8.071506446790014e-17 -3.524548511481171e-17 -1.018542837366629e+00
-3.524548511481171e-17 -1.371882182263537e-16  4.273046451765593e-01
-1.018542837366629e+00  4.273046451765593e-01 -2.311996388723160e-17

-7.025424139518356e-17 -3.013533225185582e-17 -1.021046612364028e+00
-3.013533225185582e-17 -1.177159688258263e-16  4.265579428483824e-01
-1.021046612364028e+00  4.265579428483824e-01 -1.947249883928484e-17

-6.217510553943485e-17 -2.624927679740567e-17 -1.019922003580684e+00
-2.624927679740567e-17 -1.068437329002940e-16  4.289384897546794e-01
-1.019922003580684e+00  4.289384897546794e-01 -1.680219917695552e-17

-5.372638042224082e-17 -2.236355210370219e-17 -1.022156549360735e+00
-2.236355210370219e-17 -9.402025368586791e-17  4.261969104272419e-01
-1.022156549360735e+00  4.261969104272419e-01 -1.377261081372571e-17

-4.728151343444322e-17 -1.943332030438405e-17 -1.021211781858187e+00
-1.943332030438405e-17 -8.418508604125578e-17  4.282134576545260e-01
-1.021211781858187e+00  4.282134576545260e-01 -1.162140209353415e-17

-3.893700790622527e-17 -1.580938348809263e-17 -1.019662132714052e+00
-1.580938348809263e-17 -6.576790749574685e-17  4.279185110902441e-01
-1.019662132714052e+00  4.279185110902441e-01 -8.803100910312398e-18

-3.011288727465311e-17 -1.214546113919685e-17 -1.024541964263183e+00
-1.214546113919685e-17 -5.435973953148223e-17  4.281693702411399e-01
-1.024541964263183e+00  4.281693702411399e-01 -5.524741790724732e-18

-2.170817801931829e-17 -8.486284052232511e-18 -1.028977852346167e+00
-8.486284052232511e-18 -3.994995214347663e-17  4.296473948071169e-01
-1.028977852346167e+00  4.296473948071169e-01 -4.057489732042840e-18

-1.747641381631876e-17 -6.925921886763565e-18 -1.026594586794889e+00
-6.925921886763565e-18 -3.276145915366635e-17  4.269507066676007e-01
-1.026594586794889e+00  4.269507066676007e-01 -2.558608540444221e-18

-1.600560489746054e-17 -6.813449511216948e-18 -1.027401187052825e+00
-6.813449511216948e-18 -3.102691032869388e-17  4.319824268017036e-01
-1.027401187052825e+00  4.319824268017036e-01 -4.912045694756355e-19

-1.327646545645507e-17 -5.893886706082171e-18 -1.026978820639894e+00
-5.893886706082171e-18 -2.355421535110437e-17  4.270202790211163e-01
-1.026978820639894e+00  4.270202790211163e-01  4.920341154600746e-19

-1.126945617117434e-17 -5.196068736611599e-18 -1.023058514385386e+00
-5.196068736611599e-18 -2.075788486146779e-17  4.323549958888855e-01
-1.023058514385386e+00  4.323549958888855e-01  9.128333075198723e-19

-9.864106362646490e-18 -4.764377057828712e-18 -1.026795323473404e+00
-4.764377057828712e-18 -2.137866588689863e-17  4.318734200803532e-01
-1.026795323473404e+00  4.318734200803532e-01  1.616201455072026e-18

-8.376980601891486e-18 -4.356966940050032e-18 -1.034663497817552e+00
-4.356966940050032e-18 -2.002399700125857e-17  4.289808352350055e-01
-1.034663497817552e+00  4.289808352350055e-01  2.580133286250708e-18

-6.607683547374205e-18 -3.783798706696668e-18 -1.029135637197339e+00
-3.783798706696668e-18 -1.469307604350417e-17  4.303014262986045e-01
-1.029135637197339e+00  4.303014262986045e-01  2.863994297946085e-18

-4.773091719889404e-18 -3.393842014622756e-18 -1.045838324731564e+00
-3.393842014622756e-18 -1.203515814957201e-17  4.090541055110371e-01
-1.045838324731564e+00  4.090541055110371e-01  4.647389923040043e-18

-4.796555606603690e-18 -3.191414201126037e-18 -1.022564576910354e+00
-3.191414201126037e-18 -1.302761441763766e-17  4.432537627860353e-01
-1.022564576910354e+00  4.432537627860353e-01  2.952802657966578e-18

-4.129444538689194e-18 -3.018524832303695e-18 -1.026851155261997e+00
-3.018524832303695e-18 -1.129683314670826e-17  4.512923707333920e-01
-1.026851155261997e+00  4.512923707333920e-01  3.342344124447829e-18

-2.810541464450473e-18 -2.771528888998942e-18 -1.038279620673260e+00
-2.771528888998942e-18 -1.100662125822624e-17  4.283585446699784e-01
-1.038279620673260e+00  4.283585446699784e-01  4.709678276562758e-18

-2.138911085422790e-18 -2.579535868215312e-18 -1.032800600686077e+00
-2.579535868215312e-18 -9.228426436830580e-18  4.248370698122728e-01
-1.032800600686077e+00  4.248370698122728e-01  4.713768924138864e-18

-1.556331838905507e-18 -2.393152756327678e-18 -1.024404066524935e+00
-2.393152756327678e-18 -8.379617410286388e-18  4.319912507418441e-01
-1.024404066524935e+00  4.319912507418441e-01  4.471889899222939e-18

-6.765054541513340e-19 -2.175948793467501e-18 -1.024175833524392e+00
-2.175948793467501e-18 -6.920776089560018e-18  4.299352019731494e-01
-1.024175833524392e+00  4.299352019731494e-01  4.859324434017084e-18

-1.660747443642201e-19 -2.058414138370424e-18 -1.024057883072512e+00
-2.058414138370424e-18 -5.759978725577709e-18  4.301360936168248e-01
-1.024057883072512e+00  4.301360936168248e-01  5.048768159560579e-18

 3.505152603252693e-19 -1.921071304008276e-18 -1.022872763128367e+00
-1.921071304008276e-18 -3.324580152275332e-18  4.330340791088682e-01
-1.022872763128367e+00  4.330340791088682e-01  5.150929434234862e-18

 1.070514936841270e-18 -1.748828551700050e-18 -1.022886995100434e+00
-1.748828551700050e-18 -2.235664713881371e-18  4.319654976889583e-01
-1.022886995100434e+00  4.319654976889583e-01  5.423887534217453e-18

 1.576685214347048e-18 -1.630447097962673e-18 -1.021489251022246e+00
-1.630447097962673e-18 -2.829220732223270e-18  4.315846461520924e-01
-1.021489251022246e+00  4.315846461520924e-01  5.559717913124760e-18

 2.084865158316978e-18 -1.513283508730683e-18 -1.021103744156376e+00
-1.513283508730683e-18 -1.985527912202793e-18  4.318927490822355e-01
-1.021103744156376e+00  4.318927490822355e-01  5.713255961067636e-18

 2.498185375387634e-18 -1.421883692485075e-18 -1.020646040754631e+00
-1.421883692485075e-18 -2.189021817077697e-19  4.314812847136059e-01
-1.020646040754631e+00  4.314812847136059e-01  5.857022722687275e-18

 2.987762520752907e-18 -1.313895254772525e-18 -1.019961548248038e+00
-1.313895254772525e-18  3.587115681899479e-18  4.316872956157696e-01
-1.019961548248038e+00  4.316872956157696e-01  6.008318347656173e-18

 3.488598699264457e-18 -1.202408190446026e-18 -1.019798289170245e+00
-1.202408190446026e-18  4.362798598623388e-18  4.317947149954237e-01
-1.019798289170245e+00  4.317947149954237e-01  6.194639255611205e-18

 3.948895727677145e-18 -1.106468150343684e-18 -1.019263231777142e+00
-1.106468150343684e-18  1.748149322969652e-19  4.317716949765290e-01
-1.019263231777142e+00  4.317716949765290e-01  6.314173969467191e-18

 4.328170901629756e-18 -1.025366029342316e-18 -1.018425135619917e+00
-1.025366029342316e-18  2.735275389795223e-18  4.311013567889242e-01
-1.018425135619917e+00  4.311013567889242e-01  6.415975560146560e-18

 4.646844184400804e-18 -9.645006962793248e-19 -1.018665982624740e+00
-9.645006962793248e-19  3.696014690456694e-18  4.315886195897931e-01
-1.018665982624740e+00  4.315886195897931e-01  6.524934877617917e-18

 5.060769218749686e-18 -8.810569737121141e-19 -1.018580400156710e+00
-8.810569737121141e-19  1.429601621547899e-18  4.315230274083587e-01
-1.018580400156710e+00  4.315230274083587e-01  6.681897754834161e-18

 5.471343457416077e-18 -7.996885849230456e-19 -1.018280708055995e+00
-7.996885849230456e-19  4.659941469851122e-18  4.313674768912876e-01
-1.018280708055995e+00  4.313674768912876e-01  6.798669865734580e-18

 5.849462478016176e-18 -7.247978999806845e-19 -1.017562419933843e+00
-7.247978999806845e-19  5.985444960435593e-18  4.312586913389277e-01
-1.017562419933843e+00  4.312586913389277e-01  6.901012459272616e-18

 6.230177078829661e-18 -6.564048768174728e-19 -1.017458411922849e+00
-6.564048768174728e-19  4.906359151252311e-18  4.313496651342800e-01
-1.017458411922849e+00  4.313496651342800e-01  7.019725109901434e-18

 6.451834162000580e-18 -6.136005430839349e-19 -1.017364118898073e+00
-6.136005430839349e-19  5.254526270967484e-18  4.305370912695533e-01
-1.017364118898073e+00  4.305370912695533e-01  7.109318599805947e-18

 6.644217549239119e-18 -5.795338639273556e-19 -1.017606455847522e+00
-5.795338639273556e-19  6.755148095911390e-18  4.321911801209553e-01
-1.017606455847522e+00  4.321911801209553e-01  7.133589649325120e-18

 6.811409184663979e-18 -5.466800908396904e-19 -1.016288811607185e+00
-5.466800908396904e-19  6.151380002230015e-18  4.313197030850501e-01
-1.016288811607185e+00  4.313197030850501e-01  7.160880369783420e-18

 7.099208882537360e-18 -4.965544324631508e-19 -1.015872605037165e+00
-4.965544324631508e-19  5.026095043109864e-18  4.313674552062131e-01
-1.015872605037165e+00  4.313674552062131e-01  7.237811239675844e-18

 7.290035884805546e-18 -4.716913389266449e-19 -1.016174804002191e+00
-4.716913389266449e-19  6.244181452922407e-18  4.312748329338159e-01
-1.016174804002191e+00  4.312748329338159e-01  7.314461508496154e-18

 7.418097566098552e-18 -4.491602350853197e-19 -1.016982210763154e+00
-4.491602350853197e-19  8.695295782740919e-18  4.304008404298317e-01
-1.016982210763154e+00  4.304008404298317e-01  7.400968144935189e-18

 7.540497573714069e-18 -4.233939986322183e-19 -1.016057272771016e+00
-4.233939986322183e-19  8.859932863567022e-18  4.324521409347778e-01
-1.016057272771016e+00  4.324521409347778e-01  7.375134959756397e-18

 7.701146277123818e-18 -4.006007025633594e-19 -1.016459611188646e+00
-4.006007025633594e-19  9.921004832191496e-18  4.299435486678824e-01
-1.016459611188646e+00  4.299435486678824e-01  7.448090734303763e-18

 7.830314214612785e-18 -3.843953696846524e-19 -1.016929244555461e+00
-3.843953696846524e-19  1.040043324869713e-17  4.304089991929364e-01
-1.016929244555461e+00  4.304089991929364e-01  7.464145699293140e-18

 7.867058571581163e-18 -3.723243218639692e-19 -1.016130270566035e+00
-3.723243218639692e-19  5.789716356067847e-18  4.321257777274866e-01
-1.016130270566035e+00  4.321257777274866e-01  7.435429700759062e-18

 7.963015263919641e-18 -3.516896757740379e-19 -1.016368325941549e+00
-3.516896757740379e-19  9.276761433846520e-18  4.342477388357467e-01
-1.016368325941549e+00  4.342477388357467e-01  7.433521420702045e-18

 8.082008530248151e-18 -3.406024372573096e-19 -1.017913250747162e+00
-3.406024372573096e-19  8.417061277978775e-18  4.327004156849549e-01
-1.017913250747162e+00  4.327004156849549e-01  7.552186066887232e-18

 8.188252669538082e-18 -3.276014475171441e-19 -1.019409233704892e+00
-3.276014475171441e-19  1.096977745873567e-17  4.299031477653668e-01
-1.019409233704892e+00  4.299031477653668e-01  7.704902650418559e-18

 8.184155470905738e-18 -3.177845327617093e-19 -1.016116038762980e+00
-3.177845327617093e-19  5.645569789238618e-18  4.328970259814586e-01
-1.016116038762980e+00  4.328970259814586e-01  7.489847153550902e-18

 8.338142479169828e-18 -3.006948449930363e-19 -1.016647162975687e+00
-3.006948449930363e-19  7.787762109670883e-18  4.316076517034562e-01
-1.016647162975687e+00  4.316076517034562e-01  7.586437418289945e-18

 8.440169765137937e-18 -2.854430756922699e-19 -1.017566280026486e+00
-2.854430756922699e-19  7.767415785580394e-18  4.329111862325082e-01
-1.017566280026486e+00  4.329111862325082e-01  7.638701693787908e-18

 8.488001848435335e-18 -2.709112929586633e-19 -1.016305607044599e+00
-2.709112929586633e-19  7.702485419414303e-18  4.353536203688447e-01
-1.016305607044599e+00  4.353536203688447e-01  7.533824525135637e-18

 8.659160018697224e-18 -2.602664988584956e-19 -1.019319154535643e+00
-2.602664988584956e-19  1.104935477828942e-17  4.275997715518833e-01
-1.019319154535643e+00  4.275997715518833e-01  7.752564575286000e-18

 8.802817129094325e-18 -2.479527400140155e-19 -1.023059970648408e+00
-2.479527400140155e-19  8.153352292416765e-18  4.336408308865675e-01
-1.023059970648408e+00  4.336408308865675e-01  7.853742525910016e-18

 9.087471276431226e-18 -2.407229025260461e-19 -1.032760319318435e+00
-2.407229025260461e-19  1.116954534400424e-17  4.325943482257256e-01
-1.032760319318435e+00  4.325943482257256e-01  8.313025141566801e-18

 9.201784720020077e-18 -2.324326985416845e-19 -1.036121372221358e+00
-2.324326985416845e-19  7.711949887492149e-18  4.345338279496300e-01
-1.036121372221358e+00  4.345338279496300e-01  8.337308630974397e-18

 9.110910508038750e-18 -2.148560080530376e-19 -1.031124475472078e+00
-2.148560080530376e-19  1.250189109014094e-17  4.449770679010147e-01
-1.031124475472078e+00  4.449770679010147e-01  7.843598344125088e-18

 9.404465232413124e-18 -2.039197006631711e-19 -1.041222862720790e+00
-2.039197006631711e-19  1.102953519447599e-17  4.330417622404392e-01
-1.041222862720790e+00  4.330417622404392e-01  8.639827558131256e-18

 9.371133246251568e-18 -1.823410708258557e-19 -1.035161291133471e+00
-1.823410708258557e-19  9.305785062498829e-18  4.295578073706535e-01
-1.035161291133471e+00  4.295578073706535e-01  8.381402690671895e-18

 9.397292410721616e-18 -1.542087477370829e-19 -1.032125797617693e+00
-1.542087477370829e-19  1.097030361038458e-17  4.272082208572769e-01
-1.032125797617693e+00  4.272082208572769e-01  8.344223545862966e-18

 9.380915576772711e-18 -1.527522208944336e-19 -1.026680079227053e+00
-1.527522208944336e-19  8.087604027384947e-18  4.315776397679694e-01
-1.026680079227053e+00  4.315776397679694e-01  8.137298300575381e-18

 9.424363767852868e-18 -1.477400641338554e-19 -1.024603701823661e+00
-1.477400641338554e-19  8.222254148049485e-18  4.300674590273671e-01
-1.024603701823661e+00  4.300674590273671e-01  8.187177165133619e-18

 9.440262139099904e-18 -1.457319136459853e-19 -1.020888379763002e+00
-1.457319136459853e-19  1.161922376216880e-17  4.304294926632946e-01
-1.020888379763002e+00  4.304294926632946e-01  8.068229390173515e-18

 9.486469984109967e-18 -1.483559528872192e-19 -1.019809107431989e+00
-1.483559528872192e-19  9.316928822284628e-18  4.284459186004035e-01
-1.019809107431989e+00  4.284459186004035e-01  8.072994341476531e-18

 9.463962358537745e-18 -1.482921688974502e-19 -1.016304925592289e+00
-1.482921688974502e-19  1.153721941890974e-17  4.336244227039425e-01
-1.016304925592289e+00  4.336244227039425e-01  7.856149618291478e-18

 9.460317494998206e-18 -1.461137759972690e-19 -1.013646393332477e+00
-1.461137759972690e-19  6.842402696891527e-18  4.299920051491555e-01
-1.013646393332477e+00  4.299920051491555e-01  7.695950060847186e-18

 1.028659693718498e-17 -1.521331596603844e-19 -1.046151808680897e+00
-1.521331596603844e-19  1.032567555414810e-17  3.980671207875093e-01
-1.046151808680897e+00  3.980671207875093e-01  1.018514803563531e-17

 9.666660139592337e-18 -1.446176424723319e-19 -1.020453043274971e+00
-1.446176424723319e-19  1.340252643034440e-17  4.302310303554572e-01
-1.020453043274971e+00  4.302310303554572e-01  8.172846014229594e-18

 8.935771430966837e-18 -1.368295913250213e-19 -9.911424896717291e-01
-1.368295913250213e-19  1.050528854708642e-17  4.667033398118407e-01
-9.911424896717291e-01  4.667033398118407e-01  5.806372884163060e-18

 9.862214211884077e-18 -1.143147007556578e-19 -1.026741564872546e+00
-1.143147007556578e-19  1.349657316684336e-17  4.295536982747737e-01
-1.026741564872546e+00  4.295536982747737e-01  8.588402392028214e-18

 9.994085922021781e-18 -1.451442859872212e-19 -1.031507720118980e+00
-1.451442859872212e-19  1.072546650956423e-17  4.178624816889481e-01
-1.031507720118980e+00  4.178624816889481e-01  8.977561402421769e-18

 9.675516079928705e-18 -1.463084564344388e-19 -1.016918667452822e+00
-1.463084564344388e-19  6.535019608748300e-18  4.318343127988065e-01
-1.016918667452822e+00  4.318343127988065e-01  7.916141326859657e-18

 9.746396498270922e-18 -1.322311511405494e-19 -1.018133341978269e+00
-1.322311511405494e-19  9.028976882124052e-18  4.300037621279194e-01
-1.018133341978269e+00  4.300037621279194e-01  8.064571199595457e-18

 9.785183558552386e-18 -1.197939715342088e-19 -1.017867075099343e+00
-1.197939715342088e-19  1.355635733230641e-17  4.292513260572502e-01
-1.017867075099343e+00  4.292513260572502e-01  8.074101741236231e-18

 9.794831352079068e-18 -1.165801743561465e-19 -1.016492564302160e+00
-1.165801743561465e-19  1.351525045435242e-17  4.298880795191260e-01
-1.016492564302160e+00  4.298880795191260e-01  8.018896547614879e-18

 9.833181151451865e-18 -1.116055239434896e-19 -1.015144458387293e+00
-1.116055239434896e-19  8.291253794436448e-18  4.309251377777742e-01
-1.015144458387293e+00  4.309251377777742e-01  7.963404371962939e-18

 9.785690828547727e-18 -1.071994841241350e-19 -1.010230487895919e+00
-1.071994841241350e-19  1.436410439328134e-17  4.327423184116275e-01
-1.010230487895919e+00  4.327423184116275e-01  7.682685987388255e-18

 9.695654644932205e-18 -1.054653842865224e-19 -1.005255214956999e+00
-1.054653842865224e-19  1.458698612194844e-17  4.281932282827012e-01
-1.005255214956999e+00  4.281932282827012e-01  7.399516962370957e-18

 1.005840246591042e-17 -1.337131599567863e-19 -1.019096590249400e+00
-1.337131599567863e-19  1.129866173334073e-17  4.118787278988237e-01
-1.019096590249400e+00  4.118787278988237e-01  8.359902184085815e-18

 1.051728014030783e-17 -8.662067558501821e-20 -1.039894118446980e+00
-8.662067558501821e-20  1.474654519866410e-17  4.337908502384409e-01
-1.039894118446980e+00  4.337908502384409e-01  9.265705959049804e-18

 1.046831633432280e-17 -1.130139004820438e-19 -1.035542315678175e+00
-1.130139004820438e-19  1.062048759553515e-17  4.436082438447796e-01
-1.035542315678175e+00  4.436082438447796e-01  8.959315986450517e-18

 1.050716631112998e-17 -5.594018347558309e-20 -1.034067968214283e+00
-5.594018347558309e-20  1.246217272076490e-17  4.012184044579664e-01
-1.034067968214283e+00  4.012184044579664e-01  9.341446655026709e-18

 9.852085763707183e-18 -7.931860175421098e-20 -1.003661305815754e+00
-7.931860175421098e-20  1.173019143268670e-17  4.222273375303735e-01
-1.003661305815754e+00  4.222273375303735e-01  7.388684353323686e-18

 9.935081958613619e-18 -8.876257017433637e-20 -1.005623967907242e+00
-8.876257017433637e-20  1.130899588159261e-17  4.325220224035087e-01
-1.005623967907242e+00  4.325220224035087e-01  7.512854812813991e-18

 1.013400611461043e-17 -8.439558143418679e-20 -1.012331790788285e+00
-8.439558143418679e-20  1.151551177447745e-17  4.315337315708259e-01
-1.012331790788285e+00  4.315337315708259e-01  7.919047692808722e-18

 1.024620624838839e-17 -5.752604486002185e-20 -1.016046805840676e+00
-5.752604486002185e-20  1.169321435068059e-17  4.290995398582204e-01
-1.016046805840676e+00  4.290995398582204e-01  8.133920334377070e-18

 1.024507524940353e-17 -9.509944434511882e-20 -1.015476256697036e+00
-9.509944434511882e-20  1.585625344042469e-17  4.323217034583517e-01
-1.015476256697036e+00  4.323217034583517e-01  8.039580886831985e-18

 1.025878442050077e-17 -5.884681472183894e-20 -1.014797393794371e+00
-5.884681472183894e-20  1.068007379082195e-17  4.329395881754547e-01
-1.014797393794371e+00  4.329395881754547e-01  7.953433690825337e-18

 1.033504055832741e-17 -5.934576530358292e-20 -1.017541248440451e+00
-5.934576530358292e-20  5.028644522626007e-18  4.261612704541314e-01
-1.017541248440451e+00  4.261612704541314e-01  8.212238027655035e-18

 1.032167086990082e-17 -7.717113974647086e-20 -1.014920963369004e+00
-7.717113974647086e-20  1.181148695885317e-17  4.310443456261585e-01
-1.014920963369004e+00  4.310443456261585e-01  7.983278050946512e-18

 1.041217754614820e-17 -7.188093108384118e-20 -1.019226614416400e+00
-7.188093108384118e-20  1.146744868257969e-17  4.317958059481542e-01
-1.019226614416400e+00  4.317958059481542e-01  8.157295781795899e-18

 1.046241141977186e-17 -6.811706016285047e-20 -1.022017207003550e+00
-6.811706016285047e-20  1.115081751485032e-17  4.320582636626739e-01
-1.022017207003550e+00  4.320582636626739e-01  8.219940810799467e-18

 1.057365329382243e-17 -6.948372605185566e-20 -1.026192804362306e+00
-6.948372605185566e-20  1.204802834451552e-17  4.326155884639654e-01
-1.026192804362306e+00  4.326155884639654e-01  8.343270476587674e-18

 1.069551809305454e-17 -7.396383082123095e-20 -1.031766932900629e+00
-7.396383082123095e-20  1.010177585998200e-17  4.329056669286298e-01
-1.031766932900629e+00  4.329056669286298e-01  8.529113053038302e-18

 1.094030484478038e-17 -7.212717066183967e-20 -1.043253441843609e+00
-7.212717066183967e-20  1.539332118219362e-17  4.306952633337800e-01
-1.043253441843609e+00  4.306952633337800e-01  9.024599068209750e-18

 1.114038949510405e-17 -7.513206477058359e-20 -1.052997935289830e+00
-7.513206477058359e-20  8.179074675632916e-18  4.368274368150654e-01
-1.052997935289830e+00  4.368274368150654e-01  9.387734291932854e-18

 1.126048929099218e-17 -8.226094461595029e-20 -1.057857337641184e+00
-8.226094461595029e-20  1.500286283107491e-17  4.344001755135651e-01
-1.057857337641184e+00  4.344001755135651e-01  9.671519465044295e-18

 1.124941898106096e-17 -7.955835219568451e-20 -1.056239233071689e+00
-7.955835219568451e-20  1.654513220009427e-17  4.312911399552299e-01
-1.056239233071689e+00  4.312911399552299e-01  9.618587089782447e-18

 1.112980931122060e-17 -9.312305203119827e-20 -1.050056244661453e+00
-9.312305203119827e-20  1.008916233208822e-17  4.363978466829481e-01
-1.050056244661453e+00  4.363978466829481e-01  9.230555929430088e-18

 1.104970795952514e-17 -8.145160586954463e-20 -1.044200026943625e+00
-8.145160586954463e-20  1.474640804941288e-17  4.347718200424899e-01
-1.044200026943625e+00  4.347718200424899e-01  9.014386095664442e-18

 1.087751337591719e-17 -8.015721283234843e-20 -1.034900596967134e+00
-8.015721283234843e-20  1.462938604606544e-17  4.342003133089450e-01
-1.034900596967134e+00  4.342003133089450e-01  8.579601016546684e-18

 1.076361494771837e-17 -8.381622391066867e-20 -1.027475696607466e+00
-8.381622391066867e-20  1.443826394359303e-17  4.374750157729084e-01
-1.027475696607466e+00  4.374750157729084e-01  8.226591763633698e-18

 1.074577712013931e-17 -8.679929471143055e-20 -1.025065881616614e+00
-8.679929471143055e-20  1.151514704945042e-17  4.367882602648900e-01
-1.025065881616614e+00  4.367882602648900e-01  8.152942525474540e-18

 1.068073073187745e-17 -8.468904997100319e-20 -1.021014724082780e+00
-8.468904997100319e-20  1.367709844659772e-17  4.376722171696101e-01
-1.021014724082780e+00  4.376722171696101e-01  7.932053693839575e-18

 1.076023450150015e-17 -8.730790725311536e-20 -1.023365751233638e+00
-8.730790725311536e-20  1.164693812861730e-17  4.313702616482148e-01
-1.023365751233638e+00  4.313702616482148e-01  8.103299025387721e-18

 1.184107550382099e-17 -9.676328679515535e-20 -1.066912114181252e+00
-9.676328679515535e-20  1.565840504242836e-17  3.983447312489096e-01
-1.066912114181252e+00  3.983447312489096e-01  1.132165586368533e-17

 1.090849838344791e-17 -7.776388514096351e-20 -1.029423955920108e+00
-7.776388514096351e-20  1.026670877999026e-17  4.437184362679553e-01
-1.029423955920108e+00  4.437184362679553e-01  8.379542995748930e-18

 9.430505515710293e-18 -7.197351863762869e-20 -9.704269988354897e-01
-7.197351863762869e-20  8.768481424900731e-18  5.050745892165365e-01
-9.704269988354897e-01  5.050745892165365e-01  3.781169608845625e-18

 1.072825228065122e-17 -6.733007510706056e-20 -1.021724259986631e+00
-6.733007510706056e-20  1.049194994543128e-17  4.531717909407193e-01
-1.021724259986631e+00  4.531717909407193e-01  7.754751306152949e-18

 1.180743609282993e-17 -5.374986984263032e-20 -1.065645338517958e+00
-5.374986984263032e-20  1.468887331792775e-17  4.032094198265146e-01
-1.065645338517958e+00  4.032094198265146e-01  1.110209390589669e-17

 1.093989502049403e-17 -6.180099055051141e-20 -1.029152581031613e+00
-6.180099055051141e-20  1.407096502595609e-17  4.307253087125678e-01
-1.029152581031613e+00  4.307253087125678e-01  8.472505004687802e-18

 1.085941987745948e-17 -7.217997978385704e-20 -1.024755524568906e+00
-7.217997978385704e-20  1.179194146534981e-17  4.391609292692252e-01
-1.024755524568906e+00  4.391609292692252e-01  8.157524882863770e-18

 1.094395312595825e-17 -6.054371208625312e-20 -1.026021456217095e+00
-6.054371208625312e-20  1.647314473359809e-17  4.302541388086102e-01
-1.026021456217095e+00  4.302541388086102e-01  8.433194014664637e-18

 1.084769484501385e-17 -5.668489772373330e-20 -1.020333940497508e+00
-5.668489772373330e-20  1.659528050802823e-17  4.316733431222070e-01
-1.020333940497508e+00  4.316733431222070e-01  8.164350339358721e-18

 1.078248478727092e-17 -4.539070722712601e-20 -1.014683391412175e+00
-4.539070722712601e-20  1.493412872338593e-17  4.308184143665287e-01
-1.014683391412175e+00  4.308184143665287e-01  7.957520538376861e-18

 1.077883295722748e-17 -3.679124856680636e-20 -1.012386338130232e+00
-3.679124856680636e-20  1.062609416321776e-17  4.287395007663371e-01
-1.012386338130232e+00  4.287395007663371e-01  7.940273788796701e-18

 1.079290010388799e-17 -3.098056914273324e-20 -1.011472218621074e+00
-3.098056914273324e-20  1.406484493448407e-17  4.300051597551040e-01
-1.011472218621074e+00  4.300051597551040e-01  7.904100706085597e-18

 1.078611438916044e-17 -2.841725797822277e-20 -1.009861559480438e+00
-2.841725797822277e-20  1.175237831069682e-17  4.277038714895294e-01
-1.009861559480438e+00  4.277038714895294e-01  7.929289174350172e-18

 1.080562609562982e-17 -2.603547325436662e-20 -1.009308674177861e+00
-2.603547325436662e-20  1.187853860579681e-17  4.258418085591298e-01
-1.009308674177861e+00  4.258418085591298e-01  7.969264501550818e-18

 1.082381147790029e-17 -2.132266557600067e-20 -1.008579772280412e+00
-2.132266557600067e-20  1.385937961159243e-17  4.260444705614119e-01
-1.008579772280412e+00  4.260444705614119e-01  7.984599354936713e-18

 1.086597218074300e-17 -1.811316921808129e-20 -1.009667774710072e+00
-1.811316921808129e-20  1.445326098352669e-17  4.248985304228219e-01
-1.009667774710072e+00  4.248985304228219e-01  8.059647890912694e-18

 1.088433605771416e-17 -2.520019875591335e-20 -1.009225413360519e+00
-2.520019875591335e-20  1.193789597539621e-17  4.241335228270149e-01
-1.009225413360519e+00  4.241335228270149e-01  8.076127718809085e-18

 1.091438146076729e-17 -2.618020873975973e-20 -1.010565492620266e+00
-2.618020873975973e-20  1.202980917500305e-17  4.242372009407058e-01
-1.010565492620266e+00  4.242372009407058e-01  8.141437253726609e-18

 1.094706433309859e-17 -2.187592818220913e-20 -1.011563345236062e+00
-2.187592818220913e-20  1.416054362963303e-17  4.236102334013204e-01
-1.011563345236062e+00  4.236102334013204e-01  8.183179701863097e-18

 1.098385116728453e-17 -2.340467787553878e-20 -1.011578646250439e+00
-2.340467787553878e-20  1.289276353852317e-17  4.229833346273187e-01
-1.011578646250439e+00  4.229833346273187e-01  8.199574125432728e-18

 1.099867466023607e-17 -2.162274177105027e-20 -1.012156452633273e+00
-2.162274177105027e-20  1.286017620204378e-17  4.228069817654297e-01
-1.012156452633273e+00  4.228069817654297e-01  8.229007806490969e-18

 1.101151576611252e-17 -2.016529620200980e-20 -1.012561210119342e+00
-2.016529620200980e-20  1.283485496484344e-17  4.224139769033686e-01
-1.012561210119342e+00  4.224139769033686e-01  8.256398081838035e-18

 1.101814153276164e-17 -1.916049264729904e-20 -1.012651609800904e+00
-1.916049264729904e-20  1.280165578225031e-17  4.221780131614930e-01
-1.012651609800904e+00  4.221780131614930e-01  8.267890541183323e-18

 1.104117010139224e-17 -2.068232822480678e-20 -1.012514110144817e+00
-2.068232822480678e-20  1.242124682087837e-17  4.217271797222101e-01
-1.012514110144817e+00  4.217271797222101e-01  8.262489480426400e-18

 1.107132206998012e-17 -1.971976806569625e-20 -1.012980675117127e+00
-1.971976806569625e-20  1.395041163576083e-17  4.207257644165271e-01
-1.012980675117127e+00  4.207257644165271e-01  8.303374423718316e-18

 1.112063847886022e-17 -2.138218946565318e-20 -1.014914425124533e+00
-2.138218946565318e-20  1.358547280113025e-17  4.194244599686013e-01
-1.014914425124533e+00  4.194244599686013e-01  8.422336015411810e-18

 1.125827048379720e-17 -2.183920343095507e-20 -1.019965526281494e+00
-2.183920343095507e-20  1.304291856912852e-17  4.170342881906494e-01
-1.019965526281494e+00  4.170342881906494e-01  8.745851900028583e-18

 1.145272400201191e-17 -2.401817134148940e-20 -1.027756341674010e+00
-2.401817134148940e-20  1.341905661718069e-17  4.215764512363225e-01
-1.027756341674010e+00  4.215764512363225e-01  9.246786364731616e-18

 1.110983486977950e-17 -3.347120778681657e-20 -1.009740098656430e+00
-3.347120778681657e-20  1.354200323078700e-17  4.276227575264385e-01
-1.009740098656430e+00  4.276227575264385e-01  8.335019371071609e-18

 1.022504699501366e-17 -3.411423515999743e-20 -9.693119005255832e-01
-3.411423515999743e-20  1.430087028283650e-17  4.124718645232701e-01
-9.693119005255832e-01  4.124718645232701e-01  6.155173115824919e-18

 1.071286500362158e-17 -5.579066764467719e-20 -9.906833359905894e-01
-5.579066764467719e-20  1.510945603333882e-17  4.186774566543320e-01
-9.906833359905894e-01  4.186774566543320e-01  7.372846172470295e-18

 1.130682335670878e-17  3.463259257805468e-21 -1.019831646635307e+00
 3.463259257805468e-21  1.387128049213885e-17  4.366035954464996e-01
-1.019831646635307e+00  4.366035954464996e-01  8.702879061128830e-18

 1.145840672869773e-17 -4.572777995314264e-20 -1.026908264265793e+00
-4.572777995314264e-20  1.489029905709933e-17  4.157988076726037e-01
-1.026908264265793e+00  4.157988076726037e-01  9.186864764696545e-18

 1.144883995194119e-17 -4.891191064560041e-20 -1.026836491502567e+00
-4.891191064560041e-20  1.243379795894948e-17  4.164599779126282e-01
-1.026836491502567e+00  4.164599779126282e-01  9.122888937070068e-18

 1.138318598505993e-17 -5.144739399410481e-20 -1.025153161817642e+00
-5.144739399410481e-20  1.470457872618698e-17  4.226662714994420e-01
-1.025153161817642e+00  4.226662714994420e-01  8.888859129086304e-18

 1.135488396401705e-17 -5.932140723680356e-20 -1.024347552432108e+00
-5.932140723680356e-20  1.262457526373325e-17  4.218987460753648e-01
-1.024347552432108e+00  4.218987460753648e-01  8.796756034574033e-18

 1.131325410442203e-17 -5.660736956887783e-20 -1.022591287341118e+00
-5.660736956887783e-20  1.400955869887737e-17  4.215602355055140e-01
-1.022591287341118e+00  4.215602355055140e-01  8.673141444186141e-18

 1.123296551348087e-17 -6.634332989214640e-20 -1.019573869513817e+00
-6.634332989214640e-20  1.757295177890552e-17  4.277698397137992e-01
-1.019573869513817e+00  4.277698397137992e-01  8.369345009172040e-18

 1.143925084602639e-17 -6.540434528213582e-20 -1.027956717449935e+00
-6.540434528213582e-20  1.170123640863619e-17  4.167742620109913e-01
-1.027956717449935e+00  4.167742620109913e-01  9.023800786666713e-18

 1.139367288125468e-17 -6.512208182781005e-20 -1.025734653043497e+00
-6.512208182781005e-20  1.326270542522352e-17  4.207040331916228e-01
-1.025734653043497e+00  4.207040331916228e-01  8.851753541066892e-18

 1.138477739029803e-17 -6.323509819915350e-20 -1.025844394119227e+00
-6.323509819915350e-20  1.174504818101499e-17  4.254235866912423e-01
-1.025844394119227e+00  4.254235866912423e-01  8.778108392663563e-18

 1.146909428671550e-17 -6.844065914523199e-20 -1.029291757412294e+00
-6.844065914523199e-20  1.384679927866706e-17  4.225626846460769e-01
-1.029291757412294e+00  4.225626846460769e-01  9.010582589815599e-18

 1.152064458172330e-17 -6.979156908059893e-20 -1.030553280792638e+00
-6.979156908059893e-20  1.162637165379130e-17  4.239337816887227e-01
-1.030553280792638e+00  4.239337816887227e-01  9.147367691516003e-18

 1.128961926998502e-17 -7.556711443376831e-20 -1.021063221454322e+00
-7.556711443376831e-20  1.358471911883997e-17  4.366284492485658e-01
-1.021063221454322e+00  4.366284492485658e-01  8.439830554911843e-18

 1.118313188217763e-17 -6.845622614996505e-20 -1.015272618047276e+00
-6.845622614996505e-20  1.409229855801129e-17  4.193115403660321e-01
-1.015272618047276e+00  4.193115403660321e-01  8.302167011154462e-18

 1.114771806747836e-17 -6.953886542319996e-20 -1.013252794755604e+00
-6.953886542319996e-20  1.168734606159200e-17  4.161537190413830e-01
-1.013252794755604e+00  4.161537190413830e-01  8.232070069102029e-18

 1.132863438171803e-17 -7.708850351481883e-20 -1.021807047434552e+00
-7.708850351481883e-20  1.454984899567710e-17  4.295087796638677e-01
-1.021807047434552e+00  4.295087796638677e-01  8.582991761046629e-18

 1.157550119230214e-17 -7.581198122578639e-20 -1.031606506047372e+00
-7.581198122578639e-20  1.251279539793152e-17  4.184044300154215e-01
-1.031606506047372e+00  4.184044300154215e-01  9.278132829234316e-18

 1.172471980514261e-17 -8.534373081076787e-20 -1.037128675348362e+00
-8.534373081076787e-20  1.300066868143683e-17  4.236313433866546e-01
-1.037128675348362e+00  4.236313433866546e-01  9.662385126991121e-18

 1.140061372490049e-17 -1.300008914846490e-19 -1.020537705810248e+00
-1.300008914846490e-19  1.342031167476742e-17  4.441801821411266e-01
-1.020537705810248e+00  4.441801821411266e-01  8.749319670321572e-18

 1.012759457833400e-17 -5.220803469703029e-20 -9.625417199640596e-01
-5.220803469703029e-20  1.062483791097020e-17  4.262252996247815e-01
-9.625417199640596e-01  4.262252996247815e-01  5.597920878182907e-18

 1.032511353441314e-17 -1.186595403541417e-19 -9.694711919243835e-01
-1.186595403541417e-19  1.139758120075850e-17  4.258749106544314e-01
-9.694711919243835e-01  4.258749106544314e-01  6.138722448611325e-18

 1.175009295530812e-17 -7.262157747065659e-20 -1.035834565029418e+00
-7.262157747065659e-20  1.486231316189160e-17  4.294716454303983e-01
-1.035834565029418e+00  4.294716454303983e-01  9.747682572021388e-18

 1.159294111097195e-17 -9.303011276074855e-20 -1.030020859528978e+00
-9.303011276074855e-20  1.094530593456109e-17  4.216388631064662e-01
-1.030020859528978e+00  4.216388631064662e-01  9.307015571743506e-18

 1.136613310552215e-17 -9.937447486374786e-20 -1.020777619053316e+00
-9.937447486374786e-20  1.201148454153584e-17  4.203658085215718e-01
-1.020777619053316e+00  4.203658085215718e-01  8.724445544385058e-18

 1.124855888388192e-17 -1.099285352690276e-19 -1.016435918004473e+00
-1.099285352690276e-19  1.476206899520304e-17  4.245919690863993e-01
-1.016435918004473e+00  4.245919690863993e-01  8.394106974090365e-18

 1.131653117204470e-17 -1.295779577835741e-19 -1.019389632481862e+00
-1.295779577835741e-19  1.462263779320231e-17  4.245838146371849e-01
-1.019389632481862e+00  4.245838146371849e-01  8.545234047403387e-18

 1.130000506738835e-17 -1.107446161313188e-19 -1.019671782225011e+00
-1.107446161313188e-19  1.381373630211460e-17  4.278506063444995e-01
-1.019671782225011e+00  4.278506063444995e-01  8.504559475901408e-18

 1.129356469697193e-17 -1.215078039412797e-19 -1.019665024828837e+00
-1.215078039412797e-19  1.366361245304246e-17  4.275113520580189e-01
-1.019665024828837e+00  4.275113520580189e-01  8.476525919793530e-18

 1.129519581485566e-17 -1.250267269749690e-19 -1.020242300228631e+00
-1.250267269749690e-19  1.497009890197943e-17  4.288248592959675e-01
-1.020242300228631e+00  4.288248592959675e-01  8.460846552416462e-18

-2.495740524364303e-17 -7.958830640301812e-20  1.015395440074932e+00
-7.958830640301812e-20  2.010924505612694e-17  4.241266674248310e-01
 1.015395440074932e+00  4.241266674248310e-01 -3.460019291909818e-17

-2.501555960053693e-17 -7.026526007141507e-20  1.018584544193490e+00
-7.026526007141507e-20  4.736497618650188e-17  4.238872154865679e-01
 1.018584544193490e+00  4.238872154865679e-01 -3.472285217220064e-17

-2.493762621622952e-17 -7.391987267401003e-20  1.014372753773876e+00
-7.391987267401003e-20  8.709935720205011e-18  4.227721656367018e-01
 1.014372753773876e+00  4.227721656367018e-01 -3.456773343768709e-17

-2.496294323949612e-17 -6.313826489814316e-20  1.016217871502004e+00
-6.313826489814316e-20  1.321123607129210e-17  4.218053627412457e-01
 1.016217871502004e+00  4.218053627412457e-01 -3.464563526135247e-17

-2.510609067319183e-17 -6.764351002646288e-20  1.023692851032622e+00
-6.764351002646288e-20  5.015789973550449e-17  4.208524261008849e-01
 1.023692851032622e+00  4.208524261008849e-01 -3.492214621170531e-17

-2.531109861631855e-17 -7.826519166852825e-20  1.037031185593079e+00
-7.826519166852825e-20  2.851908037603651e-17  4.168167723095355e-01
 1.037031185593079e+00  4.168167723095355e-01 -3.542318475635086e-17

-2.516036243498528e-17 -1.299310676346572e-19  1.019228318688487e+00
-1.299310676346572e-19 -6.668044031827459e-17  4.415538950484495e-01
 1.019228318688487e+00  4.415538950484495e-01 -3.481870316908450e-17

-2.527362426845254e-17 -8.618502104950335e-20  1.032298803955027e+00
-8.618502104950335e-20  2.129577155890105e-17  4.243494231690371e-01
 1.032298803955027e+00  4.243494231690371e-01 -3.526303302416850e-17

-2.507016600114668e-17 -5.983125024572955e-20  1.021316923452402e+00
-5.983125024572955e-20  4.786210635933438e-17  4.203850013189910e-01
 1.021316923452402e+00  4.203850013189910e-01 -3.483714947901968e-17

-2.504502727258723e-17 -1.237575098026135e-19  1.019640567854701e+00
-1.237575098026135e-19 -3.494257620211617e-17  4.244714968869141e-01
 1.019640567854701e+00  4.244714968869141e-01 -3.477381364345647e-17

-2.498346601626821e-17 -1.317059841464427e-19  1.017201032054806e+00
-1.317059841464427e-19 -4.905673082420889e-17  4.222534274634510e-01
 1.017201032054806e+00  4.222534274634510e-01 -3.467447093367558e-17

-2.496714848054166e-17 -1.009479327816707e-19  1.016489566213598e+00
-1.009479327816707e-19  1.012312427646334e-17  4.217739606307235e-01
 1.016489566213598e+00  4.217739606307235e-01 -3.464623137961655e-17

-2.493089179276944e-17 -9.759611383657032e-20  1.014588414642901e+00
-9.759611383657032e-20  1.491871221284488e-17  4.237158369243350e-01
 1.014588414642901e+00  4.237158369243350e-01 -3.457446146921238e-17

-2.486984045888767e-17 -1.285815570515223e-19  1.011716792480757e+00
-1.285815570515223e-19 -2.445353979101553e-17  4.228041496964567e-01
 1.011716792480757e+00  4.228041496964567e-01 -3.446237259218751e-17

-2.484933093750875e-17 -1.173962206941082e-19  1.010459055755119e+00
-1.173962206941082e-19 -7.967786179698572e-18  4.221411555691578e-01
 1.010459055755119e+00  4.221411555691578e-01 -3.441545797117131e-17

-2.483690834802150e-17 -1.293027054116261e-19  1.009569503376728e+00
-1.293027054116261e-19 -2.988958621394605e-17  4.242129325573649e-01
 1.009569503376728e+00  4.242129325573649e-01 -3.438364198026218e-17

-2.485361419244368e-17 -9.820049422476919e-20  1.011894736433192e+00
-9.820049422476919e-20  1.198139603253989e-17  4.198958664770016e-01
 1.011894736433192e+00  4.198958664770016e-01 -3.445723984167648e-17

-2.481105762966640e-17 -9.134763768533818e-20  1.007448857113012e+00
-9.134763768533818e-20  3.993467110150233e-17  4.254741779298771e-01
 1.007448857113012e+00  4.254741779298771e-01 -3.429944262157428e-17

-2.486061892124314e-17 -1.242290466559983e-19  1.008964770068405e+00
-1.242290466559983e-19 -3.971235198089686e-18  4.230405845469122e-01
 1.008964770068405e+00  4.230405845469122e-01 -3.434959721022955e-17

-2.483658529945825e-17 -1.484058567338282e-19  1.009518052601843e+00
-1.484058567338282e-19 -4.184223732291693e-17  4.228032323166456e-01
 1.009518052601843e+00  4.228032323166456e-01 -3.437752151492334e-17

-2.493418582357236e-17 -8.926140651401787e-20  1.017154303757780e+00
-8.926140651401787e-20  7.390176248661252e-17  4.143084614799377e-01
 1.017154303757780e+00  4.143084614799377e-01 -3.464912717095376e-17

-2.494159276138362e-17 -1.305387146899632e-19  1.016626722990202e+00
-1.305387146899632e-19 -3.639781233368771e-17  4.197548355155736e-01
 1.016626722990202e+00  4.197548355155736e-01 -3.463529018250495e-17

-2.492016975429507e-17 -1.112847688890642e-19  1.012969165929799e+00
-1.112847688890642e-19  2.352545154630546e-17  4.286880216933539e-01
 1.012969165929799e+00  4.286880216933539e-01 -3.450952680452125e-17

-2.483633787010418e-17 -1.395242823191673e-19  1.008236968437191e+00
-1.395242823191673e-19 -3.870685782513489e-17  4.234165673327731e-01
 1.008236968437191e+00  4.234165673327731e-01 -3.433373084228754e-17

-2.477958401022752e-17 -1.206299449094764e-19  1.006883225572643e+00
-1.206299449094764e-19 -7.019296093945018e-18  4.156097956892348e-01
 1.006883225572643e+00  4.156097956892348e-01 -3.426464011334443e-17

-2.475382655105132e-17 -1.349128964165992e-19  1.002991385297212e+00
-1.349128964165992e-19 -2.510362943930202e-17  4.236127954436627e-01
 1.002991385297212e+00  4.236127954436627e-01 -3.413556297960289e-17

-2.490930489146349e-17 -1.233607775914176e-19  1.013013000979066e+00
-1.233607775914176e-19 -4.018240811107562e-18  4.207467740311608e-01
 1.013013000979066e+00  4.207467740311608e-01 -3.450854735572580e-17

-2.501321675184384e-17 -1.215263971760468e-19  1.020648235243335e+00
-1.215263971760468e-19 -4.157990981883324e-18  4.179024560617051e-01
 1.020648235243335e+00  4.179024560617051e-01 -3.477965253443679e-17

-2.494733868768999e-17 -1.223333302801170e-19  1.014715857724564e+00
-1.223333302801170e-19  1.169280692400792e-17  4.199090510889263e-01
 1.014715857724564e+00  4.199090510889263e-01 -3.457144220871104e-17

-2.496296068468951e-17 -1.376441822959395e-19  1.013074290548276e+00
-1.376441822959395e-19 -2.767715140014688e-17  4.219345612409007e-01
 1.013074290548276e+00  4.219345612409007e-01 -3.450981417252298e-17

-2.492679131465400e-17 -1.142373661627028e-19  1.011811686651337e+00
-1.142373661627028e-19  5.444512441923528e-18  4.241865564940671e-01
 1.011811686651337e+00  4.241865564940671e-01 -3.447046163677227e-17

-2.484943525495943e-17 -1.302386848494213e-19  1.005084400590960e+00
-1.302386848494213e-19  3.941942584845410e-17  4.292059146655763e-01
 1.005084400590960e+00  4.292059146655763e-01 -3.422689567414485e-17

-2.494668003930421e-17 -1.451397319370125e-19  1.009457497624507e+00
-1.451397319370125e-19 -4.527685711677754e-17  4.214977595971313e-01
 1.009457497624507e+00  4.214977595971313e-01 -3.437778789668420e-17

-2.492160312162644e-17 -1.238777525066658e-19  1.013092210474341e+00
-1.238777525066658e-19 -1.749894253688576e-17  4.142377748661786e-01
 1.013092210474341e+00  4.142377748661786e-01 -3.449978855774988e-17

-2.505060243209663e-17 -1.463693387177013e-19  1.019817750974035e+00
-1.463693387177013e-19  3.220019756983320e-17  4.178243186964270e-01
 1.019817750974035e+00  4.178243186964270e-01 -3.475353569364453e-17

-2.497481307641137e-17 -1.372085221425016e-19  1.010478045252890e+00
-1.372085221425016e-19 -2.430138334465065e-17  4.301914441275662e-01
 1.010478045252890e+00  4.301914441275662e-01 -3.444319679451330e-17

-2.501898264300510e-17 -1.322828871852557e-19  1.015492601930237e+00
-1.322828871852557e-19 -5.968385639258436e-17  4.242423587704374e-01
 1.015492601930237e+00  4.242423587704374e-01 -3.461352237476260e-17

-2.506977246137650e-17 -1.368752020544556e-19  1.015592844513308e+00
-1.368752020544556e-19 -4.255653716715239e-17  4.298941176449631e-01
 1.015592844513308e+00  4.298941176449631e-01 -3.462970973224593e-17

-2.480258523981756e-17 -1.553959372934445e-19  9.931579983712605e-01
-1.553959372934445e-19  5.562837704717662e-17  4.440382642221644e-01
 9.931579983712605e-01  4.440382642221644e-01 -3.382708267811560e-17

-2.512555082508924e-17 -1.308360223832727e-19  1.030149228473030e+00
-1.308360223832727e-19 -4.076962715916119e-17  3.894420037438385e-01
 1.030149228473030e+00  3.894420037438385e-01 -3.510483279820470e-17

-2.506417254296064e-17 -1.240865709600312e-19  1.019862803588744e+00
-1.240865709600312e-19 -2.491674814322743e-17  4.029070072821449e-01
 1.019862803588744e+00  4.029070072821449e-01 -3.473985142300162e-17

-2.504480954539375e-17 -1.346206128404625e-19  1.010472949910431e+00
-1.346206128404625e-19 -1.653832042865850e-17  4.390623029190003e-01
 1.010472949910431e+00  4.390623029190003e-01 -3.447837785245104e-17

-2.528305156533902e-17 -1.610409817296707e-19  1.025160673089740e+00
-1.610409817296707e-19  6.638806429561698e-18  4.235194171780288e-01
 1.025160673089740e+00  4.235194171780288e-01 -3.499522820082051e-17

-2.534489044649718e-17 -1.226973939970823e-19  1.038605608205465e+00
-1.226973939970823e-19 -9.260548735121271e-17  4.035447203475548e-01
 1.038605608205465e+00  4.035447203475548e-01 -3.546333846908503e-17

-2.508348985957387e-17 -1.342418868873789e-19  1.016097824444355e+00
-1.342418868873789e-19  5.036955232805765e-17  4.207606160043812e-01
 1.016097824444355e+00  4.207606160043812e-01 -3.465494264232507e-17

-2.505207321022932e-17 -1.304252219384852e-19  1.014244105681326e+00
-1.304252219384852e-19  2.737706299668124e-17  4.205034045866666e-01
 1.014244105681326e+00  4.205034045866666e-01 -3.458580454266353e-17

-2.503921451499014e-17 -1.120026693116050e-19  1.013281280676006e+00
-1.120026693116050e-19 -5.871005178570602e-17  4.190215394447234e-01
 1.013281280676006e+00  4.190215394447234e-01 -3.455497939394200e-17

-2.502304839639748e-17 -1.257620002505081e-19  1.012131417741592e+00
-1.257620002505081e-19 -1.644522680048795e-17  4.205926591987625e-01
 1.012131417741592e+00  4.205926591987625e-01 -3.450976172689599e-17

-2.505977308880816e-17 -1.250918211966543e-19  1.012947692241122e+00
-1.250918211966543e-19  5.218754439200386e-17  4.209073397773613e-01
 1.012947692241122e+00  4.209073397773613e-01 -3.453818844804694e-17

-2.506218475872039e-17 -9.703558810691514e-20  1.011693257801184e+00
-9.703558810691514e-20 -5.852404645225801e-17  4.220260623952798e-01
 1.011693257801184e+00  4.220260623952798e-01 -3.449585718220661e-17

-2.507360109944814e-17 -1.341890076777757e-19  1.014049906853649e+00
-1.341890076777757e-19 -2.369621776682316e-17  4.188996110388677e-01
 1.014049906853649e+00  4.188996110388677e-01 -3.457938785326562e-17

-2.506296484790710e-17 -1.274027911309306e-19  1.012736439664391e+00
-1.274027911309306e-19 -9.112294550275114e-18  4.245181251784881e-01
 1.012736439664391e+00  4.245181251784881e-01 -3.454596814924796e-17

-2.505330412129350e-17 -1.310680994037766e-19  1.009004062416250e+00
-1.310680994037766e-19 -4.268131584465336e-18  4.265907523365233e-01
 1.009004062416250e+00  4.265907523365233e-01 -3.441885811611817e-17

-2.512112874160568e-17 -1.365097224108570e-19  1.016953105551428e+00
-1.365097224108570e-19  6.878669277937924e-18  4.150122148724097e-01
 1.016953105551428e+00  4.150122148724097e-01 -3.468572490162968e-17

-2.505964122580237e-17 -9.364199434999606e-20  1.011028916915160e+00
-9.364199434999606e-20 -3.826574085632141e-17  4.181845476408479e-01
 1.011028916915160e+00  4.181845476408479e-01 -3.447860942403989e-17

-2.518460849604249e-17 -8.582316083040904e-20  1.013331685493103e+00
-8.582316083040904e-20 -3.261985299112234e-17  4.292343934663632e-01
 1.013331685493103e+00  4.292343934663632e-01 -3.457789444744193e-17

-2.511211520879551e-17 -7.102225571774703e-20  1.011001877914143e+00
-7.102225571774703e-20 -5.888861581146109e-17  4.283080142253113e-01
 1.011001877914143e+00  4.283080142253113e-01 -3.449086738493286e-17

-2.513852676052037e-17 -1.210373616287668e-19  1.020350335139433e+00
-1.210373616287668e-19 -5.434679989785666e-19  3.929777306511406e-01
 1.020350335139433e+00  3.929777306511406e-01 -3.477181701717915e-17

-2.539100750398199e-17 -1.137052224649589e-19  1.036042780138807e+00
-1.137052224649589e-19  2.739525928332283e-17  3.938257615375072e-01
 1.036042780138807e+00  3.938257615375072e-01 -3.535757093313371e-17

-2.524076745554351e-17 -1.141206455069066e-19  1.010871137303841e+00
-1.141206455069066e-19 -5.623650043125728e-18  4.475499780187569e-01
 1.010871137303841e+00  4.475499780187569e-01 -3.454912562321437e-17

-2.533116614327769e-17 -1.221104144078081e-19  1.021052941769088e+00
-1.221104144078081e-19  1.510402628881714e-17  4.276429760341920e-01
 1.021052941769088e+00  4.276429760341920e-01 -3.487720170292594e-17

-2.538486333211332e-17 -1.487937777584833e-19  1.033000933819179e+00
-1.487937777584833e-19  1.541868367124738e-17  3.915176183378001e-01
 1.033000933819179e+00  3.915176183378001e-01 -3.526955444316565e-17

-2.519105171680997e-17 -8.842864424474495e-20  1.015973350630675e+00
-8.842864424474495e-20 -3.698511722512397e-17  4.083291880839410e-01
 1.015973350630675e+00  4.083291880839410e-01 -3.467290378673203e-17

-2.515858228715900e-17 -1.026633666245606e-19  1.009737186138439e+00
-1.026633666245606e-19 -3.264233803021607e-17  4.264526781977290e-01
 1.009737186138439e+00  4.264526781977290e-01 -3.446887122420681e-17

-2.523036491433529e-17 -1.442543601145990e-19  1.013392147027501e+00
-1.442543601145990e-19  5.283604599824024e-17  4.234146582943342e-01
 1.013392147027501e+00  4.234146582943342e-01 -3.460110017945520e-17

-2.520275525378559e-17 -9.643787213044204e-20  1.013708123566230e+00
-9.643787213044204e-20 -2.428630653240162e-17  4.166716883515901e-01
 1.013708123566230e+00  4.166716883515901e-01 -3.461088051569229e-17

-2.520333485705537e-17 -1.029474917308040e-19  1.012435305753741e+00
-1.029474917308040e-19  8.336137419089944e-18  4.166903470520207e-01
 1.012435305753741e+00  4.166903470520207e-01 -3.457403923941179e-17

-2.520041980626584e-17 -6.406069352347269e-20  1.010393608851062e+00
-6.406069352347269e-20 -7.314592526009952e-17  4.205843162380898e-01
 1.010393608851062e+00  4.205843162380898e-01 -3.450792898578325e-17

-2.523954292741129e-17 -5.866713460896925e-20  1.012621048906084e+00
-5.866713460896925e-20 -7.316629286370473e-17  4.182828451230756e-01
 1.012621048906084e+00  4.182828451230756e-01 -3.459412287764139e-17

-2.527571521572000e-17 -7.679176034266407e-20  1.013044968851400e+00
-7.679176034266407e-20 -6.319211526844585e-17  4.207963031244536e-01
 1.013044968851400e+00  4.207963031244536e-01 -3.461393037451117e-17

-2.533311313161926e-17 -1.294360154617921e-19  1.016050109363299e+00
-1.294360154617921e-19  7.713097243404744e-17  4.167093672892832e-01
 1.016050109363299e+00  4.167093672892832e-01 -3.472786388964421e-17

-2.534121624839437e-17 -7.769722232028685e-20  1.015943863860599e+00
-7.769722232028685e-20 -3.081799738893322e-17  4.188020181595091e-01
 1.015943863860599e+00  4.188020181595091e-01 -3.472579592295803e-17

-2.538077965225021e-17 -8.971578914635987e-20  1.017550321084348e+00
-8.971578914635987e-20  4.438123408727106e-18  4.172158499790685e-01
 1.017550321084348e+00  4.172158499790685e-01 -3.478348217715339e-17

-2.539715593393763e-17 -7.494539831756976e-20  1.012631194533726e+00
-7.494539831756976e-20 -1.679184857418313e-17  4.199032240838041e-01
 1.012631194533726e+00  4.199032240838041e-01 -3.461316727380075e-17

-2.533556704840281e-17 -8.907625286363726e-20  1.012304690398503e+00
-8.907625286363726e-20  3.834844109255671e-18  4.176805416024536e-01
 1.012304690398503e+00  4.176805416024536e-01 -3.459613650603409e-17

-2.539223978285477e-17 -9.335943231744232e-20  1.015554169695359e+00
-9.335943231744232e-20  3.429418474484102e-17  4.188613490993220e-01
 1.015554169695359e+00  4.188613490993220e-01 -3.472539117334285e-17

-2.544105298149554e-17 -9.328678095115100e-20  1.017855207068522e+00
-9.328678095115100e-20  3.176639481056154e-17  4.176929010530459e-01
 1.017855207068522e+00  4.176929010530459e-01 -3.480908329836394e-17

-2.533654380144755e-17 -5.990491033906235e-20  1.008998502889048e+00
-5.990491033906235e-20  1.384021095629071e-17  4.182446672956948e-01
 1.008998502889048e+00  4.182446672956948e-01 -3.449459783055087e-17

-2.538404453881613e-17 -4.522400932355183e-20  1.013093128640934e+00
-4.522400932355183e-20 -2.768464102622780e-17  4.135437789960234e-01
 1.013093128640934e+00  4.135437789960234e-01 -3.463978309165070e-17

-2.539655535931416e-17 -6.672608869630898e-20  1.011900660322717e+00
-6.672608869630898e-20 -1.751279425990571e-17  4.213880277133085e-01
 1.011900660322717e+00  4.213880277133085e-01 -3.460249064755727e-17

-2.551274358350241e-17 -7.866587302991026e-20  1.014987900470864e+00
-7.866587302991026e-20 -5.898519474026422e-17  4.186458914932347e-01
 1.014987900470864e+00  4.186458914932347e-01 -3.471614035179143e-17

-2.550872205802799e-17 -3.481210025821663e-20  1.018814417268415e+00
-3.481210025821663e-20 -2.298452568863620e-17  4.158677151602375e-01
 1.018814417268415e+00  4.158677151602375e-01 -3.485717914331079e-17

-2.554265357952742e-17 -6.903185826259492e-20  1.020943303276842e+00
-6.903185826259492e-20 -3.212756097261648e-17  4.127169358760149e-01
 1.020943303276842e+00  4.127169358760149e-01 -3.493207960745068e-17

-2.553413744047253e-17 -1.309214456333334e-20  1.014218861866571e+00
-1.309214456333334e-20 -8.002859424005573e-17  4.168738015241288e-01
 1.014218861866571e+00  4.168738015241288e-01 -3.469158572000621e-17

-2.537366327503322e-17 -5.299849218960703e-20  1.006839089889041e+00
-5.299849218960703e-20  3.454117313211571e-17  4.194879310424905e-01
 1.006839089889041e+00  4.194879310424905e-01 -3.442125652098471e-17

-2.531551487773413e-17 -7.684125892019073e-20  1.000731494443981e+00
-7.684125892019073e-20 -3.560647585754582e-17  4.220069876591288e-01
 1.000731494443981e+00  4.220069876591288e-01 -3.420136308203967e-17

-2.540479949302501e-17 -4.575579162402799e-20  1.006850285042599e+00
-4.575579162402799e-20 -8.133928107338517e-17  4.180481552285088e-01
 1.006850285042599e+00  4.180481552285088e-01 -3.442909840407336e-17

-2.559861594104657e-17 -8.664856153408123e-20  1.021441683129339e+00
-8.664856153408123e-20  2.676500638714623e-17  4.112328323404177e-01
 1.021441683129339e+00  4.112328323404177e-01 -3.494994760780110e-17

-2.546218618043708e-17 -6.182256175596399e-20  1.008853775269520e+00
-6.182256175596399e-20 -2.525634923164351e-17  4.190233694054683e-01
 1.008853775269520e+00  4.190233694054683e-01 -3.450130872183084e-17

-2.543036085294310e-17 -5.002866670371232e-20  1.004423882224901e+00
-5.002866670371232e-20 -4.319042492380608e-17  4.215152701948850e-01
 1.004423882224901e+00  4.215152701948850e-01 -3.434027489035320e-17

-2.560012755800358e-17 -1.037680039524091e-19  1.013234443778306e+00
-1.037680039524091e-19  1.020935624321007e-16  4.140222219887916e-01
 1.013234443778306e+00  4.140222219887916e-01 -3.465243799519271e-17

-2.558153385007898e-17 -2.561594525422160e-20  1.012232115442573e+00
-2.561594525422160e-20  6.574087274397403e-17  4.149578229398125e-01
 1.012232115442573e+00  4.149578229398125e-01 -3.462420371063053e-17

-2.567608602016167e-17 -1.360256658546249e-21  1.017380947069347e+00
-1.360256658546249e-21 -1.338883370462343e-16  4.152516891378114e-01
 1.017380947069347e+00  4.152516891378114e-01 -3.481403239476054e-17

-2.566354076696904e-17 -6.011200003219623e-20  1.015954691653286e+00
-6.011200003219623e-20  9.977491532726803e-18  4.106415194610582e-01
 1.015954691653286e+00  4.106415194610582e-01 -3.476318156800984e-17

-2.553871759999943e-17 -5.511819452916650e-20  1.005185710810779e+00
-5.511819452916650e-20 -9.901256848098260e-17  4.184514622607003e-01
 1.005185710810779e+00  4.184514622607003e-01 -3.437159036368069e-17

-2.558921881972859e-17 -9.654796881538608e-20  1.005347361862324e+00
-9.654796881538608e-20 -9.181683006256563e-17  4.192686167251754e-01
 1.005347361862324e+00  4.192686167251754e-01 -3.437659627075075e-17

-2.560209096138330e-17 -5.302474499603075e-20  1.005860771663338e+00
-5.302474499603075e-20  4.453973890291527e-17  4.207518935450206e-01
 1.005860771663338e+00  4.207518935450206e-01 -3.439929761208965e-17

-2.575515990982946e-17 -6.239517373012678e-20  1.016219772276910e+00
-6.239517373012678e-20 -6.743317393246537e-17  4.142853406540216e-01
 1.016219772276910e+00  4.142853406540216e-01 -3.477240501742333e-17

-2.573778721634563e-17 -6.942771086975883e-20  1.011539877327268e+00
-6.942771086975883e-20  5.969321492938560e-17  4.224362258093006e-01
 1.011539877327268e+00  4.224362258093006e-01 -3.461832417139914e-17

-2.573493687948281e-17 -6.160414096148017e-20  1.012266040374768e+00
-6.160414096148017e-20  1.094019185695185e-16  4.084170530092465e-01
 1.012266040374768e+00  4.084170530092465e-01 -3.462725625974019e-17

-2.581714189520503e-17 -5.852870177540790e-20  1.014303374036957e+00
-5.852870177540790e-20 -1.378761561557114e-17  4.138375120111157e-01
 1.014303374036957e+00  4.138375120111157e-01 -3.471889535967729e-17

-2.599818941881926e-17 -3.203052674686499e-20  1.023728292005961e+00
-3.203052674686499e-20 -1.255881742841248e-16  4.176232400909395e-01
 1.023728292005961e+00  4.176232400909395e-01 -3.507513221728399e-17

-2.584174510854310e-17 -3.527425298397135e-20  1.011448373936243e+00
-3.527425298397135e-20 -2.436548281792140e-17  4.215689516881811e-01
 1.011448373936243e+00  4.215689516881811e-01 -3.461364818464970e-17

-2.544720189237247e-17 -4.502856496073816e-20  9.879291473079137e-01
-4.502856496073816e-20 -2.425780074524720e-17  4.182003072386873e-01
 9.879291473079137e-01  4.182003072386873e-01 -3.373906806294380e-17

-2.538093991521697e-17 -6.302092148093484e-20  9.842576443919031e-01
-6.302092148093484e-20 -3.500968027428373e-17  4.111378680404615e-01
 9.842576443919031e-01  4.111378680404615e-01 -3.357484619673801e-17

-2.568104784250999e-17 -8.401616185104750e-20  9.976767031389018e-01
-8.401616185104750e-20 -7.744433807925021e-17  4.209629651363954e-01
 9.976767031389018e-01  4.209629651363954e-01 -3.409644855683485e-17

-2.588723089985027e-17 -7.589185066489760e-20  1.004752334547026e+00
-7.589185066489760e-20 -5.056807198598096e-17  4.298435278975896e-01
 1.004752334547026e+00  4.298435278975896e-01 -3.439505582491281e-17

-2.613550255264898e-17 -8.850801234099894e-20  1.021248878965571e+00
-8.850801234099894e-20 -9.794130452985623e-18  4.236460090620852e-01
 1.021248878965571e+00  4.236460090620852e-01 -3.498957382133646e-17

-2.606516124907013e-17 -8.497934608778648e-20  1.015072932206971e+00
-8.497934608778648e-20  1.163053066168744e-17  4.192507966860657e-01
 1.015072932206971e+00  4.192507966860657e-01 -3.475064164345576e-17

-2.588005580428697e-17 -1.061603023803261e-19  1.001539732716683e+00
-1.061603023803261e-19 -2.653267996984177e-17  4.173155026450158e-01
 1.001539732716683e+00  4.173155026450158e-01 -3.424678474851529e-17

-2.595489127663249e-17 -3.282040836783418e-20  1.004138583414777e+00
-3.282040836783418e-20 -1.447486126536626e-16  4.175666072214471e-01
 1.004138583414777e+00  4.175666072214471e-01 -3.434112499384572e-17

-2.604305196080864e-17 -5.801600406400980e-20  1.004456272839889e+00
-5.801600406400980e-20 -2.460601650242378e-17  4.250449357230784e-01
 1.004456272839889e+00  4.250449357230784e-01 -3.436432856092459e-17

-2.610013721023698e-17 -8.474318265296335e-20  1.008411451847991e+00
-8.474318265296335e-20  4.249451362565760e-17  4.221633342003504e-01
 1.008411451847991e+00  4.221633342003504e-01 -3.450949084735919e-17

-2.613226730581529e-17 -8.963299322249096e-20  1.009969427248790e+00
-8.963299322249096e-20 -1.332134655970262e-16  4.180655658604351e-01
 1.009969427248790e+00  4.180655658604351e-01 -3.456796044523176e-17

-2.606925607566197e-17 -1.155823790589531e-19  1.003390238591287e+00
-1.155823790589531e-19 -8.494537025183766e-17  4.230474350860286e-01
 1.003390238591287e+00  4.230474350860286e-01 -3.432828560869661e-17

-2.613519002175096e-17 -1.104911019726275e-19  1.006133991138844e+00
-1.104911019726275e-19 -1.965351788186904e-18  4.162039090821174e-01
 1.006133991138844e+00  4.162039090821174e-01 -3.441674088419850e-17

-2.617647915747267e-17 -1.024945956905221e-19  1.005980627662530e+00
-1.024945956905221e-19 -2.247709703684115e-17  4.173341698325987e-01
 1.005980627662530e+00  4.173341698325987e-01 -3.441530301563535e-17

-2.616921957158347e-17 -1.318255015048050e-19  1.004431520349654e+00
-1.318255015048050e-19 -3.723654598878418e-17  4.230281537967092e-01
 1.004431520349654e+00  4.230281537967092e-01 -3.437232302478173e-17

-2.625727288834305e-17 -5.671446967732445e-20  1.007465231740897e+00
-5.671446967732445e-20 -4.975605829173754e-17  4.224328349643462e-01
 1.007465231740897e+00  4.224328349643462e-01 -3.449233394229459e-17

-2.634866848881702e-17 -1.343336719573064e-19  1.007283215135252e+00
-1.343336719573064e-19  1.338890597818866e-17  4.212842212906116e-01
 1.007283215135252e+00  4.212842212906116e-01 -3.450056059152790e-17

-2.637050057911189e-17 -1.352316094054760e-19  1.006102320518559e+00
-1.352316094054760e-19  5.982523805514143e-17  4.222375940001281e-01
 1.006102320518559e+00  4.222375940001281e-01 -3.446823702869047e-17

-2.638418142975024e-17 -1.320002009968074e-19  1.004786326924751e+00
-1.320002009968074e-19  1.061701126728097e-16  4.183040454789279e-01
 1.004786326924751e+00  4.183040454789279e-01 -3.442761778587100e-17

-2.669643289256212e-17 -8.499072121333870e-20  1.018932299643061e+00
-8.499072121333870e-20 -2.505600495793527e-17  4.164588350304787e-01
 1.018932299643061e+00  4.164588350304787e-01 -3.497541087718559e-17

-2.657560929616999e-17 -2.471351823207624e-19  9.977749460968312e-01
-2.471351823207624e-19  1.551333515970460e-16  4.484976304520762e-01
 9.977749460968312e-01  4.484976304520762e-01 -3.427949299612486e-17

-2.683513510619370e-17 -4.943175564181492e-20  1.020540943326035e+00
-4.943175564181492e-20 -1.945379276121731e-17  4.244129632271385e-01
 1.020540943326035e+00  4.244129632271385e-01 -3.508122175555782e-17

-2.678329344254240e-17 -1.037711260845897e-19  1.014052857269053e+00
-1.037711260845897e-19  4.866521855745685e-17  4.140280170319420e-01
 1.014052857269053e+00  4.140280170319420e-01 -3.486471712362255e-17

-2.689107776042822e-17 -7.877172035307973e-20  1.014736291137525e+00
-7.877172035307973e-20  3.201055546455200e-17  4.149413054452381e-01
 1.014736291137525e+00  4.149413054452381e-01 -3.495092210685382e-17

-2.689228797676402e-17 -5.488980528865870e-21  1.009297242475681e+00
-5.488980528865870e-21 -6.873362703495342e-17  4.133800950523956e-01
 1.009297242475681e+00  4.133800950523956e-01 -3.481565445687070e-17

-2.686324837622517e-17  2.741223219538049e-20  1.001137259725126e+00
 2.741223219538049e-20 -4.200743587211656e-17  4.115259895086774e-01
 1.001137259725126e+00  4.115259895086774e-01 -3.457395820046891e-17

-2.689780457805672e-17  5.620659490540942e-20  9.960179392254501e-01
 5.620659490540942e-20 -1.526515162800038e-17  4.120236067655732e-01
 9.960179392254501e-01  4.120236067655732e-01 -3.443304753983939e-17

-2.698073300563826e-17  7.137168843455242e-20  9.937984588840708e-01
 7.137168843455242e-20  1.140184112340667e-17  4.107671020017295e-01
 9.937984588840708e-01  4.107671020017295e-01 -3.437849800150714e-17

-2.721061857028454e-17  1.551124594067813e-19  9.994874377411017e-01
 1.551124594067813e-19  7.898017471285957e-17  4.139232658312205e-01
 9.994874377411017e-01  4.139232658312205e-01 -3.460477772305446e-17

-2.736648621616965e-17  1.524177165136698e-19  1.000843079563600e+00
 1.524177165136698e-19  7.973156465773659e-17  4.114021045716174e-01
 1.000843079563600e+00  4.114021045716174e-01 -3.465885530094118e-17

-2.751843859531374e-17  1.130637722660305e-19  1.000687674706923e+00
 1.130637722660305e-19 -1.848306814073011e-16  4.204393713339776e-01
 1.000687674706923e+00  4.204393713339776e-01 -3.467092379647000e-17

-2.785025419526478e-17  9.204043113902139e-20  1.017853017917484e+00
 9.204043113902139e-20 -2.410048486423652e-17  4.055785977664149e-01
 1.017853017917484e+00  4.055785977664149e-01 -3.528549890335415e-17

-2.791179823579297e-17 -1.349657865673375e-20  1.018680940682569e+00
-1.349657865673375e-20  1.416442656476137e-16  4.068250974441311e-01
 1.018680940682569e+00  4.068250974441311e-01 -3.532882424144396e-17

-2.787330403180582e-17  6.113647902662107e-20  1.006800118786535e+00
 6.113647902662107e-20 -1.280980557328003e-17  4.186492752767499e-01
 1.006800118786535e+00  4.186492752767499e-01 -3.493364259061550e-17

-2.801606332506570e-17  1.185453763870314e-19  1.009193338539727e+00
 1.185453763870314e-19  2.235154752309564e-17  4.122116061842130e-01
 1.009193338539727e+00  4.122116061842130e-01 -3.504034455539762e-17

-2.821842506012070e-17  2.509514687732445e-19  1.010080971245925e+00
 2.509514687732445e-19 -3.171402081596460e-17  4.179928154372083e-01
 1.010080971245925e+00  4.179928154372083e-01 -3.513544769149785e-17

-2.833017718201778e-17  1.131763891812038e-19  1.004097345375851e+00
 1.131763891812038e-19  5.357372916386585e-17  4.155383596317198e-01
 1.004097345375851e+00  4.155383596317198e-01 -3.496725241742664e-17

-2.843914588515365e-17  1.365067474237848e-19  1.001317874679245e+00
 1.365067474237848e-19  5.343429657257485e-17  4.204998615195028e-01
 1.001317874679245e+00  4.204998615195028e-01 -3.491960137649787e-17

-2.865340912229800e-17  3.176604462629255e-19  1.008409551143860e+00
 3.176604462629255e-19  1.116656032523518e-16  4.062985454199750e-01
 1.008409551143860e+00  4.062985454199750e-01 -3.519880588153334e-17

-2.871729436273021e-17  1.892021528170794e-19  9.965197017452329e-01
 1.892021528170794e-19 -1.203472071306441e-16  4.317546991356147e-01
 9.965197017452329e-01  4.317546991356147e-01 -3.483953478226862e-17

-2.896020388431946e-17  2.526752224092209e-19  1.005066817122529e+00
 2.526752224092209e-19 -6.493601673550729e-17  4.263118777401084e-01
 1.005066817122529e+00  4.263118777401084e-01 -3.517476673091359e-17

-2.900492418085782e-17  2.291308497966285e-19  1.008244780128121e+00
 2.291308497966285e-19  2.021359065028964e-17  4.107701725833648e-01
 1.008244780128121e+00  4.107701725833648e-01 -3.530438981753669e-17

-2.901851453903570e-17  3.104470932776524e-19  1.003702700465801e+00
 3.104470932776524e-19 -6.285388735584782e-18  4.044175788177627e-01
 1.003702700465801e+00  4.044175788177627e-01 -3.515003728602906e-17

-2.924150372912277e-17  2.994074409136241e-19  1.008338666489845e+00
 2.994074409136241e-19  3.006822349082854e-17  4.113731740210668e-01
 1.008338666489845e+00  4.113731740210668e-01 -3.536921739091190e-17

-2.942362271030560e-17  3.607927291594753e-19  1.000503080200742e+00
 3.607927291594753e-19 -9.771699899578891e-18  4.184695619181554e-01
 1.000503080200742e+00  4.184695619181554e-01 -3.517820397775435e-17

-2.983811524984644e-17  4.417623732100253e-19  1.004978309649722e+00
 4.417623732100253e-19 -6.076753722714335e-17  4.223527676494387e-01
 1.004978309649722e+00  4.223527676494387e-01 -3.544952667034483e-17

-3.011666826816926e-17  4.921103351758370e-19  1.003964823539785e+00
 4.921103351758370e-19 -5.138418884403676e-17  4.245234426675127e-01
 1.003964823539785e+00  4.245234426675127e-01 -3.550059686697279e-17

-3.037000309010935e-17  5.686458346225331e-19  9.923043217587162e-01
 5.686458346225331e-19 -4.828442826990179e-17  4.203318062383790e-01
 9.923043217587162e-01  4.203318062383790e-01 -3.520309184334513e-17

-3.091421140789132e-17  5.999445734759364e-19  1.006468432954105e+00
 5.999445734759364e-19 -9.401868778016485e-18  4.143828574440317e-01
 1.006468432954105e+00  4.143828574440317e-01 -3.582557073519743e-17

-3.126805862884182e-17  5.962487706918970e-19  1.012164334936011e+00
 5.962487706918970e-19 -3.553262452065512e-17  4.134361663899841e-01
 1.012164334936011e+00  4.134361663899841e-01 -3.611888754150130e-17

-3.185868700085591e-17  7.170031119999586e-19  1.009870858956381e+00
 7.170031119999586e-19 -1.276733925934977e-16  4.183201762716943e-01
 1.009870858956381e+00  4.183201762716943e-01 -3.623598084067261e-17

-3.233440002440494e-17  8.569137394773948e-19  1.006244233721856e+00
 8.569137394773948e-19 -2.682867084329572e-17  4.150999029752304e-01
 1.006244233721856e+00  4.150999029752304e-01 -3.626543024176636e-17

-3.296710734507323e-17  1.046265833629674e-18  1.008490935787100e+00
 1.046265833629674e-18  7.420237615951743e-17  4.211680292411764e-01
 1.008490935787100e+00  4.211680292411764e-01 -3.654178347620791e-17

-3.369902316912937e-17  1.223500691973828e-18  1.008446108950517e+00
 1.223500691973828e-18  7.288742243431142e-17  4.195838975337908e-01
 1.008446108950517e+00  4.195838975337908e-01 -3.679655235788616e-17

-3.420646587038913e-17  1.421778643210660e-18  1.009374606329093e+00
 1.421778643210660e-18 -8.592183824627854e-17  4.169908057720874e-01
 1.009374606329093e+00  4.169908057720874e-01 -3.698466798039517e-17

-3.464152327285584e-17  1.360196466189368e-18  1.009534448347554e+00
 1.360196466189368e-18 -5.429851154659775e-17  4.182373382289550e-01
 1.009534448347554e+00  4.182373382289550e-01 -3.713176784071329e-17

-3.522769039706697e-17  1.519538253818903e-18  1.008346056787557e+00
 1.519538253818903e-18 -9.070876839944643e-17  4.228446199548839e-01
 1.008346056787557e+00  4.228446199548839e-01 -3.728804008148019e-17

-3.590570927604521e-17  1.705053858078993e-18  1.008358168306723e+00
 1.705053858078993e-18 -2.277323398141506e-18  4.189629861492045e-01
 1.008358168306723e+00  4.189629861492045e-01 -3.751780394045247e-17

-3.665813054352225e-17  1.872154562463093e-18  1.007786975016397e+00
 1.872154562463093e-18  1.114435840403735e-16  4.182156574695962e-01
 1.007786975016397e+00  4.182156574695962e-01 -3.775707830433713e-17

-3.771702690869256e-17  2.317874885348877e-18  1.007152265845686e+00
 2.317874885348877e-18 -1.200825046902272e-17  4.203970280313584e-01
 1.007152265845686e+00  4.203970280313584e-01 -3.808849742651758e-17

-3.905362472910666e-17  2.726251229836283e-18  1.006119285572759e+00
 2.726251229836283e-18 -1.442391150265750e-17  4.185599446589091e-01
 1.006119285572759e+00  4.185599446589091e-01 -3.852923479208319e-17

-4.053767158292783e-17  3.139361624307051e-18  1.005479795101495e+00
 3.139361624307051e-18  2.901517271985997e-17  4.210785537284399e-01
 1.005479795101495e+00  4.210785537284399e-01 -3.901017932090252e-17

-4.178935729942745e-17  3.456324459955074e-18  1.009226121444025e+00
 3.456324459955074e-18  4.854024669207440e-17  4.160141056901641e-01
 1.009226121444025e+00  4.160141056901641e-01 -3.954531389147122e-17

-4.255663349040188e-17  3.641362159561897e-18  1.004106291596344e+00
 3.641362159561897e-18  7.464653598543896e-18  4.194553458563152e-01
 1.004106291596344e+00  4.194553458563152e-01 -3.965111951282541e-17

-4.364838152564874e-17  4.131323324336088e-18  1.002492728755203e+00
 4.131323324336088e-18 -5.317887083908065e-17  4.173859641751964e-01
 1.002492728755203e+00  4.173859641751964e-01 -3.998885358194478e-17

-4.507564552842282e-17  4.455016049767046e-18  9.977072654202541e-01
 4.455016049767046e-18 -7.414182888310858e-17  4.224355487793845e-01
 9.977072654202541e-01  4.224355487793845e-01 -4.033252341330754e-17

-4.623416513448953e-17  5.095930666029329e-18  9.997713340877119e-01
 5.095930666029329e-18 -7.263292177147560e-17  4.197382765238362e-01
 9.997713340877119e-01  4.197382765238362e-01 -4.080598297410409e-17

-4.756956707370299e-17  5.507553346038933e-18  1.002611716065482e+00
 5.507553346038933e-18 -5.367681807980671e-17  4.160262231167536e-01
 1.002611716065482e+00  4.160262231167536e-01 -4.135168366749210e-17

-4.897918212544346e-17  5.948048322822405e-18  1.004193227615453e+00
 5.948048322822405e-18 -1.487228755712305e-16  4.139314013290799e-01
 1.004193227615453e+00  4.139314013290799e-01 -4.188894319315881e-17

-5.060478418589691e-17  6.660176560604087e-18  1.003939942213057e+00
 6.660176560604087e-18 -1.032477398294577e-16  4.179287040941895e-01
 1.003939942213057e+00  4.179287040941895e-01 -4.243581537287632e-17

-5.260317394075985e-17  7.369636974280967e-18  1.009124555918499e+00
 7.369636974280967e-18 -1.691057940302752e-16  4.140706140226834e-01
 1.009124555918499e+00  4.140706140226834e-01 -4.327007205778213e-17

-5.441248915943033e-17  8.241513108320305e-18  1.015525274301383e+00
 8.241513108320305e-18 -1.273270254174614e-16  4.091931548394586e-01
 1.015525274301383e+00  4.091931548394586e-01 -4.408466166232089e-17

-5.836084066223025e-17  9.577259523757868e-18  1.009838423982853e+00
 9.577259523757868e-18 -6.560988464025722e-17  4.156963158917263e-01
 1.009838423982853e+00  4.156963158917263e-01 -4.523100701870064e-17

-6.185094487593390e-17  1.108208055199636e-17  9.993073186511935e-01
 1.108208055199636e-17 -1.855231548764914e-16  4.234545477568928e-01
 9.993073186511935e-01  4.234545477568928e-01 -4.606038110768256e-17

-6.401204091693005e-17  1.203132258253457e-17  1.003680678532215e+00
 1.203132258253457e-17 -1.452440828071468e-17  4.203995140541413e-01
 1.003680678532215e+00  4.203995140541413e-01 -4.690293246111450e-17

-6.806327448037789e-17  1.377538013133980e-17  1.013268152198383e+00
 1.377538013133980e-17  1.280777151445797e-16  4.140591602093082e-01
 1.013268152198383e+00  4.140591602093082e-01 -4.855205257839591e-17

-7.508967114108337e-17  1.703531347708840e-17  1.012839357580323e+00
 1.703531347708840e-17 -2.017553996055943e-17  4.177190724889835e-01
 1.012839357580323e+00  4.177190724889835e-01 -5.084638248834459e-17

-8.233787530471351e-17  2.043085950365927e-17  1.012080691071852e+00
 2.043085950365927e-17 -9.418174269215018e-17  4.195084146537510e-01
 1.012080691071852e+00  4.195084146537510e-01 -5.318166668859064e-17

-8.791889016278365e-17  2.295074331902022e-17  1.009666088729722e+00
 2.295074331902022e-17  1.723830037451463e-17  4.245868153100080e-01
 1.009666088729722e+00  4.245868153100080e-01 -5.490820998039258e-17

-9.627576207855785e-17  2.709323019158032e-17  1.013218279990306e+00
 2.709323019158032e-17  4.334587999195220e-17  4.153269832288968e-01
 1.013218279990306e+00  4.153269832288968e-01 -5.770252338748224e-17

-1.092288463553632e-16  3.355057426660517e-17  1.026564544461564e+00
 3.355057426660517e-17  2.328191077657918e-17  4.058777013641363e-01
 1.026564544461564e+00  4.058777013641363e-01 -6.226545381682592e-17

-1.169216856659523e-16  3.704977455643511e-17  1.015157844491249e+00
 3.704977455643511e-17 -2.923983879941374e-16  4.282068065628486e-01
 1.015157844491249e+00  4.282068065628486e-01 -6.435567725089906e-17

-1.264153869323783e-16  4.241597982118554e-17  1.019545096737521e+00
 4.241597982118554e-17 -3.867135132258087e-16  4.320402445057483e-01
 1.019545096737521e+00  4.320402445057483e-01 -6.747715585185366e-17

-1.491440269813948e-16  5.490974957776331e-17  1.022542776135379e+00
 5.490974957776331e-17 -4.187001846851759e-16  4.157613853253809e-01
 1.022542776135379e+00  4.157613853253809e-01 -7.459117003262609e-17

-1.942947490031720e-16  7.965798413595718e-17  1.013471647242416e+00
 7.965798413595718e-17 -3.030267415470514e-16  4.192534891059590e-01
 1.013471647242416e+00  4.192534891059590e-01 -8.794178294217936e-17

-2.499249220377355e-16  1.101356718750720e-16  1.012917444206235e+00
 1.101356718750720e-16  1.419246661151529e-17  4.205178605327899e-01
 1.012917444206235e+00  4.205178605327899e-01 -1.043674982449162e-16

-3.190948719072536e-16  1.484093785642775e-16  1.011085544130035e+00
 1.484093785642775e-16 -3.375259365102097e-16  4.199786858015452e-01
 1.011085544130035e+00  4.199786858015452e-01 -1.244182674592956e-16

-4.079329724777327e-16  1.952091502577257e-16  1.009256339277713e+00
 1.952091502577257e-16 -6.923898084873566e-16  4.213804593668467e-01
 1.009256339277713e+00  4.213804593668467e-01 -1.497979964746318e-16

-4.809667251351282e-16  2.320755724043001e-16  1.010088513678586e+00
 2.320755724043001e-16 -6.067699721987816e-16  4.207794684507932e-01
 1.010088513678586e+00  4.207794684507932e-01 -1.705332976864738e-16

-6.402056656651216e-16  3.086657410140120e-16  1.011205879704243e+00
 3.086657410140120e-16 -8.542108588613951e-16  4.202246099117563e-01
 1.011205879704243e+00  4.202246099117563e-01 -2.156240404920362e-16

-1.045946921152906e-15  4.748123085332170e-16  1.009579033989015e+00
 4.748123085332170e-16 -1.043667024489554e-15  4.202381149537176e-01
 1.009579033989015e+00  4.202381149537176e-01 -3.313342455734270e-16

-1.678026903876980e-15  6.563340468355551e-16  1.012286752821414e+00
 6.563340468355551e-16 -1.078906934491539e-15  4.177772659060821e-01
 1.012286752821414e+00  4.177772659060821e-01 -5.204529326948117e-16

-2.252956572638383e-15  7.725275449078039e-16  1.011992352811565e+00
 7.725275449078039e-16 -1.222103402875564e-15  4.241387375290821e-01
 1.011992352811565e+00  4.241387375290821e-01 -7.037877672289603e-16

-3.443453258156977e-15  8.557362591087637e-16  1.008174301589838e+00
 8.557362591087637e-16 -1.698947485523184e-15  4.274742402104363e-01
 1.008174301589838e+00  4.274742402104363e-01 -1.127683970375612e-15

-4.940669936408036e-15  7.316095230501862e-16  1.007810434065196e+00
 7.316095230501862e-16 -1.451880458132738e-15  4.119304841734348e-01
 1.007810434065196e+00  4.119304841734348e-01 -1.764422009112465e-15

-7.152143801355290e-15  3.335401313737794e-16  1.015897035856151e+00
 3.335401313737794e-16 -2.176353294956937e-15  4.011102512546305e-01
 1.015897035856151e+00  4.011102512546305e-01 -2.846137234412618e-15

-1.013868873142260e-14 -5.028650584365400e-16  9.977040204997667e-01
-5.028650584365400e-16 -2.539803589203803e-15  4.410222639925808e-01
 9.977040204997667e-01  4.410222639925808e-01 -4.495200342144122e-15

-1.439508742786304e-14 -1.888899480602818e-15  1.010136260838851e+00
-1.888899480602818e-15 -2.977729513002143e-15  4.398579063791165e-01
 1.010136260838851e+00  4.398579063791165e-01 -7.038254091457229e-15

 1.950316780913785e-14 -2.483438078627498e-14  1.013146468921140e+00
-2.483438078627498e-14  3.177535670172913e-14  4.184117425769126e-01
 1.013146468921140e+00  4.184117425769126e-01 -9.827817156608722e-16

-6.188036973422824e-13  1.488892450892242e-13  1.010796358120117e+00
 1.488892450892242e-13 -2.552261156085060e-13  4.179879949051010e-01
 1.010796358120117e+00  4.179879949051010e-01 -2.205319609552863e-13

 8.852249554528841e-14 -2.302548784715454e-14  1.010337540723889e+00
-2.302548784715454e-14  5.575673723291727e-14  4.164797210501064e-01
 1.010337540723889e+00  4.164797210501064e-01  1.805005954095072e-14

-6.540965191470527e-13  1.532173082047210e-13  1.007482248156971e+00
 1.532173082047210e-13 -3.321453654790381e-13  4.173985620719524e-01
 1.007482248156971e+00  4.173985620719524e-01 -1.631503353267536e-13

-8.561387406238160e-15  1.142916054555889e-14  1.010872690675234e+00
 1.142916054555889e-14  1.323438113203115e-15  4.184097434378691e-01
 1.010872690675234e+00  4.184097434378691e-01 -1.012042024933468e-14

-4.175334319530741e-15  9.308782176463480e-15  1.007768331679351e+00
 9.308782176463480e-15  8.095389703554950e-16  4.213878925676688e-01
 1.007768331679351e+00  4.213878925676688e-01 -4.843725259213528e-15

-3.189291650414407e-15  7.410242893158999e-15  1.011715104884080e+00
 7.410242893158999e-15  1.373868563353167e-15  4.136472373145475e-01
 1.011715104884080e+00  4.136472373145475e-01 -3.505047640489247e-15

-2.576495018370524e-15  4.420348436659148e-15  1.006144380716143e+00
 4.420348436659148e-15  1.675231755489133e-15  4.167566066764868e-01
 1.006144380716143e+00  4.167566066764868e-01 -2.055201917703596e-15

-1.755337448942376e-15  1.655951032909624e-15  1.008061673386626e+00
 1.655951032909624e-15  1.102707557442645e-15  4.171117089794396e-01
 1.008061673386626e+00  4.171117089794396e-01 -9.515591442009216e-16

-1.150251688690506e-15  6.494689263004648e-16  1.007358654363929e+00
 6.494689263004648e-16  5.684681369486147e-16  4.167401010372792e-01
 1.007358654363929e+00  4.167401010372792e-01 -5.238893526285757e-16

-8.247338105028199e-16  3.192318788348830e-16  1.006136794709981e+00
 3.192318788348830e-16  3.133841742433532e-16  4.163855162075817e-01
 1.006136794709981e+00  4.163855162075817e-01 -3.536859255343141e-16

-5.566371286474022e-16  1.338085763715835e-16  1.006566366213816e+00
 1.338085763715835e-16  1.426895975915277e-16  4.167621543365771e-01
 1.006566366213816e+00  4.167621543365771e-01 -2.336005969796937e-16

-3.673573339028270e-16  4.802418916701773e-17  1.008391612093787e+00
 4.802418916701773e-17  6.181269413241998e-18  4.169351207051594e-01
 1.008391612093787e+00  4.169351207051594e-01 -1.575192089156023e-16

-2.895209699926909e-16  2.418781007514465e-17  1.008249237106907e+00
 2.418781007514465e-17 -2.672193841742291e-17  4.171804907129799e-01
 1.008249237106907e+00  4.171804907129799e-01 -1.280013451991005e-16

-2.507365774384864e-16  1.498710437558875e-17  1.007522977247675e+00
 1.498710437558875e-17 -3.647867729987597e-17  4.159385974616143e-01
 1.007522977247675e+00  4.159385974616143e-01 -1.136422589990095e-16

-2.014123709011372e-16  5.360787442332035e-18  1.007302763705243e+00
 5.360787442332035e-18 -4.563841332541720e-17  4.167101560600766e-01
 1.007302763705243e+00  4.167101560600766e-01 -9.564488685610231e-17

-1.603810285129094e-16 -6.750640199526070e-21  1.008701069288851e+00
-6.750640199526070e-21 -5.308402091466652e-17  4.167028005057152e-01
 1.008701069288851e+00  4.167028005057152e-01 -8.096622947442135e-17

-1.234455929652675e-16 -5.876974063693986e-18  1.008782540854639e+00
-5.876974063693986e-18 -2.839593297048254e-17  4.165205277416007e-01
 1.008782540854639e+00  4.165205277416007e-01 -7.166088085716932e-17

-1.068247734920465e-16 -3.424574674034569e-18  1.007739386945235e+00
-3.424574674034569e-18 -4.081833202473144e-17  4.163254736480630e-01
 1.007739386945235e+00  4.163254736480630e-01 -6.207744710778615e-17

-9.314386718494360e-17 -3.595374502750381e-18  1.007255862875533e+00
-3.595374502750381e-18 -3.998925832312125e-17  4.162749374895353e-01
 1.007255862875533e+00  4.162749374895353e-01 -5.726813757584310e-17

-8.260814047075329e-17 -3.497544306741906e-18  1.007134118978618e+00
-3.497544306741906e-18 -4.050262567117240e-17  4.160606359829165e-01
 1.007134118978618e+00  4.160606359829165e-01 -5.361014047256701e-17

-7.383843997683959e-17 -3.310942212617148e-18  1.006612262871453e+00
-3.310942212617148e-18 -3.745114634091276e-17  4.157236799303588e-01
 1.006612262871453e+00  4.157236799303588e-01 -5.056641547383314e-17

-6.712016269452775e-17 -3.058920904483160e-18  1.006332094966787e+00
-3.058920904483160e-18 -3.746676554508252e-17  4.152017198446293e-01
 1.006332094966787e+00  4.152017198446293e-01 -4.822225563515121e-17

-6.160903514600586e-17 -2.788419576346820e-18  1.006058431606899e+00
-2.788419576346820e-18 -3.749968899418333e-17  4.151492837857580e-01
 1.006058431606899e+00  4.151492837857580e-01 -4.630326055274991e-17

-5.813022585782600e-17 -2.585672232135897e-18  1.005181986715189e+00
-2.585672232135897e-18 -2.762663186164778e-17  4.163303341501018e-01
 1.005181986715189e+00  4.163303341501018e-01 -4.508402214477721e-17

-5.457303391020105e-17 -2.363734481015891e-18  1.003073411522780e+00
-2.363734481015891e-18 -3.656513994936309e-17  4.133461271077987e-01
 1.003073411522780e+00  4.133461271077987e-01 -4.381130420454636e-17

-5.146350387038012e-17 -2.135226610181843e-18  1.005547416700060e+00
-2.135226610181843e-18 -3.631377788250069e-17  4.123832724317905e-01
 1.005547416700060e+00  4.123832724317905e-01 -4.281753281994587e-17

-4.955775558926112e-17 -2.004662036686143e-18  1.004251810172862e+00
-2.004662036686143e-18 -3.516524678986104e-17  4.178196693516169e-01
 1.004251810172862e+00  4.178196693516169e-01 -4.213122851777595e-17

-4.702559516984897e-17 -1.811090041362075e-18  1.002370436923522e+00
-1.811090041362075e-18 -2.343515933235726e-17  4.132727265907172e-01
 1.002370436923522e+00  4.132727265907172e-01 -4.120128089824918e-17

-4.475930349868315e-17 -1.631504762189703e-18  1.002459805020174e+00
-1.631504762189703e-18 -3.518024262556060e-17  4.107193992597929e-01
 1.002459805020174e+00  4.107193992597929e-01 -4.043086568763914e-17

-4.301224294407802e-17 -1.465086171167761e-18  1.009804541881166e+00
-1.465086171167761e-18 -3.428076216442389e-17  4.160222955382260e-01
 1.009804541881166e+00  4.160222955382260e-01 -4.004880538789377e-17

-4.145600118360479e-17 -1.336150947112586e-18  1.011828141062795e+00
-1.336150947112586e-18 -2.736645335189625e-17  4.160577257158749e-01
 1.011828141062795e+00  4.160577257158749e-01 -3.958158681147080e-17

-3.998353353613630e-17 -1.214521782876515e-18  1.008756193045589e+00
-1.214521782876515e-18 -2.905321526970764e-17  4.132437263012700e-01
 1.008756193045589e+00  4.132437263012700e-01 -3.897993635372747e-17

-3.855556910263822e-17 -1.096680798996583e-18  1.005248818536720e+00
-1.096680798996583e-18 -2.601606200099696e-17  4.148242852047945e-01
 1.005248818536720e+00  4.148242852047945e-01 -3.838839472955122e-17

-3.752775812436145e-17 -9.938210471903689e-19  1.013286913787612e+00
-9.938210471903689e-19 -2.557040169990662e-17  4.055528543559245e-01
 1.013286913787612e+00  4.055528543559245e-01 -3.827498937978109e-17

-3.692048292926087e-17 -9.385573032099398e-19  1.009305755046295e+00
-9.385573032099398e-19 -2.495444377703046e-17  4.181130264048810e-01
 1.009305755046295e+00  4.181130264048810e-01 -3.795449336281184e-17

-3.648086530610244e-17 -8.926499732543276e-19  1.010745622883879e+00
-8.926499732543276e-19 -1.257721617339597e-17  4.239810315747458e-01
 1.010745622883879e+00  4.239810315747458e-01 -3.786086497618182e-17

-3.561083534364840e-17 -8.143005972920376e-19  1.014118111415595e+00
-8.143005972920376e-19 -1.223024245278705e-17  4.122510411861601e-01
 1.014118111415595e+00  4.122510411861601e-01 -3.765596406190805e-17

-3.471660458660835e-17 -7.467134004426674e-19  1.009637202102390e+00
-7.467134004426674e-19 -2.360221801474735e-17  4.153286786479356e-01
 1.009637202102390e+00  4.153286786479356e-01 -3.721847831891105e-17

-3.424315731555585e-17 -7.010057363072591e-19  1.011281819491693e+00
-7.010057363072591e-19 -2.215115710935515e-17  4.127353925809618e-01
 1.011281819491693e+00  4.127353925809618e-01 -3.709668306719395e-17

-3.368429384742486e-17 -6.569735987828496e-19  1.008885522366079e+00
-6.569735987828496e-19 -2.744035453092926e-17  4.155008173579101e-01
 1.008885522366079e+00  4.155008173579101e-01 -3.685089478236741e-17

-3.316837412628087e-17 -6.107767534271560e-19  1.009761550563628e+00
-6.107767534271560e-19 -1.956770034780970e-17  4.130171305420798e-01
 1.009761550563628e+00  4.130171305420798e-01 -3.670217951359932e-17

-3.269162013596419e-17 -5.720017470325719e-19  1.007119906855314e+00
-5.720017470325719e-19 -1.430830567409824e-17  4.157230183249884e-01
 1.007119906855314e+00  4.157230183249884e-01 -3.646547960965829e-17

-3.231743217584766e-17 -5.345397840807982e-19  1.009394554015482e+00
-5.345397840807982e-19 -1.219958262229363e-17  4.122729419788920e-01
 1.009394554015482e+00  4.122729419788920e-01 -3.640903808317855e-17

-3.195418237190530e-17 -5.096325955218759e-19  1.008663809138597e+00
-5.096325955218759e-19 -1.020926701970587e-17  4.145221980445641e-01
 1.008663809138597e+00  4.145221980445641e-01 -3.627148100384871e-17

-3.142782434357294e-17 -4.723259012498507e-19  1.001754292387762e+00
-4.723259012498507e-19 -1.397141354580408e-17  4.167574396982798e-01
 1.001754292387762e+00  4.167574396982798e-01 -3.588074562259235e-17

-3.080542709876796e-17 -4.312766599143332e-19  9.958730078311812e-01
-4.312766599143332e-19 -1.620513786865718e-17  4.183451728328232e-01
 9.958730078311812e-01  4.183451728328232e-01 -3.549110517671075e-17

-3.069415211436270e-17 -4.068922354403317e-19  1.016089837568399e+00
-4.068922354403317e-19 -1.773672648618775e-17  3.959725248732788e-01
 1.016089837568399e+00  3.959725248732788e-01 -3.609785106464290e-17

-3.042024988087961e-17 -3.893741516300073e-19  1.006282248331933e+00
-3.893741516300073e-19 -1.623125675412908e-17  4.121001921823626e-01
 1.006282248331933e+00  4.121001921823626e-01 -3.569581098139950e-17

-3.016219171843857e-17 -3.644387762686239e-19  1.002799930265858e+00
-3.644387762686239e-19 -1.301191627518908e-17  4.175512305097893e-01
 1.002799930265858e+00  4.175512305097893e-01 -3.549174390093603e-17

-2.982545939350988e-17 -3.484326718156296e-19  9.959841823941736e-01
-3.484326718156296e-19 -6.318146466540197e-18  4.155448537065918e-01
 9.959841823941736e-01  4.155448537065918e-01 -3.517167289258557e-17

-3.001289197035658e-17 -3.335571403475095e-19  1.025364905456439e+00
-3.335571403475095e-19 -2.408964541656000e-17  3.916237037525160e-01
 1.025364905456439e+00  3.916237037525160e-01 -3.616656115273788e-17

-2.996217234111993e-17 -3.322969254349016e-19  1.028010236702452e+00
-3.322969254349016e-19 -1.476275668935016e-17  3.992240447411054e-01
 1.028010236702452e+00  3.992240447411054e-01 -3.623702048490571e-17

-2.946748616686721e-17 -3.078968852631193e-19  1.010222249132388e+00
-3.078968852631193e-19 -2.352435003615788e-17  4.101296272092966e-01
 1.010222249132388e+00  4.101296272092966e-01 -3.551492431274184e-17

-2.908341907047385e-17 -3.029990807141359e-19  9.982521194477399e-01
-3.029990807141359e-19 -2.137232664312682e-17  4.204284874284572e-01
 9.982521194477399e-01  4.204284874284572e-01 -3.500188615624014e-17

-2.887443412966909e-17 -2.795668965316879e-19  9.988360803236336e-01
-2.795668965316879e-19 -1.623032514002191e-17  4.163363646856723e-01
 9.988360803236336e-01  4.163363646856723e-01 -3.496161507398285e-17

-2.851904734055292e-17 -2.835552480310966e-19  9.865154484707273e-01
-2.835552480310966e-19 -1.146281987990670e-17  4.205851284650808e-01
 9.865154484707273e-01  4.205851284650808e-01 -3.445449212574054e-17

-2.843128632404774e-17 -2.654846273267359e-19  9.875591758059887e-01
-2.654846273267359e-19 -2.423358274366024e-17  4.230020634040176e-01
 9.875591758059887e-01  4.230020634040176e-01 -3.446731102749278e-17

-2.842150465944137e-17 -2.616231023149674e-19  9.995186111918659e-01
-2.616231023149674e-19 -2.593790544317950e-17  4.122262003597249e-01
 9.995186111918659e-01  4.122262003597249e-01 -3.484464063273523e-17

-2.840742060776665e-17 -2.418096554346725e-19  1.005055135320026e+00
-2.418096554346725e-19 -2.209910773199560e-17  4.082557966801759e-01
 1.005055135320026e+00  4.082557966801759e-01 -3.499893267860495e-17

-2.812330429752197e-17 -2.546207678580061e-19  9.952399747193513e-01
-2.546207678580061e-19 -1.735272936852509e-17  4.152043576572301e-01
 9.952399747193513e-01  4.152043576572301e-01 -3.461123022642126e-17

-2.782398471048826e-17 -2.515019169419471e-19  9.776148213743047e-01
-2.515019169419471e-19 -1.596757654588061e-17  4.256904013853753e-01
 9.776148213743047e-01  4.256904013853753e-01 -3.394119321443539e-17

-2.757069318448205e-17 -2.494358762029613e-19  9.759160473792088e-01
-2.494358762029613e-19 -1.944659979552743e-17  4.159383019848488e-01
 9.759160473792088e-01  4.159383019848488e-01 -3.382854407539323e-17

-2.763790893754450e-17 -2.446967070658647e-19  9.942795873611708e-01
-2.446967070658647e-19 -1.755627656913649e-17  3.970110356487350e-01
 9.942795873611708e-01  3.970110356487350e-01 -3.443933143120573e-17

-2.777587270814567e-17 -2.420417924162661e-19  1.012132946803513e+00
-2.420417924162661e-19 -1.762093585479260e-17  3.782729471227068e-01
 1.012132946803513e+00  3.782729471227068e-01 -3.505232605601979e-17

-2.720626906233393e-17 -2.414157329685942e-19  9.687865460779274e-01
-2.414157329685942e-19 -1.334135545937073e-17  4.206651043006328e-01
 9.687865460779274e-01  4.206651043006328e-01 -3.348206320159498e-17

-2.728775437329672e-17 -2.334919713369031e-19  9.814649393790543e-01
-2.334919713369031e-19 -2.259466262229977e-17  4.180226908393098e-01
 9.814649393790543e-01  4.180226908393098e-01 -3.390018892916349e-17

-2.728642431249461e-17 -2.401873637183331e-19  9.850131156993682e-01
-2.401873637183331e-19 -1.974224237446238e-17  4.232333975359848e-01
 9.850131156993682e-01  4.232333975359848e-01 -3.401892897153430e-17

-2.737041042692558e-17 -2.330595596765543e-19  9.967694090167326e-01
-2.330595596765543e-19 -9.389983558197982e-18  4.123397258099584e-01
 9.967694090167326e-01  4.123397258099584e-01 -3.441218135121062e-17

-2.728231955981843e-17 -2.348315714820965e-19  9.946832485503692e-01
-2.348315714820965e-19 -1.341648181965328e-17  4.187685020717131e-01
 9.946832485503692e-01  4.187685020717131e-01 -3.432652880003049e-17

-2.732361114817738e-17 -2.308423873410106e-19  1.002978084572340e+00
-2.308423873410106e-19 -1.850251245872599e-17  4.112130199730358e-01
 1.002978084572340e+00  4.112130199730358e-01 -3.460552642542410e-17

-2.728224926556849e-17 -2.243874354464500e-19  1.002367412831960e+00
-2.243874354464500e-19 -1.474326614703874e-17  4.158474731881950e-01
 1.002367412831960e+00  4.158474731881950e-01 -3.457235877094328e-17

-2.720253653637506e-17 -2.203713807661176e-19  1.003061333739926e+00
-2.203713807661176e-19 -1.824211372916057e-17  4.153014246419427e-01
 1.003061333739926e+00  4.153014246419427e-01 -3.457660563732718e-17

-2.717711694066113e-17 -2.173614061358338e-19  1.003725757145911e+00
-2.173614061358338e-19 -1.146273012428964e-17  4.191627187351454e-01
 1.003725757145911e+00  4.191627187351454e-01 -3.457873475927746e-17

-2.709509086825385e-17 -2.095833395346495e-19  1.004974263658487e+00
-2.095833395346495e-19 -7.888240898371938e-18  4.179190552341435e-01
 1.004974263658487e+00  4.179190552341435e-01 -3.460397454801435e-17

-2.702792043211285e-17 -2.221909383265640e-19  1.004929450186316e+00
-2.221909383265640e-19 -3.595107237230662e-17  4.204656631800511e-01
 1.004929450186316e+00  4.204656631800511e-01 -3.457462936816414e-17

-2.703930624752170e-17 -2.254381732056183e-19  1.007921668104589e+00
-2.254381732056183e-19 -3.029178936378213e-17  4.211628989833239e-01
 1.007921668104589e+00  4.211628989833239e-01 -3.467594778154973e-17

-2.705489957619060e-17 -2.335033565768972e-19  1.013504606287548e+00
-2.335033565768972e-19 -3.521607271320951e-17  4.195710869222813e-01
 1.013504606287548e+00  4.195710869222813e-01 -3.485452101317475e-17

-2.705450489913384e-17 -2.286786719774104e-19  1.017716260611050e+00
-2.286786719774104e-19 -1.580073006272939e-17  4.168610502388415e-01
 1.017716260611050e+00  4.168610502388415e-01 -3.498198809995374e-17

-2.694484226252518e-17 -2.252702176520458e-19  1.012507826801390e+00
-2.252702176520458e-19 -7.138632567376844e-18  4.193937445770122e-01
 1.012507826801390e+00  4.193937445770122e-01 -3.479244192803640e-17

-2.683627911712589e-17 -2.285266452940881e-19  1.006561502091980e+00
-2.285266452940881e-19 -1.708605907665693e-17  4.235675246225364e-01
 1.006561502091980e+00  4.235675246225364e-01 -3.456129489088304e-17

-2.678695889718723e-17 -2.226234316443243e-19  1.009458820589015e+00
-2.226234316443243e-19 -8.377181981514350e-18  4.210820062156671e-01
 1.009458820589015e+00  4.210820062156671e-01 -3.466098259585466e-17

-2.685865768187140e-17 -2.230378366425815e-19  1.015742630526757e+00
-2.230378366425815e-19 -1.181339175276779e-17  4.181711929210071e-01
 1.015742630526757e+00  4.181711929210071e-01 -3.488091888421291e-17

-2.681537388599289e-17 -2.137763434169417e-19  1.017498840523164e+00
-2.137763434169417e-19 -1.327324446879001e-17  4.166791731954926e-01
 1.017498840523164e+00  4.166791731954926e-01 -3.494102976204845e-17

-2.670853253388567e-17 -2.023688227601245e-19  1.013610713273636e+00
-2.023688227601245e-19 -8.045479318410887e-18  4.197383755668974e-01
 1.013610713273636e+00  4.197383755668974e-01 -3.480335167964395e-17

-2.672121369674976e-17 -2.004531251797954e-19  1.013952171386842e+00
-2.004531251797954e-19 -1.132807685315505e-17  4.212003386303996e-01
 1.013952171386842e+00  4.212003386303996e-01 -3.480989100188513e-17

-2.663058284163767e-17 -1.727178315469616e-19  1.014144360778965e+00
-1.727178315469616e-19  6.508981224423501e-18  4.202016216917248e-01
 1.014144360778965e+00  4.202016216917248e-01 -3.481434799134567e-17

-2.659399802528828e-17 -1.778999048799184e-19  1.014340939775193e+00
-1.778999048799184e-19 -4.978636511117208e-18  4.214717573292295e-01
 1.014340939775193e+00  4.214717573292295e-01 -3.481886326178125e-17

-2.664854291588165e-17 -1.999511322951931e-19  1.020518423621036e+00
-1.999511322951931e-19 -3.112345594092697e-17  4.165445511682587e-01
 1.020518423621036e+00  4.165445511682587e-01 -3.504407968930122e-17

-2.667076511946437e-17 -1.953348682970037e-19  1.024437104076249e+00
-1.953348682970037e-19 -3.249008299641972e-17  4.178698853089792e-01
 1.024437104076249e+00  4.178698853089792e-01 -3.518512337704958e-17

-2.659312828189964e-17 -1.668069942866510e-19  1.021239399466829e+00
-1.668069942866510e-19 -1.325836328438325e-17  4.219903686766200e-01
 1.021239399466829e+00  4.219903686766200e-01 -3.506755987608617e-17

-2.651268938814584e-17 -1.472102601527898e-19  1.014990628713454e+00
-1.472102601527898e-19 -1.127346517131397e-17  4.182444587159582e-01
 1.014990628713454e+00  4.182444587159582e-01 -3.483072676546129e-17

-2.646215732230463e-17 -1.686143403232954e-19  1.013619579223533e+00
-1.686143403232954e-19 -2.306321931364990e-17  4.145476818629519e-01
 1.013619579223533e+00  4.145476818629519e-01 -3.477100413121341e-17

-2.638377814641330e-17 -1.529121407015975e-19  1.015961282094084e+00
-1.529121407015975e-19 -1.042883834471232e-17  4.131096368652792e-01
 1.015961282094084e+00  4.131096368652792e-01 -3.485353518787357e-17

-2.644262370987768e-17 -1.474567103643486e-19  1.013737563568900e+00
-1.474567103643486e-19 -1.904605355984396e-17  4.279195068495192e-01
 1.013737563568900e+00  4.279195068495192e-01 -3.479540145118787e-17

-2.638173740031619e-17 -1.766744199602959e-19  1.018403489489927e+00
-1.766744199602959e-19 -4.374295664606211e-17  4.217622324503632e-01
 1.018403489489927e+00  4.217622324503632e-01 -3.495045677917761e-17

-2.617122443465614e-17 -1.285197566328375e-19  1.009714815209030e+00
-1.285197566328375e-19 -1.311929610980836e-17  4.163541608933453e-01
 1.009714815209030e+00  4.163541608933453e-01 -3.461778532442796e-17

-2.603358160672782e-17 -1.084098972427777e-19  1.005335601120307e+00
-1.084098972427777e-19  4.835974174672366e-19  4.150904285779105e-01
 1.005335601120307e+00  4.150904285779105e-01 -3.444930923860738e-17

-2.608211091261193e-17 -1.025187454779492e-19  1.009382699161223e+00
-1.025187454779492e-19  8.387430788876437e-19  4.184959722168504e-01
 1.009382699161223e+00  4.184959722168504e-01 -3.460111354152688e-17

-2.605911293761704e-17 -1.226041350953522e-19  1.011844335882294e+00
-1.226041350953522e-19 -2.088490679427628e-17  4.172911899996863e-01
 1.011844335882294e+00  4.172911899996863e-01 -3.468746758935437e-17

-2.602777617045631e-17 -6.861232914250435e-20  1.012626958350346e+00
-6.861232914250435e-20  1.505570096655692e-17  4.134242521407308e-01
 1.012626958350346e+00  4.134242521407308e-01 -3.470288415754552e-17

-2.595420509771820e-17 -1.343956049132830e-19  1.007539728074091e+00
-1.343956049132830e-19 -3.656331490656322e-17  4.186220469425885e-01
 1.007539728074091e+00  4.186220469425885e-01 -3.452018469257404e-17

-2.593058811079443e-17 -1.099064788549465e-19  1.008500610148819e+00
-1.099064788549465e-19 -1.630004278096908e-17  4.156249528183628e-01
 1.008500610148819e+00  4.156249528183628e-01 -3.455007621615320e-17

-2.587430694876706e-17 -7.754479384054112e-20  1.007084363056896e+00
-7.754479384054112e-20 -4.712350806137438e-18  4.166702561468747e-01
 1.007084363056896e+00  4.166702561468747e-01 -3.450226228533284e-17

-2.590754056158481e-17 -1.029510541779946e-19  1.010924292601409e+00
-1.029510541779946e-19 -2.174324698576884e-17  4.138741781701974e-01
 1.010924292601409e+00  4.138741781701974e-01 -3.464218873836188e-17

-2.594696740448702e-17 -9.210270971356572e-20  1.014894929335166e+00
-9.210270971356572e-20 -1.651732102103222e-17  4.117409741869585e-01
 1.014894929335166e+00  4.117409741869585e-01 -3.477585446750340e-17

-2.584669680937624e-17 -9.532762018725401e-20  1.009948272444615e+00
-9.532762018725401e-20 -2.598133785858524e-17  4.152645361726915e-01
 1.009948272444615e+00  4.152645361726915e-01 -3.460172527160712e-17

-2.587741331525460e-17 -7.284056032254613e-20  1.009603085783449e+00
-7.284056032254613e-20 -1.343613891107959e-17  4.167774372986506e-01
 1.009603085783449e+00  4.167774372986506e-01 -3.458230893599729e-17

-2.577301999356636e-17 -7.789317869952965e-20  1.008697648716761e+00
-7.789317869952965e-20 -1.049195588992452e-17  4.163198190651665e-01
 1.008697648716761e+00  4.163198190651665e-01 -3.454731268660112e-17

-2.573773789521922e-17 -6.985458370891666e-20  1.008271546184712e+00
-6.985458370891666e-20 -7.717339023183626e-18  4.159749099995642e-01
 1.008271546184712e+00  4.159749099995642e-01 -3.452510835002194e-17

-2.579466652098938e-17 -8.592718782168203e-20  1.009423227637810e+00
-8.592718782168203e-20 -2.157972917414832e-17  4.164568037727623e-01
 1.009423227637810e+00  4.164568037727623e-01 -3.456630613251233e-17

-2.572742570721344e-17 -6.780754939997228e-20  1.010327573504931e+00
-6.780754939997228e-20 -1.969048090107598e-17  4.151828578621396e-01
 1.010327573504931e+00  4.151828578621396e-01 -3.459630242336485e-17

-2.572376574586406e-17 -7.660685617741937e-20  1.010539828788183e+00
-7.660685617741937e-20 -2.310516176535448e-17  4.159545227135450e-01
 1.010539828788183e+00  4.159545227135450e-01 -3.459997344956129e-17

-2.572224742722539e-17 -8.532672305703659e-20  1.010828039359391e+00
-8.532672305703659e-20 -2.513379698239541e-17  4.148660269901631e-01
 1.010828039359391e+00  4.148660269901631e-01 -3.460797613807847e-17

-2.567161631561435e-17 -6.883013577759079e-20  1.008916409929780e+00
-6.883013577759079e-20 -2.051279537358580e-17  4.163498315655645e-01
 1.008916409929780e+00  4.163498315655645e-01 -3.453654829849024e-17

-2.563672755378665e-17 -6.085434914903696e-20  1.009294237425849e+00
-6.085434914903696e-20 -1.266157058804889e-17  4.152930513968933e-01
 1.009294237425849e+00  4.152930513968933e-01 -3.454970054093895e-17

-2.562146224776921e-17 -5.633380040510504e-20  1.008762201099082e+00
-5.633380040510504e-20 -3.431428981148177e-18  4.156826072697616e-01
 1.008762201099082e+00  4.156826072697616e-01 -3.453374349414595e-17

-2.563316578364864e-17 -5.026394125118384e-20  1.010849346004554e+00
-5.026394125118384e-20 -8.156461797079274e-18  4.145954494807891e-01
 1.010849346004554e+00  4.145954494807891e-01 -3.459960855732125e-17

-2.558521823345238e-17 -4.004595664878678e-20  1.009464724431824e+00
-4.004595664878678e-20  1.408672588804379e-18  4.156546599857845e-01
 1.009464724431824e+00  4.156546599857845e-01 -3.455326564960499e-17

-2.561511068659016e-17 -4.463460277036449e-20  1.010977128245771e+00
-4.463460277036449e-20 -3.585390240831050e-18  4.143175240218687e-01
 1.010977128245771e+00  4.143175240218687e-01 -3.460029289301391e-17

-2.554435045141295e-17 -3.103358211244414e-20  1.009746574557370e+00
-3.103358211244414e-20  7.274213274489830e-18  4.154228736339077e-01
 1.009746574557370e+00  4.154228736339077e-01 -3.456113982124862e-17

-2.553950945770042e-17 -6.225890906449460e-20  1.011287017717544e+00
-6.225890906449460e-20 -9.728650824584589e-18  4.140153849179668e-01
 1.011287017717544e+00  4.140153849179668e-01 -3.461271254331526e-17

-2.548553355153885e-17 -2.290957291895989e-20  1.007484172817459e+00
-2.290957291895989e-20  3.217182046659226e-18  4.160048927568210e-01
 1.007484172817459e+00  4.160048927568210e-01 -3.448284597324041e-17

-2.545940102156170e-17 -5.162632372710450e-20  1.008053485224964e+00
-5.162632372710450e-20 -1.951792574381003e-17  4.134217821182323e-01
 1.008053485224964e+00  4.134217821182323e-01 -3.449514958842447e-17

-2.545877455312588e-17 -1.192016169929481e-20  1.007944983625897e+00
-1.192016169929481e-20  1.135004437230870e-17  4.152690162572354e-01
 1.007944983625897e+00  4.152690162572354e-01 -3.449230639901923e-17

-2.547905412029745e-17 -4.893047316774689e-20  1.009709829810242e+00
-4.893047316774689e-20 -1.501382136921219e-17  4.161794325963736e-01
 1.009709829810242e+00  4.161794325963736e-01 -3.456705536456814e-17

-2.550544074411752e-17 -3.667856039786782e-20  1.012224984956694e+00
-3.667856039786782e-20 -2.764023300696682e-18  4.170183717339671e-01
 1.012224984956694e+00  4.170183717339671e-01 -3.465282281743393e-17

-2.544523169687814e-17 -3.857601815401162e-20  1.011387803315629e+00
-3.857601815401162e-20 -1.190217306123163e-17  4.107547720375613e-01
 1.011387803315629e+00  4.107547720375613e-01 -3.461681121268225e-17

-2.533366723162515e-17 -3.759650505930053e-20  1.002550196444412e+00
-3.759650505930053e-20 -2.907313936719101e-17  4.179097454320376e-01
 1.002550196444412e+00  4.179097454320376e-01 -3.430466439425668e-17

-2.530919046744717e-17 -5.671314934215873e-20  1.001011021994887e+00
-5.671314934215873e-20 -2.820548577728456e-17  4.205504539914109e-01
 1.001011021994887e+00  4.205504539914109e-01 -3.424339382320562e-17

-2.537685528859469e-17 -4.913269000293107e-20  1.008378526386295e+00
-4.913269000293107e-20 -3.442780201560359e-17  4.158915443194417e-01
 1.008378526386295e+00  4.158915443194417e-01 -3.451373056486458e-17

-2.545870284985260e-17 -1.487308646435080e-20  1.014208758535920e+00
-1.487308646435080e-20 -2.949106672474416e-18  4.078651567721782e-01
 1.014208758535920e+00  4.078651567721782e-01 -3.471449457341526e-17

-2.544163984558625e-17 -2.868344571224343e-20  1.015307590609340e+00
-2.868344571224343e-20 -1.988342760890236e-17  4.102086869606826e-01
 1.015307590609340e+00  4.102086869606826e-01 -3.476448111218375e-17

-2.547669846661401e-17 -3.310630926166673e-20  1.018566343874624e+00
-3.310630926166673e-20 -2.945720482675471e-17  4.138747734131365e-01
 1.018566343874624e+00  4.138747734131365e-01 -3.488404906992931e-17

-2.529613942233509e-17 -1.493886472339993e-20  1.006274499912188e+00
-1.493886472339993e-20 -2.067412030525102e-17  4.150428032278021e-01
 1.006274499912188e+00  4.150428032278021e-01 -3.443653150693210e-17

-2.523180470665911e-17 -3.581699277630555e-20  1.005823387505904e+00
-3.581699277630555e-20 -2.109847050514449e-17  4.068903800626296e-01
 1.005823387505904e+00  4.068903800626296e-01 -3.440044368264947e-17

-2.518366575357857e-17 -2.306535507073924e-20  9.994540135231976e-01
-2.306535507073924e-20  5.724874859640088e-19  4.189775765736253e-01
 9.994540135231976e-01  4.189775765736253e-01 -3.417585769349341e-17

-2.525236013288879e-17 -2.311246487401526e-20  1.006180420232578e+00
-2.311246487401526e-20 -1.014585934943495e-17  4.173612647273921e-01
 1.006180420232578e+00  4.173612647273921e-01 -3.441960607347378e-17

-2.534859424529063e-17 -1.529515676330454e-20  1.014405915913530e+00
-1.529515676330454e-20 -1.280231960681766e-17  4.107746237011317e-01
 1.014405915913530e+00  4.107746237011317e-01 -3.471067432641859e-17

-2.526511739905816e-17 -2.804501524012885e-20  1.011335537279123e+00
-2.804501524012885e-20 -1.581343296788010e-17  4.111702056261120e-01
 1.011335537279123e+00  4.111702056261120e-01 -3.459702128676612e-17

-2.511251037080541e-17 -1.834824562707875e-21  9.946314054066844e-01
-1.834824562707875e-21 -7.359545283265871e-18  4.250185064499084e-01
 9.946314054066844e-01  4.250185064499084e-01 -3.399807245127618e-17

-2.496448688470983e-17 -1.270876806999848e-20  9.875035163354463e-01
-1.270876806999848e-20 -4.937757648691276e-18  4.282310981555902e-01
 9.875035163354463e-01  4.282310981555902e-01 -3.373431701085782e-17

-2.508362761182293e-17 -5.055205567173119e-21  1.001796751496804e+00
-5.055205567173119e-21 -7.149445232122333e-18  4.143932264186366e-01
 1.001796751496804e+00  4.143932264186366e-01 -3.424246080417627e-17

-2.519943743229777e-17 -3.337303307253960e-20  1.007651755088887e+00
-3.337303307253960e-20 -1.471389901838917e-17  4.099215487439778e-01
 1.007651755088887e+00  4.099215487439778e-01 -3.444605220454449e-17

-2.508044749858704e-17 -4.746362934052853e-21  1.004490999468651e+00
-4.746362934052853e-21 -5.033647465835493e-18  4.109373390766341e-01
 1.004490999468651e+00  4.109373390766341e-01 -3.433209407738272e-17

-2.518476929409873e-17 -7.133149854652215e-21  1.012796868241506e+00
-7.133149854652215e-21 -5.313285320047208e-18  4.083825658331689e-01
 1.012796868241506e+00  4.083825658331689e-01 -3.462604922451186e-17

-2.519146060435367e-17 -2.604008056565316e-21  1.010640508937683e+00
-2.604008056565316e-21 -1.787680793967345e-17  4.071080318507783e-01
 1.010640508937683e+00  4.071080318507783e-01 -3.454817206709808e-17

-2.494830162075919e-17 -9.081826222403885e-21  9.974868787085952e-01
-9.081826222403885e-21 -8.551340802078720e-18  4.146897643958317e-01
 9.974868787085952e-01  4.146897643958317e-01 -3.406920610173265e-17

-2.494756626459910e-17 -1.948223709101311e-20  9.969398057044839e-01
-1.948223709101311e-20 -1.621673773320216e-17  4.155396860549030e-01
 9.969398057044839e-01  4.155396860549030e-01 -3.404376307193345e-17

-2.496765854297994e-17 -1.394961044258843e-20  9.994936917757458e-01
-1.394961044258843e-20 -1.679641923786511e-17  4.155279573975033e-01
 9.994936917757458e-01  4.155279573975033e-01 -3.413757204863835e-17

-2.506907596137378e-17 -2.190195897791964e-20  1.007929637928440e+00
-2.190195897791964e-20 -7.159929715585678e-18  4.102499999526016e-01
 1.007929637928440e+00  4.102499999526016e-01 -3.443931413788514e-17

-2.503499125538231e-17 -1.276523050284018e-20  1.005475814978356e+00
-1.276523050284018e-20 -2.844295358027440e-17  4.151919140271610e-01
 1.005475814978356e+00  4.151919140271610e-01 -3.435792984955583e-17

-2.500878641854422e-17 -1.755784977020123e-20  1.004176603321081e+00
-1.755784977020123e-20 -1.175760454575835e-17  4.127217209016882e-01
 1.004176603321081e+00  4.127217209016882e-01 -3.430942137157160e-17

-2.495626072189237e-17 -1.797604455886506e-20  1.001097548797398e+00
-1.797604455886506e-20 -1.152976225201098e-17  4.151052477272888e-01
 1.001097548797398e+00  4.151052477272888e-01 -3.419243726180263e-17

-2.499602436772397e-17 -2.763571822242341e-20  1.003417017154088e+00
-2.763571822242341e-20 -1.183059965283032e-17  4.156618154616075e-01
 1.003417017154088e+00  4.156618154616075e-01 -3.427347715107956e-17

-2.493402525529715e-17 -2.486013037701770e-20  9.990809492295378e-01
-2.486013037701770e-20 -1.713401699737654e-17  4.211391221108949e-01
 9.990809492295378e-01  4.211391221108949e-01 -3.412144596423011e-17

-2.500068664865374e-17 -1.069554841007326e-20  1.005059710892029e+00
-1.069554841007326e-20 -1.792732099070399e-17  4.150975882193808e-01
 1.005059710892029e+00  4.150975882193808e-01 -3.433808619081974e-17

-2.515325173042281e-17 -2.961748346530809e-20  1.015348165917459e+00
-2.961748346530809e-20 -8.574339542058436e-19  4.089055517522259e-01
 1.015348165917459e+00  4.089055517522259e-01 -3.470434819665461e-17

-2.514967568140445e-17 -2.141559924168835e-20  1.015676775639339e+00
-2.141559924168835e-20 -2.525634577696419e-17  4.131763268106345e-01
 1.015676775639339e+00  4.131763268106345e-01 -3.472400669936464e-17

-2.496641284414869e-17 -7.327139804643124e-21  9.954789982099898e-01
-7.327139804643124e-21 -3.437746408291352e-17  4.382842417188577e-01
 9.954789982099898e-01  4.382842417188577e-01 -3.401083858338638e-17

-2.515649665348233e-17 -1.680065584425120e-20  1.017380071653024e+00
-1.680065584425120e-20 -3.612093705972748e-17  4.093131116886405e-01
 1.017380071653024e+00  4.093131116886405e-01 -3.478524633673762e-17

-2.519682223673650e-17 -2.056898301015705e-20  1.023174505630387e+00
-2.056898301015705e-20 -1.880319623931438e-18  3.973851289031550e-01
 1.023174505630387e+00  3.973851289031550e-01 -3.497356863359050e-17

-2.502531772641255e-17 -2.236524895654164e-20  1.007939973650713e+00
-2.236524895654164e-20 -2.817281045202839e-18  4.159278197999420e-01
 1.007939973650713e+00  4.159278197999420e-01 -3.443762351297390e-17

-2.509821173054383e-17 -2.651809533086440e-20  1.013147319812965e+00
-2.651809533086440e-20 -5.884028081112366e-18  4.167690568371051e-01
 1.013147319812965e+00  4.167690568371051e-01 -3.462623335743954e-17

-2.505453492815055e-17 -3.397355479269353e-20  1.011598703672603e+00
-3.397355479269353e-20 -1.600214994142942e-17  4.162148645750441e-01
 1.011598703672603e+00  4.162148645750441e-01 -3.455979974632218e-17

-2.505112565582028e-17 -3.797936438878875e-20  1.011704959492340e+00
-3.797936438878875e-20 -1.276166059935616e-17  4.168652128499096e-01
 1.011704959492340e+00  4.168652128499096e-01 -3.456003482768649e-17

-2.503817048029750e-17 -4.182091254477720e-20  1.012469260674875e+00
-4.182091254477720e-20 -6.445759469530038e-18  4.167355115609109e-01
 1.012469260674875e+00  4.167355115609109e-01 -3.458380700186241e-17

-2.503190390332187e-17 -3.868685127306961e-20  1.012656194687215e+00
-3.868685127306961e-20 -8.840900088604273e-18  4.166707237063059e-01
 1.012656194687215e+00  4.166707237063059e-01 -3.459799478565765e-17

-2.502190300298712e-17 -2.879063853260958e-20  1.012569569360011e+00
-2.879063853260958e-20 -2.403939913292125e-17  4.164289704544725e-01
 1.012569569360011e+00  4.164289704544725e-01 -3.459881285955639e-17

-2.499888873592384e-17 -2.670777048302614e-20  1.011670955042654e+00
-2.670777048302614e-20 -1.491256254581760e-17  4.155259853409987e-01
 1.011670955042654e+00  4.155259853409987e-01 -3.457367856880716e-17

-2.497739545022000e-17 -1.929080163900879e-20  1.010184974439821e+00
-1.929080163900879e-20 -6.047429110624362e-19  4.164212248746862e-01
 1.010184974439821e+00  4.164212248746862e-01 -3.452421273188008e-17

-2.496076382359000e-17 -2.037893391769350e-20  1.010121284421105e+00
-2.037893391769350e-20 -9.991398462295241e-18  4.155728025969907e-01
 1.010121284421105e+00  4.155728025969907e-01 -3.451932107006935e-17

-2.495427747268190e-17 -1.773961173896992e-20  1.010174302545066e+00
-1.773961173896992e-20 -5.228875089102363e-18  4.137167885057642e-01
 1.010174302545066e+00  4.137167885057642e-01 -3.451977160104334e-17

-2.495702667404884e-17 -1.644488119512418e-20  1.010547066661465e+00
-1.644488119512418e-20 -1.523756047938157e-17  4.178589417240832e-01
 1.010547066661465e+00  4.178589417240832e-01 -3.453197694049690e-17

-2.490919500288605e-17 -1.415311070880213e-20  1.008553755614796e+00
-1.415311070880213e-20 -1.938295645743476e-17  4.151829661713545e-01
 1.008553755614796e+00  4.151829661713545e-01 -3.445629007928339e-17

-2.487452424312786e-17 -1.574733459741883e-20  1.006458590623554e+00
-1.574733459741883e-20 -2.295996204918384e-17  4.175638878932835e-01
 1.006458590623554e+00  4.175638878932835e-01 -3.437928753442723e-17

-2.495261409492699e-17 -1.384356162134670e-20  1.012200959753079e+00
-1.384356162134670e-20 -2.014648224043427e-17  4.124840038925298e-01
 1.012200959753079e+00  4.124840038925298e-01 -3.457835836411838e-17

-2.489948033165647e-17 -2.457364994168734e-21  1.008820993027536e+00
-2.457364994168734e-21  4.477757479789572e-19  4.164081950144368e-01
 1.008820993027536e+00  4.164081950144368e-01 -3.445979050430203e-17

-2.489067474995976e-17  4.098279666974238e-22  1.007410189480431e+00
 4.098279666974238e-22 -6.129667963532610e-18  4.177928603933981e-01
 1.007410189480431e+00  4.177928603933981e-01 -3.440830356441211e-17

-2.491199410837277e-17  8.937618376303529e-21  1.010827308639975e+00
 8.937618376303529e-21  2.660957788127790e-17  4.137789696213121e-01
 1.010827308639975e+00  4.137789696213121e-01 -3.452846286850029e-17

-2.492362033561188e-17 -1.206047249614392e-20  1.012103742549176e+00
-1.206047249614392e-20 -8.760291352299246e-18  4.145004308073064e-01
 1.012103742549176e+00  4.145004308073064e-01 -3.457062299289132e-17

-2.492080772094649e-17 -1.383995690568932e-20  1.012614350126689e+00
-1.383995690568932e-20 -1.419250855992482e-17  4.110831625249329e-01
 1.012614350126689e+00  4.110831625249329e-01 -3.458733969670615e-17

-2.483041342782670e-17  9.240935937692103e-21  1.005659272196071e+00
 9.240935937692103e-21  3.193031412749440e-17  4.180849648572581e-01
 1.005659272196071e+00  4.180849648572581e-01 -3.433358423395907e-17

-2.482381193769232e-17 -3.541331998841781e-20  1.006669921332027e+00
-3.541331998841781e-20 -3.420701623544854e-17  4.156752126178175e-01
 1.006669921332027e+00  4.156752126178175e-01 -3.436176212378479e-17

-2.483773278974612e-17 -3.915202337685020e-20  1.007660909024762e+00
-3.915202337685020e-20 -2.561289533943330e-17  4.168750702903100e-01
 1.007660909024762e+00  4.168750702903100e-01 -3.439666579743159e-17

-2.479911798778374e-17 -1.731107127555030e-20  1.005541429989987e+00
-1.731107127555030e-20  9.214536856931779e-19  4.167083188098520e-01
 1.005541429989987e+00  4.167083188098520e-01 -3.431156040250210e-17

-2.483105767143704e-17 -2.882645295214192e-20  1.006722611583766e+00
-2.882645295214192e-20 -1.102839077323757e-17  4.161199916441475e-01
 1.006722611583766e+00  4.161199916441475e-01 -3.434086149007652e-17

-2.478508763592221e-17 -1.062676106155485e-20  1.005572722325068e+00
-1.062676106155485e-20  7.350682642102244e-18  4.171436904903821e-01
 1.005572722325068e+00  4.171436904903821e-01 -3.430247338402740e-17

-2.480599956606814e-17 -2.870029207898714e-20  1.006862875589762e+00
-2.870029207898714e-20 -4.361608428123917e-18  4.183396150593401e-01
 1.006862875589762e+00  4.183396150593401e-01 -3.434505750406839e-17

-2.476615478116276e-17 -2.821369070471262e-20  1.004822319676038e+00
-2.821369070471262e-20 -3.091226113387312e-19  4.190697586491657e-01
 1.004822319676038e+00  4.190697586491657e-01 -3.426124105101914e-17

-2.477232568244234e-17 -4.155507678266611e-21  1.007270756286365e+00
-4.155507678266611e-21  1.932181342402223e-17  4.113754191617662e-01
 1.007270756286365e+00  4.113754191617662e-01 -3.433276465748729e-17

-2.481010716019817e-17 -9.009197508488703e-20  1.006305706024454e+00
-9.009197508488703e-20 -5.104187480201115e-17  4.303515089056915e-01
 1.006305706024454e+00  4.303515089056915e-01 -3.431002643066164e-17

-2.460668528037736e-17  2.683198723105277e-20  9.896522843933788e-01
 2.683198723105277e-20  5.549820914718715e-17  4.436190157867635e-01
 9.896522843933788e-01  4.436190157867635e-01 -3.370017337410354e-17

-2.490617453795302e-17  6.218785831104477e-20  1.024964332328626e+00
 6.218785831104477e-20  6.868842834980661e-17  3.827859623726959e-01
 1.024964332328626e+00  3.827859623726959e-01 -3.492343904821650e-17

-2.481321710165823e-17 -7.014630473080128e-20  1.014131088558795e+00
-7.014630473080128e-20 -4.013524397609745e-17  3.926527091692923e-01
 1.014131088558795e+00  3.926527091692923e-01 -3.452690165797949e-17

-2.456471579503672e-17 -6.575530606561028e-20  9.890999903570272e-01
-6.575530606561028e-20 -8.551624183109899e-18  4.359162822805980e-01
 9.890999903570272e-01  4.359162822805980e-01 -3.367377083635550e-17

-2.484569716127060e-17 -1.141803462353272e-19  1.010272637532394e+00
-1.141803462353272e-19 -3.778242165526492e-17  4.221701853455684e-01
 1.010272637532394e+00  4.221701853455684e-01 -3.443424749178972e-17

-2.492477642267790e-17 -7.552897241780204e-20  1.014323860205577e+00
-7.552897241780204e-20 -2.286392390369646e-18  4.217702737376997e-01
 1.014323860205577e+00  4.217702737376997e-01 -3.458157437753801e-17

-2.485721873826653e-17  3.177098051674119e-22  1.011335688905985e+00
 3.177098051674119e-22 -1.342194321767021e-17  4.216441341945917e-01
 1.011335688905985e+00  4.216441341945917e-01 -3.466875603684354e-17

-2.485036509083310e-17 -1.573849030617636e-21  1.011336786280666e+00
-1.573849030617636e-21 -1.341784511028725e-17  4.228704238214421e-01
 1.011336786280666e+00  4.228704238214421e-01 -3.466080441057774e-17

-2.484575358884275e-17  3.518782746607007e-21  1.010795514738102e+00
 3.518782746607007e-21 -1.346049614200595e-17  4.221558031009820e-01
 1.010795514738102e+00  4.221558031009820e-01 -3.465096831085924e-17

-2.485687633422578e-17  7.384931494760399e-21  1.010861025988674e+00
 7.384931494760399e-21 -1.345848395154939e-17  4.221335059402032e-01
 1.010861025988674e+00  4.221335059402032e-01 -3.466410260248856e-17

-2.487185852545525e-17  8.221485405629072e-21  1.011572876466000e+00
 8.221485405629072e-21 -1.345223125970024e-17  4.221053513817981e-01
 1.011572876466000e+00  4.221053513817981e-01 -3.469703433216388e-17

-2.488887333343484e-17  1.067508083976350e-20  1.012146022899957e+00
 1.067508083976350e-20 -1.347724545589309e-17  4.219348562562011e-01
 1.012146022899957e+00  4.219348562562011e-01 -3.472477651049501e-17

-2.489962097866826e-17  1.178202011515093e-20  1.012725831689081e+00
 1.178202011515093e-20 -1.352793688129368e-17  4.217358684173619e-01
 1.012725831689081e+00  4.217358684173619e-01 -3.475033133345453e-17

-2.491103929620014e-17  1.253392799279753e-20  1.013249823262700e+00
 1.253392799279753e-20 -1.357213244246098e-17  4.216590151524445e-01
 1.013249823262700e+00  4.216590151524445e-01 -3.477403679101798e-17

-2.492246289958730e-17  1.383749295551615e-20  1.013687481507174e+00
 1.383749295551615e-20 -1.361837051564184e-17  4.216564114885596e-01
 1.013687481507174e+00  4.216564114885596e-01 -3.479374706811204e-17

-2.492371724878505e-17  1.227738697573159e-20  1.013717756549650e+00
 1.227738697573159e-20 -1.363606833722119e-17  4.219542566147790e-01
 1.013717756549650e+00  4.219542566147790e-01 -3.479711879174863e-17

-2.491152415625382e-17  1.084231462008744e-20  1.012580253403167e+00
 1.084231462008744e-20 -1.362999696669686e-17  4.222712554528130e-01
 1.012580253403167e+00  4.222712554528130e-01 -3.475702579430888e-17

-2.492463308458294e-17  4.214182448966150e-21  1.014408745435794e+00
 4.214182448966150e-21 -1.368905741576084e-17  4.176650095563104e-01
 1.014408745435794e+00  4.176650095563104e-01 -3.481979836991460e-17

-2.495344362173710e-17  2.358399984818305e-21  1.014690208051056e+00
 2.358399984818305e-21 -1.361316352617965e-17  4.217954814168126e-01
 1.014690208051056e+00  4.217954814168126e-01 -3.483677005854055e-17

-2.500804474486720e-17 -1.042249965381913e-21  1.018010398308045e+00
-1.042249965381913e-21 -1.355437341489639e-17  4.236041349457835e-01
 1.018010398308045e+00  4.236041349457835e-01 -3.495783865972037e-17

-2.499772011722447e-17 -5.064123641398613e-21  1.017189208982505e+00
-5.064123641398613e-21 -1.367449142618471e-17  4.215240659514161e-01
 1.017189208982505e+00  4.215240659514161e-01 -3.492417059833313e-17

-2.496911448129156e-17 -8.991685162336679e-21  1.015579015230421e+00
-8.991685162336679e-21 -1.372065174458742e-17  4.216870073052075e-01
 1.015579015230421e+00  4.216870073052075e-01 -3.485994957856305e-17

-2.496030611282884e-17 -1.405115835584177e-20  1.015024566211992e+00
-1.405115835584177e-20 -1.368254367663903e-17  4.222112256254409e-01
 1.015024566211992e+00  4.222112256254409e-01 -3.483427574597729e-17

-2.498161923251567e-17 -1.759911810061673e-20  1.015683399550720e+00
-1.759911810061673e-20 -1.365220720853624e-17  4.221239362268586e-01
 1.015683399550720e+00  4.221239362268586e-01 -3.485845037552852e-17

-2.500024735533092e-17 -1.897360888057606e-20  1.016802444044369e+00
-1.897360888057606e-20 -1.375288301110752e-17  4.232167628145915e-01
 1.016802444044369e+00  4.232167628145915e-01 -3.489794184068259e-17

-2.496533635319126e-17 -2.350932612898030e-20  1.014746109454058e+00
-2.350932612898030e-20 -1.367781140766089e-17  4.235615480995542e-01
 1.014746109454058e+00  4.235615480995542e-01 -3.481611563214202e-17

-2.488335342521945e-17 -2.573846545801897e-20  1.009365099515358e+00
-2.573846545801897e-20 -1.370611863846049e-17  4.236136637596873e-01
 1.009365099515358e+00  4.236136637596873e-01 -3.461272106285024e-17

-2.495169275680563e-17 -3.227120304619128e-20  1.014744426795865e+00
-3.227120304619128e-20 -1.373149934976769e-17  4.176199795435658e-01
 1.014744426795865e+00  4.176199795435658e-01 -3.480243289467724e-17

-2.500163834146269e-17 -3.368003935442958e-20  1.013388663202179e+00
-3.368003935442958e-20 -1.362520994778698e-17  4.325520181278048e-01
 1.013388663202179e+00  4.325520181278048e-01 -3.477092294592262e-17

-2.505767033498676e-17 -3.693891153942751e-20  1.017475260276388e+00
-3.693891153942751e-20 -1.364595628272031e-17  4.273399376749278e-01
 1.017475260276388e+00  4.273399376749278e-01 -3.491496512791696e-17

-2.504769632543115e-17 -3.292579397561947e-20  1.018533928000426e+00
-3.292579397561947e-20 -1.396162067438890e-17  4.204686530347486e-01
 1.018533928000426e+00  4.204686530347486e-01 -3.494757448556713e-17

-2.502953128931765e-17 -4.733626763593157e-20  1.016793265510747e+00
-4.733626763593157e-20 -1.365074720742716e-17  4.218331595733167e-01
 1.016793265510747e+00  4.218331595733167e-01 -3.488172200938005e-17

-2.500560138331785e-17 -4.013014660084670e-20  1.013764479280276e+00
-4.013014660084670e-20 -1.377158363683781e-17  4.257958804023231e-01
 1.013764479280276e+00  4.257958804023231e-01 -3.477198024327673e-17

-2.510066327928463e-17 -4.937803727655574e-20  1.018812415227826e+00
-4.937803727655574e-20 -1.384532235923039e-17  4.234700915085065e-01
 1.018812415227826e+00  4.234700915085065e-01 -3.494970685887946e-17

-2.510654586794486e-17 -4.279320147851126e-20  1.020739444360716e+00
-4.279320147851126e-20 -1.401910422378643e-17  4.223292926948470e-01
 1.020739444360716e+00  4.223292926948470e-01 -3.501827850835282e-17

-2.508980447468346e-17 -5.407777395144987e-20  1.019157169540689e+00
-5.407777395144987e-20 -1.384849132933476e-17  4.238016512546115e-01
 1.019157169540689e+00  4.238016512546115e-01 -3.495962081365525e-17

-2.514759135380333e-17 -5.631567841913027e-20  1.020894523995506e+00
-5.631567841913027e-20 -1.391924325180020e-17  4.218157137242218e-01
 1.020894523995506e+00  4.218157137242218e-01 -3.501510345023592e-17

-2.503741253465310e-17 -5.779511027148773e-20  1.014931461521760e+00
-5.779511027148773e-20 -1.401990235151639e-17  4.252956214254266e-01
 1.014931461521760e+00  4.252956214254266e-01 -3.479908878482344e-17

-2.502718669136236e-17 -6.145009172492938e-20  1.013389576518992e+00
-6.145009172492938e-20 -1.403609431113778e-17  4.262955638408727e-01
 1.013389576518992e+00  4.262955638408727e-01 -3.473500599274004e-17

-2.509159767378828e-17 -6.840131423738444e-20  1.013580925677574e+00
-6.840131423738444e-20 -1.361316973265256e-17  4.292761921870207e-01
 1.013580925677574e+00  4.292761921870207e-01 -3.474435029306275e-17

-2.511192511892298e-17 -6.835067468573729e-20  1.018903315090257e+00
-6.835067468573729e-20 -1.389110490023763e-17  4.237590442911637e-01
 1.018903315090257e+00  4.237590442911637e-01 -3.493487827361761e-17

-2.509328719092870e-17 -7.248538099990523e-20  1.016255152408215e+00
-7.248538099990523e-20 -1.382216734356699e-17  4.254393376603776e-01
 1.016255152408215e+00  4.254393376603776e-01 -3.483779205275198e-17

-2.508833456279950e-17 -7.512686174393358e-20  1.015052038172923e+00
-7.512686174393358e-20 -1.382897094837195e-17  4.260767395733177e-01
 1.015052038172923e+00  4.260767395733177e-01 -3.479046754491215e-17

-2.516943052363088e-17 -8.175575154204419e-20  1.017254964343373e+00
-8.175575154204419e-20 -1.372070043778409e-17  4.275444805984984e-01
 1.017254964343373e+00  4.275444805984984e-01 -3.487097150832924e-17

-2.515154742099365e-17 -7.578059507451130e-20  1.017495364869284e+00
-7.578059507451130e-20 -1.382490011590620e-17  4.270838710002917e-01
 1.017495364869284e+00  4.270838710002917e-01 -3.488374496802738e-17

-2.514911597790855e-17 -6.943597813947287e-20  1.016359939104956e+00
-6.943597813947287e-20 -1.395419357351485e-17  4.249375804501192e-01
 1.016359939104956e+00  4.249375804501192e-01 -3.483297738616578e-17

-2.512021247102839e-17 -8.093888684539851e-20  1.014674417836482e+00
-8.093888684539851e-20 -1.358645974849341e-17  4.243992409936085e-01
 1.014674417836482e+00  4.243992409936085e-01 -3.477544897455578e-17

-2.518519657405823e-17 -8.000283313431096e-20  1.017301292070255e+00
-8.000283313431096e-20 -1.391079878795265e-17  4.274506693005254e-01
 1.017301292070255e+00  4.274506693005254e-01 -3.487557266737317e-17

-2.520362376925682e-17 -7.269960271411127e-20  1.017812441880344e+00
-7.269960271411127e-20 -1.408530760166086e-17  4.271002500878225e-01
 1.017812441880344e+00  4.271002500878225e-01 -3.489460251989485e-17

-2.518481970063307e-17 -7.867555044955088e-20  1.016122951848663e+00
-7.867555044955088e-20 -1.367515202603351e-17  4.261924134497352e-01
 1.016122951848663e+00  4.261924134497352e-01 -3.483421257138720e-17

-2.518805571297287e-17 -7.374301607176351e-20  1.015103688581718e+00
-7.374301607176351e-20 -1.395618223983416e-17  4.264380887847244e-01
 1.015103688581718e+00  4.264380887847244e-01 -3.479950942972566e-17

-2.522427858540968e-17 -8.234101695104996e-20  1.016161389392732e+00
-8.234101695104996e-20 -1.356164660209082e-17  4.264306746160855e-01
 1.016161389392732e+00  4.264306746160855e-01 -3.484419582843672e-17

-2.525737423590263e-17 -8.296890668961413e-20  1.018224963404272e+00
-8.296890668961413e-20 -1.353270593575536e-17  4.256506551962554e-01
 1.018224963404272e+00  4.256506551962554e-01 -3.491883758962694e-17

-2.527383399893770e-17 -7.815332049773069e-20  1.017710127037763e+00
-7.815332049773069e-20 -1.362201006033342e-17  4.256551199638265e-01
 1.017710127037763e+00  4.256551199638265e-01 -3.490773244297161e-17

-2.527621346065668e-17 -6.537817660768415e-20  1.016298162025310e+00
-6.537817660768415e-20 -1.410152409066220e-17  4.268391897426065e-01
 1.016298162025310e+00  4.268391897426065e-01 -3.485907919583665e-17

-2.534576827299250e-17 -5.463224336513295e-20  1.016424824306428e+00
-5.463224336513295e-20 -1.413798260204654e-17  4.273430944769289e-01
 1.016424824306428e+00  4.273430944769289e-01 -3.486816473580361e-17

-2.529484964751188e-17 -5.872806175895696e-20  1.016738512117274e+00
-5.872806175895696e-20 -1.460131776607554e-17  4.252475218796313e-01
 1.016738512117274e+00  4.252475218796313e-01 -3.488351063838911e-17

-2.530892465938023e-17 -6.709566680584086e-20  1.017053268031797e+00
-6.709566680584086e-20 -1.401030825438802e-17  4.253408844495877e-01
 1.017053268031797e+00  4.253408844495877e-01 -3.489503945144136e-17

-2.532882210919463e-17 -6.423509912899224e-20  1.017128896672451e+00
-6.423509912899224e-20 -1.440279702188111e-17  4.251640995158019e-01
 1.017128896672451e+00  4.251640995158019e-01 -3.489894321577879e-17

-2.533164415333548e-17 -7.498189751348306e-20  1.016767976108134e+00
-7.498189751348306e-20 -1.402521107587977e-17  4.256000016267435e-01
 1.016767976108134e+00  4.256000016267435e-01 -3.488872260048565e-17

-2.535691062412819e-17 -7.343662735680056e-20  1.017319191050988e+00
-7.343662735680056e-20 -1.428592274817019e-17  4.252343912793041e-01
 1.017319191050988e+00  4.252343912793041e-01 -3.490959499094426e-17

-2.538502491469033e-17 -8.287894619018496e-20  1.017545134522235e+00
-8.287894619018496e-20 -1.394064288699847e-17  4.260726683320580e-01
 1.017545134522235e+00  4.260726683320580e-01 -3.492110639322765e-17

-2.534855487323344e-17 -9.136765184318090e-20  1.013333765964060e+00
-9.136765184318090e-20 -1.354861720249269e-17  4.268432649416136e-01
 1.013333765964060e+00  4.268432649416136e-01 -3.476722581217606e-17

-2.538831004875576e-17 -9.490193553769574e-20  1.017845939874105e+00
-9.490193553769574e-20 -1.372704346219938e-17  4.166255849249238e-01
 1.017845939874105e+00  4.166255849249238e-01 -3.492279012599717e-17

-2.542187559461430e-17 -9.176886541811281e-20  1.017133843990101e+00
-9.176886541811281e-20 -1.383196390639059e-17  4.228343404370470e-01
 1.017133843990101e+00  4.228343404370470e-01 -3.490812014605066e-17

-2.550528885025335e-17 -8.231070186972536e-20  1.020235578609797e+00
-8.231070186972536e-20 -1.441771097806263e-17  4.276055237852234e-01
 1.020235578609797e+00  4.276055237852234e-01 -3.503100943866829e-17

-2.548547509260511e-17 -8.868637348055734e-20  1.017209337725376e+00
-8.868637348055734e-20 -1.433141742739900e-17  4.250383753444641e-01
 1.017209337725376e+00  4.250383753444641e-01 -3.491945613847902e-17

-2.549789635978211e-17 -8.302422596269728e-20  1.014427397819799e+00
-8.302422596269728e-20 -1.491448610034061e-17  4.255291355024544e-01
 1.014427397819799e+00  4.255291355024544e-01 -3.482355880066036e-17

-2.552000708306585e-17 -8.589860399974034e-20  1.015250722952551e+00
-8.589860399974034e-20 -1.491113535157460e-17  4.256924190232281e-01
 1.015250722952551e+00  4.256924190232281e-01 -3.485462679477587e-17

-2.554171080522543e-17 -8.875807845589658e-20  1.015912594517146e+00
-8.875807845589658e-20 -1.490731349820476e-17  4.259088251823249e-01
 1.015912594517146e+00  4.259088251823249e-01 -3.488016967147728e-17

-2.557602591738837e-17 -9.576000744647971e-20  1.015673319601852e+00
-9.576000744647971e-20 -1.458451159115667e-17  4.256406151629780e-01
 1.015673319601852e+00  4.256406151629780e-01 -3.486998246519309e-17

-2.560681777901499e-17 -1.150697228121482e-19  1.015226345186114e+00
-1.150697228121482e-19 -1.370810981708082e-17  4.257716062186367e-01
 1.015226345186114e+00  4.257716062186367e-01 -3.486289819753083e-17

-2.565983508639471e-17 -9.543820109247791e-20  1.016866791019470e+00
-9.543820109247791e-20 -1.539227176324788e-17  4.251898129261418e-01
 1.016866791019470e+00  4.251898129261418e-01 -3.492282539822399e-17

-2.566181787923204e-17 -1.135067941790426e-19  1.014933394567185e+00
-1.135067941790426e-19 -1.420266768275760e-17  4.280304572198667e-01
 1.014933394567185e+00  4.280304572198667e-01 -3.485733879215888e-17

-2.565460255158263e-17 -1.063454896527165e-19  1.013746675787448e+00
-1.063454896527165e-19 -1.482160650021808e-17  4.253895512304072e-01
 1.013746675787448e+00  4.253895512304072e-01 -3.481446113281285e-17

-2.573080726131388e-17 -1.050410635851409e-19  1.015952736602591e+00
-1.050410635851409e-19 -1.497130615401673e-17  4.256958515372574e-01
 1.015952736602591e+00  4.256958515372574e-01 -3.490568093260260e-17

-2.581361894209244e-17 -1.066139634730086e-19  1.018788758110812e+00
-1.066139634730086e-19 -1.515902601084098e-17  4.269893733549746e-01
 1.018788758110812e+00  4.269893733549746e-01 -3.501775442580840e-17

-2.565179446582599e-17 -1.157143990306944e-19  1.002693423281763e+00
-1.157143990306944e-19 -1.396947077124603e-17  4.370421907260292e-01
 1.002693423281763e+00  4.370421907260292e-01 -3.444087654785757e-17

-2.592267484689582e-17 -1.405322159153122e-19  1.029204186611058e+00
-1.405322159153122e-19 -1.341988786955198e-17  4.069290800745608e-01
 1.029204186611058e+00  4.069290800745608e-01 -3.537528470472802e-17

-2.583619202624587e-17 -1.039904852982738e-19  1.017350681015438e+00
-1.039904852982738e-19 -1.517181282699165e-17  4.210909004388039e-01
 1.017350681015438e+00  4.210909004388039e-01 -3.495424669331171e-17

-2.574718365051651e-17 -1.306611007334074e-19  1.009916436647606e+00
-1.306611007334074e-19 -1.396413747372230e-17  4.254040891240676e-01
 1.009916436647606e+00  4.254040891240676e-01 -3.469641574223799e-17

-2.600616836640426e-17 -1.274687917765272e-19  1.029792257718636e+00
-1.274687917765272e-19 -1.477199429964237e-17  4.058222462073587e-01
 1.029792257718636e+00  4.058222462073587e-01 -3.541653192276838e-17

-2.595972922772909e-17 -1.078710437540534e-19  1.017170559384448e+00
-1.078710437540534e-19 -1.532425302252458e-17  4.357448990561688e-01
 1.017170559384448e+00  4.357448990561688e-01 -3.499081278130525e-17

-2.611990504823490e-17 -1.045446008700001e-19  1.027028265579914e+00
-1.045446008700001e-19 -1.636485830934024e-17  4.265683064013208e-01
 1.027028265579914e+00  4.265683064013208e-01 -3.535447085611594e-17

-2.615503938674701e-17 -1.308297374984751e-19  1.028933946031737e+00
-1.308297374984751e-19 -1.502482587238902e-17  4.211582592314729e-01
 1.028933946031737e+00  4.211582592314729e-01 -3.541948668631823e-17

-2.611122820726902e-17 -1.241837601357648e-19  1.022224159991558e+00
-1.241837601357648e-19 -1.542572001745722e-17  4.349490442610439e-01
 1.022224159991558e+00  4.349490442610439e-01 -3.519882668283332e-17

-2.562773876108149e-17 -1.322557737446648e-19  9.909392763620390e-01
-1.322557737446648e-19 -1.482376301403320e-17  4.274765485408278e-01
 9.909392763620390e-01  4.274765485408278e-01 -3.402021254803643e-17

-2.606665915685594e-17 -1.053952676966566e-19  1.014440488161695e+00
-1.053952676966566e-19 -1.729350867823297e-17  4.249450351228112e-01
 1.014440488161695e+00  4.249450351228112e-01 -3.491220427883347e-17

-2.681092627611727e-17 -1.589873437187587e-19  1.054136036390845e+00
-1.589873437187587e-19 -1.475711204070570e-17  4.372802965336653e-01
 1.054136036390845e+00  4.372802965336653e-01 -3.642690310601292e-17

-2.610664165060784e-17 -1.469809253942795e-19  1.012681379663438e+00
-1.469809253942795e-19 -1.533306393726456e-17  4.081593095791468e-01
 1.012681379663438e+00  4.081593095791468e-01 -3.481512402259564e-17

-2.617512742352271e-17 -1.949718033432212e-19  1.015561389416501e+00
-1.949718033432212e-19 -1.319875826265335e-17  4.023951447634092e-01
 1.015561389416501e+00  4.023951447634092e-01 -3.495519459253066e-17

-2.680091620636536e-17 -1.525734527031056e-19  1.043104684973014e+00
-1.525734527031056e-19 -1.400813724659853e-17  4.348457212597062e-01
 1.043104684973014e+00  4.348457212597062e-01 -3.604611637639895e-17

-2.671081769303727e-17 -1.281402672329260e-19  1.034433237199591e+00
-1.281402672329260e-19 -1.634498733296628e-17  4.247716519692417e-01
 1.034433237199591e+00  4.247716519692417e-01 -3.574828459944104e-17

-2.645756887767449e-17 -1.589983572233496e-19  1.016100965874204e+00
-1.589983572233496e-19 -1.468639717178776e-17  4.249221712167805e-01
 1.016100965874204e+00  4.249221712167805e-01 -3.506713049288971e-17

-2.656167126682399e-17 -1.705066648406389e-19  1.018912668065235e+00
-1.705066648406389e-19 -1.523347019749649e-17  4.283744203077344e-01
 1.018912668065235e+00  4.283744203077344e-01 -3.517991845783565e-17

-2.656539981489135e-17 -1.527182091055992e-19  1.013834021011810e+00
-1.527182091055992e-19 -1.728018889020220e-17  4.262099150233406e-01
 1.013834021011810e+00  4.262099150233406e-01 -3.499877130030130e-17

-2.661328609666427e-17 -1.719922843412518e-19  1.014219238966634e+00
-1.719922843412518e-19 -1.649948335696237e-17  4.276675934366631e-01
 1.014219238966634e+00  4.276675934366631e-01 -3.502368771380078e-17

-2.666421202570789e-17 -1.893475500468350e-19  1.014825139178759e+00
-1.893475500468350e-19 -1.575824578749636e-17  4.272092393336895e-01
 1.014825139178759e+00  4.272092393336895e-01 -3.505722628102253e-17

-2.675192044160123e-17 -1.929212173877912e-19  1.015112461934982e+00
-1.929212173877912e-19 -1.609184073469464e-17  4.268881090007922e-01
 1.015112461934982e+00  4.268881090007922e-01 -3.508083989784732e-17

-2.685844693167529e-17 -2.208217156412868e-19  1.014727494203873e+00
-2.208217156412868e-19 -1.473446123306904e-17  4.264926211438446e-01
 1.014727494203873e+00  4.264926211438446e-01 -3.509397027800758e-17

-2.694177815110992e-17 -2.174157784926585e-19  1.015330475809652e+00
-2.174157784926585e-19 -1.571160709653863e-17  4.263400223433644e-01
 1.015330475809652e+00  4.263400223433644e-01 -3.513961187208849e-17

-2.705476830835948e-17 -2.058872763552334e-19  1.015550046224339e+00
-2.058872763552334e-19 -1.741280742739588e-17  4.262225097141110e-01
 1.015550046224339e+00  4.262225097141110e-01 -3.517055987921611e-17

-2.715591456504407e-17 -2.500779817156760e-19  1.015570987445791e+00
-2.500779817156760e-19 -1.496939170235656e-17  4.261854315004928e-01
 1.015570987445791e+00  4.261854315004928e-01 -3.519774128283053e-17

-2.723238995005367e-17 -2.077569687686469e-19  1.015557475579733e+00
-2.077569687686469e-19 -1.846992763274989e-17  4.262243308200593e-01
 1.015557475579733e+00  4.262243308200593e-01 -3.521792686314385e-17

-2.729628756233667e-17 -2.571344410183699e-19  1.016597303250406e+00
-2.571344410183699e-19 -1.517834241960445e-17  4.261492594737001e-01
 1.016597303250406e+00  4.261492594737001e-01 -3.525797407701023e-17

-2.737428283230473e-17 -2.424677117820426e-19  1.016071081150863e+00
-2.424677117820426e-19 -1.720836985701967e-17  4.262319286015694e-01
 1.016071081150863e+00  4.262319286015694e-01 -3.527070358542192e-17

-2.748207216355134e-17 -2.861742539809642e-19  1.016712353856272e+00
-2.861742539809642e-19 -1.487074683897038e-17  4.257920042200636e-01
 1.016712353856272e+00  4.257920042200636e-01 -3.531454384740500e-17

-2.755649419694146e-17 -2.674190541128678e-19  1.016726226256732e+00
-2.674190541128678e-19 -1.651735576241384e-17  4.262140154743970e-01
 1.016726226256732e+00  4.262140154743970e-01 -3.533314294362207e-17

-2.763688463548700e-17 -2.563988102224915e-19  1.016066855934156e+00
-2.563988102224915e-19 -1.846748467241020e-17  4.263829835227991e-01
 1.016066855934156e+00  4.263829835227991e-01 -3.534077609103901e-17

-2.777230350050985e-17 -2.817723799459231e-19  1.015570695534725e+00
-2.817723799459231e-19 -1.759512307064829e-17  4.259353199027989e-01
 1.015570695534725e+00  4.259353199027989e-01 -3.535913209128250e-17

-2.787806352074026e-17 -2.957207620057282e-19  1.015279022014298e+00
-2.957207620057282e-19 -1.767157525641053e-17  4.260668055155966e-01
 1.015279022014298e+00  4.260668055155966e-01 -3.538954013045662e-17

-2.803923796244119e-17 -3.376820576555778e-19  1.016338081565778e+00
-3.376820576555778e-19 -1.542478147034857e-17  4.263628498754914e-01
 1.016338081565778e+00  4.263628498754914e-01 -3.544730894933154e-17

-2.812282646579665e-17 -3.377135267730828e-19  1.015169923269220e+00
-3.377135267730828e-19 -1.666412974910363e-17  4.259268663599909e-01
 1.015169923269220e+00  4.259268663599909e-01 -3.545323697963241e-17

-2.833108036668052e-17 -3.621306237189496e-19  1.015023863923972e+00
-3.621306237189496e-19 -1.675454893642212e-17  4.259707350010100e-01
 1.015023863923972e+00  4.259707350010100e-01 -3.551163472492116e-17

-2.852521503821816e-17 -3.579754535219555e-19  1.014357699556512e+00
-3.579754535219555e-19 -1.889585682724855e-17  4.259709497447443e-01
 1.014357699556512e+00  4.259709497447443e-01 -3.554492138218280e-17

-2.868339215321839e-17 -3.839935142856335e-19  1.014207469889864e+00
-3.839935142856335e-19 -1.901352838269972e-17  4.262801411677852e-01
 1.014207469889864e+00  4.262801411677852e-01 -3.559707060705203e-17

-2.889523101243936e-17 -4.744006262697412e-19  1.014689321815468e+00
-4.744006262697412e-19 -1.488104894585865e-17  4.270668683255694e-01
 1.014689321815468e+00  4.270668683255694e-01 -3.566421704458251e-17

-2.910014837648933e-17 -4.398823643512062e-19  1.015914253460500e+00
-4.398823643512062e-19 -1.993502258817900e-17  4.278271401519569e-01
 1.015914253460500e+00  4.278271401519569e-01 -3.575096677805122e-17

-2.938100315505018e-17 -5.118447505451446e-19  1.017563757613270e+00
-5.118447505451446e-19 -1.763373645226567e-17  4.283541995574042e-01
 1.017563757613270e+00  4.283541995574042e-01 -3.587676069547082e-17

-2.963200378079347e-17 -5.049936488779149e-19  1.019701421211269e+00
-5.049936488779149e-19 -2.005698668832600e-17  4.290356188085743e-01
 1.019701421211269e+00  4.290356188085743e-01 -3.601416565334212e-17

-2.981995113552011e-17 -5.460435700258797e-19  1.021207833406983e+00
-5.460435700258797e-19 -1.802072920795452e-17  4.290887872597381e-01
 1.021207833406983e+00  4.290887872597381e-01 -3.611607860295954e-17

-3.006055371257268e-17 -5.582003136377743e-19  1.022091141911334e+00
-5.582003136377743e-19 -1.817597883892086e-17  4.279069748504033e-01
 1.022091141911334e+00  4.279069748504033e-01 -3.624047746803139e-17

-3.033766506303060e-17 -6.247157304764728e-19  1.020994022095333e+00
-6.247157304764728e-19 -1.425160585635794e-17  4.269571027953495e-01
 1.020994022095333e+00  4.269571027953495e-01 -3.630899978240255e-17

-3.065090547237481e-17 -5.565414487998522e-19  1.018233257711536e+00
-5.565414487998522e-19 -2.162769651801724e-17  4.259590568946582e-01
 1.018233257711536e+00  4.259590568946582e-01 -3.634447088094204e-17

-3.086340833444586e-17 -6.587884002503955e-19  1.015921938977971e+00
-6.587884002503955e-19 -1.641337080140722e-17  4.263410683660485e-01
 1.015921938977971e+00  4.263410683660485e-01 -3.634929597081403e-17

-3.104505429221165e-17 -5.804777544768090e-19  1.015813758754661e+00
-5.804777544768090e-19 -2.446678519020792e-17  4.259059301832727e-01
 1.015813758754661e+00  4.259059301832727e-01 -3.640481916954336e-17

-3.141820026391539e-17 -7.104383317637927e-19  1.014574361547563e+00
-7.104383317637927e-19 -1.942367868963466e-17  4.263716544608555e-01
 1.014574361547563e+00  4.263716544608555e-01 -3.648975689816220e-17

-3.183489993624587e-17 -7.217754722553371e-19  1.014700048263480e+00
-7.217754722553371e-19 -2.368970380842635e-17  4.242958698616931e-01
 1.014700048263480e+00  4.242958698616931e-01 -3.662607304763067e-17

-3.209147528730007e-17 -7.240961470356300e-19  1.015884426456316e+00
-7.240961470356300e-19 -2.572859164030769e-17  4.224159952599743e-01
 1.015884426456316e+00  4.224159952599743e-01 -3.674984425136678e-17

-3.248726760374713e-17 -8.324284186307352e-19  1.015254093625193e+00
-8.324284186307352e-19 -2.138436739749534e-17  4.258918972810739e-01
 1.015254093625193e+00  4.258918972810739e-01 -3.686556097945369e-17

-3.311273795007113e-17 -8.877975213815407e-19  1.015503547605126e+00
-8.877975213815407e-19 -2.347260368285674e-17  4.251313830536691e-01
 1.015503547605126e+00  4.251313830536691e-01 -3.709094338236078e-17

-3.371959981160698e-17 -1.000914406239244e-18  1.012546490914172e+00
-1.000914406239244e-18 -2.152033582661228e-17  4.251142866239032e-01
 1.012546490914172e+00  4.251142866239032e-01 -3.720035278206022e-17

-3.432568630530891e-17 -1.096129717718467e-18  1.009043503180591e+00
-1.096129717718467e-18 -2.184440748564573e-17  4.249601103059219e-01
 1.009043503180591e+00  4.249601103059219e-01 -3.731004750627608e-17

-3.527807288640981e-17 -1.207554601240861e-18  1.009496763259090e+00
-1.207554601240861e-18 -2.357041441556945e-17  4.222801518951434e-01
 1.009496763259090e+00  4.222801518951434e-01 -3.764251272667666e-17

-3.625314339032219e-17 -1.267315081448288e-18  1.013218510601985e+00
-1.267315081448288e-18 -2.698795656791883e-17  4.379489424811630e-01
 1.013218510601985e+00  4.379489424811630e-01 -3.809095287020988e-17

-3.645001213611938e-17 -1.459300660442754e-18  9.861776057198828e-01
-1.459300660442754e-18 -1.642203073104096e-17  4.617106376861690e-01
 9.861776057198828e-01  4.617106376861690e-01 -3.729896745468632e-17

-3.725562379370708e-17 -1.380418880204715e-18  1.045987191204523e+00
-1.380418880204715e-18 -2.649564400415578e-17  3.967962321481111e-01
 1.045987191204523e+00  3.967962321481111e-01 -3.947487261365785e-17

-3.759096970541900e-17 -1.489763328898763e-18  1.051191150457709e+00
-1.489763328898763e-18 -2.061054205177038e-17  3.858724137814554e-01
 1.051191150457709e+00  3.858724137814554e-01 -3.972671268459314e-17

-3.774629855488923e-17 -1.494770235961545e-18  1.007616003195079e+00
-1.494770235961545e-18 -2.678662229980024e-17  4.252542675495395e-01
 1.007616003195079e+00  4.252542675495395e-01 -3.843246983801830e-17

-3.878687742298739e-17 -1.624719042208703e-18  1.011956628581889e+00
-1.624719042208703e-18 -2.723621941658474e-17  4.250117331719370e-01
 1.011956628581889e+00  4.250117331719370e-01 -3.895083313290009e-17

-3.944497789161424e-17 -1.719044763903363e-18  1.011945882241748e+00
-1.719044763903363e-18 -2.661059188153880e-17  4.247517977281899e-01
 1.011945882241748e+00  4.247517977281899e-01 -3.917505177309960e-17

-4.059941135343339e-17 -1.841053630685407e-18  1.011760018740602e+00
-1.841053630685407e-18 -2.915183452999483e-17  4.242917330666821e-01
 1.011760018740602e+00  4.242917330666821e-01 -3.957550995543759e-17

-4.229838538645215e-17 -2.112548159582129e-18  1.014566888195693e+00
-2.112548159582129e-18 -2.533826862139732e-17  4.190530475603610e-01
 1.014566888195693e+00  4.190530475603610e-01 -4.026090390965334e-17

-4.318603373024625e-17 -2.240601961489532e-18  1.013153212515598e+00
-2.240601961489532e-18 -2.398411451945405e-17  4.241788609759670e-01
 1.013153212515598e+00  4.241788609759670e-01 -4.053299490055288e-17

-4.366860326638693e-17 -2.270017699225401e-18  9.951523349465604e-01
-2.270017699225401e-18 -2.741392166257179e-17  4.438701814167421e-01
 9.951523349465604e-01  4.438701814167421e-01 -4.011712519647310e-17

-4.437870711304999e-17 -2.308915352616180e-18  1.011032805207475e+00
-2.308915352616180e-18 -3.089994133409719e-17  4.248144551352460e-01
 1.011032805207475e+00  4.248144551352460e-01 -4.088564805760575e-17

-4.533374824403940e-17 -2.525875092282539e-18  1.017547971080365e+00
-2.525875092282539e-18 -2.318554079176545e-17  4.144649972294143e-01
 1.017547971080365e+00  4.144649972294143e-01 -4.142340184437016e-17

-4.652089325996623e-17 -2.663436975237818e-18  1.009614676253064e+00
-2.663436975237818e-18 -2.409684612558663e-17  4.251683037438012e-01
 1.009614676253064e+00  4.251683037438012e-01 -4.158124704666187e-17

-4.862471732126654e-17 -2.875566335363524e-18  1.012919129359798e+00
-2.875566335363524e-18 -2.686636535910660e-17  4.243928911369981e-01
 1.012919129359798e+00  4.243928911369981e-01 -4.244649915802561e-17

-5.253864835303021e-17 -3.235884640824088e-18  1.013509498929221e+00
-3.235884640824088e-18 -3.418096394000061e-17  4.235335216985606e-01
 1.013509498929221e+00  4.235335216985606e-01 -4.385053104417498e-17

-5.676457702417690e-17 -3.663398739120585e-18  1.013749922368737e+00
-3.663398739120585e-18 -3.644533270814454e-17  4.234302912333489e-01
 1.013749922368737e+00  4.234302912333489e-01 -4.534701709557798e-17

-6.054247669514939e-17 -4.040943087115787e-18  1.014559567302856e+00
-4.040943087115787e-18 -3.720259229153147e-17  4.242278453804377e-01
 1.014559567302856e+00  4.242278453804377e-01 -4.672786387924440e-17

-6.503088801730117e-17 -4.493654043821408e-18  1.015117470594600e+00
-4.493654043821408e-18 -3.531485258161929e-17  4.237314248995089e-01
 1.015117470594600e+00  4.237314248995089e-01 -4.832955546339707e-17

-7.126403571779225e-17 -4.969423357634018e-18  1.015303551254971e+00
-4.969423357634018e-18 -3.958781563784974e-17  4.242408520808552e-01
 1.015303551254971e+00  4.242408520808552e-01 -5.055277182876063e-17

-7.616902580730034e-17 -5.556358729626856e-18  1.016751504775966e+00
-5.556358729626856e-18 -2.274484852218651e-17  4.225191006355788e-01
 1.016751504775966e+00  4.225191006355788e-01 -5.234607992231507e-17

-8.160168133941455e-17 -5.768912299433809e-18  1.017685432571447e+00
-5.768912299433809e-18 -3.438476596808466e-17  4.234593329148598e-01
 1.017685432571447e+00  4.234593329148598e-01 -5.431083452766559e-17

-9.368075674028606e-17 -6.279315168864168e-18  1.015968270210672e+00
-6.279315168864168e-18 -4.357718015784910e-17  4.231501643616186e-01
 1.015968270210672e+00  4.231501643616186e-01 -5.856804583717742e-17

-1.044887078086476e-16 -6.792235589464723e-18  1.014837899429297e+00
-6.792235589464723e-18 -3.722375311915796e-17  4.261129952734505e-01
 1.014837899429297e+00  4.261129952734505e-01 -6.237404211705871e-17

-1.080067149955184e-16 -5.494080455424927e-18  1.009645647870643e+00
-5.494080455424927e-18 -2.106681279220799e-17  4.245624961261521e-01
 1.009645647870643e+00  4.245624961261521e-01 -7.048398476771160e-17

-1.494456308819449e-16 -6.639371405551153e-18  1.024020048495158e+00
-6.639371405551153e-18 -3.349618868316145e-17  4.196699104158946e-01
 1.024020048495158e+00  4.196699104158946e-01 -7.880594523280103e-17

-1.880944050371500e-16 -5.196064181078709e-18  1.041197687488383e+00
-5.196064181078709e-18  5.954576618441621e-18  4.377184184887107e-01
 1.041197687488383e+00  4.377184184887107e-01 -9.334947030519198e-17

-2.194929855008354e-16 -1.207343527871805e-18  1.023469668866013e+00
-1.207343527871805e-18 -1.275826179736752e-17  4.013765878189877e-01
 1.023469668866013e+00  4.013765878189877e-01 -1.042883841831604e-16

-2.569245468423219e-16  4.539089467813698e-18  9.876017652133885e-01
 4.539089467813698e-18 -1.419282597944017e-18  4.082214286218474e-01
 9.876017652133885e-01  4.082214286218474e-01 -1.170719617194393e-16

-3.423448671499937e-16  2.113510822839585e-17  1.015610662908667e+00
 2.113510822839585e-17  7.215723003433437e-17  4.322460142872033e-01
 1.015610662908667e+00  4.322460142872033e-01 -1.500346200109822e-16

-4.408383419276776e-16  4.916705399903054e-17  1.022597176501997e+00
 4.916705399903054e-17  9.570102980191198e-17  4.240538222832463e-01
 1.022597176501997e+00  4.240538222832463e-01 -1.882643182544713e-16

-6.038812627322210e-16  1.162579754100597e-16  1.019041710568173e+00
 1.162579754100597e-16  2.313573549303385e-16  4.233780753161245e-01
 1.019041710568173e+00  4.233780753161245e-01 -2.542964372997651e-16

-7.870336957403230e-16  2.233127031029869e-16  1.020002202045274e+00
 2.233127031029869e-16  3.641747145488075e-16  4.231897489828577e-01
 1.020002202045274e+00  4.231897489828577e-01 -3.342020116262053e-16

-9.289706293709862e-16  3.244589519648405e-16  1.016645402541745e+00
 3.244589519648405e-16  5.263384140933048e-16  4.276858047267335e-01
 1.016645402541745e+00  4.276858047267335e-01 -3.997610171977829e-16

-1.054635094542488e-15  4.304173176704291e-16  1.010190302121705e+00
 4.304173176704291e-16  6.255485351742584e-16  4.315383121049514e-01
 1.010190302121705e+00  4.315383121049514e-01 -4.611620972996104e-16

-1.254882842215233e-15  6.365752281327017e-16  1.016435491197248e+00
 6.365752281327017e-16  8.376683972139257e-16  4.195227250151173e-01
 1.016435491197248e+00  4.195227250151173e-01 -5.684343537995997e-16

-1.629070586837289e-15  1.139345951639592e-15  1.019538176403223e+00
 1.139345951639592e-15  1.317799849509435e-15  4.219798787410937e-01
 1.019538176403223e+00  4.219798787410937e-01 -7.994130151879898e-16

-2.253726441652402e-15  2.498855569816542e-15  1.028764407721102e+00
 2.498855569816542e-15  2.274215001487153e-15  4.295775531499955e-01
 1.028764407721102e+00  4.295775531499955e-01 -1.340235931219072e-15

-2.735387688099251e-15  5.125775190182114e-15  1.015634185642625e+00
 5.125775190182114e-15  3.297760237562666e-15  4.222412981710282e-01
 1.015634185642625e+00  4.222412981710282e-01 -2.312483043969947e-15

-3.009111390823245e-15  9.252507457501299e-15  1.006876310144388e+00
 9.252507457501299e-15  3.881428159953211e-15  4.185202159603763e-01
 1.006876310144388e+00  4.185202159603763e-01 -4.103306747019073e-15

-5.264420014917615e-15  1.490408995457012e-14  1.030047613222317e+00
 1.490408995457012e-14  5.856470847860938e-15  4.236572841588121e-01
 1.030047613222317e+00  4.236572841588121e-01 -9.566696304051607e-15

 3.846469868285629e-14 -1.317161270076787e-14  9.900556276178747e-01
-1.317161270076787e-14  5.007588383825015e-14  4.859578875594390e-01
 9.900556276178747e-01  4.859578875594390e-01 -1.220835854919133e-15

 2.244522881016958e-13 -6.239079865963318e-14  1.019915361629070e+00
-6.239079865963318e-14  1.240720569520939e-13  4.183229931167348e-01
 1.019915361629070e+00  4.183229931167348e-01  6.118675462592168e-14

-6.295661026599743e-13  1.394283193587767e-13  1.029194337568774e+00
 1.394283193587767e-13 -2.870063263172329e-13  3.734213036501069e-01
 1.029194337568774e+00  3.734213036501069e-01 -1.499216046589858e-13

 1.679975992694863e-13 -6.119821511433997e-14  1.010015815501775e+00
-6.119821511433997e-14  1.007526058592968e-13  4.459942984341846e-01
 1.010015815501775e+00  4.459942984341846e-01  4.626381267963830e-14

-6.680947885717721e-13  1.471434874560911e-13  9.999468043070784e-01
 1.471434874560911e-13 -3.041116397306040e-13  4.379620654553686e-01
 9.999468043070784e-01  4.379620654553686e-01 -1.834771618077045e-13

-1.757406861329270e-14 -1.118887960115106e-14  1.025915588836191e+00
-1.118887960115106e-14  9.941537871180102e-15  4.319952039776308e-01
 1.025915588836191e+00  4.319952039776308e-01 -1.249720574203013e-14

-1.695236558188928e-14 -3.740379521853248e-15  1.025107750886346e+00
-3.740379521853248e-15  7.208630680118401e-17  4.287713774778018e-01
 1.025107750886346e+00  4.287713774778018e-01 -9.307321816187447e-15

-1.217724633127144e-14 -1.280856943229563e-15  1.022852844124824e+00
-1.280856943229563e-15 -1.149023970432006e-15  4.299298050059850e-01
 1.022852844124824e+00  4.299298050059850e-01 -5.852840263019252e-15

-7.187483501049705e-15  4.585947992739599e-16  1.020957837222498e+00
 4.585947992739599e-16 -1.149672682609940e-15  4.292626674731733e-01
 1.020957837222498e+00  4.292626674731733e-01 -2.811473334259543e-15

-4.064178420148013e-15  9.760569020866021e-16  1.019344860821803e+00
 9.760569020866021e-16 -1.195973855942563e-15  4.305155013994831e-01
 1.019344860821803e+00  4.305155013994831e-01 -1.351327652972680e-15

-2.690534011188699e-15  9.076976897410481e-16  1.021037432499896e+00
 9.076976897410481e-16 -1.152087538873048e-15  4.303128422760321e-01
 1.021037432499896e+00  4.303128422760321e-01 -8.494203998165678e-16

-2.125932736631067e-15  8.074844038999677e-16  1.020279718813015e+00
 8.074844038999677e-16 -1.084685188070564e-15  4.312178350601751e-01
 1.020279718813015e+00  4.312178350601751e-01 -6.635354771625280e-16

-1.389703480858372e-15  6.193069439455299e-16  1.019551801243935e+00
 6.193069439455299e-16 -9.432305133592881e-16  4.314356780287663e-01
 1.019551801243935e+00  4.314356780287663e-01 -4.371453688322668e-16

-9.827697185566360e-16  4.684839526563740e-16  1.020006633489636e+00
 4.684839526563740e-16 -7.973906549345445e-16  4.315328206082426e-01
 1.020006633489636e+00  4.315328206082426e-01 -3.184146252299380e-16

-8.055877628220464e-16  3.921779742140503e-16  1.019442485226161e+00
 3.921779742140503e-16 -7.130872481066108e-16  4.309491066968845e-01
 1.019442485226161e+00  4.309491066968845e-01 -2.675302778408228e-16

-5.810915453999522e-16  2.880248074415842e-16  1.019530086239359e+00
 2.880248074415842e-16 -5.798807008429652e-16  4.318988875795613e-01
 1.019530086239359e+00  4.318988875795613e-01 -2.151892916852442e-16

-4.292854574477309e-16  2.088799842317577e-16  1.019539520250233e+00
 2.088799842317577e-16 -4.757759947954884e-16  4.317919730127286e-01
 1.019539520250233e+00  4.317919730127286e-01 -1.595592620572961e-16

-3.316374377804835e-16  1.559672843953908e-16  1.019671551279298e+00
 1.559672843953908e-16 -3.914049718140822e-16  4.321807425919642e-01
 1.019671551279298e+00  4.321807425919642e-01 -1.310071947414465e-16

-2.792659610748917e-16  1.269699649445711e-16  1.019132687793714e+00
 1.269699649445711e-16 -3.410379674160507e-16  4.321449123226090e-01
 1.019132687793714e+00  4.321449123226090e-01 -1.154594853264138e-16

-2.265559070824492e-16  9.753093663750122e-17  1.019172041916232e+00
 9.753093663750122e-17 -2.857709373445865e-16  4.323156461804968e-01
 1.019172041916232e+00  4.323156461804968e-01 -9.958807616015394e-17

-1.928170249244235e-16  7.860752913917821e-17  1.020267071317701e+00
 7.860752913917821e-17 -2.481624406523375e-16  4.330226876414275e-01
 1.020267071317701e+00  4.330226876414275e-01 -8.931591549893530e-17

-1.736567030365231e-16  6.802304850418095e-17  1.020085798163064e+00
 6.802304850418095e-17 -2.253767567796174e-16  4.322462265985838e-01
 1.020085798163064e+00  4.322462265985838e-01 -8.338722042523889e-17

-1.478884953396524e-16  5.385254402652137e-17  1.019323992132448e+00
 5.385254402652137e-17 -1.934713969850893e-16  4.324993930010272e-01
 1.019323992132448e+00  4.324993930010272e-01 -7.530709976541722e-17

-1.246724928513728e-16  4.134799174269197e-17  1.019490612419378e+00
 4.134799174269197e-17 -1.630669135127469e-16  4.323533570473310e-01
 1.019490612419378e+00  4.323533570473310e-01 -6.789369301542485e-17

-1.088543310564012e-16  3.309884843123902e-17  1.020218583849492e+00
 3.309884843123902e-17 -1.413531162252627e-16  4.327657596326085e-01
 1.020218583849492e+00  4.327657596326085e-01 -6.280180711044031e-17

-9.949650152170245e-17  2.829341695571234e-17  1.020327100588277e+00
 2.829341695571234e-17 -1.281783370561577e-16  4.339104639199368e-01
 1.020327100588277e+00  4.339104639199368e-01 -5.973954010704566e-17

-9.179379710511997e-17  2.449126757963871e-17  1.019593085265623e+00
 2.449126757963871e-17 -1.171197252069474e-16  4.335033015587734e-01
 1.019593085265623e+00  4.335033015587734e-01 -5.718300403710807e-17

-8.048935734723683e-17  1.906693964100915e-17  1.016570073724373e+00
 1.906693964100915e-17 -1.004856811788513e-16  4.341985338140737e-01
 1.016570073724373e+00  4.341985338140737e-01 -5.333846018953821e-17

-6.999224837770179e-17  1.425620014990676e-17  1.015046195561730e+00
 1.425620014990676e-17 -8.479604931216140e-17  4.283513623983423e-01
 1.015046195561730e+00  4.283513623983423e-01 -4.972335374279166e-17

-6.577032137587593e-17  1.228679136678843e-17  1.019639775467299e+00
 1.228679136678843e-17 -7.825311460306225e-17  4.339765616492397e-01
 1.019639775467299e+00  4.339765616492397e-01 -4.845599323022308e-17

-6.350574173764954e-17  1.127651865733727e-17  1.017080929800259e+00
 1.127651865733727e-17 -7.464680808880017e-17  4.457186396334112e-01
 1.017080929800259e+00  4.457186396334112e-01 -4.761528978962389e-17

-5.921323292551438e-17  9.481112317503154e-18  1.024154509675408e+00
 9.481112317503154e-18 -6.805423799709813e-17  4.321782986404795e-01
 1.024154509675408e+00  4.321782986404795e-01 -4.634994249390219e-17

-5.601401151282823e-17  8.211543883829388e-18  1.021788515597661e+00
 8.211543883829388e-18 -6.310309597509862e-17  4.304456500004898e-01
 1.021788515597661e+00  4.304456500004898e-01 -4.517182855390447e-17

-5.346067894923730e-17  7.262162517232163e-18  1.018006579698762e+00
 7.262162517232163e-18 -5.906809490072812e-17  4.322432078986052e-01
 1.018006579698762e+00  4.322432078986052e-01 -4.419208797573214e-17

-5.046748010801127e-17  6.110201793122059e-18  1.018349163820894e+00
 6.110201793122059e-18 -5.430737314194813e-17  4.332549447293715e-01
 1.018349163820894e+00  4.332549447293715e-01 -4.315431057264791e-17

-4.778609383834648e-17  5.123192753114424e-18  1.019162254908479e+00
 5.123192753114424e-18 -5.005728788125069e-17  4.328870450947682e-01
 1.019162254908479e+00  4.328870450947682e-01 -4.226037610749195e-17

-4.537896100104112e-17  4.282004847827487e-18  1.019392476911503e+00
 4.282004847827487e-18 -4.621149870470910e-17  4.323365247169087e-01
 1.019392476911503e+00  4.323365247169087e-01 -4.143553566221267e-17

-4.324566828858156e-17  3.571248151198203e-18  1.019953158249178e+00
 3.571248151198203e-18 -4.278071901024935e-17  4.320229897929996e-01
 1.019953158249178e+00  4.320229897929996e-01 -4.071657125392532e-17

-4.158227837346609e-17  3.048969550058647e-18  1.019414034679739e+00
 3.048969550058647e-18 -4.011766892412925e-17  4.311988888043287e-01
 1.019414034679739e+00  4.311988888043287e-01 -4.012853873985679e-17

-4.002504047940870e-17  2.590672214704979e-18  1.018265593850329e+00
 2.590672214704979e-18 -3.762705671024525e-17  4.301409592530126e-01
 1.018265593850329e+00  4.301409592530126e-01 -3.956295141460144e-17

-3.852130626921104e-17  2.172913734284327e-18  1.017767568510809e+00
 2.172913734284327e-18 -3.520252931105426e-17  4.294006480103271e-01
 1.017767568510809e+00  4.294006480103271e-01 -3.905081365610916e-17

-3.711891810442736e-17  1.788041383643722e-18  1.016807412381472e+00
 1.788041383643722e-18 -3.299338206905593e-17  4.283573103880638e-01
 1.016807412381472e+00  4.283573103880638e-01 -3.852672931810025e-17

-3.602803861291499e-17  1.504346211803239e-18  1.016517835270213e+00
 1.504346211803239e-18 -3.129216244379978e-17  4.277811069693956e-01
 1.016517835270213e+00  4.277811069693956e-01 -3.815463524547712e-17

-3.529184204981252e-17  1.330082113855245e-18  1.015695884397920e+00
 1.330082113855245e-18 -3.009714312212150e-17  4.274329400676342e-01
 1.015695884397920e+00  4.274329400676342e-01 -3.788926833911245e-17

-3.457214657906597e-17  1.153906365716132e-18  1.015229061868288e+00
 1.153906365716132e-18 -2.896331289517786e-17  4.270882442834996e-01
 1.015229061868288e+00  4.270882442834996e-01 -3.761632985131168e-17

-3.410437996117716e-17  1.035666426469226e-18  1.016081193340606e+00
 1.035666426469226e-18 -2.811959590329786e-17  4.271292045020270e-01
 1.016081193340606e+00  4.271292045020270e-01 -3.747036157574810e-17

-3.355143371740505e-17  9.332472572220412e-19  1.014352736512500e+00
 9.332472572220412e-19 -2.732518743218969e-17  4.265896255821431e-01
 1.014352736512500e+00  4.265896255821431e-01 -3.725834329989211e-17

-3.292500289667144e-17  7.930732750511947e-19  1.014573576696885e+00
 7.930732750511947e-19 -2.634909105080339e-17  4.255024128870495e-01
 1.014573576696885e+00  4.255024128870495e-01 -3.703814939502984e-17

-3.256904555568265e-17  7.179157853683556e-19  1.014791916248241e+00
 7.179157853683556e-19 -2.576254533338217e-17  4.260258075984566e-01
 1.014791916248241e+00  4.260258075984566e-01 -3.693285142814238e-17

-3.226430223731245e-17  6.610323977405437e-19  1.015122355897555e+00
 6.610323977405437e-19 -2.525613779369304e-17  4.265887056876448e-01
 1.015122355897555e+00  4.265887056876448e-01 -3.684993104046556e-17

-3.174586639225099e-17  5.565394318615645e-19  1.015184237103678e+00
 5.565394318615645e-19 -2.446505107691277e-17  4.253028386338250e-01
 1.015184237103678e+00  4.253028386338250e-01 -3.666206697019557e-17

-3.131724322313478e-17  4.777400656833142e-19  1.015928791627789e+00
 4.777400656833142e-19 -2.380060442466513e-17  4.263764120984150e-01
 1.015928791627789e+00  4.263764120984150e-01 -3.654700742180041e-17

-3.095158090815947e-17  4.161357976558818e-19  1.015515692993756e+00
 4.161357976558818e-19 -2.322478702884749e-17  4.250445259318932e-01
 1.015515692993756e+00  4.250445259318932e-01 -3.641548191412469e-17

-3.062824967781497e-17  3.603901956274180e-19  1.016452090452840e+00
 3.603901956274180e-19 -2.267884725783630e-17  4.262705729264976e-01
 1.016452090452840e+00  4.262705729264976e-01 -3.633805440768250e-17

-3.023416212036394e-17  3.019981434442456e-19  1.014538414394401e+00
 3.019981434442456e-19 -2.209129430837757e-17  4.255349526747881e-01
 1.014538414394401e+00  4.255349526747881e-01 -3.614925612322988e-17

-2.989219076839977e-17  2.457056600194558e-19  1.016745200005686e+00
 2.457056600194558e-19 -2.152107841348888e-17  4.255932900327169e-01
 1.016745200005686e+00  4.255932900327169e-01 -3.610797274060678e-17

-2.959671113742102e-17  1.977629860969168e-19  1.019091585177226e+00
 1.977629860969168e-19 -2.103351328230663e-17  4.243950128914259e-01
 1.019091585177226e+00  4.243950128914259e-01 -3.608880200952760e-17

-2.933008556749995e-17  1.681295713497501e-19  1.014492795766139e+00
 1.681295713497501e-19 -2.058891269687853e-17  4.286576839767306e-01
 1.014492795766139e+00  4.286576839767306e-01 -3.585668089117518e-17

-2.913896401859999e-17  1.478307473832286e-19  1.013791276403710e+00
 1.478307473832286e-19 -2.036960083027476e-17  4.268134805251093e-01
 1.013791276403710e+00  4.268134805251093e-01 -3.577164204307581e-17

-2.893592071039747e-17  1.176880262804628e-19  1.016308680479160e+00
 1.176880262804628e-19 -1.999167916372380e-17  4.283156210184889e-01
 1.016308680479160e+00  4.283156210184889e-01 -3.578727734254749e-17

-2.882865780605529e-17  9.613919220907751e-20  1.021255758957661e+00
 9.613919220907751e-20 -1.982890581032830e-17  4.241016236698334e-01
 1.021255758957661e+00  4.241016236698334e-01 -3.591041049675723e-17

-2.866265562132096e-17  8.807783165260325e-20  1.017173514620406e+00
 8.807783165260325e-20 -1.956058034597002e-17  4.277224608262357e-01
 1.017173514620406e+00  4.277224608262357e-01 -3.572539900915544e-17

-2.851853938621928e-17  6.668833001439204e-20  1.014481777019964e+00
 6.668833001439204e-20 -1.935434125954045e-17  4.298399574047441e-01
 1.014481777019964e+00  4.298399574047441e-01 -3.559383221576447e-17

-2.849894381871902e-17  5.774958189981719e-20  1.021145318257509e+00
 5.774958189981719e-20 -1.943170177458304e-17  4.165397847748500e-01
 1.021145318257509e+00  4.165397847748500e-01 -3.580086042533942e-17

-2.843196892395290e-17  3.982540588472419e-20  1.022451447242522e+00
 3.982540588472419e-20 -1.937599382611868e-17  4.154222449886732e-01
 1.022451447242522e+00  4.154222449886732e-01 -3.582316508474095e-17

-2.812764285528743e-17  3.869705383359300e-20  9.966289538954585e-01
 3.869705383359300e-20 -1.842173810046319e-17  4.633633880624415e-01
 9.966289538954585e-01  4.633633880624415e-01 -3.490210300108273e-17

-2.804600648955804e-17  2.577224881785883e-20  9.963813847980877e-01
 2.577224881785883e-20 -1.844273612491799e-17  4.554913672478525e-01
 9.963813847980877e-01  4.554913672478525e-01 -3.487598138467325e-17

-2.844281657058864e-17  2.414730570396010e-20  1.046293171141817e+00
 2.414730570396010e-20 -1.952731388877250e-17  3.886921608868408e-01
 1.046293171141817e+00  3.886921608868408e-01 -3.657045584894385e-17

-2.818445000405372e-17  7.768843515284083e-21  1.024217940081980e+00
 7.768843515284083e-21 -1.884310470703568e-17  4.215455312364454e-01
 1.024217940081980e+00  4.215455312364454e-01 -3.579776298558639e-17

-2.816511022854112e-17 -5.784429003586750e-21  1.022450284682682e+00
-5.784429003586750e-21 -1.827748249186205e-17  4.516270606130245e-01
 1.022450284682682e+00  4.516270606130245e-01 -3.574759257994267e-17

-2.802379686113066e-17 -1.713702034248566e-20  1.029426745388931e+00
-1.713702034248566e-20 -1.867692173416837e-17  4.129007009803887e-01
 1.029426745388931e+00  4.129007009803887e-01 -3.589718444891013e-17

-2.782955923089014e-17 -1.486442525328849e-20  1.023604572222316e+00
-1.486442525328849e-20 -1.859287752617604e-17  4.083970303969972e-01
 1.023604572222316e+00  4.083970303969972e-01 -3.564640366309107e-17

-2.772315694203471e-17 -3.353805988637055e-20  1.014010899564820e+00
-3.353805988637055e-20 -1.796181806050368e-17  4.409270815996344e-01
 1.014010899564820e+00  4.409270815996344e-01 -3.531177328383267e-17

-2.781988872324824e-17 -4.410728445334261e-20  1.028726154855738e+00
-4.410728445334261e-20 -1.804914007254048e-17  4.303038380476283e-01
 1.028726154855738e+00  4.303038380476283e-01 -3.581598514496754e-17

-2.773350042261637e-17 -5.746843685176708e-20  1.031509437119515e+00
-5.746843685176708e-20 -1.795381344124407e-17  4.265665060548778e-01
 1.031509437119515e+00  4.265665060548778e-01 -3.587148202491765e-17

-2.754227701421447e-17 -6.290953050542658e-20  1.020200646496495e+00
-6.290953050542658e-20 -1.759613811581479e-17  4.387634785599169e-01
 1.020200646496495e+00  4.387634785599169e-01 -3.544926516499389e-17

-2.732607544138123e-17 -6.837366298710105e-20  1.009579017253882e+00
-6.837366298710105e-20 -1.727233416623717e-17  4.474325373252539e-01
 1.009579017253882e+00  4.474325373252539e-01 -3.503798854781893e-17

-2.698979816294840e-17 -7.279623584622015e-20  9.968019646681495e-01
-7.279623584622015e-20 -1.739665859468036e-17  4.271418446891649e-01
 9.968019646681495e-01  4.271418446891649e-01 -3.450380750315030e-17

-2.702827489578041e-17 -1.396995675373369e-19  1.003583216051243e+00
-1.396995675373369e-19 -1.795361261969288e-17  4.014456775567952e-01
 1.003583216051243e+00  4.014456775567952e-01 -3.480505411627275e-17

-2.894685053405369e-17 -2.393931314218165e-20  1.118684839044610e+00
-2.393931314218165e-20 -1.805745562425890e-17  4.448714882081095e-01
 1.118684839044610e+00  4.448714882081095e-01 -3.908041025944364e-17

-2.843818158830249e-17 -1.766950007046188e-19  1.080106953247169e+00
-1.766950007046188e-19 -1.752389277363942e-17  4.705043726499092e-01
 1.080106953247169e+00  4.705043726499092e-01 -3.790118388670903e-17

-2.660163549825699e-17  2.004341662780888e-20  9.971294856158266e-01
 2.004341662780888e-20 -1.734853947185461e-17  3.963999248919156e-01
 9.971294856158266e-01  3.963999248919156e-01 -3.426843992974249e-17

-2.665125735257860e-17 -6.637664185665031e-20  1.001228917190843e+00
-6.637664185665031e-20 -1.639091396490816e-17  4.414007630145733e-01
 1.001228917190843e+00  4.414007630145733e-01 -3.461030907411519e-17

-2.675107132202043e-17 -7.002236463267015e-20  1.012196352703749e+00
-7.002236463267015e-20 -1.646137868856759e-17  4.351639637587320e-01
 1.012196352703749e+00  4.351639637587320e-01 -3.500024439285298e-17

-2.676520254589723e-17 -7.280268449473329e-20  1.016431919790819e+00
-7.280268449473329e-20 -1.647381341396937e-17  4.317151742505601e-01
 1.016431919790819e+00  4.317151742505601e-01 -3.514081086250283e-17

-2.674942778136022e-17 -7.776288854713962e-20  1.018535940654564e+00
-7.776288854713962e-20 -1.636498173791997e-17  4.318382530429896e-01
 1.018535940654564e+00  4.318382530429896e-01 -3.519683983805509e-17

-2.665654257846616e-17 -7.642497651694659e-20  1.018639149126375e+00
-7.642497651694659e-20 -1.629283612100833e-17  4.300599286000509e-01
 1.018639149126375e+00  4.300599286000509e-01 -3.519300680126021e-17

-2.659574632926734e-17 -7.983976458263082e-20  1.017772649853931e+00
-7.983976458263082e-20 -1.622971563206924e-17  4.291728996721892e-01
 1.017772649853931e+00  4.291728996721892e-01 -3.514600110979747e-17

-2.650806591286864e-17 -8.138717928133413e-20  1.017807340835400e+00
-8.138717928133413e-20 -1.612307564319979e-17  4.288658690138859e-01
 1.017807340835400e+00  4.288658690138859e-01 -3.512884678488221e-17

-2.645824748243338e-17 -8.302388185285988e-20  1.018587537355416e+00
-8.302388185285988e-20 -1.602943244367694e-17  4.285624877885136e-01
 1.018587537355416e+00  4.285624877885136e-01 -3.514985190155293e-17

-2.645321974964932e-17 -8.796606213746394e-20  1.020841766011656e+00
-8.796606213746394e-20 -1.602321925443929e-17  4.273677571318729e-01
 1.020841766011656e+00  4.273677571318729e-01 -3.521808292173506e-17

-2.641502771335228e-17 -9.434342867020147e-20  1.021795290853976e+00
-9.434342867020147e-20 -1.583994439060170e-17  4.338446464244949e-01
 1.021795290853976e+00  4.338446464244949e-01 -3.524653024556073e-17

-2.632503790457775e-17 -9.983330942677667e-20  1.018468835452817e+00
-9.983330942677667e-20 -1.581495623922316e-17  4.310603852743698e-01
 1.018468835452817e+00  4.310603852743698e-01 -3.510896422240490e-17

-2.631556718833885e-17 -1.044136634742865e-19  1.023140535725740e+00
-1.044136634742865e-19 -1.595726108803918e-17  4.201494848516644e-01
 1.023140535725740e+00  4.201494848516644e-01 -3.524816614528821e-17

-2.625817808445541e-17 -1.056729893904912e-19  1.019685243804040e+00
-1.056729893904912e-19 -1.571568280095879e-17  4.305354524636101e-01
 1.019685243804040e+00  4.305354524636101e-01 -3.512144263918029e-17

-2.626602140816925e-17 -1.088752198204766e-19  1.023266465798204e+00
-1.088752198204766e-19 -1.566917437350094e-17  4.297957775995664e-01
 1.023266465798204e+00  4.297957775995664e-01 -3.524383028934725e-17

-2.619688691455454e-17 -9.991043483755983e-20  1.022017675410306e+00
-9.991043483755983e-20 -1.561497118419293e-17  4.287968183139699e-01
 1.022017675410306e+00  4.287968183139699e-01 -3.519234975216457e-17

-2.612564178679697e-17 -1.000284090154792e-19  1.020734595788625e+00
-1.000284090154792e-19 -1.548786014369028e-17  4.290291501265477e-01
 1.020734595788625e+00  4.290291501265477e-01 -3.514425275585999e-17

-2.608212874768500e-17 -1.066924724212591e-19  1.019979852838377e+00
-1.066924724212591e-19 -1.544306288355733e-17  4.292517064087986e-01
 1.019979852838377e+00  4.292517064087986e-01 -3.510808260145924e-17

-2.599612458103450e-17 -1.168945366413965e-19  1.019866648779143e+00
-1.168945366413965e-19 -1.531349115606352e-17  4.299019198677747e-01
 1.019866648779143e+00  4.299019198677747e-01 -3.508366050902872e-17

-2.598304929013571e-17 -1.276702606070545e-19  1.020332928758912e+00
-1.276702606070545e-19 -1.529374906851501e-17  4.304736454769864e-01
 1.020332928758912e+00  4.304736454769864e-01 -3.508682385199853e-17

-2.598354933791750e-17 -1.372074729814884e-19  1.021319447857067e+00
-1.372074729814884e-19 -1.527591116490527e-17  4.312841323858269e-01
 1.021319447857067e+00  4.312841323858269e-01 -3.511008219477776e-17

-2.595143364920178e-17 -1.446123792905580e-19  1.022882866871254e+00
-1.446123792905580e-19 -1.522741789125761e-17  4.323860529424861e-01
 1.022882866871254e+00  4.323860529424861e-01 -3.514496346409371e-17

-2.592199995879460e-17 -1.494806838955313e-19  1.023260677132762e+00
-1.494806838955313e-19 -1.513860659159610e-17  4.326370874957973e-01
 1.023260677132762e+00  4.326370874957973e-01 -3.515113976324652e-17

-2.594093134373298e-17 -1.567845486380566e-19  1.024823740660351e+00
-1.567845486380566e-19 -1.513782119616144e-17  4.335590792362745e-01
 1.024823740660351e+00  4.335590792362745e-01 -3.519754173486593e-17

-2.596397402616260e-17 -1.630104348347658e-19  1.026270503643981e+00
-1.630104348347658e-19 -1.512264292195186e-17  4.352595684044853e-01
 1.026270503643981e+00  4.352595684044853e-01 -3.524142739580051e-17

-2.595890797433848e-17 -1.669581857144469e-19  1.028083560789987e+00
-1.669581857144469e-19 -1.510201231717272e-17  4.358591857347521e-01
 1.028083560789987e+00  4.358591857347521e-01 -3.528629648854986e-17

-2.592528842128483e-17 -1.669179049120654e-19  1.028187849291733e+00
-1.669179049120654e-19 -1.502287672728404e-17  4.359711899343688e-01
 1.028187849291733e+00  4.359711899343688e-01 -3.528587118898586e-17

-2.597285718426113e-17 -1.655131317835105e-19  1.030606700555892e+00
-1.655131317835105e-19 -1.501536205985643e-17  4.375055418752266e-01
 1.030606700555892e+00  4.375055418752266e-01 -3.537054438561406e-17

-2.601978882801349e-17 -1.578948207404494e-19  1.032891082264244e+00
-1.578948207404494e-19 -1.501580725657934e-17  4.379499601989464e-01
 1.032891082264244e+00  4.379499601989464e-01 -3.545551316155762e-17

-2.601299593714583e-17 -1.535765828363104e-19  1.034002933303967e+00
-1.535765828363104e-19 -1.496956971085988e-17  4.389748617523441e-01
 1.034002933303967e+00  4.389748617523441e-01 -3.549403736618780e-17

-2.598249972819939e-17 -1.278136362911068e-19  1.032847088960045e+00
-1.278136362911068e-19 -1.493160549341207e-17  4.380035021541151e-01
 1.032847088960045e+00  4.380035021541151e-01 -3.546519541060830e-17

-2.598098900928351e-17 -9.533450627405648e-20  1.033657804615923e+00
-9.533450627405648e-20 -1.490817759426898e-17  4.366433081209929e-01
 1.033657804615923e+00  4.366433081209929e-01 -3.552476955589053e-17

-2.598808763782608e-17 -7.241386332280662e-20  1.035342041604833e+00
-7.241386332280662e-20 -1.488573016306603e-17  4.362537147009624e-01
 1.035342041604833e+00  4.362537147009624e-01 -3.561376697431234e-17

-2.595909010746195e-17 -6.312900336822964e-20  1.033879543465577e+00
-6.312900336822964e-20 -1.486723951340541e-17  4.353550809648678e-01
 1.033879543465577e+00  4.353550809648678e-01 -3.557329577341537e-17

-2.591860888863444e-17 -5.874611169303184e-20  1.033209708414700e+00
-5.874611169303184e-20 -1.486736689721566e-17  4.337152562864126e-01
 1.033209708414700e+00  4.337152562864126e-01 -3.555080427907708e-17

-2.585536021019845e-17 -5.604460669004915e-20  1.031597827182451e+00
-5.604460669004915e-20 -1.482214140822677e-17  4.332216261524797e-01
 1.031597827182451e+00  4.332216261524797e-01 -3.549942990351963e-17

-2.586166515081455e-17 -6.309204871819352e-20  1.033069389121515e+00
-6.309204871819352e-20 -1.484614418504263e-17  4.326825050630707e-01
 1.033069389121515e+00  4.326825050630707e-01 -3.555476767640408e-17

-2.583974139664272e-17 -6.960713868011902e-20  1.034180570503839e+00
-6.960713868011902e-20 -1.482489854091027e-17  4.341284778736160e-01
 1.034180570503839e+00  4.341284778736160e-01 -3.558624469645523e-17

-2.582708092096432e-17 -7.867115610810459e-20  1.033821365719501e+00
-7.867115610810459e-20 -1.480716276435256e-17  4.329872807716594e-01
 1.033821365719501e+00  4.329872807716594e-01 -3.556471944532072e-17

-2.594234961741114e-17 -7.518761262961505e-20  1.041075527864963e+00
-7.518761262961505e-20 -1.491909485300826e-17  4.251740937286445e-01
 1.041075527864963e+00  4.251740937286445e-01 -3.581818869237461e-17

-2.584015581782984e-17 -7.293777515182074e-20  1.036036537080149e+00
-7.293777515182074e-20 -1.480321689326852e-17  4.325188521974937e-01
 1.036036537080149e+00  4.325188521974937e-01 -3.564127577551553e-17

-2.580506990315774e-17 -8.132962942234638e-20  1.035804545554736e+00
-8.132962942234638e-20 -1.473491080257931e-17  4.336804038301773e-01
 1.035804545554736e+00  4.336804038301773e-01 -3.563774323742753e-17

-2.571819248720841e-17 -8.641562220853356e-20  1.032123898082478e+00
-8.641562220853356e-20 -1.479012815890834e-17  4.279130376629631e-01
 1.032123898082478e+00  4.279130376629631e-01 -3.549058232978993e-17

-2.578889447966710e-17 -9.073204380196328e-20  1.038303949306063e+00
-9.073204380196328e-20 -1.471290758468405e-17  4.328404994908693e-01
 1.038303949306063e+00  4.328404994908693e-01 -3.571987847957171e-17

-2.568608232411374e-17 -1.041331487326038e-19  1.035930392328478e+00
-1.041331487326038e-19 -1.479918246398099e-17  4.236031617306200e-01
 1.035930392328478e+00  4.236031617306200e-01 -3.560576242006936e-17

-2.565604643230002e-17 -1.105119087465928e-19  1.031544386610620e+00
-1.105119087465928e-19 -1.442435641627230e-17  4.443231188316155e-01
 1.031544386610620e+00  4.443231188316155e-01 -3.546577442575549e-17

-2.556426781595114e-17 -1.342197897147636e-19  1.028745517408626e+00
-1.342197897147636e-19 -1.441880775751330e-17  4.397825890492171e-01
 1.028745517408626e+00  4.397825890492171e-01 -3.533638682042829e-17

-2.537458062386020e-17 -1.283008778055661e-19  1.024198988782449e+00
-1.283008778055661e-19 -1.459384213357079e-17  4.193871086612444e-01
 1.024198988782449e+00  4.193871086612444e-01 -3.510556354682408e-17

-2.528610267190297e-17 -1.424092547464208e-19  1.013060045101567e+00
-1.424092547464208e-19 -1.413863507142839e-17  4.438571235287104e-01
 1.013060045101567e+00  4.438571235287104e-01 -3.473520674207416e-17

-2.546903493903646e-17 -1.498702096478009e-19  1.030315132367350e+00
-1.498702096478009e-19 -1.428852845515623e-17  4.347506392941219e-01
 1.030315132367350e+00  4.347506392941219e-01 -3.534603551833976e-17

-2.513690085690448e-17 -1.593552888706127e-19  1.012854271001366e+00
-1.593552888706127e-19 -1.413159545542387e-17  4.302622299331232e-01
 1.012854271001366e+00  4.302622299331232e-01 -3.466250530576256e-17

-2.506405395736594e-17 -1.718056014070741e-19  1.011633815177258e+00
-1.718056014070741e-19 -1.412583904265428e-17  4.261808059086757e-01
 1.011633815177258e+00  4.261808059086757e-01 -3.458980593465938e-17

-2.521014330608365e-17 -1.752140618044467e-19  1.019341102066961e+00
-1.752140618044467e-19 -1.397244073773207e-17  4.368745196946603e-01
 1.019341102066961e+00  4.368745196946603e-01 -3.488885565787013e-17

-2.521333625081681e-17 -1.810239912378754e-19  1.020782050779789e+00
-1.810239912378754e-19 -1.410100945918965e-17  4.295727178056432e-01
 1.020782050779789e+00  4.295727178056432e-01 -3.492348784759680e-17

-2.521402997246902e-17 -1.850382291788582e-19  1.022200097635021e+00
-1.850382291788582e-19 -1.405036036646752e-17  4.315799633102279e-01
 1.022200097635021e+00  4.315799633102279e-01 -3.496523718658030e-17

-2.517162983803295e-17 -1.864031446351812e-19  1.020703072482601e+00
-1.864031446351812e-19 -1.400491872200598e-17  4.304961536048806e-01
 1.020703072482601e+00  4.304961536048806e-01 -3.489990797976336e-17

-2.513603086611944e-17 -1.835517901931612e-19  1.019661250420448e+00
-1.835517901931612e-19 -1.395525459081294e-17  4.306922048335425e-01
 1.019661250420448e+00  4.306922048335425e-01 -3.485046093894119e-17

-2.512140955263564e-17 -1.884213166531254e-19  1.019472391372112e+00
-1.884213166531254e-19 -1.389553113299419e-17  4.316300633358744e-01
 1.019472391372112e+00  4.316300633358744e-01 -3.484112670753920e-17

-2.507213742999395e-17 -1.856865823527356e-19  1.017800371664689e+00
-1.856865823527356e-19 -1.383050616860045e-17  4.307481399537003e-01
 1.017800371664689e+00  4.307481399537003e-01 -3.476973633182161e-17

-2.506007731807019e-17 -1.844942482691184e-19  1.017499151625427e+00
-1.844942482691184e-19 -1.379577425909205e-17  4.313841505708322e-01
 1.017499151625427e+00  4.313841505708322e-01 -3.475179849427343e-17

-2.500365392019774e-17 -1.781847063781343e-19  1.015662846932020e+00
-1.781847063781343e-19 -1.370681789619785e-17  4.297707785812698e-01
 1.015662846932020e+00  4.297707785812698e-01 -3.468753124538963e-17

-2.497437114856135e-17 -1.693905647441967e-19  1.014203933282629e+00
-1.693905647441967e-19 -1.366219480655645e-17  4.294545607408161e-01
 1.014203933282629e+00  4.294545607408161e-01 -3.464059836975617e-17

-2.493373074444688e-17 -1.612768301222247e-19  1.012408702581884e+00
-1.612768301222247e-19 -1.362178049106926e-17  4.286996484829744e-01
 1.012408702581884e+00  4.286996484829744e-01 -3.458300353908778e-17

-2.486942339011733e-17 -1.613598601216161e-19  1.009141372093095e+00
-1.613598601216161e-19 -1.353919989930268e-17  4.302509435164630e-01
 1.009141372093095e+00  4.302509435164630e-01 -3.446701759629683e-17

-2.477720200477710e-17 -1.682926468497334e-19  1.006761014667765e+00
-1.682926468497334e-19 -1.351983389074987e-17  4.279589379641601e-01
 1.006761014667765e+00  4.279589379641601e-01 -3.435439350634263e-17

-2.474214865031131e-17 -1.794766122398758e-19  1.005325203231223e+00
-1.794766122398758e-19 -1.341484511521168e-17  4.308827857628449e-01
 1.005325203231223e+00  4.308827857628449e-01 -3.429128559866258e-17

-2.467961933299238e-17 -1.839800664250081e-19  1.001978244830146e+00
-1.839800664250081e-19 -1.333024016686249e-17  4.317557776665034e-01
 1.001978244830146e+00  4.317557776665034e-01 -3.414662700185459e-17

-2.475324144580294e-17 -1.698442293603827e-19  1.005179814517588e+00
-1.698442293603827e-19 -1.332622187520090e-17  4.326275907020644e-01
 1.005179814517588e+00  4.326275907020644e-01 -3.427009412851124e-17

-2.496565248106998e-17 -1.392179405920152e-19  1.015756497096771e+00
-1.392179405920152e-19 -1.347004208927514e-17  4.273476996558423e-01
 1.015756497096771e+00  4.273476996558423e-01 -3.466335030004694e-17

-2.497213906366966e-17 -1.444234776285324e-19  1.017888639136411e+00
-1.444234776285324e-19 -1.349158775622256e-17  4.293394037058264e-01
 1.017888639136411e+00  4.293394037058264e-01 -3.475782729486591e-17

-2.497661138372070e-17 -1.321827361259914e-19  1.016413766778542e+00
-1.321827361259914e-19 -1.346364112534201e-17  4.325240730314739e-01
 1.016413766778542e+00  4.325240730314739e-01 -3.471572159719535e-17

-2.492354072493198e-17 -1.199131405454483e-19  1.014975228760440e+00
-1.199131405454483e-19 -1.353858379936706e-17  4.240999411951611e-01
 1.014975228760440e+00  4.240999411951611e-01 -3.466437372976909e-17

-2.494965908374208e-17 -1.075005935136235e-19  1.014682749032935e+00
-1.075005935136235e-19 -1.341051032766234e-17  4.315197683637548e-01
 1.014682749032935e+00  4.315197683637548e-01 -3.468060650951876e-17

-2.498981177343681e-17 -9.995882364351553e-20  1.021968101381646e+00
-9.995882364351553e-20 -1.362779172446821e-17  4.174917692542128e-01
 1.021968101381646e+00  4.174917692542128e-01 -3.493175001524809e-17

-2.481035082220437e-17 -1.011800294176989e-19  1.001015189291137e+00
-1.011800294176989e-19 -1.318234018129297e-17  4.375630373063620e-01
 1.001015189291137e+00  4.375630373063620e-01 -3.420388848943199e-17

-2.479791093277621e-17 -8.402458611850390e-20  1.005041986069015e+00
-8.402458611850390e-20 -1.333668197179196e-17  4.308198019776738e-01
 1.005041986069015e+00  4.308198019776738e-01 -3.433787101857502e-17

-2.491848308077949e-17 -7.352067772343372e-20  1.017673524344384e+00
-7.352067772343372e-20 -1.355300984444564e-17  4.178500674132237e-01
 1.017673524344384e+00  4.178500674132237e-01 -3.479007641335306e-17

-2.481767009183990e-17 -6.754733287908919e-20  1.008969988747516e+00
-6.754733287908919e-20 -1.334514311060062e-17  4.267972443870683e-01
 1.008969988747516e+00  4.267972443870683e-01 -3.449871433027462e-17

-2.479573187442044e-17 -4.996072452846150e-20  1.007738301557318e+00
-4.996072452846150e-20 -1.336218311154268e-17  4.247885364501317e-01
 1.007738301557318e+00  4.247885364501317e-01 -3.445807078118788e-17

-2.478982021283484e-17 -4.639993623490665e-20  1.007610833199123e+00
-4.639993623490665e-20 -1.330248149040464e-17  4.264151175147017e-01
 1.007610833199123e+00  4.264151175147017e-01 -3.447342788791139e-17

-2.479993218538043e-17 -3.240942405407815e-20  1.009530695057307e+00
-3.240942405407815e-20 -1.339023381885035e-17  4.212536070191858e-01
 1.009530695057307e+00  4.212536070191858e-01 -3.455426753748715e-17

-2.476172251740030e-17 -3.235176978912319e-20  1.006536795853907e+00
-3.235176978912319e-20 -1.332145370260828e-17  4.249714884180830e-01
 1.006536795853907e+00  4.249714884180830e-01 -3.446288839900020e-17

-2.472174827854960e-17 -3.331620389824997e-20  1.006440271896952e+00
-3.331620389824997e-20 -1.337812614950518e-17  4.200873293554227e-01
 1.006440271896952e+00  4.200873293554227e-01 -3.446122431620473e-17

-2.467392158011983e-17 -5.504330014678170e-20  1.004838555926425e+00
-5.504330014678170e-20 -1.327989620151564e-17  4.222059175637359e-01
 1.004838555926425e+00  4.222059175637359e-01 -3.438610592008325e-17

-2.461909839800281e-17 -7.565583934848882e-20  1.002351273092785e+00
-7.565583934848882e-20 -1.320732749403772e-17  4.235990829949859e-01
 1.002351273092785e+00  4.235990829949859e-01 -3.426390414572250e-17

-2.455990566491675e-17 -7.430582453836144e-20  9.979028779963469e-01
-7.430582453836144e-20 -1.306657246155450e-17  4.273397466926296e-01
 9.979028779963469e-01  4.273397466926296e-01 -3.408975494727086e-17

-2.458466511794602e-17 -6.143883367193052e-20  1.003544756825587e+00
-6.143883367193052e-20 -1.327151933180874e-17  4.130562589369990e-01
 1.003544756825587e+00  4.130562589369990e-01 -3.427097357295643e-17

-2.453659814429586e-17 -5.687668869812763e-20  9.929161774291499e-01
-5.687668869812763e-20 -1.299923471898352e-17  4.272657045746000e-01
 9.929161774291499e-01  4.272657045746000e-01 -3.390560340908836e-17

-2.450373466538110e-17 -4.836214149986790e-20  9.934023293539620e-01
-4.836214149986790e-20 -1.308584781039540e-17  4.264133455752260e-01
 9.934023293539620e-01  4.264133455752260e-01 -3.393457948863236e-17

-2.469952595786062e-17 -4.271575250129136e-20  1.007001077896430e+00
-4.271575250129136e-20 -1.331646047090975e-17  4.161052340728619e-01
 1.007001077896430e+00  4.161052340728619e-01 -3.443209367039155e-17

-2.476362856106400e-17 -2.664909820444691e-20  1.006952097011187e+00
-2.664909820444691e-20 -1.320253254895668e-17  4.287601577256039e-01
 1.006952097011187e+00  4.287601577256039e-01 -3.446321265065925e-17

-2.485271463154970e-17 -2.200488398697376e-20  1.012635439451359e+00
-2.200488398697376e-20 -1.337915700224438e-17  4.223837863824101e-01
 1.012635439451359e+00  4.223837863824101e-01 -3.468335983348031e-17

-2.489087988433324e-17 -1.420478030676474e-20  1.012286182625102e+00
-1.420478030676474e-20 -1.341068184925566e-17  4.231066758369820e-01
 1.012286182625102e+00  4.231066758369820e-01 -3.467277233923612e-17

-2.484723305995853e-17 -1.134269303054469e-20  1.012114571465897e+00
-1.134269303054469e-20 -1.346287741312578e-17  4.207105575529860e-01
 1.012114571465897e+00  4.207105575529860e-01 -3.467252837767364e-17

-2.485163097484444e-17 -8.519922774474738e-21  1.011613469268677e+00
-8.519922774474738e-21 -1.342381327628698e-17  4.223238307539730e-01
 1.011613469268677e+00  4.223238307539730e-01 -3.466028895262970e-17


CELL_DATA 1340
SCALARS dislocation_index int
LOOKUP_TABLE default
0
1
2
3
4
5
6
7
8
9
10
11
12
13
14
15
16
17
18
19
20
21
22
23
24
25
26
27
28
29
30
31
32
33
34
35
36
37
38
39
40
41
42
43
44
45
46
47
48
49
50
51
52
53
54
55
56
57
58
59
60
61
62
63
64
65
66
67
68
69
70
71
72
73
74
75
76
77
78
79
80
81
82
83
84
85
86
87
88
89
90
91
92
93
94
95
96
97
98
99
100
101
102
103
104
105
106
107
108
109
110
111
112
113
114
115
116
117
118
119
120
121
122
123
124
125
126
127
128
129
130
131
132
133
134
135
136
137
138
139
140
141
142
143
144
145
146
147
148
149
150
151
152
153
154
155
156
157
158
159
160
161
162
163
164
165
166
167
168
169
170
171
172
173
174
175
176
177
178
179
180
181
182
183
184
185
186
187
188
189
190
191
192
193
194
195
196
197
198
199
200
201
202
203
204
205
206
207
208
209
210
211
212
213
214
215
216
217
218
219
220
221
222
223
224
225
226
227
228
229
230
231
232
233
234
235
236
237
238
239
240
241
242
243
244
245
246
247
248
249
250
251
252
253
254
255
256
257
258
259
260
261
262
263
264
265
266
267
268
269
270
271
272
273
274
275
276
277
278
279
280
281
282
283
284
285
286
287
288
289
290
291
292
293
294
295
296
297
298
299
300
301
302
303
304
305
306
307
308
309
310
311
312
313
314
315
316
317
318
319
320
321
322
323
324
325
326
327
328
329
330
331
332
333
334
335
336
337
338
339
340
341
342
343
344
345
346
347
348
349
350
351
352
353
354
355
356
357
358
359
360
361
362
363
364
365
366
367
368
369
370
371
372
373
374
375
376
377
378
379
380
381
382
383
384
385
386
387
388
389
390
391
392
393
394
395
396
397
398
399
400
401
402
403
404
405
406
407
408
409
410
411
412
413
414
415
416
417
418
419
420
421
422
423
424
425
426
427
428
429
430
431
432
433
434
435
436
437
438
439
440
441
442
443
444
445
446
447
448
449
450
451
452
453
454
455
456
457
458
459
460
461
462
463
464
465
466
467
468
469
470
471
472
473
474
475
476
477
478
479
480
481
482
483
484
485
486
487
488
489
490
491
492
493
494
495
496
497
498
499
500
501
502
503
504
505
506
507
508
509
510
511
512
513
514
515
516
517
518
519
520
521
522
523
524
525
526
527
528
529
530
531
532
533
534
535
536
537
538
539
540
541
542
543
544
545
546
547
548
549
550
551
552
553
554
555
556
557
558
559
560
561
562
563
564
565
566
567
568
569
570
571
572
573
574
575
576
577
578
579
580
581
582
583
584
585
586
587
588
589
590
591
592
593
594
595
596
597
598
599
600
601
602
603
604
605
606
607
608
609
610
611
612
613
614
615
616
617
618
619
620
621
622
623
624
625
626
627
628
629
630
631
632
633
634
635
636
637
638
639
640
641
642
643
644
645
646
647
648
649
650
651
652
653
654
655
656
657
658
659
660
661
662
663
664
665
666
667
668
669
670
671
672
673
674
675
676
677
678
679
680
681
682
683
684
685
686
687
688
689
690
691
692
693
694
695
696
697
698
699
700
701
702
703
704
705
706
707
708
709
710
711
712
713
714
715
716
717
718
719
720
721
722
723
724
725
726
727
728
729
730
731
732
733
734
735
736
737
738
739
740
741
742
743
744
745
746
747
748
749
750
751
752
753
754
755
756
757
758
759
760
761
762
763
764
765
766
767
768
769
770
771
772
773
774
775
776
777
778
779
780
781
782
783
784
785
786
787
788
789
790
791
792
793
794
795
796
797
798
799
800
801
802
803
804
805
806
807
808
809
810
811
812
813
814
815
816
817
818
819
820
821
822
823
824
825
826
827
828
829
830
831
832
833
834
835
836
837
838
839
840
841
842
843
844
845
846
847
848
849
850
851
852
853
854
855
856
857
858
859
860
861
862
863
864
865
866
867
868
869
870
871
872
873
874
875
876
877
878
879
880
881
882
883
884
885
886
887
888
889
890
891
892
893
894
895
896
897
898
899
900
901
902
903
904
905
906
907
908
909
910
911
912
913
914
915
916
917
918
919
920
921
922
923
924
925
926
927
928
929
930
931
932
933
934
935
936
937
938
939
940
941
942
943
944
945
946
947
948
949
950
951
952
953
954
955
956
957
958
959
960
961
962
963
964
965
966
967
968
969
970
971
972
973
974
975
976
977
978
979
980
981
982
983
984
985
986
987
988
989
990
991
992
993
994
995
996
997
998
999
1000
1001
1002
1003
1004
1005
1006
1007
1008
1009
1010
1011
1012
1013
1014
1015
1016
1017
1018
1019
1020
1021
1022
1023
1024
1025
1026
1027
1028
1029
1030
1031
1032
1033
1034
1035
1036
1037
1038
1039
1040
1041
1042
1043
1044
1045
1046
1047
1048
1049
1050
1051
1052
1053
1054
1055
1056
1057
1058
1059
1060
1061
1062
1063
1064
1065
1066
1067
1068
1069
1070
1071
1072
1073
1074
1075
1076
1077
1078
1079
1080
1081
1082
1083
1084
1085
1086
1087
1088
1089
1090
1091
1092
1093
1094
1095
1096
1097
1098
1099
1100
1101
1102
1103
1104
1105
1106
1107
1108
1109
1110
1111
1112
1113
1114
1115
1116
1117
1118
1119
1120
1121
1122
1123
1124
1125
1126
1127
1128
1129
1130
1131
1132
1133
1134
1135
1136
1137
1138
1139
1140
1141
1142
1143
1144
1145
1146
1147
1148
1149
1150
1151
1152
1153
1154
1155
1156
1157
1158
1159
1160
1161
1162
1163
1164
1165
1166
1167
1168
1169
1170
1171
1172
1173
1174
1175
1176
1177
1178
1179
1180
1181
1182
1183
1184
1185
1186
1187
1188
1189
1190
1191
1192
1193
1194
1195
1196
1197
1198
1199
1200
1201
1202
1203
1204
1205
1206
1207
1208
1209
1210
1211
1212
1213
1214
1215
1216
1217
1218
1219
1220
1221
1222
1223
1224
1225
1226
1227
1228
1229
1230
1231
1232
1233
1234
1235
1236
1237
1238
1239
1240
1241
1242
1243
1244
1245
1246
1247
1248
1249
1250
1251
1252
1253
1254
1255
1256
1257
1258
1259
1260
1261
1262
1263
1264
1265
1266
1267
1268
1269
1270
1271
1272
1273
1274
1275
1276
1277
1278
1279
1280
1281
1282
1283
1284
1285
1286
1287
1288
1289
1290
1291
1292
1293
1294
1295
1296
1297
1298
1299
1300
1301
1302
1303
1304
1305
1306
1307
1308
1309
1310
1311
1312
1313
1314
1315
1316
1317
1318
1319
1320
1321
1322
1323
1324
1325
1326
1327
1328
1329
1330
1331
1332
1333
1334
1335
1336
1337
1338
1339

VECTORS burgers_vector_global double
-1.429999999999999e+00 -8.256108849411650e-01  3.393140768766017e-17
 1.429999999999999e+00  8.256108849411650e-01 -3.393140768766017e-17
-1.429999999999999e+00 -8.256108849411650e-01  3.393140768766017e-17
-1.429999999999999e+00 -8.256108849411650e-01  3.393140768766017e-17
-1.429999999999999e+00 -8.256108849411650e-01  3.393140768766017e-17
-1.429999999999999e+00 -8.256108849411650e-01  3.393140768766017e-17
-1.429999999999999e+00 -8.256108849411650e-01  3.393140768766017e-17
-1.429999999999999e+00 -8.256108849411650e-01  3.393140768766017e-17
-1.429999999999999e+00 -8.256108849411650e-01  3.393140768766017e-17
-1.429999999999999e+00 -8.256108849411650e-01  3.393140768766017e-17
-1.429999999999999e+00 -8.256108849411650e-01  3.393140768766017e-17
-1.429999999999999e+00 -8.256108849411650e-01  3.393140768766017e-17
-1.429999999999999e+00 -8.256108849411650e-01  3.393140768766017e-17
-1.429999999999999e+00 -8.256108849411650e-01  3.393140768766017e-17
-1.429999999999999e+00 -8.256108849411650e-01  3.393140768766017e-17
-1.429999999999999e+00 -8.256108849411650e-01  3.393140768766017e-17
-1.429999999999999e+00 -8.256108849411650e-01  3.393140768766017e-17
-1.429999999999999e+00 -8.256108849411650e-01  3.393140768766017e-17
-1.429999999999999e+00 -8.256108849411650e-01  3.393140768766017e-17
-1.429999999999999e+00 -8.256108849411650e-01  3.393140768766017e-17
-1.429999999999999e+00 -8.256108849411650e-01  3.393140768766017e-17
-1.429999999999999e+00 -8.256108849411650e-01  3.393140768766017e-17
-1.429999999999999e+00 -8.256108849411650e-01  3.393140768766017e-17
-1.429999999999999e+00 -8.256108849411650e-01  3.393140768766017e-17
-1.429999999999999e+00 -8.256108849411650e-01  3.393140768766017e-17
-1.429999999999999e+00 -8.256108849411650e-01  3.393140768766017e-17
-1.429999999999999e+00 -8.256108849411650e-01  3.393140768766017e-17
-1.429999999999999e+00 -8.256108849411650e-01  3.393140768766017e-17
-1.429999999999999e+00 -8.256108849411650e-01  3.393140768766017e-17
-1.429999999999999e+00 -8.256108849411650e-01  3.393140768766017e-17
-1.429999999999999e+00 -8.256108849411650e-01  3.393140768766017e-17
-1.429999999999999e+00 -8.256108849411650e-01  3.393140768766017e-17
-1.429999999999999e+00 -8.256108849411650e-01  3.393140768766017e-17
-1.429999999999999e+00 -8.256108849411650e-01  3.393140768766017e-17
-1.429999999999999e+00 -8.256108849411650e-01  3.393140768766017e-17
-1.429999999999999e+00 -8.256108849411650e-01  3.393140768766017e-17
-1.429999999999999e+00 -8.256108849411650e-01  3.393140768766017e-17
-1.429999999999999e+00 -8.256108849411650e-01  3.393140768766017e-17
-1.429999999999999e+00 -8.256108849411650e-01  3.393140768766017e-17
-1.429999999999999e+00 -8.256108849411650e-01  3.393140768766017e-17
-1.429999999999999e+00 -8.256108849411650e-01  3.393140768766017e-17
-1.429999999999999e+00 -8.256108849411650e-01  3.393140768766017e-17
-1.429999999999999e+00 -8.256108849411650e-01  3.393140768766017e-17
-1.429999999999999e+00 -8.256108849411650e-01  3.393140768766017e-17
-1.429999999999999e+00 -8.256108849411650e-01  3.393140768766017e-17
-1.429999999999999e+00 -8.256108849411650e-01  3.393140768766017e-17
-1.429999999999999e+00 -8.256108849411650e-01  3.393140768766017e-17
-1.429999999999999e+00 -8.256108849411650e-01  3.393140768766017e-17
-1.429999999999999e+00 -8.256108849411650e-01  3.393140768766017e-17
-1.429999999999999e+00 -8.256108849411650e-01  3.393140768766017e-17
-1.429999999999999e+00 -8.256108849411650e-01  3.393140768766017e-17
-1.429999999999999e+00 -8.256108849411650e-01  3.393140768766017e-17
-1.429999999999999e+00 -8.256108849411650e-01  3.393140768766017e-17
-1.429999999999999e+00 -8.256108849411650e-01  3.393140768766017e-17
-1.429999999999999e+00 -8.256108849411650e-01  3.393140768766017e-17
-1.429999999999999e+00 -8.256108849411650e-01  3.393140768766017e-17
-1.429999999999999e+00 -8.256108849411650e-01  3.393140768766017e-17
-1.429999999999999e+00 -8.256108849411650e-01  3.393140768766017e-17
-1.429999999999999e+00 -8.256108849411650e-01  3.393140768766017e-17
-1.429999999999999e+00 -8.256108849411650e-01  3.393140768766017e-17
-1.429999999999999e+00 -8.256108849411650e-01  3.393140768766017e-17
-1.429999999999999e+00 -8.256108849411650e-01  3.393140768766017e-17
-1.429999999999999e+00 -8.256108849411650e-01  3.393140768766017e-17
-1.429999999999999e+00 -8.256108849411650e-01  3.393140768766017e-17
-1.429999999999999e+00 -8.256108849411650e-01  3.393140768766017e-17
-1.429999999999999e+00 -8.256108849411650e-01  3.393140768766017e-17
-1.429999999999999e+00 -8.256108849411650e-01  3.393140768766017e-17
-1.429999999999999e+00 -8.256108849411650e-01  3.393140768766017e-17
-1.429999999999999e+00 -8.256108849411650e-01  3.393140768766017e-17
-1.429999999999999e+00 -8.256108849411650e-01  3.393140768766017e-17
-1.429999999999999e+00 -8.256108849411650e-01  3.393140768766017e-17
-1.429999999999999e+00 -8.256108849411650e-01  3.393140768766017e-17
-1.429999999999999e+00 -8.256108849411650e-01  3.393140768766017e-17
-1.429999999999999e+00 -8.256108849411650e-01  3.393140768766017e-17
-1.429999999999999e+00 -8.256108849411650e-01  3.393140768766017e-17
-1.429999999999999e+00 -8.256108849411650e-01  3.393140768766017e-17
-1.429999999999999e+00 -8.256108849411650e-01  3.393140768766017e-17
-1.429999999999999e+00 -8.256108849411650e-01  3.393140768766017e-17
-1.429999999999999e+00 -8.256108849411650e-01  3.393140768766017e-17
-1.429999999999999e+00 -8.256108849411650e-01  3.393140768766017e-17
-1.429999999999999e+00 -8.256108849411650e-01  3.393140768766017e-17
-1.429999999999999e+00 -8.256108849411650e-01  3.393140768766017e-17
-1.429999999999999e+00 -8.256108849411650e-01  3.393140768766017e-17
-1.429999999999999e+00 -8.256108849411650e-01  3.393140768766017e-17
-1.429999999999999e+00 -8.256108849411650e-01  3.393140768766017e-17
-1.429999999999999e+00 -8.256108849411650e-01  3.393140768766017e-17
-1.429999999999999e+00 -8.256108849411650e-01  3.393140768766017e-17
-1.429999999999999e+00 -8.256108849411650e-01  3.393140768766017e-17
-1.429999999999999e+00 -8.256108849411650e-01  3.393140768766017e-17
-1.429999999999999e+00 -8.256108849411650e-01  3.393140768766017e-17
-1.429999999999999e+00 -8.256108849411650e-01  3.393140768766017e-17
-1.429999999999999e+00 -8.256108849411650e-01  3.393140768766017e-17
-1.429999999999999e+00 -8.256108849411650e-01  3.393140768766017e-17
-1.429999999999999e+00 -8.256108849411650e-01  3.393140768766017e-17
-1.429999999999999e+00 -8.256108849411650e-01  3.393140768766017e-17
-1.429999999999999e+00 -8.256108849411650e-01  3.393140768766017e-17
-1.429999999999999e+00 -8.256108849411650e-01  3.393140768766017e-17
-1.429999999999999e+00 -8.256108849411650e-01  3.393140768766017e-17
-1.429999999999999e+00 -8.256108849411650e-01  3.393140768766017e-17
-1.429999999999999e+00 -8.256108849411650e-01  3.393140768766017e-17
-1.429999999999999e+00 -8.256108849411650e-01  3.393140768766017e-17
-1.429999999999999e+00 -8.256108849411650e-01  3.393140768766017e-17
-1.429999999999999e+00 -8.256108849411650e-01  3.393140768766017e-17
-1.429999999999999e+00 -8.256108849411650e-01  3.393140768766017e-17
-1.429999999999999e+00 -8.256108849411650e-01  3.393140768766017e-17
-1.429999999999999e+00 -8.256108849411650e-01  3.393140768766017e-17
-1.429999999999999e+00 -8.256108849411650e-01  3.393140768766017e-17
-1.429999999999999e+00 -8.256108849411650e-01  3.393140768766017e-17
-1.429999999999999e+00 -8.256108849411650e-01  3.393140768766017e-17
-1.429999999999999e+00 -8.256108849411650e-01  3.393140768766017e-17
-1.429999999999999e+00 -8.256108849411650e-01  3.393140768766017e-17
-1.429999999999999e+00 -8.256108849411650e-01  3.393140768766017e-17
-1.429999999999999e+00 -8.256108849411650e-01  3.393140768766017e-17
-1.429999999999999e+00 -8.256108849411650e-01  3.393140768766017e-17
-1.429999999999999e+00 -8.256108849411650e-01  3.393140768766017e-17
-1.429999999999999e+00 -8.256108849411650e-01  3.393140768766017e-17
-1.429999999999999e+00 -8.256108849411650e-01  3.393140768766017e-17
-1.429999999999999e+00 -8.256108849411650e-01  3.393140768766017e-17
-1.429999999999999e+00 -8.256108849411650e-01  3.393140768766017e-17
-1.429999999999999e+00 -8.256108849411650e-01  3.393140768766017e-17
-1.429999999999999e+00 -8.256108849411650e-01  3.393140768766017e-17
-1.429999999999999e+00 -8.256108849411650e-01  3.393140768766017e-17
-1.429999999999999e+00 -8.256108849411650e-01  3.393140768766017e-17
-1.429999999999999e+00 -8.256108849411650e-01  3.393140768766017e-17
-1.429999999999999e+00 -8.256108849411650e-01  3.393140768766017e-17
-1.429999999999999e+00 -8.256108849411650e-01  3.393140768766017e-17
-1.429999999999999e+00 -8.256108849411650e-01  3.393140768766017e-17
-1.429999999999999e+00 -8.256108849411650e-01  3.393140768766017e-17
-1.429999999999999e+00 -8.256108849411650e-01  3.393140768766017e-17
-1.429999999999999e+00 -8.256108849411650e-01  3.393140768766017e-17
-1.429999999999999e+00 -8.256108849411650e-01  3.393140768766017e-17
-1.429999999999999e+00 -8.256108849411650e-01  3.393140768766017e-17
-1.429999999999999e+00 -8.256108849411650e-01  3.393140768766017e-17
-1.429999999999999e+00 -8.256108849411650e-01  3.393140768766017e-17
-1.429999999999999e+00 -8.256108849411650e-01  3.393140768766017e-17
-1.429999999999999e+00 -8.256108849411650e-01  3.393140768766017e-17
-1.429999999999999e+00 -8.256108849411650e-01  3.393140768766017e-17
-1.429999999999999e+00 -8.256108849411650e-01  3.393140768766017e-17
-1.429999999999999e+00 -8.256108849411650e-01  3.393140768766017e-17
-1.429999999999999e+00 -8.256108849411650e-01  3.393140768766017e-17
-1.429999999999999e+00 -8.256108849411650e-01  3.393140768766017e-17
-1.429999999999999e+00 -8.256108849411650e-01  3.393140768766017e-17
-1.429999999999999e+00 -8.256108849411650e-01  3.393140768766017e-17
-1.429999999999999e+00 -8.256108849411650e-01  3.393140768766017e-17
-1.429999999999999e+00 -8.256108849411650e-01  3.393140768766017e-17
-1.429999999999999e+00 -8.256108849411650e-01  3.393140768766017e-17
-1.429999999999999e+00 -8.256108849411650e-01  3.393140768766017e-17
-1.429999999999999e+00 -8.256108849411650e-01  3.393140768766017e-17
-1.429999999999999e+00 -8.256108849411650e-01  3.393140768766017e-17
-1.429999999999999e+00 -8.256108849411650e-01  3.393140768766017e-17
-1.429999999999999e+00 -8.256108849411650e-01  3.393140768766017e-17
-1.429999999999999e+00 -8.256108849411650e-01  3.393140768766017e-17
-1.429999999999999e+00 -8.256108849411650e-01  3.393140768766017e-17
-1.429999999999999e+00 -8.256108849411650e-01  3.393140768766017e-17
-1.429999999999999e+00 -8.256108849411650e-01  3.393140768766017e-17
-1.429999999999999e+00 -8.256108849411650e-01  3.393140768766017e-17
-1.429999999999999e+00 -8.256108849411650e-01  3.393140768766017e-17
-1.429999999999999e+00 -8.256108849411650e-01  3.393140768766017e-17
-1.429999999999999e+00 -8.256108849411650e-01  3.393140768766017e-17
-1.429999999999999e+00 -8.256108849411650e-01  3.393140768766017e-17
-1.429999999999999e+00 -8.256108849411650e-01  3.393140768766017e-17
-1.429999999999999e+00 -8.256108849411650e-01  3.393140768766017e-17
-1.429999999999999e+00 -8.256108849411650e-01  3.393140768766017e-17
-1.429999999999999e+00 -8.256108849411650e-01  3.393140768766017e-17
-1.429999999999999e+00 -8.256108849411650e-01  3.393140768766017e-17
-1.429999999999999e+00 -8.256108849411650e-01  3.393140768766017e-17
-1.429999999999999e+00 -8.256108849411650e-01  3.393140768766017e-17
-1.429999999999999e+00 -8.256108849411650e-01  3.393140768766017e-17
-1.429999999999999e+00 -8.256108849411650e-01  3.393140768766017e-17
-1.429999999999999e+00 -8.256108849411650e-01  3.393140768766017e-17
-1.429999999999999e+00 -8.256108849411650e-01  3.393140768766017e-17
-1.429999999999999e+00 -8.256108849411650e-01  3.393140768766017e-17
-1.429999999999999e+00 -8.256108849411650e-01  3.393140768766017e-17
-1.429999999999999e+00 -8.256108849411650e-01  3.393140768766017e-17
-1.429999999999999e+00 -8.256108849411650e-01  3.393140768766017e-17
-1.429999999999999e+00 -8.256108849411650e-01  3.393140768766017e-17
-1.429999999999999e+00 -8.256108849411650e-01  3.393140768766017e-17
-1.429999999999999e+00 -8.256108849411650e-01  3.393140768766017e-17
-1.429999999999999e+00 -8.256108849411650e-01  3.393140768766017e-17
 1.429999999999999e+00  8.256108849411650e-01 -3.393140768766017e-17
-1.429999999999999e+00 -8.256108849411650e-01  3.393140768766017e-17
-1.429999999999999e+00 -8.256108849411650e-01  3.393140768766017e-17
-1.429999999999999e+00 -8.256108849411650e-01  3.393140768766017e-17
-1.429999999999999e+00 -8.256108849411650e-01  3.393140768766017e-17
-1.429999999999999e+00 -8.256108849411650e-01  3.393140768766017e-17
-1.429999999999999e+00 -8.256108849411650e-01  3.393140768766017e-17
-1.429999999999999e+00 -8.256108849411650e-01  3.393140768766017e-17
-1.429999999999999e+00 -8.256108849411650e-01  3.393140768766017e-17
-1.429999999999999e+00 -8.256108849411650e-01  3.393140768766017e-17
-1.429999999999999e+00 -8.256108849411650e-01  3.393140768766017e-17
-1.429999999999999e+00 -8.256108849411650e-01  3.393140768766017e-17
-1.429999999999999e+00 -8.256108849411650e-01  3.393140768766017e-17
-1.429999999999999e+00 -8.256108849411650e-01  3.393140768766017e-17
-1.429999999999999e+00 -8.256108849411650e-01  3.393140768766017e-17
-1.429999999999999e+00 -8.256108849411650e-01  3.393140768766017e-17
-1.429999999999999e+00 -8.256108849411650e-01  3.393140768766017e-17
-1.429999999999999e+00 -8.256108849411650e-01  3.393140768766017e-17
-1.429999999999999e+00 -8.256108849411650e-01  3.393140768766017e-17
-1.429999999999999e+00 -8.256108849411650e-01  3.393140768766017e-17
-1.429999999999999e+00 -8.256108849411650e-01  3.393140768766017e-17
-1.429999999999999e+00 -8.256108849411650e-01  3.393140768766017e-17
-1.429999999999999e+00 -8.256108849411650e-01  3.393140768766017e-17
-1.429999999999999e+00 -8.256108849411650e-01  3.393140768766017e-17
-1.429999999999999e+00 -8.256108849411650e-01  3.393140768766017e-17
-1.429999999999999e+00 -8.256108849411650e-01  3.393140768766017e-17
-1.429999999999999e+00 -8.256108849411650e-01  3.393140768766017e-17
-1.429999999999999e+00 -8.256108849411650e-01  3.393140768766017e-17
-1.429999999999999e+00 -8.256108849411650e-01  3.393140768766017e-17
-1.429999999999999e+00 -8.256108849411650e-01  3.393140768766017e-17
-1.429999999999999e+00 -8.256108849411650e-01  3.393140768766017e-17
-1.429999999999999e+00 -8.256108849411650e-01  3.393140768766017e-17
-1.429999999999999e+00 -8.256108849411650e-01  3.393140768766017e-17
-1.429999999999999e+00 -8.256108849411650e-01  3.393140768766017e-17
-1.429999999999999e+00 -8.256108849411650e-01  3.393140768766017e-17
-1.429999999999999e+00 -8.256108849411650e-01  3.393140768766017e-17
-1.429999999999999e+00 -8.256108849411650e-01  3.393140768766017e-17
-1.429999999999999e+00 -8.256108849411650e-01  3.393140768766017e-17
-1.429999999999999e+00 -8.256108849411650e-01  3.393140768766017e-17
-1.429999999999999e+00 -8.256108849411650e-01  3.393140768766017e-17
-1.429999999999999e+00 -8.256108849411650e-01  3.393140768766017e-17
-1.429999999999999e+00 -8.256108849411650e-01  3.393140768766017e-17
-1.429999999999999e+00 -8.256108849411650e-01  3.393140768766017e-17
-1.429999999999999e+00 -8.256108849411650e-01  3.393140768766017e-17
-1.429999999999999e+00 -8.256108849411650e-01  3.393140768766017e-17
-1.429999999999999e+00 -8.256108849411650e-01  3.393140768766017e-17
-1.429999999999999e+00 -8.256108849411650e-01  3.393140768766017e-17
-1.429999999999999e+00 -8.256108849411650e-01  3.393140768766017e-17
-1.429999999999999e+00 -8.256108849411650e-01  3.393140768766017e-17
-1.429999999999999e+00 -8.256108849411650e-01  3.393140768766017e-17
-1.429999999999999e+00 -8.256108849411650e-01  3.393140768766017e-17
-1.429999999999999e+00 -8.256108849411650e-01  3.393140768766017e-17
-1.429999999999999e+00 -8.256108849411650e-01  3.393140768766017e-17
-1.429999999999999e+00 -8.256108849411650e-01  3.393140768766017e-17
-1.429999999999999e+00 -8.256108849411650e-01  3.393140768766017e-17
-1.429999999999999e+00 -8.256108849411650e-01  3.393140768766017e-17
-1.429999999999999e+00 -8.256108849411650e-01  3.393140768766017e-17
-1.429999999999999e+00 -8.256108849411650e-01  3.393140768766017e-17
-1.429999999999999e+00 -8.256108849411650e-01  3.393140768766017e-17
-1.429999999999999e+00 -8.256108849411650e-01  3.393140768766017e-17
-1.429999999999999e+00 -8.256108849411650e-01  3.393140768766017e-17
-1.429999999999999e+00 -8.256108849411650e-01  3.393140768766017e-17
-1.429999999999999e+00 -8.256108849411650e-01  3.393140768766017e-17
-1.429999999999999e+00 -8.256108849411650e-01  3.393140768766017e-17
-1.429999999999999e+00 -8.256108849411650e-01  3.393140768766017e-17
-1.429999999999999e+00 -8.256108849411650e-01  3.393140768766017e-17
-1.429999999999999e+00 -8.256108849411650e-01  3.393140768766017e-17
-1.429999999999999e+00 -8.256108849411650e-01  3.393140768766017e-17
-1.429999999999999e+00 -8.256108849411650e-01  3.393140768766017e-17
-1.429999999999999e+00 -8.256108849411650e-01  3.393140768766017e-17
-1.429999999999999e+00 -8.256108849411650e-01  3.393140768766017e-17
-1.429999999999999e+00 -8.256108849411650e-01  3.393140768766017e-17
-1.429999999999999e+00 -8.256108849411650e-01  3.393140768766017e-17
-1.429999999999999e+00 -8.256108849411650e-01  3.393140768766017e-17
-1.429999999999999e+00 -8.256108849411650e-01  3.393140768766017e-17
-1.429999999999999e+00 -8.256108849411650e-01  3.393140768766017e-17
-1.429999999999999e+00 -8.256108849411650e-01  3.393140768766017e-17
-1.429999999999999e+00 -8.256108849411650e-01  3.393140768766017e-17
-1.429999999999999e+00 -8.256108849411650e-01  3.393140768766017e-17
-1.429999999999999e+00 -8.256108849411650e-01  3.393140768766017e-17
-1.429999999999999e+00 -8.256108849411650e-01  3.393140768766017e-17
-1.429999999999999e+00 -8.256108849411650e-01  3.393140768766017e-17
-1.429999999999999e+00 -8.256108849411650e-01  3.393140768766017e-17
-1.429999999999999e+00 -8.256108849411650e-01  3.393140768766017e-17
-1.429999999999999e+00 -8.256108849411650e-01  3.393140768766017e-17
-1.429999999999999e+00 -8.256108849411650e-01  3.393140768766017e-17
-1.429999999999999e+00 -8.256108849411650e-01  3.393140768766017e-17
-1.429999999999999e+00 -8.256108849411650e-01  3.393140768766017e-17
-1.429999999999999e+00 -8.256108849411650e-01  3.393140768766017e-17
-1.429999999999999e+00 -8.256108849411650e-01  3.393140768766017e-17
-1.429999999999999e+00 -8.256108849411650e-01  3.393140768766017e-17
-1.429999999999999e+00 -8.256108849411650e-01  3.393140768766017e-17
-1.429999999999999e+00 -8.256108849411650e-01  3.393140768766017e-17
-1.429999999999999e+00 -8.256108849411650e-01  3.393140768766017e-17
-1.429999999999999e+00 -8.256108849411650e-01  3.393140768766017e-17
-1.429999999999999e+00 -8.256108849411650e-01  3.393140768766017e-17
-1.429999999999999e+00 -8.256108849411650e-01  3.393140768766017e-17
-1.429999999999999e+00 -8.256108849411650e-01  3.393140768766017e-17
-1.429999999999999e+00 -8.256108849411650e-01  3.393140768766017e-17
-1.429999999999999e+00 -8.256108849411650e-01  3.393140768766017e-17
-1.429999999999999e+00 -8.256108849411650e-01  3.393140768766017e-17
-1.429999999999999e+00 -8.256108849411650e-01  3.393140768766017e-17
-1.429999999999999e+00 -8.256108849411650e-01  3.393140768766017e-17
-1.429999999999999e+00 -8.256108849411650e-01  3.393140768766017e-17
-1.429999999999999e+00 -8.256108849411650e-01  3.393140768766017e-17
-1.429999999999999e+00 -8.256108849411650e-01  3.393140768766017e-17
-1.429999999999999e+00 -8.256108849411650e-01  3.393140768766017e-17
-1.429999999999999e+00 -8.256108849411650e-01  3.393140768766017e-17
-1.429999999999999e+00 -8.256108849411650e-01  3.393140768766017e-17
-1.429999999999999e+00 -8.256108849411650e-01  3.393140768766017e-17
-1.429999999999999e+00 -8.256108849411650e-01  3.393140768766017e-17
-1.429999999999999e+00 -8.256108849411650e-01  3.393140768766017e-17
-1.429999999999999e+00 -8.256108849411650e-01  3.393140768766017e-17
-1.429999999999999e+00 -8.256108849411650e-01  3.393140768766017e-17
-1.429999999999999e+00 -8.256108849411650e-01  3.393140768766017e-17
-1.429999999999999e+00 -8.256108849411650e-01  3.393140768766017e-17
-1.429999999999999e+00 -8.256108849411650e-01  3.393140768766017e-17
-1.429999999999999e+00 -8.256108849411650e-01  3.393140768766017e-17
-1.429999999999999e+00 -8.256108849411650e-01  3.393140768766017e-17
-1.429999999999999e+00 -8.256108849411650e-01  3.393140768766017e-17
-1.429999999999999e+00 -8.256108849411650e-01  3.393140768766017e-17
-1.429999999999999e+00 -8.256108849411650e-01  3.393140768766017e-17
-1.429999999999999e+00 -8.256108849411650e-01  3.393140768766017e-17
-1.429999999999999e+00 -8.256108849411650e-01  3.393140768766017e-17
-1.429999999999999e+00 -8.256108849411650e-01  3.393140768766017e-17
-1.429999999999999e+00 -8.256108849411650e-01  3.393140768766017e-17
-1.429999999999999e+00 -8.256108849411650e-01  3.393140768766017e-17
-1.429999999999999e+00 -8.256108849411650e-01  3.393140768766017e-17
-1.429999999999999e+00 -8.256108849411650e-01  3.393140768766017e-17
-1.429999999999999e+00 -8.256108849411650e-01  3.393140768766017e-17
-1.429999999999999e+00 -8.256108849411650e-01  3.393140768766017e-17
-1.429999999999999e+00 -8.256108849411650e-01  3.393140768766017e-17
-1.429999999999999e+00 -8.256108849411650e-01  3.393140768766017e-17
-1.429999999999999e+00 -8.256108849411650e-01  3.393140768766017e-17
-1.429999999999999e+00 -8.256108849411650e-01  3.393140768766017e-17
-1.429999999999999e+00 -8.256108849411650e-01  3.393140768766017e-17
-1.429999999999999e+00 -8.256108849411650e-01  3.393140768766017e-17
-1.429999999999999e+00 -8.256108849411650e-01  3.393140768766017e-17
-1.429999999999999e+00 -8.256108849411650e-01  3.393140768766017e-17
-1.429999999999999e+00 -8.256108849411650e-01  3.393140768766017e-17
-1.429999999999999e+00 -8.256108849411650e-01  3.393140768766017e-17
-1.429999999999999e+00 -8.256108849411650e-01  3.393140768766017e-17
-1.429999999999999e+00 -8.256108849411650e-01  3.393140768766017e-17
-1.429999999999999e+00 -8.256108849411650e-01  3.393140768766017e-17
-1.429999999999999e+00 -8.256108849411650e-01  3.393140768766017e-17
-1.429999999999999e+00 -8.256108849411650e-01  3.393140768766017e-17
-1.429999999999999e+00 -8.256108849411650e-01  3.393140768766017e-17
-1.429999999999999e+00 -8.256108849411650e-01  3.393140768766017e-17
-1.429999999999999e+00 -8.256108849411650e-01  3.393140768766017e-17
-1.429999999999999e+00 -8.256108849411650e-01  3.393140768766017e-17
-1.429999999999999e+00 -8.256108849411650e-01  3.393140768766017e-17
-1.429999999999999e+00 -8.256108849411650e-01  3.393140768766017e-17
-1.429999999999999e+00 -8.256108849411650e-01  3.393140768766017e-17
-1.429999999999999e+00 -8.256108849411650e-01  3.393140768766017e-17
-1.429999999999999e+00 -8.256108849411650e-01  3.393140768766017e-17
-1.429999999999999e+00 -8.256108849411650e-01  3.393140768766017e-17
-1.429999999999999e+00 -8.256108849411650e-01  3.393140768766017e-17
-1.429999999999999e+00 -8.256108849411650e-01  3.393140768766017e-17
-1.429999999999999e+00 -8.256108849411650e-01  3.393140768766017e-17
-1.429999999999999e+00 -8.256108849411650e-01  3.393140768766017e-17
-1.429999999999999e+00 -8.256108849411650e-01  3.393140768766017e-17
-1.429999999999999e+00 -8.256108849411650e-01  3.393140768766017e-17
-1.429999999999999e+00 -8.256108849411650e-01  3.393140768766017e-17
-1.429999999999999e+00 -8.256108849411650e-01  3.393140768766017e-17
-1.429999999999999e+00 -8.256108849411650e-01  3.393140768766017e-17
-1.429999999999999e+00 -8.256108849411650e-01  3.393140768766017e-17
-1.429999999999999e+00 -8.256108849411650e-01  3.393140768766017e-17
-1.429999999999999e+00 -8.256108849411650e-01  3.393140768766017e-17
-1.429999999999999e+00 -8.256108849411650e-01  3.393140768766017e-17
-1.429999999999999e+00 -8.256108849411650e-01  3.393140768766017e-17
-1.429999999999999e+00 -8.256108849411650e-01  3.393140768766017e-17
-1.429999999999999e+00 -8.256108849411650e-01  3.393140768766017e-17
-1.429999999999999e+00 -8.256108849411650e-01  3.393140768766017e-17
 1.429999999999999e+00  8.256108849411650e-01 -3.393140768766017e-17
-1.429999999999999e+00 -8.256108849411650e-01  3.393140768766017e-17
 1.429999999999999e+00  8.256108849411650e-01 -3.393140768766017e-17
 1.429999999999999e+00  8.256108849411650e-01 -3.393140768766017e-17
 1.429999999999999e+00  8.256108849411650e-01 -3.393140768766017e-17
 1.429999999999999e+00  8.256108849411650e-01 -3.393140768766017e-17
 1.429999999999999e+00  8.256108849411650e-01 -3.393140768766017e-17
 1.429999999999999e+00  8.256108849411650e-01 -3.393140768766017e-17
 1.429999999999999e+00  8.256108849411650e-01 -3.393140768766017e-17
 1.429999999999999e+00  8.256108849411650e-01 -3.393140768766017e-17
 1.429999999999999e+00  8.256108849411650e-01 -3.393140768766017e-17
 1.429999999999999e+00  8.256108849411650e-01 -3.393140768766017e-17
 1.429999999999999e+00  8.256108849411650e-01 -3.393140768766017e-17
 1.429999999999999e+00  8.256108849411650e-01 -3.393140768766017e-17
 1.429999999999999e+00  8.256108849411650e-01 -3.393140768766017e-17
 1.429999999999999e+00  8.256108849411650e-01 -3.393140768766017e-17
 1.429999999999999e+00  8.256108849411650e-01 -3.393140768766017e-17
 1.429999999999999e+00  8.256108849411650e-01 -3.393140768766017e-17
 1.429999999999999e+00  8.256108849411650e-01 -3.393140768766017e-17
 1.429999999999999e+00  8.256108849411650e-01 -3.393140768766017e-17
 1.429999999999999e+00  8.256108849411650e-01 -3.393140768766017e-17
 1.429999999999999e+00  8.256108849411650e-01 -3.393140768766017e-17
 1.429999999999999e+00  8.256108849411650e-01 -3.393140768766017e-17
 1.429999999999999e+00  8.256108849411650e-01 -3.393140768766017e-17
 1.429999999999999e+00  8.256108849411650e-01 -3.393140768766017e-17
 1.429999999999999e+00  8.256108849411650e-01 -3.393140768766017e-17
 1.429999999999999e+00  8.256108849411650e-01 -3.393140768766017e-17
 1.429999999999999e+00  8.256108849411650e-01 -3.393140768766017e-17
 1.429999999999999e+00  8.256108849411650e-01 -3.393140768766017e-17
 1.429999999999999e+00  8.256108849411650e-01 -3.393140768766017e-17
 1.429999999999999e+00  8.256108849411650e-01 -3.393140768766017e-17
 1.429999999999999e+00  8.256108849411650e-01 -3.393140768766017e-17
 1.429999999999999e+00  8.256108849411650e-01 -3.393140768766017e-17
 1.429999999999999e+00  8.256108849411650e-01 -3.393140768766017e-17
 1.429999999999999e+00  8.256108849411650e-01 -3.393140768766017e-17
 1.429999999999999e+00  8.256108849411650e-01 -3.393140768766017e-17
 1.429999999999999e+00  8.256108849411650e-01 -3.393140768766017e-17
 1.429999999999999e+00  8.256108849411650e-01 -3.393140768766017e-17
 1.429999999999999e+00  8.256108849411650e-01 -3.393140768766017e-17
 1.429999999999999e+00  8.256108849411650e-01 -3.393140768766017e-17
 1.429999999999999e+00  8.256108849411650e-01 -3.393140768766017e-17
 1.429999999999999e+00  8.256108849411650e-01 -3.393140768766017e-17
 1.429999999999999e+00  8.256108849411650e-01 -3.393140768766017e-17
 1.429999999999999e+00  8.256108849411650e-01 -3.393140768766017e-17
 1.429999999999999e+00  8.256108849411650e-01 -3.393140768766017e-17
 1.429999999999999e+00  8.256108849411650e-01 -3.393140768766017e-17
 1.429999999999999e+00  8.256108849411650e-01 -3.393140768766017e-17
 1.429999999999999e+00  8.256108849411650e-01 -3.393140768766017e-17
 1.429999999999999e+00  8.256108849411650e-01 -3.393140768766017e-17
 1.429999999999999e+00  8.256108849411650e-01 -3.393140768766017e-17
 1.429999999999999e+00  8.256108849411650e-01 -3.393140768766017e-17
 1.429999999999999e+00  8.256108849411650e-01 -3.393140768766017e-17
 1.429999999999999e+00  8.256108849411650e-01 -3.393140768766017e-17
 1.429999999999999e+00  8.256108849411650e-01 -3.393140768766017e-17
 1.429999999999999e+00  8.256108849411650e-01 -3.393140768766017e-17
 1.429999999999999e+00  8.256108849411650e-01 -3.393140768766017e-17
 1.429999999999999e+00  8.256108849411650e-01 -3.393140768766017e-17
 1.429999999999999e+00  8.256108849411650e-01 -3.393140768766017e-17
 1.429999999999999e+00  8.256108849411650e-01 -3.393140768766017e-17
 1.429999999999999e+00  8.256108849411650e-01 -3.393140768766017e-17
 1.429999999999999e+00  8.256108849411650e-01 -3.393140768766017e-17
 1.429999999999999e+00  8.256108849411650e-01 -3.393140768766017e-17
 1.429999999999999e+00  8.256108849411650e-01 -3.393140768766017e-17
 1.429999999999999e+00  8.256108849411650e-01 -3.393140768766017e-17
 1.429999999999999e+00  8.256108849411650e-01 -3.393140768766017e-17
 1.429999999999999e+00  8.256108849411650e-01 -3.393140768766017e-17
 1.429999999999999e+00  8.256108849411650e-01 -3.393140768766017e-17
 1.429999999999999e+00  8.256108849411650e-01 -3.393140768766017e-17
 1.429999999999999e+00  8.256108849411650e-01 -3.393140768766017e-17
 1.429999999999999e+00  8.256108849411650e-01 -3.393140768766017e-17
 1.429999999999999e+00  8.256108849411650e-01 -3.393140768766017e-17
 1.429999999999999e+00  8.256108849411650e-01 -3.393140768766017e-17
 1.429999999999999e+00  8.256108849411650e-01 -3.393140768766017e-17
 1.429999999999999e+00  8.256108849411650e-01 -3.393140768766017e-17
 1.429999999999999e+00  8.256108849411650e-01 -3.393140768766017e-17
 1.429999999999999e+00  8.256108849411650e-01 -3.393140768766017e-17
 1.429999999999999e+00  8.256108849411650e-01 -3.393140768766017e-17
 1.429999999999999e+00  8.256108849411650e-01 -3.393140768766017e-17
 1.429999999999999e+00  8.256108849411650e-01 -3.393140768766017e-17
 1.429999999999999e+00  8.256108849411650e-01 -3.393140768766017e-17
 1.429999999999999e+00  8.256108849411650e-01 -3.393140768766017e-17
 1.429999999999999e+00  8.256108849411650e-01 -3.393140768766017e-17
 1.429999999999999e+00  8.256108849411650e-01 -3.393140768766017e-17
 1.429999999999999e+00  8.256108849411650e-01 -3.393140768766017e-17
 1.429999999999999e+00  8.256108849411650e-01 -3.393140768766017e-17
 1.429999999999999e+00  8.256108849411650e-01 -3.393140768766017e-17
 1.429999999999999e+00  8.256108849411650e-01 -3.393140768766017e-17
 1.429999999999999e+00  8.256108849411650e-01 -3.393140768766017e-17
 1.429999999999999e+00  8.256108849411650e-01 -3.393140768766017e-17
 1.429999999999999e+00  8.256108849411650e-01 -3.393140768766017e-17
 1.429999999999999e+00  8.256108849411650e-01 -3.393140768766017e-17
 1.429999999999999e+00  8.256108849411650e-01 -3.393140768766017e-17
 1.429999999999999e+00  8.256108849411650e-01 -3.393140768766017e-17
 1.429999999999999e+00  8.256108849411650e-01 -3.393140768766017e-17
 1.429999999999999e+00  8.256108849411650e-01 -3.393140768766017e-17
 1.429999999999999e+00  8.256108849411650e-01 -3.393140768766017e-17
 1.429999999999999e+00  8.256108849411650e-01 -3.393140768766017e-17
 1.429999999999999e+00  8.256108849411650e-01 -3.393140768766017e-17
 1.429999999999999e+00  8.256108849411650e-01 -3.393140768766017e-17
 1.429999999999999e+00  8.256108849411650e-01 -3.393140768766017e-17
 1.429999999999999e+00  8.256108849411650e-01 -3.393140768766017e-17
 1.429999999999999e+00  8.256108849411650e-01 -3.393140768766017e-17
 1.429999999999999e+00  8.256108849411650e-01 -3.393140768766017e-17
 1.429999999999999e+00  8.256108849411650e-01 -3.393140768766017e-17
 1.429999999999999e+00  8.256108849411650e-01 -3.393140768766017e-17
 1.429999999999999e+00  8.256108849411650e-01 -3.393140768766017e-17
 1.429999999999999e+00  8.256108849411650e-01 -3.393140768766017e-17
 1.429999999999999e+00  8.256108849411650e-01 -3.393140768766017e-17
 1.429999999999999e+00  8.256108849411650e-01 -3.393140768766017e-17
 1.429999999999999e+00  8.256108849411650e-01 -3.393140768766017e-17
 1.429999999999999e+00  8.256108849411650e-01 -3.393140768766017e-17
 1.429999999999999e+00  8.256108849411650e-01 -3.393140768766017e-17
 1.429999999999999e+00  8.256108849411650e-01 -3.393140768766017e-17
 1.429999999999999e+00  8.256108849411650e-01 -3.393140768766017e-17
 1.429999999999999e+00  8.256108849411650e-01 -3.393140768766017e-17
 1.429999999999999e+00  8.256108849411650e-01 -3.393140768766017e-17
 1.429999999999999e+00  8.256108849411650e-01 -3.393140768766017e-17
 1.429999999999999e+00  8.256108849411650e-01 -3.393140768766017e-17
 1.429999999999999e+00  8.256108849411650e-01 -3.393140768766017e-17
 1.429999999999999e+00  8.256108849411650e-01 -3.393140768766017e-17
 1.429999999999999e+00  8.256108849411650e-01 -3.393140768766017e-17
 1.429999999999999e+00  8.256108849411650e-01 -3.393140768766017e-17
 1.429999999999999e+00  8.256108849411650e-01 -3.393140768766017e-17
 1.429999999999999e+00  8.256108849411650e-01 -3.393140768766017e-17
 1.429999999999999e+00  8.256108849411650e-01 -3.393140768766017e-17
 1.429999999999999e+00  8.256108849411650e-01 -3.393140768766017e-17
 1.429999999999999e+00  8.256108849411650e-01 -3.393140768766017e-17
 1.429999999999999e+00  8.256108849411650e-01 -3.393140768766017e-17
 1.429999999999999e+00  8.256108849411650e-01 -3.393140768766017e-17
 1.429999999999999e+00  8.256108849411650e-01 -3.393140768766017e-17
 1.429999999999999e+00  8.256108849411650e-01 -3.393140768766017e-17
 1.429999999999999e+00  8.256108849411650e-01 -3.393140768766017e-17
 1.429999999999999e+00  8.256108849411650e-01 -3.393140768766017e-17
 1.429999999999999e+00  8.256108849411650e-01 -3.393140768766017e-17
 1.429999999999999e+00  8.256108849411650e-01 -3.393140768766017e-17
 1.429999999999999e+00  8.256108849411650e-01 -3.393140768766017e-17
 1.429999999999999e+00  8.256108849411650e-01 -3.393140768766017e-17
 1.429999999999999e+00  8.256108849411650e-01 -3.393140768766017e-17
 1.429999999999999e+00  8.256108849411650e-01 -3.393140768766017e-17
 1.429999999999999e+00  8.256108849411650e-01 -3.393140768766017e-17
 1.429999999999999e+00  8.256108849411650e-01 -3.393140768766017e-17
 1.429999999999999e+00  8.256108849411650e-01 -3.393140768766017e-17
 1.429999999999999e+00  8.256108849411650e-01 -3.393140768766017e-17
 1.429999999999999e+00  8.256108849411650e-01 -3.393140768766017e-17
 1.429999999999999e+00  8.256108849411650e-01 -3.393140768766017e-17
 1.429999999999999e+00  8.256108849411650e-01 -3.393140768766017e-17
 1.429999999999999e+00  8.256108849411650e-01 -3.393140768766017e-17
 1.429999999999999e+00  8.256108849411650e-01 -3.393140768766017e-17
 1.429999999999999e+00  8.256108849411650e-01 -3.393140768766017e-17
 1.429999999999999e+00  8.256108849411650e-01 -3.393140768766017e-17
 1.429999999999999e+00  8.256108849411650e-01 -3.393140768766017e-17
 1.429999999999999e+00  8.256108849411650e-01 -3.393140768766017e-17
 1.429999999999999e+00  8.256108849411650e-01 -3.393140768766017e-17
 1.429999999999999e+00  8.256108849411650e-01 -3.393140768766017e-17
 1.429999999999999e+00  8.256108849411650e-01 -3.393140768766017e-17
 1.429999999999999e+00  8.256108849411650e-01 -3.393140768766017e-17
 1.429999999999999e+00  8.256108849411650e-01 -3.393140768766017e-17
 1.429999999999999e+00  8.256108849411650e-01 -3.393140768766017e-17
 1.429999999999999e+00  8.256108849411650e-01 -3.393140768766017e-17
 1.429999999999999e+00  8.256108849411650e-01 -3.393140768766017e-17
 1.429999999999999e+00  8.256108849411650e-01 -3.393140768766017e-17
 1.429999999999999e+00  8.256108849411650e-01 -3.393140768766017e-17
 1.429999999999999e+00  8.256108849411650e-01 -3.393140768766017e-17
 1.429999999999999e+00  8.256108849411650e-01 -3.393140768766017e-17
 1.429999999999999e+00  8.256108849411650e-01 -3.393140768766017e-17
-1.429999999999999e+00 -8.256108849411650e-01  3.393140768766017e-17
 1.429999999999999e+00  8.256108849411650e-01 -3.393140768766017e-17
 1.429999999999999e+00  8.256108849411650e-01 -3.393140768766017e-17
 1.429999999999999e+00  8.256108849411650e-01 -3.393140768766017e-17
 1.429999999999999e+00  8.256108849411650e-01 -3.393140768766017e-17
 1.429999999999999e+00  8.256108849411650e-01 -3.393140768766017e-17
 1.429999999999999e+00  8.256108849411650e-01 -3.393140768766017e-17
 1.429999999999999e+00  8.256108849411650e-01 -3.393140768766017e-17
 1.429999999999999e+00  8.256108849411650e-01 -3.393140768766017e-17
 1.429999999999999e+00  8.256108849411650e-01 -3.393140768766017e-17
 1.429999999999999e+00  8.256108849411650e-01 -3.393140768766017e-17
 1.429999999999999e+00  8.256108849411650e-01 -3.393140768766017e-17
 1.429999999999999e+00  8.256108849411650e-01 -3.393140768766017e-17
 1.429999999999999e+00  8.256108849411650e-01 -3.393140768766017e-17
 1.429999999999999e+00  8.256108849411650e-01 -3.393140768766017e-17
 1.429999999999999e+00  8.256108849411650e-01 -3.393140768766017e-17
 1.429999999999999e+00  8.256108849411650e-01 -3.393140768766017e-17
 1.429999999999999e+00  8.256108849411650e-01 -3.393140768766017e-17
 1.429999999999999e+00  8.256108849411650e-01 -3.393140768766017e-17
 1.429999999999999e+00  8.256108849411650e-01 -3.393140768766017e-17
 1.429999999999999e+00  8.256108849411650e-01 -3.393140768766017e-17
 1.429999999999999e+00  8.256108849411650e-01 -3.393140768766017e-17
 1.429999999999999e+00  8.256108849411650e-01 -3.393140768766017e-17
 1.429999999999999e+00  8.256108849411650e-01 -3.393140768766017e-17
 1.429999999999999e+00  8.256108849411650e-01 -3.393140768766017e-17
 1.429999999999999e+00  8.256108849411650e-01 -3.393140768766017e-17
 1.429999999999999e+00  8.256108849411650e-01 -3.393140768766017e-17
 1.429999999999999e+00  8.256108849411650e-01 -3.393140768766017e-17
 1.429999999999999e+00  8.256108849411650e-01 -3.393140768766017e-17
 1.429999999999999e+00  8.256108849411650e-01 -3.393140768766017e-17
 1.429999999999999e+00  8.256108849411650e-01 -3.393140768766017e-17
 1.429999999999999e+00  8.256108849411650e-01 -3.393140768766017e-17
 1.429999999999999e+00  8.256108849411650e-01 -3.393140768766017e-17
 1.429999999999999e+00  8.256108849411650e-01 -3.393140768766017e-17
 1.429999999999999e+00  8.256108849411650e-01 -3.393140768766017e-17
 1.429999999999999e+00  8.256108849411650e-01 -3.393140768766017e-17
 1.429999999999999e+00  8.256108849411650e-01 -3.393140768766017e-17
 1.429999999999999e+00  8.256108849411650e-01 -3.393140768766017e-17
 1.429999999999999e+00  8.256108849411650e-01 -3.393140768766017e-17
 1.429999999999999e+00  8.256108849411650e-01 -3.393140768766017e-17
 1.429999999999999e+00  8.256108849411650e-01 -3.393140768766017e-17
 1.429999999999999e+00  8.256108849411650e-01 -3.393140768766017e-17
 1.429999999999999e+00  8.256108849411650e-01 -3.393140768766017e-17
 1.429999999999999e+00  8.256108849411650e-01 -3.393140768766017e-17
 1.429999999999999e+00  8.256108849411650e-01 -3.393140768766017e-17
 1.429999999999999e+00  8.256108849411650e-01 -3.393140768766017e-17
 1.429999999999999e+00  8.256108849411650e-01 -3.393140768766017e-17
 1.429999999999999e+00  8.256108849411650e-01 -3.393140768766017e-17
 1.429999999999999e+00  8.256108849411650e-01 -3.393140768766017e-17
 1.429999999999999e+00  8.256108849411650e-01 -3.393140768766017e-17
 1.429999999999999e+00  8.256108849411650e-01 -3.393140768766017e-17
 1.429999999999999e+00  8.256108849411650e-01 -3.393140768766017e-17
 1.429999999999999e+00  8.256108849411650e-01 -3.393140768766017e-17
 1.429999999999999e+00  8.256108849411650e-01 -3.393140768766017e-17
 1.429999999999999e+00  8.256108849411650e-01 -3.393140768766017e-17
 1.429999999999999e+00  8.256108849411650e-01 -3.393140768766017e-17
 1.429999999999999e+00  8.256108849411650e-01 -3.393140768766017e-17
 1.429999999999999e+00  8.256108849411650e-01 -3.393140768766017e-17
 1.429999999999999e+00  8.256108849411650e-01 -3.393140768766017e-17
 1.429999999999999e+00  8.256108849411650e-01 -3.393140768766017e-17
 1.429999999999999e+00  8.256108849411650e-01 -3.393140768766017e-17
 1.429999999999999e+00  8.256108849411650e-01 -3.393140768766017e-17
 1.429999999999999e+00  8.256108849411650e-01 -3.393140768766017e-17
 1.429999999999999e+00  8.256108849411650e-01 -3.393140768766017e-17
 1.429999999999999e+00  8.256108849411650e-01 -3.393140768766017e-17
 1.429999999999999e+00  8.256108849411650e-01 -3.393140768766017e-17
 1.429999999999999e+00  8.256108849411650e-01 -3.393140768766017e-17
 1.429999999999999e+00  8.256108849411650e-01 -3.393140768766017e-17
 1.429999999999999e+00  8.256108849411650e-01 -3.393140768766017e-17
 1.429999999999999e+00  8.256108849411650e-01 -3.393140768766017e-17
 1.429999999999999e+00  8.256108849411650e-01 -3.393140768766017e-17
 1.429999999999999e+00  8.256108849411650e-01 -3.393140768766017e-17
 1.429999999999999e+00  8.256108849411650e-01 -3.393140768766017e-17
 1.429999999999999e+00  8.256108849411650e-01 -3.393140768766017e-17
 1.429999999999999e+00  8.256108849411650e-01 -3.393140768766017e-17
 1.429999999999999e+00  8.256108849411650e-01 -3.393140768766017e-17
 1.429999999999999e+00  8.256108849411650e-01 -3.393140768766017e-17
 1.429999999999999e+00  8.256108849411650e-01 -3.393140768766017e-17
 1.429999999999999e+00  8.256108849411650e-01 -3.393140768766017e-17
 1.429999999999999e+00  8.256108849411650e-01 -3.393140768766017e-17
 1.429999999999999e+00  8.256108849411650e-01 -3.393140768766017e-17
 1.429999999999999e+00  8.256108849411650e-01 -3.393140768766017e-17
 1.429999999999999e+00  8.256108849411650e-01 -3.393140768766017e-17
 1.429999999999999e+00  8.256108849411650e-01 -3.393140768766017e-17
 1.429999999999999e+00  8.256108849411650e-01 -3.393140768766017e-17
 1.429999999999999e+00  8.256108849411650e-01 -3.393140768766017e-17
 1.429999999999999e+00  8.256108849411650e-01 -3.393140768766017e-17
 1.429999999999999e+00  8.256108849411650e-01 -3.393140768766017e-17
 1.429999999999999e+00  8.256108849411650e-01 -3.393140768766017e-17
 1.429999999999999e+00  8.256108849411650e-01 -3.393140768766017e-17
 1.429999999999999e+00  8.256108849411650e-01 -3.393140768766017e-17
 1.429999999999999e+00  8.256108849411650e-01 -3.393140768766017e-17
 1.429999999999999e+00  8.256108849411650e-01 -3.393140768766017e-17
 1.429999999999999e+00  8.256108849411650e-01 -3.393140768766017e-17
 1.429999999999999e+00  8.256108849411650e-01 -3.393140768766017e-17
 1.429999999999999e+00  8.256108849411650e-01 -3.393140768766017e-17
 1.429999999999999e+00  8.256108849411650e-01 -3.393140768766017e-17
 1.429999999999999e+00  8.256108849411650e-01 -3.393140768766017e-17
 1.429999999999999e+00  8.256108849411650e-01 -3.393140768766017e-17
 1.429999999999999e+00  8.256108849411650e-01 -3.393140768766017e-17
 1.429999999999999e+00  8.256108849411650e-01 -3.393140768766017e-17
 1.429999999999999e+00  8.256108849411650e-01 -3.393140768766017e-17
 1.429999999999999e+00  8.256108849411650e-01 -3.393140768766017e-17
 1.429999999999999e+00  8.256108849411650e-01 -3.393140768766017e-17
 1.429999999999999e+00  8.256108849411650e-01 -3.393140768766017e-17
 1.429999999999999e+00  8.256108849411650e-01 -3.393140768766017e-17
 1.429999999999999e+00  8.256108849411650e-01 -3.393140768766017e-17
 1.429999999999999e+00  8.256108849411650e-01 -3.393140768766017e-17
 1.429999999999999e+00  8.256108849411650e-01 -3.393140768766017e-17
 1.429999999999999e+00  8.256108849411650e-01 -3.393140768766017e-17
 1.429999999999999e+00  8.256108849411650e-01 -3.393140768766017e-17
 1.429999999999999e+00  8.256108849411650e-01 -3.393140768766017e-17
 1.429999999999999e+00  8.256108849411650e-01 -3.393140768766017e-17
 1.429999999999999e+00  8.256108849411650e-01 -3.393140768766017e-17
 1.429999999999999e+00  8.256108849411650e-01 -3.393140768766017e-17
 1.429999999999999e+00  8.256108849411650e-01 -3.393140768766017e-17
 1.429999999999999e+00  8.256108849411650e-01 -3.393140768766017e-17
 1.429999999999999e+00  8.256108849411650e-01 -3.393140768766017e-17
 1.429999999999999e+00  8.256108849411650e-01 -3.393140768766017e-17
 1.429999999999999e+00  8.256108849411650e-01 -3.393140768766017e-17
 1.429999999999999e+00  8.256108849411650e-01 -3.393140768766017e-17
 1.429999999999999e+00  8.256108849411650e-01 -3.393140768766017e-17
 1.429999999999999e+00  8.256108849411650e-01 -3.393140768766017e-17
 1.429999999999999e+00  8.256108849411650e-01 -3.393140768766017e-17
 1.429999999999999e+00  8.256108849411650e-01 -3.393140768766017e-17
 1.429999999999999e+00  8.256108849411650e-01 -3.393140768766017e-17
 1.429999999999999e+00  8.256108849411650e-01 -3.393140768766017e-17
 1.429999999999999e+00  8.256108849411650e-01 -3.393140768766017e-17
 1.429999999999999e+00  8.256108849411650e-01 -3.393140768766017e-17
 1.429999999999999e+00  8.256108849411650e-01 -3.393140768766017e-17
 1.429999999999999e+00  8.256108849411650e-01 -3.393140768766017e-17
 1.429999999999999e+00  8.256108849411650e-01 -3.393140768766017e-17
 1.429999999999999e+00  8.256108849411650e-01 -3.393140768766017e-17
 1.429999999999999e+00  8.256108849411650e-01 -3.393140768766017e-17
 1.429999999999999e+00  8.256108849411650e-01 -3.393140768766017e-17
 1.429999999999999e+00  8.256108849411650e-01 -3.393140768766017e-17
 1.429999999999999e+00  8.256108849411650e-01 -3.393140768766017e-17
 1.429999999999999e+00  8.256108849411650e-01 -3.393140768766017e-17
 1.429999999999999e+00  8.256108849411650e-01 -3.393140768766017e-17
 1.429999999999999e+00  8.256108849411650e-01 -3.393140768766017e-17
 1.429999999999999e+00  8.256108849411650e-01 -3.393140768766017e-17
 1.429999999999999e+00  8.256108849411650e-01 -3.393140768766017e-17
 1.429999999999999e+00  8.256108849411650e-01 -3.393140768766017e-17
 1.429999999999999e+00  8.256108849411650e-01 -3.393140768766017e-17
 1.429999999999999e+00  8.256108849411650e-01 -3.393140768766017e-17
 1.429999999999999e+00  8.256108849411650e-01 -3.393140768766017e-17
 1.429999999999999e+00  8.256108849411650e-01 -3.393140768766017e-17
 1.429999999999999e+00  8.256108849411650e-01 -3.393140768766017e-17
 1.429999999999999e+00  8.256108849411650e-01 -3.393140768766017e-17
 1.429999999999999e+00  8.256108849411650e-01 -3.393140768766017e-17
 1.429999999999999e+00  8.256108849411650e-01 -3.393140768766017e-17
 1.429999999999999e+00  8.256108849411650e-01 -3.393140768766017e-17
 1.429999999999999e+00  8.256108849411650e-01 -3.393140768766017e-17
 1.429999999999999e+00  8.256108849411650e-01 -3.393140768766017e-17
 1.429999999999999e+00  8.256108849411650e-01 -3.393140768766017e-17
 1.429999999999999e+00  8.256108849411650e-01 -3.393140768766017e-17
 1.429999999999999e+00  8.256108849411650e-01 -3.393140768766017e-17
 1.429999999999999e+00  8.256108849411650e-01 -3.393140768766017e-17
 1.429999999999999e+00  8.256108849411650e-01 -3.393140768766017e-17
 1.429999999999999e+00  8.256108849411650e-01 -3.393140768766017e-17
 1.429999999999999e+00  8.256108849411650e-01 -3.393140768766017e-17
-1.429999999999999e+00  8.256108849411650e-01  1.696570384383008e-17
 1.429999999999999e+00 -8.256108849411650e-01 -1.696570384383008e-17
-1.429999999999999e+00  8.256108849411650e-01  1.696570384383008e-17
-1.429999999999999e+00  8.256108849411650e-01  1.696570384383008e-17
-1.429999999999999e+00  8.256108849411650e-01  1.696570384383008e-17
-1.429999999999999e+00  8.256108849411650e-01  1.696570384383008e-17
-1.429999999999999e+00  8.256108849411650e-01  1.696570384383008e-17
-1.429999999999999e+00  8.256108849411650e-01  1.696570384383008e-17
-1.429999999999999e+00  8.256108849411650e-01  1.696570384383008e-17
-1.429999999999999e+00  8.256108849411650e-01  1.696570384383008e-17
-1.429999999999999e+00  8.256108849411650e-01  1.696570384383008e-17
-1.429999999999999e+00  8.256108849411650e-01  1.696570384383008e-17
-1.429999999999999e+00  8.256108849411650e-01  1.696570384383008e-17
-1.429999999999999e+00  8.256108849411650e-01  1.696570384383008e-17
-1.429999999999999e+00  8.256108849411650e-01  1.696570384383008e-17
-1.429999999999999e+00  8.256108849411650e-01  1.696570384383008e-17
-1.429999999999999e+00  8.256108849411650e-01  1.696570384383008e-17
-1.429999999999999e+00  8.256108849411650e-01  1.696570384383008e-17
-1.429999999999999e+00  8.256108849411650e-01  1.696570384383008e-17
-1.429999999999999e+00  8.256108849411650e-01  1.696570384383008e-17
-1.429999999999999e+00  8.256108849411650e-01  1.696570384383008e-17
-1.429999999999999e+00  8.256108849411650e-01  1.696570384383008e-17
-1.429999999999999e+00  8.256108849411650e-01  1.696570384383008e-17
-1.429999999999999e+00  8.256108849411650e-01  1.696570384383008e-17
-1.429999999999999e+00  8.256108849411650e-01  1.696570384383008e-17
-1.429999999999999e+00  8.256108849411650e-01  1.696570384383008e-17
-1.429999999999999e+00  8.256108849411650e-01  1.696570384383008e-17
-1.429999999999999e+00  8.256108849411650e-01  1.696570384383008e-17
-1.429999999999999e+00  8.256108849411650e-01  1.696570384383008e-17
-1.429999999999999e+00  8.256108849411650e-01  1.696570384383008e-17
-1.429999999999999e+00  8.256108849411650e-01  1.696570384383008e-17
-1.429999999999999e+00  8.256108849411650e-01  1.696570384383008e-17
-1.429999999999999e+00  8.256108849411650e-01  1.696570384383008e-17
-1.429999999999999e+00  8.256108849411650e-01  1.696570384383008e-17
-1.429999999999999e+00  8.256108849411650e-01  1.696570384383008e-17
-1.429999999999999e+00  8.256108849411650e-01  1.696570384383008e-17
-1.429999999999999e+00  8.256108849411650e-01  1.696570384383008e-17
-1.429999999999999e+00  8.256108849411650e-01  1.696570384383008e-17
-1.429999999999999e+00  8.256108849411650e-01  1.696570384383008e-17
-1.429999999999999e+00  8.256108849411650e-01  1.696570384383008e-17
-1.429999999999999e+00  8.256108849411650e-01  1.696570384383008e-17
-1.429999999999999e+00  8.256108849411650e-01  1.696570384383008e-17
-1.429999999999999e+00  8.256108849411650e-01  1.696570384383008e-17
-1.429999999999999e+00  8.256108849411650e-01  1.696570384383008e-17
-1.429999999999999e+00  8.256108849411650e-01  1.696570384383008e-17
-1.429999999999999e+00  8.256108849411650e-01  1.696570384383008e-17
-1.429999999999999e+00  8.256108849411650e-01  1.696570384383008e-17
-1.429999999999999e+00  8.256108849411650e-01  1.696570384383008e-17
-1.429999999999999e+00  8.256108849411650e-01  1.696570384383008e-17
-1.429999999999999e+00  8.256108849411650e-01  1.696570384383008e-17
-1.429999999999999e+00  8.256108849411650e-01  1.696570384383008e-17
-1.429999999999999e+00  8.256108849411650e-01  1.696570384383008e-17
-1.429999999999999e+00  8.256108849411650e-01  1.696570384383008e-17
-1.429999999999999e+00  8.256108849411650e-01  1.696570384383008e-17
-1.429999999999999e+00  8.256108849411650e-01  1.696570384383008e-17
-1.429999999999999e+00  8.256108849411650e-01  1.696570384383008e-17
-1.429999999999999e+00  8.256108849411650e-01  1.696570384383008e-17
-1.429999999999999e+00  8.256108849411650e-01  1.696570384383008e-17
-1.429999999999999e+00  8.256108849411650e-01  1.696570384383008e-17
-1.429999999999999e+00  8.256108849411650e-01  1.696570384383008e-17
-1.429999999999999e+00  8.256108849411650e-01  1.696570384383008e-17
-1.429999999999999e+00  8.256108849411650e-01  1.696570384383008e-17
-1.429999999999999e+00  8.256108849411650e-01  1.696570384383008e-17
-1.429999999999999e+00  8.256108849411650e-01  1.696570384383008e-17
-1.429999999999999e+00  8.256108849411650e-01  1.696570384383008e-17
-1.429999999999999e+00  8.256108849411650e-01  1.696570384383008e-17
-1.429999999999999e+00  8.256108849411650e-01  1.696570384383008e-17
-1.429999999999999e+00  8.256108849411650e-01  1.696570384383008e-17
-1.429999999999999e+00  8.256108849411650e-01  1.696570384383008e-17
-1.429999999999999e+00  8.256108849411650e-01  1.696570384383008e-17
-1.429999999999999e+00  8.256108849411650e-01  1.696570384383008e-17
-1.429999999999999e+00  8.256108849411650e-01  1.696570384383008e-17
-1.429999999999999e+00  8.256108849411650e-01  1.696570384383008e-17
-1.429999999999999e+00  8.256108849411650e-01  1.696570384383008e-17
-1.429999999999999e+00  8.256108849411650e-01  1.696570384383008e-17
-1.429999999999999e+00  8.256108849411650e-01  1.696570384383008e-17
-1.429999999999999e+00  8.256108849411650e-01  1.696570384383008e-17
-1.429999999999999e+00  8.256108849411650e-01  1.696570384383008e-17
-1.429999999999999e+00  8.256108849411650e-01  1.696570384383008e-17
-1.429999999999999e+00  8.256108849411650e-01  1.696570384383008e-17
-1.429999999999999e+00  8.256108849411650e-01  1.696570384383008e-17
-1.429999999999999e+00  8.256108849411650e-01  1.696570384383008e-17
-1.429999999999999e+00  8.256108849411650e-01  1.696570384383008e-17
-1.429999999999999e+00  8.256108849411650e-01  1.696570384383008e-17
-1.429999999999999e+00  8.256108849411650e-01  1.696570384383008e-17
-1.429999999999999e+00  8.256108849411650e-01  1.696570384383008e-17
-1.429999999999999e+00  8.256108849411650e-01  1.696570384383008e-17
-1.429999999999999e+00  8.256108849411650e-01  1.696570384383008e-17
-1.429999999999999e+00  8.256108849411650e-01  1.696570384383008e-17
-1.429999999999999e+00  8.256108849411650e-01  1.696570384383008e-17
-1.429999999999999e+00  8.256108849411650e-01  1.696570384383008e-17
-1.429999999999999e+00  8.256108849411650e-01  1.696570384383008e-17
-1.429999999999999e+00  8.256108849411650e-01  1.696570384383008e-17
-1.429999999999999e+00  8.256108849411650e-01  1.696570384383008e-17
-1.429999999999999e+00  8.256108849411650e-01  1.696570384383008e-17
-1.429999999999999e+00  8.256108849411650e-01  1.696570384383008e-17
-1.429999999999999e+00  8.256108849411650e-01  1.696570384383008e-17
-1.429999999999999e+00  8.256108849411650e-01  1.696570384383008e-17
-1.429999999999999e+00  8.256108849411650e-01  1.696570384383008e-17
-1.429999999999999e+00  8.256108849411650e-01  1.696570384383008e-17
-1.429999999999999e+00  8.256108849411650e-01  1.696570384383008e-17
-1.429999999999999e+00  8.256108849411650e-01  1.696570384383008e-17
-1.429999999999999e+00  8.256108849411650e-01  1.696570384383008e-17
-1.429999999999999e+00  8.256108849411650e-01  1.696570384383008e-17
-1.429999999999999e+00  8.256108849411650e-01  1.696570384383008e-17
-1.429999999999999e+00  8.256108849411650e-01  1.696570384383008e-17
-1.429999999999999e+00  8.256108849411650e-01  1.696570384383008e-17
-1.429999999999999e+00  8.256108849411650e-01  1.696570384383008e-17
-1.429999999999999e+00  8.256108849411650e-01  1.696570384383008e-17
-1.429999999999999e+00  8.256108849411650e-01  1.696570384383008e-17
-1.429999999999999e+00  8.256108849411650e-01  1.696570384383008e-17
-1.429999999999999e+00  8.256108849411650e-01  1.696570384383008e-17
-1.429999999999999e+00  8.256108849411650e-01  1.696570384383008e-17
-1.429999999999999e+00  8.256108849411650e-01  1.696570384383008e-17
-1.429999999999999e+00  8.256108849411650e-01  1.696570384383008e-17
-1.429999999999999e+00  8.256108849411650e-01  1.696570384383008e-17
-1.429999999999999e+00  8.256108849411650e-01  1.696570384383008e-17
-1.429999999999999e+00  8.256108849411650e-01  1.696570384383008e-17
-1.429999999999999e+00  8.256108849411650e-01  1.696570384383008e-17
-1.429999999999999e+00  8.256108849411650e-01  1.696570384383008e-17
-1.429999999999999e+00  8.256108849411650e-01  1.696570384383008e-17
-1.429999999999999e+00  8.256108849411650e-01  1.696570384383008e-17
-1.429999999999999e+00  8.256108849411650e-01  1.696570384383008e-17
-1.429999999999999e+00  8.256108849411650e-01  1.696570384383008e-17
-1.429999999999999e+00  8.256108849411650e-01  1.696570384383008e-17
-1.429999999999999e+00  8.256108849411650e-01  1.696570384383008e-17
-1.429999999999999e+00  8.256108849411650e-01  1.696570384383008e-17
-1.429999999999999e+00  8.256108849411650e-01  1.696570384383008e-17
-1.429999999999999e+00  8.256108849411650e-01  1.696570384383008e-17
-1.429999999999999e+00  8.256108849411650e-01  1.696570384383008e-17
-1.429999999999999e+00  8.256108849411650e-01  1.696570384383008e-17
-1.429999999999999e+00  8.256108849411650e-01  1.696570384383008e-17
-1.429999999999999e+00  8.256108849411650e-01  1.696570384383008e-17
-1.429999999999999e+00  8.256108849411650e-01  1.696570384383008e-17
-1.429999999999999e+00  8.256108849411650e-01  1.696570384383008e-17
-1.429999999999999e+00  8.256108849411650e-01  1.696570384383008e-17
-1.429999999999999e+00  8.256108849411650e-01  1.696570384383008e-17
-1.429999999999999e+00  8.256108849411650e-01  1.696570384383008e-17
-1.429999999999999e+00  8.256108849411650e-01  1.696570384383008e-17
-1.429999999999999e+00  8.256108849411650e-01  1.696570384383008e-17
-1.429999999999999e+00  8.256108849411650e-01  1.696570384383008e-17
-1.429999999999999e+00  8.256108849411650e-01  1.696570384383008e-17
-1.429999999999999e+00  8.256108849411650e-01  1.696570384383008e-17
-1.429999999999999e+00  8.256108849411650e-01  1.696570384383008e-17
-1.429999999999999e+00  8.256108849411650e-01  1.696570384383008e-17
-1.429999999999999e+00  8.256108849411650e-01  1.696570384383008e-17
-1.429999999999999e+00  8.256108849411650e-01  1.696570384383008e-17
-1.429999999999999e+00  8.256108849411650e-01  1.696570384383008e-17
-1.429999999999999e+00  8.256108849411650e-01  1.696570384383008e-17
-1.429999999999999e+00  8.256108849411650e-01  1.696570384383008e-17
-1.429999999999999e+00  8.256108849411650e-01  1.696570384383008e-17
-1.429999999999999e+00  8.256108849411650e-01  1.696570384383008e-17
-1.429999999999999e+00  8.256108849411650e-01  1.696570384383008e-17
-1.429999999999999e+00  8.256108849411650e-01  1.696570384383008e-17
-1.429999999999999e+00  8.256108849411650e-01  1.696570384383008e-17
-1.429999999999999e+00  8.256108849411650e-01  1.696570384383008e-17
-1.429999999999999e+00  8.256108849411650e-01  1.696570384383008e-17
-1.429999999999999e+00  8.256108849411650e-01  1.696570384383008e-17
-1.429999999999999e+00  8.256108849411650e-01  1.696570384383008e-17
-1.429999999999999e+00  8.256108849411650e-01  1.696570384383008e-17
-1.429999999999999e+00  8.256108849411650e-01  1.696570384383008e-17
-1.429999999999999e+00  8.256108849411650e-01  1.696570384383008e-17
-1.429999999999999e+00  8.256108849411650e-01  1.696570384383008e-17
-1.429999999999999e+00  8.256108849411650e-01  1.696570384383008e-17
-1.429999999999999e+00  8.256108849411650e-01  1.696570384383008e-17
-1.429999999999999e+00  8.256108849411650e-01  1.696570384383008e-17
-1.429999999999999e+00  8.256108849411650e-01  1.696570384383008e-17
-1.429999999999999e+00  8.256108849411650e-01  1.696570384383008e-17
-1.429999999999999e+00  8.256108849411650e-01  1.696570384383008e-17
-1.429999999999999e+00  8.256108849411650e-01  1.696570384383008e-17
-1.429999999999999e+00  8.256108849411650e-01  1.696570384383008e-17
-1.429999999999999e+00  8.256108849411650e-01  1.696570384383008e-17
-1.429999999999999e+00  8.256108849411650e-01  1.696570384383008e-17
-1.429999999999999e+00  8.256108849411650e-01  1.696570384383008e-17
-1.429999999999999e+00  8.256108849411650e-01  1.696570384383008e-17
-1.429999999999999e+00  8.256108849411650e-01  1.696570384383008e-17
-1.429999999999999e+00  8.256108849411650e-01  1.696570384383008e-17
-1.429999999999999e+00  8.256108849411650e-01  1.696570384383008e-17
-1.429999999999999e+00  8.256108849411650e-01  1.696570384383008e-17
-1.429999999999999e+00  8.256108849411650e-01  1.696570384383008e-17
-1.429999999999999e+00  8.256108849411650e-01  1.696570384383008e-17
-1.429999999999999e+00  8.256108849411650e-01  1.696570384383008e-17
-1.429999999999999e+00  8.256108849411650e-01  1.696570384383008e-17
-1.429999999999999e+00  8.256108849411650e-01  1.696570384383008e-17
-1.429999999999999e+00  8.256108849411650e-01  1.696570384383008e-17
-1.429999999999999e+00  8.256108849411650e-01  1.696570384383008e-17
-1.429999999999999e+00  8.256108849411650e-01  1.696570384383008e-17
 1.429999999999999e+00 -8.256108849411650e-01 -1.696570384383008e-17
-1.429999999999999e+00  8.256108849411650e-01  1.696570384383008e-17
-1.429999999999999e+00  8.256108849411650e-01  1.696570384383008e-17
-1.429999999999999e+00  8.256108849411650e-01  1.696570384383008e-17
-1.429999999999999e+00  8.256108849411650e-01  1.696570384383008e-17
-1.429999999999999e+00  8.256108849411650e-01  1.696570384383008e-17
-1.429999999999999e+00  8.256108849411650e-01  1.696570384383008e-17
-1.429999999999999e+00  8.256108849411650e-01  1.696570384383008e-17
-1.429999999999999e+00  8.256108849411650e-01  1.696570384383008e-17
-1.429999999999999e+00  8.256108849411650e-01  1.696570384383008e-17
-1.429999999999999e+00  8.256108849411650e-01  1.696570384383008e-17
-1.429999999999999e+00  8.256108849411650e-01  1.696570384383008e-17
-1.429999999999999e+00  8.256108849411650e-01  1.696570384383008e-17
-1.429999999999999e+00  8.256108849411650e-01  1.696570384383008e-17
-1.429999999999999e+00  8.256108849411650e-01  1.696570384383008e-17
-1.429999999999999e+00  8.256108849411650e-01  1.696570384383008e-17
-1.429999999999999e+00  8.256108849411650e-01  1.696570384383008e-17
-1.429999999999999e+00  8.256108849411650e-01  1.696570384383008e-17
-1.429999999999999e+00  8.256108849411650e-01  1.696570384383008e-17
-1.429999999999999e+00  8.256108849411650e-01  1.696570384383008e-17
-1.429999999999999e+00  8.256108849411650e-01  1.696570384383008e-17
-1.429999999999999e+00  8.256108849411650e-01  1.696570384383008e-17
-1.429999999999999e+00  8.256108849411650e-01  1.696570384383008e-17
-1.429999999999999e+00  8.256108849411650e-01  1.696570384383008e-17
-1.429999999999999e+00  8.256108849411650e-01  1.696570384383008e-17
-1.429999999999999e+00  8.256108849411650e-01  1.696570384383008e-17
-1.429999999999999e+00  8.256108849411650e-01  1.696570384383008e-17
-1.429999999999999e+00  8.256108849411650e-01  1.696570384383008e-17
-1.429999999999999e+00  8.256108849411650e-01  1.696570384383008e-17
-1.429999999999999e+00  8.256108849411650e-01  1.696570384383008e-17
-1.429999999999999e+00  8.256108849411650e-01  1.696570384383008e-17
-1.429999999999999e+00  8.256108849411650e-01  1.696570384383008e-17
-1.429999999999999e+00  8.256108849411650e-01  1.696570384383008e-17
-1.429999999999999e+00  8.256108849411650e-01  1.696570384383008e-17
-1.429999999999999e+00  8.256108849411650e-01  1.696570384383008e-17
-1.429999999999999e+00  8.256108849411650e-01  1.696570384383008e-17
-1.429999999999999e+00  8.256108849411650e-01  1.696570384383008e-17
-1.429999999999999e+00  8.256108849411650e-01  1.696570384383008e-17
-1.429999999999999e+00  8.256108849411650e-01  1.696570384383008e-17
-1.429999999999999e+00  8.256108849411650e-01  1.696570384383008e-17
-1.429999999999999e+00  8.256108849411650e-01  1.696570384383008e-17
-1.429999999999999e+00  8.256108849411650e-01  1.696570384383008e-17
-1.429999999999999e+00  8.256108849411650e-01  1.696570384383008e-17
-1.429999999999999e+00  8.256108849411650e-01  1.696570384383008e-17
-1.429999999999999e+00  8.256108849411650e-01  1.696570384383008e-17
-1.429999999999999e+00  8.256108849411650e-01  1.696570384383008e-17
-1.429999999999999e+00  8.256108849411650e-01  1.696570384383008e-17
-1.429999999999999e+00  8.256108849411650e-01  1.696570384383008e-17
-1.429999999999999e+00  8.256108849411650e-01  1.696570384383008e-17
-1.429999999999999e+00  8.256108849411650e-01  1.696570384383008e-17
-1.429999999999999e+00  8.256108849411650e-01  1.696570384383008e-17
-1.429999999999999e+00  8.256108849411650e-01  1.696570384383008e-17
-1.429999999999999e+00  8.256108849411650e-01  1.696570384383008e-17
-1.429999999999999e+00  8.256108849411650e-01  1.696570384383008e-17
-1.429999999999999e+00  8.256108849411650e-01  1.696570384383008e-17
-1.429999999999999e+00  8.256108849411650e-01  1.696570384383008e-17
-1.429999999999999e+00  8.256108849411650e-01  1.696570384383008e-17
-1.429999999999999e+00  8.256108849411650e-01  1.696570384383008e-17
-1.429999999999999e+00  8.256108849411650e-01  1.696570384383008e-17
-1.429999999999999e+00  8.256108849411650e-01  1.696570384383008e-17
-1.429999999999999e+00  8.256108849411650e-01  1.696570384383008e-17
-1.429999999999999e+00  8.256108849411650e-01  1.696570384383008e-17
-1.429999999999999e+00  8.256108849411650e-01  1.696570384383008e-17
-1.429999999999999e+00  8.256108849411650e-01  1.696570384383008e-17
-1.429999999999999e+00  8.256108849411650e-01  1.696570384383008e-17
-1.429999999999999e+00  8.256108849411650e-01  1.696570384383008e-17
-1.429999999999999e+00  8.256108849411650e-01  1.696570384383008e-17
-1.429999999999999e+00  8.256108849411650e-01  1.696570384383008e-17
-1.429999999999999e+00  8.256108849411650e-01  1.696570384383008e-17
-1.429999999999999e+00  8.256108849411650e-01  1.696570384383008e-17
-1.429999999999999e+00  8.256108849411650e-01  1.696570384383008e-17
-1.429999999999999e+00  8.256108849411650e-01  1.696570384383008e-17
-1.429999999999999e+00  8.256108849411650e-01  1.696570384383008e-17
-1.429999999999999e+00  8.256108849411650e-01  1.696570384383008e-17
-1.429999999999999e+00  8.256108849411650e-01  1.696570384383008e-17
-1.429999999999999e+00  8.256108849411650e-01  1.696570384383008e-17
-1.429999999999999e+00  8.256108849411650e-01  1.696570384383008e-17
-1.429999999999999e+00  8.256108849411650e-01  1.696570384383008e-17
-1.429999999999999e+00  8.256108849411650e-01  1.696570384383008e-17
-1.429999999999999e+00  8.256108849411650e-01  1.696570384383008e-17
-1.429999999999999e+00  8.256108849411650e-01  1.696570384383008e-17
-1.429999999999999e+00  8.256108849411650e-01  1.696570384383008e-17
-1.429999999999999e+00  8.256108849411650e-01  1.696570384383008e-17
-1.429999999999999e+00  8.256108849411650e-01  1.696570384383008e-17
-1.429999999999999e+00  8.256108849411650e-01  1.696570384383008e-17
-1.429999999999999e+00  8.256108849411650e-01  1.696570384383008e-17
-1.429999999999999e+00  8.256108849411650e-01  1.696570384383008e-17
-1.429999999999999e+00  8.256108849411650e-01  1.696570384383008e-17
-1.429999999999999e+00  8.256108849411650e-01  1.696570384383008e-17
-1.429999999999999e+00  8.256108849411650e-01  1.696570384383008e-17
-1.429999999999999e+00  8.256108849411650e-01  1.696570384383008e-17
-1.429999999999999e+00  8.256108849411650e-01  1.696570384383008e-17
-1.429999999999999e+00  8.256108849411650e-01  1.696570384383008e-17
-1.429999999999999e+00  8.256108849411650e-01  1.696570384383008e-17
-1.429999999999999e+00  8.256108849411650e-01  1.696570384383008e-17
-1.429999999999999e+00  8.256108849411650e-01  1.696570384383008e-17
-1.429999999999999e+00  8.256108849411650e-01  1.696570384383008e-17
-1.429999999999999e+00  8.256108849411650e-01  1.696570384383008e-17
-1.429999999999999e+00  8.256108849411650e-01  1.696570384383008e-17
-1.429999999999999e+00  8.256108849411650e-01  1.696570384383008e-17
-1.429999999999999e+00  8.256108849411650e-01  1.696570384383008e-17
-1.429999999999999e+00  8.256108849411650e-01  1.696570384383008e-17
-1.429999999999999e+00  8.256108849411650e-01  1.696570384383008e-17
-1.429999999999999e+00  8.256108849411650e-01  1.696570384383008e-17
-1.429999999999999e+00  8.256108849411650e-01  1.696570384383008e-17
-1.429999999999999e+00  8.256108849411650e-01  1.696570384383008e-17
-1.429999999999999e+00  8.256108849411650e-01  1.696570384383008e-17
-1.429999999999999e+00  8.256108849411650e-01  1.696570384383008e-17
-1.429999999999999e+00  8.256108849411650e-01  1.696570384383008e-17
-1.429999999999999e+00  8.256108849411650e-01  1.696570384383008e-17
-1.429999999999999e+00  8.256108849411650e-01  1.696570384383008e-17
-1.429999999999999e+00  8.256108849411650e-01  1.696570384383008e-17
-1.429999999999999e+00  8.256108849411650e-01  1.696570384383008e-17
-1.429999999999999e+00  8.256108849411650e-01  1.696570384383008e-17
-1.429999999999999e+00  8.256108849411650e-01  1.696570384383008e-17
-1.429999999999999e+00  8.256108849411650e-01  1.696570384383008e-17
-1.429999999999999e+00  8.256108849411650e-01  1.696570384383008e-17
-1.429999999999999e+00  8.256108849411650e-01  1.696570384383008e-17
-1.429999999999999e+00  8.256108849411650e-01  1.696570384383008e-17
-1.429999999999999e+00  8.256108849411650e-01  1.696570384383008e-17
-1.429999999999999e+00  8.256108849411650e-01  1.696570384383008e-17
-1.429999999999999e+00  8.256108849411650e-01  1.696570384383008e-17
-1.429999999999999e+00  8.256108849411650e-01  1.696570384383008e-17
-1.429999999999999e+00  8.256108849411650e-01  1.696570384383008e-17
-1.429999999999999e+00  8.256108849411650e-01  1.696570384383008e-17
-1.429999999999999e+00  8.256108849411650e-01  1.696570384383008e-17
-1.429999999999999e+00  8.256108849411650e-01  1.696570384383008e-17
-1.429999999999999e+00  8.256108849411650e-01  1.696570384383008e-17
-1.429999999999999e+00  8.256108849411650e-01  1.696570384383008e-17
-1.429999999999999e+00  8.256108849411650e-01  1.696570384383008e-17
-1.429999999999999e+00  8.256108849411650e-01  1.696570384383008e-17
-1.429999999999999e+00  8.256108849411650e-01  1.696570384383008e-17
-1.429999999999999e+00  8.256108849411650e-01  1.696570384383008e-17
-1.429999999999999e+00  8.256108849411650e-01  1.696570384383008e-17
-1.429999999999999e+00  8.256108849411650e-01  1.696570384383008e-17
-1.429999999999999e+00  8.256108849411650e-01  1.696570384383008e-17
-1.429999999999999e+00  8.256108849411650e-01  1.696570384383008e-17
-1.429999999999999e+00  8.256108849411650e-01  1.696570384383008e-17
-1.429999999999999e+00  8.256108849411650e-01  1.696570384383008e-17
-1.429999999999999e+00  8.256108849411650e-01  1.696570384383008e-17
-1.429999999999999e+00  8.256108849411650e-01  1.696570384383008e-17
-1.429999999999999e+00  8.256108849411650e-01  1.696570384383008e-17
-1.429999999999999e+00  8.256108849411650e-01  1.696570384383008e-17
-1.429999999999999e+00  8.256108849411650e-01  1.696570384383008e-17
-1.429999999999999e+00  8.256108849411650e-01  1.696570384383008e-17
-1.429999999999999e+00  8.256108849411650e-01  1.696570384383008e-17
-1.429999999999999e+00  8.256108849411650e-01  1.696570384383008e-17
-1.429999999999999e+00  8.256108849411650e-01  1.696570384383008e-17
-1.429999999999999e+00  8.256108849411650e-01  1.696570384383008e-17
-1.429999999999999e+00  8.256108849411650e-01  1.696570384383008e-17
-1.429999999999999e+00  8.256108849411650e-01  1.696570384383008e-17
-1.429999999999999e+00  8.256108849411650e-01  1.696570384383008e-17
-1.429999999999999e+00  8.256108849411650e-01  1.696570384383008e-17
-1.429999999999999e+00  8.256108849411650e-01  1.696570384383008e-17
-1.429999999999999e+00  8.256108849411650e-01  1.696570384383008e-17
-1.429999999999999e+00  8.256108849411650e-01  1.696570384383008e-17
-1.429999999999999e+00  8.256108849411650e-01  1.696570384383008e-17
-1.429999999999999e+00  8.256108849411650e-01  1.696570384383008e-17
-1.429999999999999e+00  8.256108849411650e-01  1.696570384383008e-17
-1.429999999999999e+00  8.256108849411650e-01  1.696570384383008e-17
-1.429999999999999e+00  8.256108849411650e-01  1.696570384383008e-17
-1.429999999999999e+00  8.256108849411650e-01  1.696570384383008e-17
-1.429999999999999e+00  8.256108849411650e-01  1.696570384383008e-17
-1.429999999999999e+00  8.256108849411650e-01  1.696570384383008e-17
-1.429999999999999e+00  8.256108849411650e-01  1.696570384383008e-17
-1.429999999999999e+00  8.256108849411650e-01  1.696570384383008e-17
-1.429999999999999e+00  8.256108849411650e-01  1.696570384383008e-17
-1.429999999999999e+00  8.256108849411650e-01  1.696570384383008e-17
-1.429999999999999e+00  8.256108849411650e-01  1.696570384383008e-17
-1.429999999999999e+00  8.256108849411650e-01  1.696570384383008e-17
-1.429999999999999e+00  8.256108849411650e-01  1.696570384383008e-17
-1.429999999999999e+00  8.256108849411650e-01  1.696570384383008e-17
-1.429999999999999e+00  8.256108849411650e-01  1.696570384383008e-17
-1.429999999999999e+00  8.256108849411650e-01  1.696570384383008e-17
-1.429999999999999e+00  8.256108849411650e-01  1.696570384383008e-17
-1.429999999999999e+00  8.256108849411650e-01  1.696570384383008e-17
-1.429999999999999e+00  8.256108849411650e-01  1.696570384383008e-17
-1.429999999999999e+00  8.256108849411650e-01  1.696570384383008e-17
-1.429999999999999e+00  8.256108849411650e-01  1.696570384383008e-17
-1.429999999999999e+00  8.256108849411650e-01  1.696570384383008e-17
 1.429999999999999e+00 -8.256108849411650e-01 -1.696570384383008e-17
-1.429999999999999e+00  8.256108849411650e-01  1.696570384383008e-17
 1.429999999999999e+00 -8.256108849411650e-01 -1.696570384383008e-17
 1.429999999999999e+00 -8.256108849411650e-01 -1.696570384383008e-17
 1.429999999999999e+00 -8.256108849411650e-01 -1.696570384383008e-17
 1.429999999999999e+00 -8.256108849411650e-01 -1.696570384383008e-17
 1.429999999999999e+00 -8.256108849411650e-01 -1.696570384383008e-17
 1.429999999999999e+00 -8.256108849411650e-01 -1.696570384383008e-17
 1.429999999999999e+00 -8.256108849411650e-01 -1.696570384383008e-17
 1.429999999999999e+00 -8.256108849411650e-01 -1.696570384383008e-17
 1.429999999999999e+00 -8.256108849411650e-01 -1.696570384383008e-17
 1.429999999999999e+00 -8.256108849411650e-01 -1.696570384383008e-17
 1.429999999999999e+00 -8.256108849411650e-01 -1.696570384383008e-17
 1.429999999999999e+00 -8.256108849411650e-01 -1.696570384383008e-17
 1.429999999999999e+00 -8.256108849411650e-01 -1.696570384383008e-17
 1.429999999999999e+00 -8.256108849411650e-01 -1.696570384383008e-17
 1.429999999999999e+00 -8.256108849411650e-01 -1.696570384383008e-17
 1.429999999999999e+00 -8.256108849411650e-01 -1.696570384383008e-17
 1.429999999999999e+00 -8.256108849411650e-01 -1.696570384383008e-17
 1.429999999999999e+00 -8.256108849411650e-01 -1.696570384383008e-17
 1.429999999999999e+00 -8.256108849411650e-01 -1.696570384383008e-17
 1.429999999999999e+00 -8.256108849411650e-01 -1.696570384383008e-17
 1.429999999999999e+00 -8.256108849411650e-01 -1.696570384383008e-17
 1.429999999999999e+00 -8.256108849411650e-01 -1.696570384383008e-17
 1.429999999999999e+00 -8.256108849411650e-01 -1.696570384383008e-17
 1.429999999999999e+00 -8.256108849411650e-01 -1.696570384383008e-17
 1.429999999999999e+00 -8.256108849411650e-01 -1.696570384383008e-17
 1.429999999999999e+00 -8.256108849411650e-01 -1.696570384383008e-17
 1.429999999999999e+00 -8.256108849411650e-01 -1.696570384383008e-17
 1.429999999999999e+00 -8.256108849411650e-01 -1.696570384383008e-17
 1.429999999999999e+00 -8.256108849411650e-01 -1.696570384383008e-17
 1.429999999999999e+00 -8.256108849411650e-01 -1.696570384383008e-17
 1.429999999999999e+00 -8.256108849411650e-01 -1.696570384383008e-17
 1.429999999999999e+00 -8.256108849411650e-01 -1.696570384383008e-17
 1.429999999999999e+00 -8.256108849411650e-01 -1.696570384383008e-17
 1.429999999999999e+00 -8.256108849411650e-01 -1.696570384383008e-17
 1.429999999999999e+00 -8.256108849411650e-01 -1.696570384383008e-17
 1.429999999999999e+00 -8.256108849411650e-01 -1.696570384383008e-17
 1.429999999999999e+00 -8.256108849411650e-01 -1.696570384383008e-17
 1.429999999999999e+00 -8.256108849411650e-01 -1.696570384383008e-17
 1.429999999999999e+00 -8.256108849411650e-01 -1.696570384383008e-17
 1.429999999999999e+00 -8.256108849411650e-01 -1.696570384383008e-17
 1.429999999999999e+00 -8.256108849411650e-01 -1.696570384383008e-17
 1.429999999999999e+00 -8.256108849411650e-01 -1.696570384383008e-17
 1.429999999999999e+00 -8.256108849411650e-01 -1.696570384383008e-17
 1.429999999999999e+00 -8.256108849411650e-01 -1.696570384383008e-17
 1.429999999999999e+00 -8.256108849411650e-01 -1.696570384383008e-17
 1.429999999999999e+00 -8.256108849411650e-01 -1.696570384383008e-17
 1.429999999999999e+00 -8.256108849411650e-01 -1.696570384383008e-17
 1.429999999999999e+00 -8.256108849411650e-01 -1.696570384383008e-17
 1.429999999999999e+00 -8.256108849411650e-01 -1.696570384383008e-17
 1.429999999999999e+00 -8.256108849411650e-01 -1.696570384383008e-17
 1.429999999999999e+00 -8.256108849411650e-01 -1.696570384383008e-17
 1.429999999999999e+00 -8.256108849411650e-01 -1.696570384383008e-17
 1.429999999999999e+00 -8.256108849411650e-01 -1.696570384383008e-17
 1.429999999999999e+00 -8.256108849411650e-01 -1.696570384383008e-17
 1.429999999999999e+00 -8.256108849411650e-01 -1.696570384383008e-17
 1.429999999999999e+00 -8.256108849411650e-01 -1.696570384383008e-17
 1.429999999999999e+00 -8.256108849411650e-01 -1.696570384383008e-17
 1.429999999999999e+00 -8.256108849411650e-01 -1.696570384383008e-17
 1.429999999999999e+00 -8.256108849411650e-01 -1.696570384383008e-17
 1.429999999999999e+00 -8.256108849411650e-01 -1.696570384383008e-17
 1.429999999999999e+00 -8.256108849411650e-01 -1.696570384383008e-17
 1.429999999999999e+00 -8.256108849411650e-01 -1.696570384383008e-17
 1.429999999999999e+00 -8.256108849411650e-01 -1.696570384383008e-17
 1.429999999999999e+00 -8.256108849411650e-01 -1.696570384383008e-17
 1.429999999999999e+00 -8.256108849411650e-01 -1.696570384383008e-17
 1.429999999999999e+00 -8.256108849411650e-01 -1.696570384383008e-17
 1.429999999999999e+00 -8.256108849411650e-01 -1.696570384383008e-17
 1.429999999999999e+00 -8.256108849411650e-01 -1.696570384383008e-17
 1.429999999999999e+00 -8.256108849411650e-01 -1.696570384383008e-17
 1.429999999999999e+00 -8.256108849411650e-01 -1.696570384383008e-17
 1.429999999999999e+00 -8.256108849411650e-01 -1.696570384383008e-17
 1.429999999999999e+00 -8.256108849411650e-01 -1.696570384383008e-17
 1.429999999999999e+00 -8.256108849411650e-01 -1.696570384383008e-17
 1.429999999999999e+00 -8.256108849411650e-01 -1.696570384383008e-17
 1.429999999999999e+00 -8.256108849411650e-01 -1.696570384383008e-17
 1.429999999999999e+00 -8.256108849411650e-01 -1.696570384383008e-17
 1.429999999999999e+00 -8.256108849411650e-01 -1.696570384383008e-17
 1.429999999999999e+00 -8.256108849411650e-01 -1.696570384383008e-17
 1.429999999999999e+00 -8.256108849411650e-01 -1.696570384383008e-17
 1.429999999999999e+00 -8.256108849411650e-01 -1.696570384383008e-17
 1.429999999999999e+00 -8.256108849411650e-01 -1.696570384383008e-17
 1.429999999999999e+00 -8.256108849411650e-01 -1.696570384383008e-17
 1.429999999999999e+00 -8.256108849411650e-01 -1.696570384383008e-17
 1.429999999999999e+00 -8.256108849411650e-01 -1.696570384383008e-17
 1.429999999999999e+00 -8.256108849411650e-01 -1.696570384383008e-17
 1.429999999999999e+00 -8.256108849411650e-01 -1.696570384383008e-17
 1.429999999999999e+00 -8.256108849411650e-01 -1.696570384383008e-17
 1.429999999999999e+00 -8.256108849411650e-01 -1.696570384383008e-17
 1.429999999999999e+00 -8.256108849411650e-01 -1.696570384383008e-17
 1.429999999999999e+00 -8.256108849411650e-01 -1.696570384383008e-17
 1.429999999999999e+00 -8.256108849411650e-01 -1.696570384383008e-17
 1.429999999999999e+00 -8.256108849411650e-01 -1.696570384383008e-17
 1.429999999999999e+00 -8.256108849411650e-01 -1.696570384383008e-17
 1.429999999999999e+00 -8.256108849411650e-01 -1.696570384383008e-17
 1.429999999999999e+00 -8.256108849411650e-01 -1.696570384383008e-17
 1.429999999999999e+00 -8.256108849411650e-01 -1.696570384383008e-17
 1.429999999999999e+00 -8.256108849411650e-01 -1.696570384383008e-17
 1.429999999999999e+00 -8.256108849411650e-01 -1.696570384383008e-17
 1.429999999999999e+00 -8.256108849411650e-01 -1.696570384383008e-17
 1.429999999999999e+00 -8.256108849411650e-01 -1.696570384383008e-17
 1.429999999999999e+00 -8.256108849411650e-01 -1.696570384383008e-17
 1.429999999999999e+00 -8.256108849411650e-01 -1.696570384383008e-17
 1.429999999999999e+00 -8.256108849411650e-01 -1.696570384383008e-17
 1.429999999999999e+00 -8.256108849411650e-01 -1.696570384383008e-17
 1.429999999999999e+00 -8.256108849411650e-01 -1.696570384383008e-17
 1.429999999999999e+00 -8.256108849411650e-01 -1.696570384383008e-17
 1.429999999999999e+00 -8.256108849411650e-01 -1.696570384383008e-17
 1.429999999999999e+00 -8.256108849411650e-01 -1.696570384383008e-17
 1.429999999999999e+00 -8.256108849411650e-01 -1.696570384383008e-17
 1.429999999999999e+00 -8.256108849411650e-01 -1.696570384383008e-17
 1.429999999999999e+00 -8.256108849411650e-01 -1.696570384383008e-17
 1.429999999999999e+00 -8.256108849411650e-01 -1.696570384383008e-17
 1.429999999999999e+00 -8.256108849411650e-01 -1.696570384383008e-17
 1.429999999999999e+00 -8.256108849411650e-01 -1.696570384383008e-17
 1.429999999999999e+00 -8.256108849411650e-01 -1.696570384383008e-17
 1.429999999999999e+00 -8.256108849411650e-01 -1.696570384383008e-17
 1.429999999999999e+00 -8.256108849411650e-01 -1.696570384383008e-17
 1.429999999999999e+00 -8.256108849411650e-01 -1.696570384383008e-17
 1.429999999999999e+00 -8.256108849411650e-01 -1.696570384383008e-17
 1.429999999999999e+00 -8.256108849411650e-01 -1.696570384383008e-17
 1.429999999999999e+00 -8.256108849411650e-01 -1.696570384383008e-17
 1.429999999999999e+00 -8.256108849411650e-01 -1.696570384383008e-17
 1.429999999999999e+00 -8.256108849411650e-01 -1.696570384383008e-17
 1.429999999999999e+00 -8.256108849411650e-01 -1.696570384383008e-17
 1.429999999999999e+00 -8.256108849411650e-01 -1.696570384383008e-17
 1.429999999999999e+00 -8.256108849411650e-01 -1.696570384383008e-17
 1.429999999999999e+00 -8.256108849411650e-01 -1.696570384383008e-17
 1.429999999999999e+00 -8.256108849411650e-01 -1.696570384383008e-17
 1.429999999999999e+00 -8.256108849411650e-01 -1.696570384383008e-17
 1.429999999999999e+00 -8.256108849411650e-01 -1.696570384383008e-17
 1.429999999999999e+00 -8.256108849411650e-01 -1.696570384383008e-17
 1.429999999999999e+00 -8.256108849411650e-01 -1.696570384383008e-17
 1.429999999999999e+00 -8.256108849411650e-01 -1.696570384383008e-17
 1.429999999999999e+00 -8.256108849411650e-01 -1.696570384383008e-17
 1.429999999999999e+00 -8.256108849411650e-01 -1.696570384383008e-17
 1.429999999999999e+00 -8.256108849411650e-01 -1.696570384383008e-17
 1.429999999999999e+00 -8.256108849411650e-01 -1.696570384383008e-17
 1.429999999999999e+00 -8.256108849411650e-01 -1.696570384383008e-17
 1.429999999999999e+00 -8.256108849411650e-01 -1.696570384383008e-17
 1.429999999999999e+00 -8.256108849411650e-01 -1.696570384383008e-17
 1.429999999999999e+00 -8.256108849411650e-01 -1.696570384383008e-17
 1.429999999999999e+00 -8.256108849411650e-01 -1.696570384383008e-17
 1.429999999999999e+00 -8.256108849411650e-01 -1.696570384383008e-17
 1.429999999999999e+00 -8.256108849411650e-01 -1.696570384383008e-17
 1.429999999999999e+00 -8.256108849411650e-01 -1.696570384383008e-17
 1.429999999999999e+00 -8.256108849411650e-01 -1.696570384383008e-17
 1.429999999999999e+00 -8.256108849411650e-01 -1.696570384383008e-17
 1.429999999999999e+00 -8.256108849411650e-01 -1.696570384383008e-17
 1.429999999999999e+00 -8.256108849411650e-01 -1.696570384383008e-17
 1.429999999999999e+00 -8.256108849411650e-01 -1.696570384383008e-17
 1.429999999999999e+00 -8.256108849411650e-01 -1.696570384383008e-17
-1.429999999999999e+00  8.256108849411650e-01  1.696570384383008e-17
 1.429999999999999e+00 -8.256108849411650e-01 -1.696570384383008e-17
 1.429999999999999e+00 -8.256108849411650e-01 -1.696570384383008e-17
 1.429999999999999e+00 -8.256108849411650e-01 -1.696570384383008e-17
 1.429999999999999e+00 -8.256108849411650e-01 -1.696570384383008e-17
 1.429999999999999e+00 -8.256108849411650e-01 -1.696570384383008e-17
 1.429999999999999e+00 -8.256108849411650e-01 -1.696570384383008e-17
 1.429999999999999e+00 -8.256108849411650e-01 -1.696570384383008e-17
 1.429999999999999e+00 -8.256108849411650e-01 -1.696570384383008e-17
 1.429999999999999e+00 -8.256108849411650e-01 -1.696570384383008e-17
 1.429999999999999e+00 -8.256108849411650e-01 -1.696570384383008e-17
 1.429999999999999e+00 -8.256108849411650e-01 -1.696570384383008e-17
 1.429999999999999e+00 -8.256108849411650e-01 -1.696570384383008e-17
 1.429999999999999e+00 -8.256108849411650e-01 -1.696570384383008e-17
 1.429999999999999e+00 -8.256108849411650e-01 -1.696570384383008e-17
 1.429999999999999e+00 -8.256108849411650e-01 -1.696570384383008e-17
 1.429999999999999e+00 -8.256108849411650e-01 -1.696570384383008e-17
 1.429999999999999e+00 -8.256108849411650e-01 -1.696570384383008e-17
 1.429999999999999e+00 -8.256108849411650e-01 -1.696570384383008e-17
 1.429999999999999e+00 -8.256108849411650e-01 -1.696570384383008e-17
 1.429999999999999e+00 -8.256108849411650e-01 -1.696570384383008e-17
 1.429999999999999e+00 -8.256108849411650e-01 -1.696570384383008e-17
 1.429999999999999e+00 -8.256108849411650e-01 -1.696570384383008e-17
 1.429999999999999e+00 -8.256108849411650e-01 -1.696570384383008e-17
 1.429999999999999e+00 -8.256108849411650e-01 -1.696570384383008e-17
 1.429999999999999e+00 -8.256108849411650e-01 -1.696570384383008e-17
 1.429999999999999e+00 -8.256108849411650e-01 -1.696570384383008e-17
 1.429999999999999e+00 -8.256108849411650e-01 -1.696570384383008e-17
 1.429999999999999e+00 -8.256108849411650e-01 -1.696570384383008e-17
 1.429999999999999e+00 -8.256108849411650e-01 -1.696570384383008e-17
 1.429999999999999e+00 -8.256108849411650e-01 -1.696570384383008e-17
 1.429999999999999e+00 -8.256108849411650e-01 -1.696570384383008e-17
 1.429999999999999e+00 -8.256108849411650e-01 -1.696570384383008e-17
 1.429999999999999e+00 -8.256108849411650e-01 -1.696570384383008e-17
 1.429999999999999e+00 -8.256108849411650e-01 -1.696570384383008e-17
 1.429999999999999e+00 -8.256108849411650e-01 -1.696570384383008e-17
 1.429999999999999e+00 -8.256108849411650e-01 -1.696570384383008e-17
 1.429999999999999e+00 -8.256108849411650e-01 -1.696570384383008e-17
 1.429999999999999e+00 -8.256108849411650e-01 -1.696570384383008e-17
 1.429999999999999e+00 -8.256108849411650e-01 -1.696570384383008e-17
 1.429999999999999e+00 -8.256108849411650e-01 -1.696570384383008e-17
 1.429999999999999e+00 -8.256108849411650e-01 -1.696570384383008e-17
 1.429999999999999e+00 -8.256108849411650e-01 -1.696570384383008e-17
 1.429999999999999e+00 -8.256108849411650e-01 -1.696570384383008e-17
 1.429999999999999e+00 -8.256108849411650e-01 -1.696570384383008e-17
 1.429999999999999e+00 -8.256108849411650e-01 -1.696570384383008e-17
 1.429999999999999e+00 -8.256108849411650e-01 -1.696570384383008e-17
 1.429999999999999e+00 -8.256108849411650e-01 -1.696570384383008e-17
 1.429999999999999e+00 -8.256108849411650e-01 -1.696570384383008e-17
 1.429999999999999e+00 -8.256108849411650e-01 -1.696570384383008e-17
 1.429999999999999e+00 -8.256108849411650e-01 -1.696570384383008e-17
 1.429999999999999e+00 -8.256108849411650e-01 -1.696570384383008e-17
 1.429999999999999e+00 -8.256108849411650e-01 -1.696570384383008e-17
 1.429999999999999e+00 -8.256108849411650e-01 -1.696570384383008e-17
 1.429999999999999e+00 -8.256108849411650e-01 -1.696570384383008e-17
 1.429999999999999e+00 -8.256108849411650e-01 -1.696570384383008e-17
 1.429999999999999e+00 -8.256108849411650e-01 -1.696570384383008e-17
 1.429999999999999e+00 -8.256108849411650e-01 -1.696570384383008e-17
 1.429999999999999e+00 -8.256108849411650e-01 -1.696570384383008e-17
 1.429999999999999e+00 -8.256108849411650e-01 -1.696570384383008e-17
 1.429999999999999e+00 -8.256108849411650e-01 -1.696570384383008e-17
 1.429999999999999e+00 -8.256108849411650e-01 -1.696570384383008e-17
 1.429999999999999e+00 -8.256108849411650e-01 -1.696570384383008e-17
 1.429999999999999e+00 -8.256108849411650e-01 -1.696570384383008e-17
 1.429999999999999e+00 -8.256108849411650e-01 -1.696570384383008e-17
 1.429999999999999e+00 -8.256108849411650e-01 -1.696570384383008e-17
 1.429999999999999e+00 -8.256108849411650e-01 -1.696570384383008e-17
 1.429999999999999e+00 -8.256108849411650e-01 -1.696570384383008e-17
 1.429999999999999e+00 -8.256108849411650e-01 -1.696570384383008e-17
 1.429999999999999e+00 -8.256108849411650e-01 -1.696570384383008e-17
 1.429999999999999e+00 -8.256108849411650e-01 -1.696570384383008e-17
 1.429999999999999e+00 -8.256108849411650e-01 -1.696570384383008e-17
 1.429999999999999e+00 -8.256108849411650e-01 -1.696570384383008e-17
 1.429999999999999e+00 -8.256108849411650e-01 -1.696570384383008e-17
 1.429999999999999e+00 -8.256108849411650e-01 -1.696570384383008e-17
 1.429999999999999e+00 -8.256108849411650e-01 -1.696570384383008e-17
 1.429999999999999e+00 -8.256108849411650e-01 -1.696570384383008e-17
 1.429999999999999e+00 -8.256108849411650e-01 -1.696570384383008e-17
 1.429999999999999e+00 -8.256108849411650e-01 -1.696570384383008e-17
 1.429999999999999e+00 -8.256108849411650e-01 -1.696570384383008e-17
 1.429999999999999e+00 -8.256108849411650e-01 -1.696570384383008e-17
 1.429999999999999e+00 -8.256108849411650e-01 -1.696570384383008e-17
 1.429999999999999e+00 -8.256108849411650e-01 -1.696570384383008e-17
 1.429999999999999e+00 -8.256108849411650e-01 -1.696570384383008e-17
 1.429999999999999e+00 -8.256108849411650e-01 -1.696570384383008e-17
 1.429999999999999e+00 -8.256108849411650e-01 -1.696570384383008e-17
 1.429999999999999e+00 -8.256108849411650e-01 -1.696570384383008e-17
 1.429999999999999e+00 -8.256108849411650e-01 -1.696570384383008e-17
 1.429999999999999e+00 -8.256108849411650e-01 -1.696570384383008e-17
 1.429999999999999e+00 -8.256108849411650e-01 -1.696570384383008e-17
 1.429999999999999e+00 -8.256108849411650e-01 -1.696570384383008e-17
 1.429999999999999e+00 -8.256108849411650e-01 -1.696570384383008e-17
 1.429999999999999e+00 -8.256108849411650e-01 -1.696570384383008e-17
 1.429999999999999e+00 -8.256108849411650e-01 -1.696570384383008e-17
 1.429999999999999e+00 -8.256108849411650e-01 -1.696570384383008e-17
 1.429999999999999e+00 -8.256108849411650e-01 -1.696570384383008e-17
 1.429999999999999e+00 -8.256108849411650e-01 -1.696570384383008e-17
 1.429999999999999e+00 -8.256108849411650e-01 -1.696570384383008e-17
 1.429999999999999e+00 -8.256108849411650e-01 -1.696570384383008e-17
 1.429999999999999e+00 -8.256108849411650e-01 -1.696570384383008e-17
 1.429999999999999e+00 -8.256108849411650e-01 -1.696570384383008e-17
 1.429999999999999e+00 -8.256108849411650e-01 -1.696570384383008e-17
 1.429999999999999e+00 -8.256108849411650e-01 -1.696570384383008e-17
 1.429999999999999e+00 -8.256108849411650e-01 -1.696570384383008e-17
 1.429999999999999e+00 -8.256108849411650e-01 -1.696570384383008e-17
 1.429999999999999e+00 -8.256108849411650e-01 -1.696570384383008e-17
 1.429999999999999e+00 -8.256108849411650e-01 -1.696570384383008e-17
 1.429999999999999e+00 -8.256108849411650e-01 -1.696570384383008e-17
 1.429999999999999e+00 -8.256108849411650e-01 -1.696570384383008e-17
 1.429999999999999e+00 -8.256108849411650e-01 -1.696570384383008e-17
 1.429999999999999e+00 -8.256108849411650e-01 -1.696570384383008e-17
 1.429999999999999e+00 -8.256108849411650e-01 -1.696570384383008e-17
 1.429999999999999e+00 -8.256108849411650e-01 -1.696570384383008e-17
 1.429999999999999e+00 -8.256108849411650e-01 -1.696570384383008e-17
 1.429999999999999e+00 -8.256108849411650e-01 -1.696570384383008e-17
 1.429999999999999e+00 -8.256108849411650e-01 -1.696570384383008e-17
 1.429999999999999e+00 -8.256108849411650e-01 -1.696570384383008e-17
 1.429999999999999e+00 -8.256108849411650e-01 -1.696570384383008e-17
 1.429999999999999e+00 -8.256108849411650e-01 -1.696570384383008e-17
 1.429999999999999e+00 -8.256108849411650e-01 -1.696570384383008e-17
 1.429999999999999e+00 -8.256108849411650e-01 -1.696570384383008e-17
 1.429999999999999e+00 -8.256108849411650e-01 -1.696570384383008e-17
 1.429999999999999e+00 -8.256108849411650e-01 -1.696570384383008e-17
 1.429999999999999e+00 -8.256108849411650e-01 -1.696570384383008e-17
 1.429999999999999e+00 -8.256108849411650e-01 -1.696570384383008e-17
 1.429999999999999e+00 -8.256108849411650e-01 -1.696570384383008e-17
 1.429999999999999e+00 -8.256108849411650e-01 -1.696570384383008e-17
 1.429999999999999e+00 -8.256108849411650e-01 -1.696570384383008e-17
 1.429999999999999e+00 -8.256108849411650e-01 -1.696570384383008e-17
 1.429999999999999e+00 -8.256108849411650e-01 -1.696570384383008e-17
 1.429999999999999e+00 -8.256108849411650e-01 -1.696570384383008e-17
 1.429999999999999e+00 -8.256108849411650e-01 -1.696570384383008e-17
 1.429999999999999e+00 -8.256108849411650e-01 -1.696570384383008e-17
 1.429999999999999e+00 -8.256108849411650e-01 -1.696570384383008e-17
 1.429999999999999e+00 -8.256108849411650e-01 -1.696570384383008e-17
 1.429999999999999e+00 -8.256108849411650e-01 -1.696570384383008e-17
 1.429999999999999e+00 -8.256108849411650e-01 -1.696570384383008e-17
 1.429999999999999e+00 -8.256108849411650e-01 -1.696570384383008e-17
 1.429999999999999e+00 -8.256108849411650e-01 -1.696570384383008e-17
 1.429999999999999e+00 -8.256108849411650e-01 -1.696570384383008e-17
 1.429999999999999e+00 -8.256108849411650e-01 -1.696570384383008e-17
 1.429999999999999e+00 -8.256108849411650e-01 -1.696570384383008e-17

VECTORS burgers_vector_local double
-1.666666666666667e-01 -3.333333333333333e-01 -1.666666666666665e-01
1.666666666666667e-01 3.333333333333333e-01 1.666666666666665e-01
-1.666666666666667e-01 -3.333333333333333e-01 -1.666666666666665e-01
-1.666666666666667e-01 -3.333333333333333e-01 -1.666666666666665e-01
-1.666666666666667e-01 -3.333333333333333e-01 -1.666666666666665e-01
-1.666666666666667e-01 -3.333333333333333e-01 -1.666666666666665e-01
-1.666666666666667e-01 -3.333333333333333e-01 -1.666666666666665e-01
-1.666666666666667e-01 -3.333333333333333e-01 -1.666666666666665e-01
-1.666666666666667e-01 -3.333333333333333e-01 -1.666666666666665e-01
-1.666666666666667e-01 -3.333333333333333e-01 -1.666666666666665e-01
-1.666666666666667e-01 -3.333333333333333e-01 -1.666666666666665e-01
-1.666666666666667e-01 -3.333333333333333e-01 -1.666666666666665e-01
-1.666666666666667e-01 -3.333333333333333e-01 -1.666666666666665e-01
-1.666666666666667e-01 -3.333333333333333e-01 -1.666666666666665e-01
-1.666666666666667e-01 -3.333333333333333e-01 -1.666666666666665e-01
-1.666666666666667e-01 -3.333333333333333e-01 -1.666666666666665e-01
-1.666666666666667e-01 -3.333333333333333e-01 -1.666666666666665e-01
-1.666666666666667e-01 -3.333333333333333e-01 -1.666666666666665e-01
-1.666666666666667e-01 -3.333333333333333e-01 -1.666666666666665e-01
-1.666666666666667e-01 -3.333333333333333e-01 -1.666666666666665e-01
-1.666666666666667e-01 -3.333333333333333e-01 -1.666666666666665e-01
-1.666666666666667e-01 -3.333333333333333e-01 -1.666666666666665e-01
-1.666666666666667e-01 -3.333333333333333e-01 -1.666666666666665e-01
-1.666666666666667e-01 -3.333333333333333e-01 -1.666666666666665e-01
-1.666666666666667e-01 -3.333333333333333e-01 -1.666666666666665e-01
-1.666666666666667e-01 -3.333333333333333e-01 -1.666666666666665e-01
-1.666666666666667e-01 -3.333333333333333e-01 -1.666666666666665e-01
-1.666666666666667e-01 -3.333333333333333e-01 -1.666666666666665e-01
-1.666666666666667e-01 -3.333333333333333e-01 -1.666666666666665e-01
-1.666666666666667e-01 -3.333333333333333e-01 -1.666666666666665e-01
-1.666666666666667e-01 -3.333333333333333e-01 -1.666666666666665e-01
-1.666666666666667e-01 -3.333333333333333e-01 -1.666666666666665e-01
-1.666666666666667e-01 -3.333333333333333e-01 -1.666666666666665e-01
-1.666666666666667e-01 -3.333333333333333e-01 -1.666666666666665e-01
-1.666666666666667e-01 -3.333333333333333e-01 -1.666666666666665e-01
-1.666666666666667e-01 -3.333333333333333e-01 -1.666666666666665e-01
-1.666666666666667e-01 -3.333333333333333e-01 -1.666666666666665e-01
-1.666666666666667e-01 -3.333333333333333e-01 -1.666666666666665e-01
-1.666666666666667e-01 -3.333333333333333e-01 -1.666666666666665e-01
-1.666666666666667e-01 -3.333333333333333e-01 -1.666666666666665e-01
-1.666666666666667e-01 -3.333333333333333e-01 -1.666666666666665e-01
-1.666666666666667e-01 -3.333333333333333e-01 -1.666666666666665e-01
-1.666666666666667e-01 -3.333333333333333e-01 -1.666666666666665e-01
-1.666666666666667e-01 -3.333333333333333e-01 -1.666666666666665e-01
-1.666666666666667e-01 -3.333333333333333e-01 -1.666666666666665e-01
-1.666666666666667e-01 -3.333333333333333e-01 -1.666666666666665e-01
-1.666666666666667e-01 -3.333333333333333e-01 -1.666666666666665e-01
-1.666666666666667e-01 -3.333333333333333e-01 -1.666666666666665e-01
-1.666666666666667e-01 -3.333333333333333e-01 -1.666666666666665e-01
-1.666666666666667e-01 -3.333333333333333e-01 -1.666666666666665e-01
-1.666666666666667e-01 -3.333333333333333e-01 -1.666666666666665e-01
-1.666666666666667e-01 -3.333333333333333e-01 -1.666666666666665e-01
-1.666666666666667e-01 -3.333333333333333e-01 -1.666666666666665e-01
-1.666666666666667e-01 -3.333333333333333e-01 -1.666666666666665e-01
-1.666666666666667e-01 -3.333333333333333e-01 -1.666666666666665e-01
-1.666666666666667e-01 -3.333333333333333e-01 -1.666666666666665e-01
-1.666666666666667e-01 -3.333333333333333e-01 -1.666666666666665e-01
-1.666666666666667e-01 -3.333333333333333e-01 -1.666666666666665e-01
-1.666666666666667e-01 -3.333333333333333e-01 -1.666666666666665e-01
-1.666666666666667e-01 -3.333333333333333e-01 -1.666666666666665e-01
-1.666666666666667e-01 -3.333333333333333e-01 -1.666666666666665e-01
-1.666666666666667e-01 -3.333333333333333e-01 -1.666666666666665e-01
-1.666666666666667e-01 -3.333333333333333e-01 -1.666666666666665e-01
-1.666666666666667e-01 -3.333333333333333e-01 -1.666666666666665e-01
-1.666666666666667e-01 -3.333333333333333e-01 -1.666666666666665e-01
-1.666666666666667e-01 -3.333333333333333e-01 -1.666666666666665e-01
-1.666666666666667e-01 -3.333333333333333e-01 -1.666666666666665e-01
-1.666666666666667e-01 -3.333333333333333e-01 -1.666666666666665e-01
-1.666666666666667e-01 -3.333333333333333e-01 -1.666666666666665e-01
-1.666666666666667e-01 -3.333333333333333e-01 -1.666666666666665e-01
-1.666666666666667e-01 -3.333333333333333e-01 -1.666666666666665e-01
-1.666666666666667e-01 -3.333333333333333e-01 -1.666666666666665e-01
-1.666666666666667e-01 -3.333333333333333e-01 -1.666666666666665e-01
-1.666666666666667e-01 -3.333333333333333e-01 -1.666666666666665e-01
-1.666666666666667e-01 -3.333333333333333e-01 -1.666666666666665e-01
-1.666666666666667e-01 -3.333333333333333e-01 -1.666666666666665e-01
-1.666666666666667e-01 -3.333333333333333e-01 -1.666666666666665e-01
-1.666666666666667e-01 -3.333333333333333e-01 -1.666666666666665e-01
-1.666666666666667e-01 -3.333333333333333e-01 -1.666666666666665e-01
-1.666666666666667e-01 -3.333333333333333e-01 -1.666666666666665e-01
-1.666666666666667e-01 -3.333333333333333e-01 -1.666666666666665e-01
-1.666666666666667e-01 -3.333333333333333e-01 -1.666666666666665e-01
-1.666666666666667e-01 -3.333333333333333e-01 -1.666666666666665e-01
-1.666666666666667e-01 -3.333333333333333e-01 -1.666666666666665e-01
-1.666666666666667e-01 -3.333333333333333e-01 -1.666666666666665e-01
-1.666666666666667e-01 -3.333333333333333e-01 -1.666666666666665e-01
-1.666666666666667e-01 -3.333333333333333e-01 -1.666666666666665e-01
-1.666666666666667e-01 -3.333333333333333e-01 -1.666666666666665e-01
-1.666666666666667e-01 -3.333333333333333e-01 -1.666666666666665e-01
-1.666666666666667e-01 -3.333333333333333e-01 -1.666666666666665e-01
-1.666666666666667e-01 -3.333333333333333e-01 -1.666666666666665e-01
-1.666666666666667e-01 -3.333333333333333e-01 -1.666666666666665e-01
-1.666666666666667e-01 -3.333333333333333e-01 -1.666666666666665e-01
-1.666666666666667e-01 -3.333333333333333e-01 -1.666666666666665e-01
-1.666666666666667e-01 -3.333333333333333e-01 -1.666666666666665e-01
-1.666666666666667e-01 -3.333333333333333e-01 -1.666666666666665e-01
-1.666666666666667e-01 -3.333333333333333e-01 -1.666666666666665e-01
-1.666666666666667e-01 -3.333333333333333e-01 -1.666666666666665e-01
-1.666666666666667e-01 -3.333333333333333e-01 -1.666666666666665e-01
-1.666666666666667e-01 -3.333333333333333e-01 -1.666666666666665e-01
-1.666666666666667e-01 -3.333333333333333e-01 -1.666666666666665e-01
-1.666666666666667e-01 -3.333333333333333e-01 -1.666666666666665e-01
-1.666666666666667e-01 -3.333333333333333e-01 -1.666666666666665e-01
-1.666666666666667e-01 -3.333333333333333e-01 -1.666666666666665e-01
-1.666666666666667e-01 -3.333333333333333e-01 -1.666666666666665e-01
-1.666666666666667e-01 -3.333333333333333e-01 -1.666666666666665e-01
-1.666666666666667e-01 -3.333333333333333e-01 -1.666666666666665e-01
-1.666666666666667e-01 -3.333333333333333e-01 -1.666666666666665e-01
-1.666666666666667e-01 -3.333333333333333e-01 -1.666666666666665e-01
-1.666666666666667e-01 -3.333333333333333e-01 -1.666666666666665e-01
-1.666666666666667e-01 -3.333333333333333e-01 -1.666666666666665e-01
-1.666666666666667e-01 -3.333333333333333e-01 -1.666666666666665e-01
-1.666666666666667e-01 -3.333333333333333e-01 -1.666666666666665e-01
-1.666666666666667e-01 -3.333333333333333e-01 -1.666666666666665e-01
-1.666666666666667e-01 -3.333333333333333e-01 -1.666666666666665e-01
-1.666666666666667e-01 -3.333333333333333e-01 -1.666666666666665e-01
-1.666666666666667e-01 -3.333333333333333e-01 -1.666666666666665e-01
-1.666666666666667e-01 -3.333333333333333e-01 -1.666666666666665e-01
-1.666666666666667e-01 -3.333333333333333e-01 -1.666666666666665e-01
-1.666666666666667e-01 -3.333333333333333e-01 -1.666666666666665e-01
-1.666666666666667e-01 -3.333333333333333e-01 -1.666666666666665e-01
-1.666666666666667e-01 -3.333333333333333e-01 -1.666666666666665e-01
-1.666666666666667e-01 -3.333333333333333e-01 -1.666666666666665e-01
-1.666666666666667e-01 -3.333333333333333e-01 -1.666666666666665e-01
-1.666666666666667e-01 -3.333333333333333e-01 -1.666666666666665e-01
-1.666666666666667e-01 -3.333333333333333e-01 -1.666666666666665e-01
-1.666666666666667e-01 -3.333333333333333e-01 -1.666666666666665e-01
-1.666666666666667e-01 -3.333333333333333e-01 -1.666666666666665e-01
-1.666666666666667e-01 -3.333333333333333e-01 -1.666666666666665e-01
-1.666666666666667e-01 -3.333333333333333e-01 -1.666666666666665e-01
-1.666666666666667e-01 -3.333333333333333e-01 -1.666666666666665e-01
-1.666666666666667e-01 -3.333333333333333e-01 -1.666666666666665e-01
-1.666666666666667e-01 -3.333333333333333e-01 -1.666666666666665e-01
-1.666666666666667e-01 -3.333333333333333e-01 -1.666666666666665e-01
-1.666666666666667e-01 -3.333333333333333e-01 -1.666666666666665e-01
-1.666666666666667e-01 -3.333333333333333e-01 -1.666666666666665e-01
-1.666666666666667e-01 -3.333333333333333e-01 -1.666666666666665e-01
-1.666666666666667e-01 -3.333333333333333e-01 -1.666666666666665e-01
-1.666666666666667e-01 -3.333333333333333e-01 -1.666666666666665e-01
-1.666666666666667e-01 -3.333333333333333e-01 -1.666666666666665e-01
-1.666666666666667e-01 -3.333333333333333e-01 -1.666666666666665e-01
-1.666666666666667e-01 -3.333333333333333e-01 -1.666666666666665e-01
-1.666666666666667e-01 -3.333333333333333e-01 -1.666666666666665e-01
-1.666666666666667e-01 -3.333333333333333e-01 -1.666666666666665e-01
-1.666666666666667e-01 -3.333333333333333e-01 -1.666666666666665e-01
-1.666666666666667e-01 -3.333333333333333e-01 -1.666666666666665e-01
-1.666666666666667e-01 -3.333333333333333e-01 -1.666666666666665e-01
-1.666666666666667e-01 -3.333333333333333e-01 -1.666666666666665e-01
-1.666666666666667e-01 -3.333333333333333e-01 -1.666666666666665e-01
-1.666666666666667e-01 -3.333333333333333e-01 -1.666666666666665e-01
-1.666666666666667e-01 -3.333333333333333e-01 -1.666666666666665e-01
-1.666666666666667e-01 -3.333333333333333e-01 -1.666666666666665e-01
-1.666666666666667e-01 -3.333333333333333e-01 -1.666666666666665e-01
-1.666666666666667e-01 -3.333333333333333e-01 -1.666666666666665e-01
-1.666666666666667e-01 -3.333333333333333e-01 -1.666666666666665e-01
-1.666666666666667e-01 -3.333333333333333e-01 -1.666666666666665e-01
-1.666666666666667e-01 -3.333333333333333e-01 -1.666666666666665e-01
-1.666666666666667e-01 -3.333333333333333e-01 -1.666666666666665e-01
-1.666666666666667e-01 -3.333333333333333e-01 -1.666666666666665e-01
-1.666666666666667e-01 -3.333333333333333e-01 -1.666666666666665e-01
-1.666666666666667e-01 -3.333333333333333e-01 -1.666666666666665e-01
-1.666666666666667e-01 -3.333333333333333e-01 -1.666666666666665e-01
-1.666666666666667e-01 -3.333333333333333e-01 -1.666666666666665e-01
-1.666666666666667e-01 -3.333333333333333e-01 -1.666666666666665e-01
-1.666666666666667e-01 -3.333333333333333e-01 -1.666666666666665e-01
-1.666666666666667e-01 -3.333333333333333e-01 -1.666666666666665e-01
-1.666666666666667e-01 -3.333333333333333e-01 -1.666666666666665e-01
-1.666666666666667e-01 -3.333333333333333e-01 -1.666666666666665e-01
-1.666666666666667e-01 -3.333333333333333e-01 -1.666666666666665e-01
-1.666666666666667e-01 -3.333333333333333e-01 -1.666666666666665e-01
-1.666666666666667e-01 -3.333333333333333e-01 -1.666666666666665e-01
-1.666666666666667e-01 -3.333333333333333e-01 -1.666666666666665e-01
-1.666666666666667e-01 -3.333333333333333e-01 -1.666666666666665e-01
-1.666666666666667e-01 -3.333333333333333e-01 -1.666666666666665e-01
-1.666666666666667e-01 -3.333333333333333e-01 -1.666666666666665e-01
-1.666666666666667e-01 -3.333333333333333e-01 -1.666666666666665e-01
-1.666666666666667e-01 -3.333333333333333e-01 -1.666666666666665e-01
-1.666666666666667e-01 -3.333333333333333e-01 -1.666666666666665e-01
-1.666666666666667e-01 -3.333333333333333e-01 -1.666666666666665e-01
1.666666666666667e-01 3.333333333333333e-01 1.666666666666665e-01
-1.666666666666667e-01 -3.333333333333333e-01 -1.666666666666665e-01
-1.666666666666667e-01 -3.333333333333333e-01 -1.666666666666665e-01
-1.666666666666667e-01 -3.333333333333333e-01 -1.666666666666665e-01
-1.666666666666667e-01 -3.333333333333333e-01 -1.666666666666665e-01
-1.666666666666667e-01 -3.333333333333333e-01 -1.666666666666665e-01
-1.666666666666667e-01 -3.333333333333333e-01 -1.666666666666665e-01
-1.666666666666667e-01 -3.333333333333333e-01 -1.666666666666665e-01
-1.666666666666667e-01 -3.333333333333333e-01 -1.666666666666665e-01
-1.666666666666667e-01 -3.333333333333333e-01 -1.666666666666665e-01
-1.666666666666667e-01 -3.333333333333333e-01 -1.666666666666665e-01
-1.666666666666667e-01 -3.333333333333333e-01 -1.666666666666665e-01
-1.666666666666667e-01 -3.333333333333333e-01 -1.666666666666665e-01
-1.666666666666667e-01 -3.333333333333333e-01 -1.666666666666665e-01
-1.666666666666667e-01 -3.333333333333333e-01 -1.666666666666665e-01
-1.666666666666667e-01 -3.333333333333333e-01 -1.666666666666665e-01
-1.666666666666667e-01 -3.333333333333333e-01 -1.666666666666665e-01
-1.666666666666667e-01 -3.333333333333333e-01 -1.666666666666665e-01
-1.666666666666667e-01 -3.333333333333333e-01 -1.666666666666665e-01
-1.666666666666667e-01 -3.333333333333333e-01 -1.666666666666665e-01
-1.666666666666667e-01 -3.333333333333333e-01 -1.666666666666665e-01
-1.666666666666667e-01 -3.333333333333333e-01 -1.666666666666665e-01
-1.666666666666667e-01 -3.333333333333333e-01 -1.666666666666665e-01
-1.666666666666667e-01 -3.333333333333333e-01 -1.666666666666665e-01
-1.666666666666667e-01 -3.333333333333333e-01 -1.666666666666665e-01
-1.666666666666667e-01 -3.333333333333333e-01 -1.666666666666665e-01
-1.666666666666667e-01 -3.333333333333333e-01 -1.666666666666665e-01
-1.666666666666667e-01 -3.333333333333333e-01 -1.666666666666665e-01
-1.666666666666667e-01 -3.333333333333333e-01 -1.666666666666665e-01
-1.666666666666667e-01 -3.333333333333333e-01 -1.666666666666665e-01
-1.666666666666667e-01 -3.333333333333333e-01 -1.666666666666665e-01
-1.666666666666667e-01 -3.333333333333333e-01 -1.666666666666665e-01
-1.666666666666667e-01 -3.333333333333333e-01 -1.666666666666665e-01
-1.666666666666667e-01 -3.333333333333333e-01 -1.666666666666665e-01
-1.666666666666667e-01 -3.333333333333333e-01 -1.666666666666665e-01
-1.666666666666667e-01 -3.333333333333333e-01 -1.666666666666665e-01
-1.666666666666667e-01 -3.333333333333333e-01 -1.666666666666665e-01
-1.666666666666667e-01 -3.333333333333333e-01 -1.666666666666665e-01
-1.666666666666667e-01 -3.333333333333333e-01 -1.666666666666665e-01
-1.666666666666667e-01 -3.333333333333333e-01 -1.666666666666665e-01
-1.666666666666667e-01 -3.333333333333333e-01 -1.666666666666665e-01
-1.666666666666667e-01 -3.333333333333333e-01 -1.666666666666665e-01
-1.666666666666667e-01 -3.333333333333333e-01 -1.666666666666665e-01
-1.666666666666667e-01 -3.333333333333333e-01 -1.666666666666665e-01
-1.666666666666667e-01 -3.333333333333333e-01 -1.666666666666665e-01
-1.666666666666667e-01 -3.333333333333333e-01 -1.666666666666665e-01
-1.666666666666667e-01 -3.333333333333333e-01 -1.666666666666665e-01
-1.666666666666667e-01 -3.333333333333333e-01 -1.666666666666665e-01
-1.666666666666667e-01 -3.333333333333333e-01 -1.666666666666665e-01
-1.666666666666667e-01 -3.333333333333333e-01 -1.666666666666665e-01
-1.666666666666667e-01 -3.333333333333333e-01 -1.666666666666665e-01
-1.666666666666667e-01 -3.333333333333333e-01 -1.666666666666665e-01
-1.666666666666667e-01 -3.333333333333333e-01 -1.666666666666665e-01
-1.666666666666667e-01 -3.333333333333333e-01 -1.666666666666665e-01
-1.666666666666667e-01 -3.333333333333333e-01 -1.666666666666665e-01
-1.666666666666667e-01 -3.333333333333333e-01 -1.666666666666665e-01
-1.666666666666667e-01 -3.333333333333333e-01 -1.666666666666665e-01
-1.666666666666667e-01 -3.333333333333333e-01 -1.666666666666665e-01
-1.666666666666667e-01 -3.333333333333333e-01 -1.666666666666665e-01
-1.666666666666667e-01 -3.333333333333333e-01 -1.666666666666665e-01
-1.666666666666667e-01 -3.333333333333333e-01 -1.666666666666665e-01
-1.666666666666667e-01 -3.333333333333333e-01 -1.666666666666665e-01
-1.666666666666667e-01 -3.333333333333333e-01 -1.666666666666665e-01
-1.666666666666667e-01 -3.333333333333333e-01 -1.666666666666665e-01
-1.666666666666667e-01 -3.333333333333333e-01 -1.666666666666665e-01
-1.666666666666667e-01 -3.333333333333333e-01 -1.666666666666665e-01
-1.666666666666667e-01 -3.333333333333333e-01 -1.666666666666665e-01
-1.666666666666667e-01 -3.333333333333333e-01 -1.666666666666665e-01
-1.666666666666667e-01 -3.333333333333333e-01 -1.666666666666665e-01
-1.666666666666667e-01 -3.333333333333333e-01 -1.666666666666665e-01
-1.666666666666667e-01 -3.333333333333333e-01 -1.666666666666665e-01
-1.666666666666667e-01 -3.333333333333333e-01 -1.666666666666665e-01
-1.666666666666667e-01 -3.333333333333333e-01 -1.666666666666665e-01
-1.666666666666667e-01 -3.333333333333333e-01 -1.666666666666665e-01
-1.666666666666667e-01 -3.333333333333333e-01 -1.666666666666665e-01
-1.666666666666667e-01 -3.333333333333333e-01 -1.666666666666665e-01
-1.666666666666667e-01 -3.333333333333333e-01 -1.666666666666665e-01
-1.666666666666667e-01 -3.333333333333333e-01 -1.666666666666665e-01
-1.666666666666667e-01 -3.333333333333333e-01 -1.666666666666665e-01
-1.666666666666667e-01 -3.333333333333333e-01 -1.666666666666665e-01
-1.666666666666667e-01 -3.333333333333333e-01 -1.666666666666665e-01
-1.666666666666667e-01 -3.333333333333333e-01 -1.666666666666665e-01
-1.666666666666667e-01 -3.333333333333333e-01 -1.666666666666665e-01
-1.666666666666667e-01 -3.333333333333333e-01 -1.666666666666665e-01
-1.666666666666667e-01 -3.333333333333333e-01 -1.666666666666665e-01
-1.666666666666667e-01 -3.333333333333333e-01 -1.666666666666665e-01
-1.666666666666667e-01 -3.333333333333333e-01 -1.666666666666665e-01
-1.666666666666667e-01 -3.333333333333333e-01 -1.666666666666665e-01
-1.666666666666667e-01 -3.333333333333333e-01 -1.666666666666665e-01
-1.666666666666667e-01 -3.333333333333333e-01 -1.666666666666665e-01
-1.666666666666667e-01 -3.333333333333333e-01 -1.666666666666665e-01
-1.666666666666667e-01 -3.333333333333333e-01 -1.666666666666665e-01
-1.666666666666667e-01 -3.333333333333333e-01 -1.666666666666665e-01
-1.666666666666667e-01 -3.333333333333333e-01 -1.666666666666665e-01
-1.666666666666667e-01 -3.333333333333333e-01 -1.666666666666665e-01
-1.666666666666667e-01 -3.333333333333333e-01 -1.666666666666665e-01
-1.666666666666667e-01 -3.333333333333333e-01 -1.666666666666665e-01
-1.666666666666667e-01 -3.333333333333333e-01 -1.666666666666665e-01
-1.666666666666667e-01 -3.333333333333333e-01 -1.666666666666665e-01
-1.666666666666667e-01 -3.333333333333333e-01 -1.666666666666665e-01
-1.666666666666667e-01 -3.333333333333333e-01 -1.666666666666665e-01
-1.666666666666667e-01 -3.333333333333333e-01 -1.666666666666665e-01
-1.666666666666667e-01 -3.333333333333333e-01 -1.666666666666665e-01
-1.666666666666667e-01 -3.333333333333333e-01 -1.666666666666665e-01
-1.666666666666667e-01 -3.333333333333333e-01 -1.666666666666665e-01
-1.666666666666667e-01 -3.333333333333333e-01 -1.666666666666665e-01
-1.666666666666667e-01 -3.333333333333333e-01 -1.666666666666665e-01
-1.666666666666667e-01 -3.333333333333333e-01 -1.666666666666665e-01
-1.666666666666667e-01 -3.333333333333333e-01 -1.666666666666665e-01
-1.666666666666667e-01 -3.333333333333333e-01 -1.666666666666665e-01
-1.666666666666667e-01 -3.333333333333333e-01 -1.666666666666665e-01
-1.666666666666667e-01 -3.333333333333333e-01 -1.666666666666665e-01
-1.666666666666667e-01 -3.333333333333333e-01 -1.666666666666665e-01
-1.666666666666667e-01 -3.333333333333333e-01 -1.666666666666665e-01
-1.666666666666667e-01 -3.333333333333333e-01 -1.666666666666665e-01
-1.666666666666667e-01 -3.333333333333333e-01 -1.666666666666665e-01
-1.666666666666667e-01 -3.333333333333333e-01 -1.666666666666665e-01
-1.666666666666667e-01 -3.333333333333333e-01 -1.666666666666665e-01
-1.666666666666667e-01 -3.333333333333333e-01 -1.666666666666665e-01
-1.666666666666667e-01 -3.333333333333333e-01 -1.666666666666665e-01
-1.666666666666667e-01 -3.333333333333333e-01 -1.666666666666665e-01
-1.666666666666667e-01 -3.333333333333333e-01 -1.666666666666665e-01
-1.666666666666667e-01 -3.333333333333333e-01 -1.666666666666665e-01
-1.666666666666667e-01 -3.333333333333333e-01 -1.666666666666665e-01
-1.666666666666667e-01 -3.333333333333333e-01 -1.666666666666665e-01
-1.666666666666667e-01 -3.333333333333333e-01 -1.666666666666665e-01
-1.666666666666667e-01 -3.333333333333333e-01 -1.666666666666665e-01
-1.666666666666667e-01 -3.333333333333333e-01 -1.666666666666665e-01
-1.666666666666667e-01 -3.333333333333333e-01 -1.666666666666665e-01
-1.666666666666667e-01 -3.333333333333333e-01 -1.666666666666665e-01
-1.666666666666667e-01 -3.333333333333333e-01 -1.666666666666665e-01
-1.666666666666667e-01 -3.333333333333333e-01 -1.666666666666665e-01
-1.666666666666667e-01 -3.333333333333333e-01 -1.666666666666665e-01
-1.666666666666667e-01 -3.333333333333333e-01 -1.666666666666665e-01
-1.666666666666667e-01 -3.333333333333333e-01 -1.666666666666665e-01
-1.666666666666667e-01 -3.333333333333333e-01 -1.666666666666665e-01
-1.666666666666667e-01 -3.333333333333333e-01 -1.666666666666665e-01
-1.666666666666667e-01 -3.333333333333333e-01 -1.666666666666665e-01
-1.666666666666667e-01 -3.333333333333333e-01 -1.666666666666665e-01
-1.666666666666667e-01 -3.333333333333333e-01 -1.666666666666665e-01
-1.666666666666667e-01 -3.333333333333333e-01 -1.666666666666665e-01
-1.666666666666667e-01 -3.333333333333333e-01 -1.666666666666665e-01
-1.666666666666667e-01 -3.333333333333333e-01 -1.666666666666665e-01
-1.666666666666667e-01 -3.333333333333333e-01 -1.666666666666665e-01
-1.666666666666667e-01 -3.333333333333333e-01 -1.666666666666665e-01
-1.666666666666667e-01 -3.333333333333333e-01 -1.666666666666665e-01
-1.666666666666667e-01 -3.333333333333333e-01 -1.666666666666665e-01
-1.666666666666667e-01 -3.333333333333333e-01 -1.666666666666665e-01
-1.666666666666667e-01 -3.333333333333333e-01 -1.666666666666665e-01
-1.666666666666667e-01 -3.333333333333333e-01 -1.666666666666665e-01
-1.666666666666667e-01 -3.333333333333333e-01 -1.666666666666665e-01
-1.666666666666667e-01 -3.333333333333333e-01 -1.666666666666665e-01
-1.666666666666667e-01 -3.333333333333333e-01 -1.666666666666665e-01
-1.666666666666667e-01 -3.333333333333333e-01 -1.666666666666665e-01
-1.666666666666667e-01 -3.333333333333333e-01 -1.666666666666665e-01
-1.666666666666667e-01 -3.333333333333333e-01 -1.666666666666665e-01
-1.666666666666667e-01 -3.333333333333333e-01 -1.666666666666665e-01
-1.666666666666667e-01 -3.333333333333333e-01 -1.666666666666665e-01
-1.666666666666667e-01 -3.333333333333333e-01 -1.666666666666665e-01
-1.666666666666667e-01 -3.333333333333333e-01 -1.666666666666665e-01
-1.666666666666667e-01 -3.333333333333333e-01 -1.666666666666665e-01
-1.666666666666667e-01 -3.333333333333333e-01 -1.666666666666665e-01
-1.666666666666667e-01 -3.333333333333333e-01 -1.666666666666665e-01
-1.666666666666667e-01 -3.333333333333333e-01 -1.666666666666665e-01
-1.666666666666667e-01 -3.333333333333333e-01 -1.666666666666665e-01
-1.666666666666667e-01 -3.333333333333333e-01 -1.666666666666665e-01
-1.666666666666667e-01 -3.333333333333333e-01 -1.666666666666665e-01
-1.666666666666667e-01 -3.333333333333333e-01 -1.666666666666665e-01
-1.666666666666667e-01 -3.333333333333333e-01 -1.666666666666665e-01
-1.666666666666667e-01 -3.333333333333333e-01 -1.666666666666665e-01
-1.666666666666667e-01 -3.333333333333333e-01 -1.666666666666665e-01
-1.666666666666667e-01 -3.333333333333333e-01 -1.666666666666665e-01
-1.666666666666667e-01 -3.333333333333333e-01 -1.666666666666665e-01
1.666666666666667e-01 3.333333333333333e-01 1.666666666666665e-01
-1.666666666666667e-01 -3.333333333333333e-01 -1.666666666666665e-01
1.666666666666667e-01 3.333333333333333e-01 1.666666666666665e-01
1.666666666666667e-01 3.333333333333333e-01 1.666666666666665e-01
1.666666666666667e-01 3.333333333333333e-01 1.666666666666665e-01
1.666666666666667e-01 3.333333333333333e-01 1.666666666666665e-01
1.666666666666667e-01 3.333333333333333e-01 1.666666666666665e-01
1.666666666666667e-01 3.333333333333333e-01 1.666666666666665e-01
1.666666666666667e-01 3.333333333333333e-01 1.666666666666665e-01
1.666666666666667e-01 3.333333333333333e-01 1.666666666666665e-01
1.666666666666667e-01 3.333333333333333e-01 1.666666666666665e-01
1.666666666666667e-01 3.333333333333333e-01 1.666666666666665e-01
1.666666666666667e-01 3.333333333333333e-01 1.666666666666665e-01
1.666666666666667e-01 3.333333333333333e-01 1.666666666666665e-01
1.666666666666667e-01 3.333333333333333e-01 1.666666666666665e-01
1.666666666666667e-01 3.333333333333333e-01 1.666666666666665e-01
1.666666666666667e-01 3.333333333333333e-01 1.666666666666665e-01
1.666666666666667e-01 3.333333333333333e-01 1.666666666666665e-01
1.666666666666667e-01 3.333333333333333e-01 1.666666666666665e-01
1.666666666666667e-01 3.333333333333333e-01 1.666666666666665e-01
1.666666666666667e-01 3.333333333333333e-01 1.666666666666665e-01
1.666666666666667e-01 3.333333333333333e-01 1.666666666666665e-01
1.666666666666667e-01 3.333333333333333e-01 1.666666666666665e-01
1.666666666666667e-01 3.333333333333333e-01 1.666666666666665e-01
1.666666666666667e-01 3.333333333333333e-01 1.666666666666665e-01
1.666666666666667e-01 3.333333333333333e-01 1.666666666666665e-01
1.666666666666667e-01 3.333333333333333e-01 1.666666666666665e-01
1.666666666666667e-01 3.333333333333333e-01 1.666666666666665e-01
1.666666666666667e-01 3.333333333333333e-01 1.666666666666665e-01
1.666666666666667e-01 3.333333333333333e-01 1.666666666666665e-01
1.666666666666667e-01 3.333333333333333e-01 1.666666666666665e-01
1.666666666666667e-01 3.333333333333333e-01 1.666666666666665e-01
1.666666666666667e-01 3.333333333333333e-01 1.666666666666665e-01
1.666666666666667e-01 3.333333333333333e-01 1.666666666666665e-01
1.666666666666667e-01 3.333333333333333e-01 1.666666666666665e-01
1.666666666666667e-01 3.333333333333333e-01 1.666666666666665e-01
1.666666666666667e-01 3.333333333333333e-01 1.666666666666665e-01
1.666666666666667e-01 3.333333333333333e-01 1.666666666666665e-01
1.666666666666667e-01 3.333333333333333e-01 1.666666666666665e-01
1.666666666666667e-01 3.333333333333333e-01 1.666666666666665e-01
1.666666666666667e-01 3.333333333333333e-01 1.666666666666665e-01
1.666666666666667e-01 3.333333333333333e-01 1.666666666666665e-01
1.666666666666667e-01 3.333333333333333e-01 1.666666666666665e-01
1.666666666666667e-01 3.333333333333333e-01 1.666666666666665e-01
1.666666666666667e-01 3.333333333333333e-01 1.666666666666665e-01
1.666666666666667e-01 3.333333333333333e-01 1.666666666666665e-01
1.666666666666667e-01 3.333333333333333e-01 1.666666666666665e-01
1.666666666666667e-01 3.333333333333333e-01 1.666666666666665e-01
1.666666666666667e-01 3.333333333333333e-01 1.666666666666665e-01
1.666666666666667e-01 3.333333333333333e-01 1.666666666666665e-01
1.666666666666667e-01 3.333333333333333e-01 1.666666666666665e-01
1.666666666666667e-01 3.333333333333333e-01 1.666666666666665e-01
1.666666666666667e-01 3.333333333333333e-01 1.666666666666665e-01
1.666666666666667e-01 3.333333333333333e-01 1.666666666666665e-01
1.666666666666667e-01 3.333333333333333e-01 1.666666666666665e-01
1.666666666666667e-01 3.333333333333333e-01 1.666666666666665e-01
1.666666666666667e-01 3.333333333333333e-01 1.666666666666665e-01
1.666666666666667e-01 3.333333333333333e-01 1.666666666666665e-01
1.666666666666667e-01 3.333333333333333e-01 1.666666666666665e-01
1.666666666666667e-01 3.333333333333333e-01 1.666666666666665e-01
1.666666666666667e-01 3.333333333333333e-01 1.666666666666665e-01
1.666666666666667e-01 3.333333333333333e-01 1.666666666666665e-01
1.666666666666667e-01 3.333333333333333e-01 1.666666666666665e-01
1.666666666666667e-01 3.333333333333333e-01 1.666666666666665e-01
1.666666666666667e-01 3.333333333333333e-01 1.666666666666665e-01
1.666666666666667e-01 3.333333333333333e-01 1.666666666666665e-01
1.666666666666667e-01 3.333333333333333e-01 1.666666666666665e-01
1.666666666666667e-01 3.333333333333333e-01 1.666666666666665e-01
1.666666666666667e-01 3.333333333333333e-01 1.666666666666665e-01
1.666666666666667e-01 3.333333333333333e-01 1.666666666666665e-01
1.666666666666667e-01 3.333333333333333e-01 1.666666666666665e-01
1.666666666666667e-01 3.333333333333333e-01 1.666666666666665e-01
1.666666666666667e-01 3.333333333333333e-01 1.666666666666665e-01
1.666666666666667e-01 3.333333333333333e-01 1.666666666666665e-01
1.666666666666667e-01 3.333333333333333e-01 1.666666666666665e-01
1.666666666666667e-01 3.333333333333333e-01 1.666666666666665e-01
1.666666666666667e-01 3.333333333333333e-01 1.666666666666665e-01
1.666666666666667e-01 3.333333333333333e-01 1.666666666666665e-01
1.666666666666667e-01 3.333333333333333e-01 1.666666666666665e-01
1.666666666666667e-01 3.333333333333333e-01 1.666666666666665e-01
1.666666666666667e-01 3.333333333333333e-01 1.666666666666665e-01
1.666666666666667e-01 3.333333333333333e-01 1.666666666666665e-01
1.666666666666667e-01 3.333333333333333e-01 1.666666666666665e-01
1.666666666666667e-01 3.333333333333333e-01 1.666666666666665e-01
1.666666666666667e-01 3.333333333333333e-01 1.666666666666665e-01
1.666666666666667e-01 3.333333333333333e-01 1.666666666666665e-01
1.666666666666667e-01 3.333333333333333e-01 1.666666666666665e-01
1.666666666666667e-01 3.333333333333333e-01 1.666666666666665e-01
1.666666666666667e-01 3.333333333333333e-01 1.666666666666665e-01
1.666666666666667e-01 3.333333333333333e-01 1.666666666666665e-01
1.666666666666667e-01 3.333333333333333e-01 1.666666666666665e-01
1.666666666666667e-01 3.333333333333333e-01 1.666666666666665e-01
1.666666666666667e-01 3.333333333333333e-01 1.666666666666665e-01
1.666666666666667e-01 3.333333333333333e-01 1.666666666666665e-01
1.666666666666667e-01 3.333333333333333e-01 1.666666666666665e-01
1.666666666666667e-01 3.333333333333333e-01 1.666666666666665e-01
1.666666666666667e-01 3.333333333333333e-01 1.666666666666665e-01
1.666666666666667e-01 3.333333333333333e-01 1.666666666666665e-01
1.666666666666667e-01 3.333333333333333e-01 1.666666666666665e-01
1.666666666666667e-01 3.333333333333333e-01 1.666666666666665e-01
1.666666666666667e-01 3.333333333333333e-01 1.666666666666665e-01
1.666666666666667e-01 3.333333333333333e-01 1.666666666666665e-01
1.666666666666667e-01 3.333333333333333e-01 1.666666666666665e-01
1.666666666666667e-01 3.333333333333333e-01 1.666666666666665e-01
1.666666666666667e-01 3.333333333333333e-01 1.666666666666665e-01
1.666666666666667e-01 3.333333333333333e-01 1.666666666666665e-01
1.666666666666667e-01 3.333333333333333e-01 1.666666666666665e-01
1.666666666666667e-01 3.333333333333333e-01 1.666666666666665e-01
1.666666666666667e-01 3.333333333333333e-01 1.666666666666665e-01
1.666666666666667e-01 3.333333333333333e-01 1.666666666666665e-01
1.666666666666667e-01 3.333333333333333e-01 1.666666666666665e-01
1.666666666666667e-01 3.333333333333333e-01 1.666666666666665e-01
1.666666666666667e-01 3.333333333333333e-01 1.666666666666665e-01
1.666666666666667e-01 3.333333333333333e-01 1.666666666666665e-01
1.666666666666667e-01 3.333333333333333e-01 1.666666666666665e-01
1.666666666666667e-01 3.333333333333333e-01 1.666666666666665e-01
1.666666666666667e-01 3.333333333333333e-01 1.666666666666665e-01
1.666666666666667e-01 3.333333333333333e-01 1.666666666666665e-01
1.666666666666667e-01 3.333333333333333e-01 1.666666666666665e-01
1.666666666666667e-01 3.333333333333333e-01 1.666666666666665e-01
1.666666666666667e-01 3.333333333333333e-01 1.666666666666665e-01
1.666666666666667e-01 3.333333333333333e-01 1.666666666666665e-01
1.666666666666667e-01 3.333333333333333e-01 1.666666666666665e-01
1.666666666666667e-01 3.333333333333333e-01 1.666666666666665e-01
1.666666666666667e-01 3.333333333333333e-01 1.666666666666665e-01
1.666666666666667e-01 3.333333333333333e-01 1.666666666666665e-01
1.666666666666667e-01 3.333333333333333e-01 1.666666666666665e-01
1.666666666666667e-01 3.333333333333333e-01 1.666666666666665e-01
1.666666666666667e-01 3.333333333333333e-01 1.666666666666665e-01
1.666666666666667e-01 3.333333333333333e-01 1.666666666666665e-01
1.666666666666667e-01 3.333333333333333e-01 1.666666666666665e-01
1.666666666666667e-01 3.333333333333333e-01 1.666666666666665e-01
1.666666666666667e-01 3.333333333333333e-01 1.666666666666665e-01
1.666666666666667e-01 3.333333333333333e-01 1.666666666666665e-01
1.666666666666667e-01 3.333333333333333e-01 1.666666666666665e-01
1.666666666666667e-01 3.333333333333333e-01 1.666666666666665e-01
1.666666666666667e-01 3.333333333333333e-01 1.666666666666665e-01
1.666666666666667e-01 3.333333333333333e-01 1.666666666666665e-01
1.666666666666667e-01 3.333333333333333e-01 1.666666666666665e-01
1.666666666666667e-01 3.333333333333333e-01 1.666666666666665e-01
1.666666666666667e-01 3.333333333333333e-01 1.666666666666665e-01
1.666666666666667e-01 3.333333333333333e-01 1.666666666666665e-01
1.666666666666667e-01 3.333333333333333e-01 1.666666666666665e-01
1.666666666666667e-01 3.333333333333333e-01 1.666666666666665e-01
1.666666666666667e-01 3.333333333333333e-01 1.666666666666665e-01
1.666666666666667e-01 3.333333333333333e-01 1.666666666666665e-01
1.666666666666667e-01 3.333333333333333e-01 1.666666666666665e-01
1.666666666666667e-01 3.333333333333333e-01 1.666666666666665e-01
1.666666666666667e-01 3.333333333333333e-01 1.666666666666665e-01
1.666666666666667e-01 3.333333333333333e-01 1.666666666666665e-01
1.666666666666667e-01 3.333333333333333e-01 1.666666666666665e-01
1.666666666666667e-01 3.333333333333333e-01 1.666666666666665e-01
1.666666666666667e-01 3.333333333333333e-01 1.666666666666665e-01
1.666666666666667e-01 3.333333333333333e-01 1.666666666666665e-01
1.666666666666667e-01 3.333333333333333e-01 1.666666666666665e-01
1.666666666666667e-01 3.333333333333333e-01 1.666666666666665e-01
1.666666666666667e-01 3.333333333333333e-01 1.666666666666665e-01
1.666666666666667e-01 3.333333333333333e-01 1.666666666666665e-01
1.666666666666667e-01 3.333333333333333e-01 1.666666666666665e-01
1.666666666666667e-01 3.333333333333333e-01 1.666666666666665e-01
1.666666666666667e-01 3.333333333333333e-01 1.666666666666665e-01
1.666666666666667e-01 3.333333333333333e-01 1.666666666666665e-01
1.666666666666667e-01 3.333333333333333e-01 1.666666666666665e-01
1.666666666666667e-01 3.333333333333333e-01 1.666666666666665e-01
1.666666666666667e-01 3.333333333333333e-01 1.666666666666665e-01
-1.666666666666667e-01 -3.333333333333333e-01 -1.666666666666665e-01
1.666666666666667e-01 3.333333333333333e-01 1.666666666666665e-01
1.666666666666667e-01 3.333333333333333e-01 1.666666666666665e-01
1.666666666666667e-01 3.333333333333333e-01 1.666666666666665e-01
1.666666666666667e-01 3.333333333333333e-01 1.666666666666665e-01
1.666666666666667e-01 3.333333333333333e-01 1.666666666666665e-01
1.666666666666667e-01 3.333333333333333e-01 1.666666666666665e-01
1.666666666666667e-01 3.333333333333333e-01 1.666666666666665e-01
1.666666666666667e-01 3.333333333333333e-01 1.666666666666665e-01
1.666666666666667e-01 3.333333333333333e-01 1.666666666666665e-01
1.666666666666667e-01 3.333333333333333e-01 1.666666666666665e-01
1.666666666666667e-01 3.333333333333333e-01 1.666666666666665e-01
1.666666666666667e-01 3.333333333333333e-01 1.666666666666665e-01
1.666666666666667e-01 3.333333333333333e-01 1.666666666666665e-01
1.666666666666667e-01 3.333333333333333e-01 1.666666666666665e-01
1.666666666666667e-01 3.333333333333333e-01 1.666666666666665e-01
1.666666666666667e-01 3.333333333333333e-01 1.666666666666665e-01
1.666666666666667e-01 3.333333333333333e-01 1.666666666666665e-01
1.666666666666667e-01 3.333333333333333e-01 1.666666666666665e-01
1.666666666666667e-01 3.333333333333333e-01 1.666666666666665e-01
1.666666666666667e-01 3.333333333333333e-01 1.666666666666665e-01
1.666666666666667e-01 3.333333333333333e-01 1.666666666666665e-01
1.666666666666667e-01 3.333333333333333e-01 1.666666666666665e-01
1.666666666666667e-01 3.333333333333333e-01 1.666666666666665e-01
1.666666666666667e-01 3.333333333333333e-01 1.666666666666665e-01
1.666666666666667e-01 3.333333333333333e-01 1.666666666666665e-01
1.666666666666667e-01 3.333333333333333e-01 1.666666666666665e-01
1.666666666666667e-01 3.333333333333333e-01 1.666666666666665e-01
1.666666666666667e-01 3.333333333333333e-01 1.666666666666665e-01
1.666666666666667e-01 3.333333333333333e-01 1.666666666666665e-01
1.666666666666667e-01 3.333333333333333e-01 1.666666666666665e-01
1.666666666666667e-01 3.333333333333333e-01 1.666666666666665e-01
1.666666666666667e-01 3.333333333333333e-01 1.666666666666665e-01
1.666666666666667e-01 3.333333333333333e-01 1.666666666666665e-01
1.666666666666667e-01 3.333333333333333e-01 1.666666666666665e-01
1.666666666666667e-01 3.333333333333333e-01 1.666666666666665e-01
1.666666666666667e-01 3.333333333333333e-01 1.666666666666665e-01
1.666666666666667e-01 3.333333333333333e-01 1.666666666666665e-01
1.666666666666667e-01 3.333333333333333e-01 1.666666666666665e-01
1.666666666666667e-01 3.333333333333333e-01 1.666666666666665e-01
1.666666666666667e-01 3.333333333333333e-01 1.666666666666665e-01
1.666666666666667e-01 3.333333333333333e-01 1.666666666666665e-01
1.666666666666667e-01 3.333333333333333e-01 1.666666666666665e-01
1.666666666666667e-01 3.333333333333333e-01 1.666666666666665e-01
1.666666666666667e-01 3.333333333333333e-01 1.666666666666665e-01
1.666666666666667e-01 3.333333333333333e-01 1.666666666666665e-01
1.666666666666667e-01 3.333333333333333e-01 1.666666666666665e-01
1.666666666666667e-01 3.333333333333333e-01 1.666666666666665e-01
1.666666666666667e-01 3.333333333333333e-01 1.666666666666665e-01
1.666666666666667e-01 3.333333333333333e-01 1.666666666666665e-01
1.666666666666667e-01 3.333333333333333e-01 1.666666666666665e-01
1.666666666666667e-01 3.333333333333333e-01 1.666666666666665e-01
1.666666666666667e-01 3.333333333333333e-01 1.666666666666665e-01
1.666666666666667e-01 3.333333333333333e-01 1.666666666666665e-01
1.666666666666667e-01 3.333333333333333e-01 1.666666666666665e-01
1.666666666666667e-01 3.333333333333333e-01 1.666666666666665e-01
1.666666666666667e-01 3.333333333333333e-01 1.666666666666665e-01
1.666666666666667e-01 3.333333333333333e-01 1.666666666666665e-01
1.666666666666667e-01 3.333333333333333e-01 1.666666666666665e-01
1.666666666666667e-01 3.333333333333333e-01 1.666666666666665e-01
1.666666666666667e-01 3.333333333333333e-01 1.666666666666665e-01
1.666666666666667e-01 3.333333333333333e-01 1.666666666666665e-01
1.666666666666667e-01 3.333333333333333e-01 1.666666666666665e-01
1.666666666666667e-01 3.333333333333333e-01 1.666666666666665e-01
1.666666666666667e-01 3.333333333333333e-01 1.666666666666665e-01
1.666666666666667e-01 3.333333333333333e-01 1.666666666666665e-01
1.666666666666667e-01 3.333333333333333e-01 1.666666666666665e-01
1.666666666666667e-01 3.333333333333333e-01 1.666666666666665e-01
1.666666666666667e-01 3.333333333333333e-01 1.666666666666665e-01
1.666666666666667e-01 3.333333333333333e-01 1.666666666666665e-01
1.666666666666667e-01 3.333333333333333e-01 1.666666666666665e-01
1.666666666666667e-01 3.333333333333333e-01 1.666666666666665e-01
1.666666666666667e-01 3.333333333333333e-01 1.666666666666665e-01
1.666666666666667e-01 3.333333333333333e-01 1.666666666666665e-01
1.666666666666667e-01 3.333333333333333e-01 1.666666666666665e-01
1.666666666666667e-01 3.333333333333333e-01 1.666666666666665e-01
1.666666666666667e-01 3.333333333333333e-01 1.666666666666665e-01
1.666666666666667e-01 3.333333333333333e-01 1.666666666666665e-01
1.666666666666667e-01 3.333333333333333e-01 1.666666666666665e-01
1.666666666666667e-01 3.333333333333333e-01 1.666666666666665e-01
1.666666666666667e-01 3.333333333333333e-01 1.666666666666665e-01
1.666666666666667e-01 3.333333333333333e-01 1.666666666666665e-01
1.666666666666667e-01 3.333333333333333e-01 1.666666666666665e-01
1.666666666666667e-01 3.333333333333333e-01 1.666666666666665e-01
1.666666666666667e-01 3.333333333333333e-01 1.666666666666665e-01
1.666666666666667e-01 3.333333333333333e-01 1.666666666666665e-01
1.666666666666667e-01 3.333333333333333e-01 1.666666666666665e-01
1.666666666666667e-01 3.333333333333333e-01 1.666666666666665e-01
1.666666666666667e-01 3.333333333333333e-01 1.666666666666665e-01
1.666666666666667e-01 3.333333333333333e-01 1.666666666666665e-01
1.666666666666667e-01 3.333333333333333e-01 1.666666666666665e-01
1.666666666666667e-01 3.333333333333333e-01 1.666666666666665e-01
1.666666666666667e-01 3.333333333333333e-01 1.666666666666665e-01
1.666666666666667e-01 3.333333333333333e-01 1.666666666666665e-01
1.666666666666667e-01 3.333333333333333e-01 1.666666666666665e-01
1.666666666666667e-01 3.333333333333333e-01 1.666666666666665e-01
1.666666666666667e-01 3.333333333333333e-01 1.666666666666665e-01
1.666666666666667e-01 3.333333333333333e-01 1.666666666666665e-01
1.666666666666667e-01 3.333333333333333e-01 1.666666666666665e-01
1.666666666666667e-01 3.333333333333333e-01 1.666666666666665e-01
1.666666666666667e-01 3.333333333333333e-01 1.666666666666665e-01
1.666666666666667e-01 3.333333333333333e-01 1.666666666666665e-01
1.666666666666667e-01 3.333333333333333e-01 1.666666666666665e-01
1.666666666666667e-01 3.333333333333333e-01 1.666666666666665e-01
1.666666666666667e-01 3.333333333333333e-01 1.666666666666665e-01
1.666666666666667e-01 3.333333333333333e-01 1.666666666666665e-01
1.666666666666667e-01 3.333333333333333e-01 1.666666666666665e-01
1.666666666666667e-01 3.333333333333333e-01 1.666666666666665e-01
1.666666666666667e-01 3.333333333333333e-01 1.666666666666665e-01
1.666666666666667e-01 3.333333333333333e-01 1.666666666666665e-01
1.666666666666667e-01 3.333333333333333e-01 1.666666666666665e-01
1.666666666666667e-01 3.333333333333333e-01 1.666666666666665e-01
1.666666666666667e-01 3.333333333333333e-01 1.666666666666665e-01
1.666666666666667e-01 3.333333333333333e-01 1.666666666666665e-01
1.666666666666667e-01 3.333333333333333e-01 1.666666666666665e-01
1.666666666666667e-01 3.333333333333333e-01 1.666666666666665e-01
1.666666666666667e-01 3.333333333333333e-01 1.666666666666665e-01
1.666666666666667e-01 3.333333333333333e-01 1.666666666666665e-01
1.666666666666667e-01 3.333333333333333e-01 1.666666666666665e-01
1.666666666666667e-01 3.333333333333333e-01 1.666666666666665e-01
1.666666666666667e-01 3.333333333333333e-01 1.666666666666665e-01
1.666666666666667e-01 3.333333333333333e-01 1.666666666666665e-01
1.666666666666667e-01 3.333333333333333e-01 1.666666666666665e-01
1.666666666666667e-01 3.333333333333333e-01 1.666666666666665e-01
1.666666666666667e-01 3.333333333333333e-01 1.666666666666665e-01
1.666666666666667e-01 3.333333333333333e-01 1.666666666666665e-01
1.666666666666667e-01 3.333333333333333e-01 1.666666666666665e-01
1.666666666666667e-01 3.333333333333333e-01 1.666666666666665e-01
1.666666666666667e-01 3.333333333333333e-01 1.666666666666665e-01
1.666666666666667e-01 3.333333333333333e-01 1.666666666666665e-01
1.666666666666667e-01 3.333333333333333e-01 1.666666666666665e-01
1.666666666666667e-01 3.333333333333333e-01 1.666666666666665e-01
1.666666666666667e-01 3.333333333333333e-01 1.666666666666665e-01
1.666666666666667e-01 3.333333333333333e-01 1.666666666666665e-01
1.666666666666667e-01 3.333333333333333e-01 1.666666666666665e-01
1.666666666666667e-01 3.333333333333333e-01 1.666666666666665e-01
1.666666666666667e-01 3.333333333333333e-01 1.666666666666665e-01
1.666666666666667e-01 3.333333333333333e-01 1.666666666666665e-01
1.666666666666667e-01 3.333333333333333e-01 1.666666666666665e-01
1.666666666666667e-01 3.333333333333333e-01 1.666666666666665e-01
1.666666666666667e-01 3.333333333333333e-01 1.666666666666665e-01
1.666666666666667e-01 3.333333333333333e-01 1.666666666666665e-01
1.666666666666667e-01 3.333333333333333e-01 1.666666666666665e-01
1.666666666666667e-01 3.333333333333333e-01 1.666666666666665e-01
1.666666666666667e-01 3.333333333333333e-01 1.666666666666665e-01
1.666666666666667e-01 3.333333333333333e-01 1.666666666666665e-01
1.666666666666667e-01 3.333333333333333e-01 1.666666666666665e-01
1.666666666666667e-01 3.333333333333333e-01 1.666666666666665e-01
1.666666666666667e-01 3.333333333333333e-01 1.666666666666665e-01
1.666666666666667e-01 3.333333333333333e-01 1.666666666666665e-01
1.666666666666667e-01 3.333333333333333e-01 1.666666666666665e-01
1.666666666666667e-01 3.333333333333333e-01 1.666666666666665e-01
1.666666666666667e-01 3.333333333333333e-01 1.666666666666665e-01
1.666666666666667e-01 3.333333333333333e-01 1.666666666666665e-01
1.666666666666667e-01 3.333333333333333e-01 1.666666666666665e-01
1.666666666666667e-01 3.333333333333333e-01 1.666666666666665e-01
1.666666666666667e-01 3.333333333333333e-01 1.666666666666665e-01
1.666666666666667e-01 3.333333333333333e-01 1.666666666666665e-01
1.666666666666667e-01 3.333333333333333e-01 1.666666666666665e-01
1.666666666666667e-01 3.333333333333333e-01 1.666666666666665e-01
1.666666666666667e-01 3.333333333333333e-01 1.666666666666665e-01
 1.666666666666667e-01 -1.666666666666665e-01 -3.333333333333333e-01
-1.666666666666667e-01  1.666666666666665e-01  3.333333333333333e-01
 1.666666666666667e-01 -1.666666666666665e-01 -3.333333333333333e-01
 1.666666666666667e-01 -1.666666666666665e-01 -3.333333333333333e-01
 1.666666666666667e-01 -1.666666666666665e-01 -3.333333333333333e-01
 1.666666666666667e-01 -1.666666666666665e-01 -3.333333333333333e-01
 1.666666666666667e-01 -1.666666666666665e-01 -3.333333333333333e-01
 1.666666666666667e-01 -1.666666666666665e-01 -3.333333333333333e-01
 1.666666666666667e-01 -1.666666666666665e-01 -3.333333333333333e-01
 1.666666666666667e-01 -1.666666666666665e-01 -3.333333333333333e-01
 1.666666666666667e-01 -1.666666666666665e-01 -3.333333333333333e-01
 1.666666666666667e-01 -1.666666666666665e-01 -3.333333333333333e-01
 1.666666666666667e-01 -1.666666666666665e-01 -3.333333333333333e-01
 1.666666666666667e-01 -1.666666666666665e-01 -3.333333333333333e-01
 1.666666666666667e-01 -1.666666666666665e-01 -3.333333333333333e-01
 1.666666666666667e-01 -1.666666666666665e-01 -3.333333333333333e-01
 1.666666666666667e-01 -1.666666666666665e-01 -3.333333333333333e-01
 1.666666666666667e-01 -1.666666666666665e-01 -3.333333333333333e-01
 1.666666666666667e-01 -1.666666666666665e-01 -3.333333333333333e-01
 1.666666666666667e-01 -1.666666666666665e-01 -3.333333333333333e-01
 1.666666666666667e-01 -1.666666666666665e-01 -3.333333333333333e-01
 1.666666666666667e-01 -1.666666666666665e-01 -3.333333333333333e-01
 1.666666666666667e-01 -1.666666666666665e-01 -3.333333333333333e-01
 1.666666666666667e-01 -1.666666666666665e-01 -3.333333333333333e-01
 1.666666666666667e-01 -1.666666666666665e-01 -3.333333333333333e-01
 1.666666666666667e-01 -1.666666666666665e-01 -3.333333333333333e-01
 1.666666666666667e-01 -1.666666666666665e-01 -3.333333333333333e-01
 1.666666666666667e-01 -1.666666666666665e-01 -3.333333333333333e-01
 1.666666666666667e-01 -1.666666666666665e-01 -3.333333333333333e-01
 1.666666666666667e-01 -1.666666666666665e-01 -3.333333333333333e-01
 1.666666666666667e-01 -1.666666666666665e-01 -3.333333333333333e-01
 1.666666666666667e-01 -1.666666666666665e-01 -3.333333333333333e-01
 1.666666666666667e-01 -1.666666666666665e-01 -3.333333333333333e-01
 1.666666666666667e-01 -1.666666666666665e-01 -3.333333333333333e-01
 1.666666666666667e-01 -1.666666666666665e-01 -3.333333333333333e-01
 1.666666666666667e-01 -1.666666666666665e-01 -3.333333333333333e-01
 1.666666666666667e-01 -1.666666666666665e-01 -3.333333333333333e-01
 1.666666666666667e-01 -1.666666666666665e-01 -3.333333333333333e-01
 1.666666666666667e-01 -1.666666666666665e-01 -3.333333333333333e-01
 1.666666666666667e-01 -1.666666666666665e-01 -3.333333333333333e-01
 1.666666666666667e-01 -1.666666666666665e-01 -3.333333333333333e-01
 1.666666666666667e-01 -1.666666666666665e-01 -3.333333333333333e-01
 1.666666666666667e-01 -1.666666666666665e-01 -3.333333333333333e-01
 1.666666666666667e-01 -1.666666666666665e-01 -3.333333333333333e-01
 1.666666666666667e-01 -1.666666666666665e-01 -3.333333333333333e-01
 1.666666666666667e-01 -1.666666666666665e-01 -3.333333333333333e-01
 1.666666666666667e-01 -1.666666666666665e-01 -3.333333333333333e-01
 1.666666666666667e-01 -1.666666666666665e-01 -3.333333333333333e-01
 1.666666666666667e-01 -1.666666666666665e-01 -3.333333333333333e-01
 1.666666666666667e-01 -1.666666666666665e-01 -3.333333333333333e-01
 1.666666666666667e-01 -1.666666666666665e-01 -3.333333333333333e-01
 1.666666666666667e-01 -1.666666666666665e-01 -3.333333333333333e-01
 1.666666666666667e-01 -1.666666666666665e-01 -3.333333333333333e-01
 1.666666666666667e-01 -1.666666666666665e-01 -3.333333333333333e-01
 1.666666666666667e-01 -1.666666666666665e-01 -3.333333333333333e-01
 1.666666666666667e-01 -1.666666666666665e-01 -3.333333333333333e-01
 1.666666666666667e-01 -1.666666666666665e-01 -3.333333333333333e-01
 1.666666666666667e-01 -1.666666666666665e-01 -3.333333333333333e-01
 1.666666666666667e-01 -1.666666666666665e-01 -3.333333333333333e-01
 1.666666666666667e-01 -1.666666666666665e-01 -3.333333333333333e-01
 1.666666666666667e-01 -1.666666666666665e-01 -3.333333333333333e-01
 1.666666666666667e-01 -1.666666666666665e-01 -3.333333333333333e-01
 1.666666666666667e-01 -1.666666666666665e-01 -3.333333333333333e-01
 1.666666666666667e-01 -1.666666666666665e-01 -3.333333333333333e-01
 1.666666666666667e-01 -1.666666666666665e-01 -3.333333333333333e-01
 1.666666666666667e-01 -1.666666666666665e-01 -3.333333333333333e-01
 1.666666666666667e-01 -1.666666666666665e-01 -3.333333333333333e-01
 1.666666666666667e-01 -1.666666666666665e-01 -3.333333333333333e-01
 1.666666666666667e-01 -1.666666666666665e-01 -3.333333333333333e-01
 1.666666666666667e-01 -1.666666666666665e-01 -3.333333333333333e-01
 1.666666666666667e-01 -1.666666666666665e-01 -3.333333333333333e-01
 1.666666666666667e-01 -1.666666666666665e-01 -3.333333333333333e-01
 1.666666666666667e-01 -1.666666666666665e-01 -3.333333333333333e-01
 1.666666666666667e-01 -1.666666666666665e-01 -3.333333333333333e-01
 1.666666666666667e-01 -1.666666666666665e-01 -3.333333333333333e-01
 1.666666666666667e-01 -1.666666666666665e-01 -3.333333333333333e-01
 1.666666666666667e-01 -1.666666666666665e-01 -3.333333333333333e-01
 1.666666666666667e-01 -1.666666666666665e-01 -3.333333333333333e-01
 1.666666666666667e-01 -1.666666666666665e-01 -3.333333333333333e-01
 1.666666666666667e-01 -1.666666666666665e-01 -3.333333333333333e-01
 1.666666666666667e-01 -1.666666666666665e-01 -3.333333333333333e-01
 1.666666666666667e-01 -1.666666666666665e-01 -3.333333333333333e-01
 1.666666666666667e-01 -1.666666666666665e-01 -3.333333333333333e-01
 1.666666666666667e-01 -1.666666666666665e-01 -3.333333333333333e-01
 1.666666666666667e-01 -1.666666666666665e-01 -3.333333333333333e-01
 1.666666666666667e-01 -1.666666666666665e-01 -3.333333333333333e-01
 1.666666666666667e-01 -1.666666666666665e-01 -3.333333333333333e-01
 1.666666666666667e-01 -1.666666666666665e-01 -3.333333333333333e-01
 1.666666666666667e-01 -1.666666666666665e-01 -3.333333333333333e-01
 1.666666666666667e-01 -1.666666666666665e-01 -3.333333333333333e-01
 1.666666666666667e-01 -1.666666666666665e-01 -3.333333333333333e-01
 1.666666666666667e-01 -1.666666666666665e-01 -3.333333333333333e-01
 1.666666666666667e-01 -1.666666666666665e-01 -3.333333333333333e-01
 1.666666666666667e-01 -1.666666666666665e-01 -3.333333333333333e-01
 1.666666666666667e-01 -1.666666666666665e-01 -3.333333333333333e-01
 1.666666666666667e-01 -1.666666666666665e-01 -3.333333333333333e-01
 1.666666666666667e-01 -1.666666666666665e-01 -3.333333333333333e-01
 1.666666666666667e-01 -1.666666666666665e-01 -3.333333333333333e-01
 1.666666666666667e-01 -1.666666666666665e-01 -3.333333333333333e-01
 1.666666666666667e-01 -1.666666666666665e-01 -3.333333333333333e-01
 1.666666666666667e-01 -1.666666666666665e-01 -3.333333333333333e-01
 1.666666666666667e-01 -1.666666666666665e-01 -3.333333333333333e-01
 1.666666666666667e-01 -1.666666666666665e-01 -3.333333333333333e-01
 1.666666666666667e-01 -1.666666666666665e-01 -3.333333333333333e-01
 1.666666666666667e-01 -1.666666666666665e-01 -3.333333333333333e-01
 1.666666666666667e-01 -1.666666666666665e-01 -3.333333333333333e-01
 1.666666666666667e-01 -1.666666666666665e-01 -3.333333333333333e-01
 1.666666666666667e-01 -1.666666666666665e-01 -3.333333333333333e-01
 1.666666666666667e-01 -1.666666666666665e-01 -3.333333333333333e-01
 1.666666666666667e-01 -1.666666666666665e-01 -3.333333333333333e-01
 1.666666666666667e-01 -1.666666666666665e-01 -3.333333333333333e-01
 1.666666666666667e-01 -1.666666666666665e-01 -3.333333333333333e-01
 1.666666666666667e-01 -1.666666666666665e-01 -3.333333333333333e-01
 1.666666666666667e-01 -1.666666666666665e-01 -3.333333333333333e-01
 1.666666666666667e-01 -1.666666666666665e-01 -3.333333333333333e-01
 1.666666666666667e-01 -1.666666666666665e-01 -3.333333333333333e-01
 1.666666666666667e-01 -1.666666666666665e-01 -3.333333333333333e-01
 1.666666666666667e-01 -1.666666666666665e-01 -3.333333333333333e-01
 1.666666666666667e-01 -1.666666666666665e-01 -3.333333333333333e-01
 1.666666666666667e-01 -1.666666666666665e-01 -3.333333333333333e-01
 1.666666666666667e-01 -1.666666666666665e-01 -3.333333333333333e-01
 1.666666666666667e-01 -1.666666666666665e-01 -3.333333333333333e-01
 1.666666666666667e-01 -1.666666666666665e-01 -3.333333333333333e-01
 1.666666666666667e-01 -1.666666666666665e-01 -3.333333333333333e-01
 1.666666666666667e-01 -1.666666666666665e-01 -3.333333333333333e-01
 1.666666666666667e-01 -1.666666666666665e-01 -3.333333333333333e-01
 1.666666666666667e-01 -1.666666666666665e-01 -3.333333333333333e-01
 1.666666666666667e-01 -1.666666666666665e-01 -3.333333333333333e-01
 1.666666666666667e-01 -1.666666666666665e-01 -3.333333333333333e-01
 1.666666666666667e-01 -1.666666666666665e-01 -3.333333333333333e-01
 1.666666666666667e-01 -1.666666666666665e-01 -3.333333333333333e-01
 1.666666666666667e-01 -1.666666666666665e-01 -3.333333333333333e-01
 1.666666666666667e-01 -1.666666666666665e-01 -3.333333333333333e-01
 1.666666666666667e-01 -1.666666666666665e-01 -3.333333333333333e-01
 1.666666666666667e-01 -1.666666666666665e-01 -3.333333333333333e-01
 1.666666666666667e-01 -1.666666666666665e-01 -3.333333333333333e-01
 1.666666666666667e-01 -1.666666666666665e-01 -3.333333333333333e-01
 1.666666666666667e-01 -1.666666666666665e-01 -3.333333333333333e-01
 1.666666666666667e-01 -1.666666666666665e-01 -3.333333333333333e-01
 1.666666666666667e-01 -1.666666666666665e-01 -3.333333333333333e-01
 1.666666666666667e-01 -1.666666666666665e-01 -3.333333333333333e-01
 1.666666666666667e-01 -1.666666666666665e-01 -3.333333333333333e-01
 1.666666666666667e-01 -1.666666666666665e-01 -3.333333333333333e-01
 1.666666666666667e-01 -1.666666666666665e-01 -3.333333333333333e-01
 1.666666666666667e-01 -1.666666666666665e-01 -3.333333333333333e-01
 1.666666666666667e-01 -1.666666666666665e-01 -3.333333333333333e-01
 1.666666666666667e-01 -1.666666666666665e-01 -3.333333333333333e-01
 1.666666666666667e-01 -1.666666666666665e-01 -3.333333333333333e-01
 1.666666666666667e-01 -1.666666666666665e-01 -3.333333333333333e-01
 1.666666666666667e-01 -1.666666666666665e-01 -3.333333333333333e-01
 1.666666666666667e-01 -1.666666666666665e-01 -3.333333333333333e-01
 1.666666666666667e-01 -1.666666666666665e-01 -3.333333333333333e-01
 1.666666666666667e-01 -1.666666666666665e-01 -3.333333333333333e-01
 1.666666666666667e-01 -1.666666666666665e-01 -3.333333333333333e-01
 1.666666666666667e-01 -1.666666666666665e-01 -3.333333333333333e-01
 1.666666666666667e-01 -1.666666666666665e-01 -3.333333333333333e-01
 1.666666666666667e-01 -1.666666666666665e-01 -3.333333333333333e-01
 1.666666666666667e-01 -1.666666666666665e-01 -3.333333333333333e-01
 1.666666666666667e-01 -1.666666666666665e-01 -3.333333333333333e-01
 1.666666666666667e-01 -1.666666666666665e-01 -3.333333333333333e-01
 1.666666666666667e-01 -1.666666666666665e-01 -3.333333333333333e-01
 1.666666666666667e-01 -1.666666666666665e-01 -3.333333333333333e-01
 1.666666666666667e-01 -1.666666666666665e-01 -3.333333333333333e-01
 1.666666666666667e-01 -1.666666666666665e-01 -3.333333333333333e-01
 1.666666666666667e-01 -1.666666666666665e-01 -3.333333333333333e-01
 1.666666666666667e-01 -1.666666666666665e-01 -3.333333333333333e-01
 1.666666666666667e-01 -1.666666666666665e-01 -3.333333333333333e-01
 1.666666666666667e-01 -1.666666666666665e-01 -3.333333333333333e-01
 1.666666666666667e-01 -1.666666666666665e-01 -3.333333333333333e-01
 1.666666666666667e-01 -1.666666666666665e-01 -3.333333333333333e-01
 1.666666666666667e-01 -1.666666666666665e-01 -3.333333333333333e-01
 1.666666666666667e-01 -1.666666666666665e-01 -3.333333333333333e-01
 1.666666666666667e-01 -1.666666666666665e-01 -3.333333333333333e-01
 1.666666666666667e-01 -1.666666666666665e-01 -3.333333333333333e-01
 1.666666666666667e-01 -1.666666666666665e-01 -3.333333333333333e-01
 1.666666666666667e-01 -1.666666666666665e-01 -3.333333333333333e-01
 1.666666666666667e-01 -1.666666666666665e-01 -3.333333333333333e-01
 1.666666666666667e-01 -1.666666666666665e-01 -3.333333333333333e-01
 1.666666666666667e-01 -1.666666666666665e-01 -3.333333333333333e-01
 1.666666666666667e-01 -1.666666666666665e-01 -3.333333333333333e-01
 1.666666666666667e-01 -1.666666666666665e-01 -3.333333333333333e-01
 1.666666666666667e-01 -1.666666666666665e-01 -3.333333333333333e-01
 1.666666666666667e-01 -1.666666666666665e-01 -3.333333333333333e-01
 1.666666666666667e-01 -1.666666666666665e-01 -3.333333333333333e-01
 1.666666666666667e-01 -1.666666666666665e-01 -3.333333333333333e-01
 1.666666666666667e-01 -1.666666666666665e-01 -3.333333333333333e-01
 1.666666666666667e-01 -1.666666666666665e-01 -3.333333333333333e-01
-1.666666666666667e-01  1.666666666666665e-01  3.333333333333333e-01
 1.666666666666667e-01 -1.666666666666665e-01 -3.333333333333333e-01
 1.666666666666667e-01 -1.666666666666665e-01 -3.333333333333333e-01
 1.666666666666667e-01 -1.666666666666665e-01 -3.333333333333333e-01
 1.666666666666667e-01 -1.666666666666665e-01 -3.333333333333333e-01
 1.666666666666667e-01 -1.666666666666665e-01 -3.333333333333333e-01
 1.666666666666667e-01 -1.666666666666665e-01 -3.333333333333333e-01
 1.666666666666667e-01 -1.666666666666665e-01 -3.333333333333333e-01
 1.666666666666667e-01 -1.666666666666665e-01 -3.333333333333333e-01
 1.666666666666667e-01 -1.666666666666665e-01 -3.333333333333333e-01
 1.666666666666667e-01 -1.666666666666665e-01 -3.333333333333333e-01
 1.666666666666667e-01 -1.666666666666665e-01 -3.333333333333333e-01
 1.666666666666667e-01 -1.666666666666665e-01 -3.333333333333333e-01
 1.666666666666667e-01 -1.666666666666665e-01 -3.333333333333333e-01
 1.666666666666667e-01 -1.666666666666665e-01 -3.333333333333333e-01
 1.666666666666667e-01 -1.666666666666665e-01 -3.333333333333333e-01
 1.666666666666667e-01 -1.666666666666665e-01 -3.333333333333333e-01
 1.666666666666667e-01 -1.666666666666665e-01 -3.333333333333333e-01
 1.666666666666667e-01 -1.666666666666665e-01 -3.333333333333333e-01
 1.666666666666667e-01 -1.666666666666665e-01 -3.333333333333333e-01
 1.666666666666667e-01 -1.666666666666665e-01 -3.333333333333333e-01
 1.666666666666667e-01 -1.666666666666665e-01 -3.333333333333333e-01
 1.666666666666667e-01 -1.666666666666665e-01 -3.333333333333333e-01
 1.666666666666667e-01 -1.666666666666665e-01 -3.333333333333333e-01
 1.666666666666667e-01 -1.666666666666665e-01 -3.333333333333333e-01
 1.666666666666667e-01 -1.666666666666665e-01 -3.333333333333333e-01
 1.666666666666667e-01 -1.666666666666665e-01 -3.333333333333333e-01
 1.666666666666667e-01 -1.666666666666665e-01 -3.333333333333333e-01
 1.666666666666667e-01 -1.666666666666665e-01 -3.333333333333333e-01
 1.666666666666667e-01 -1.666666666666665e-01 -3.333333333333333e-01
 1.666666666666667e-01 -1.666666666666665e-01 -3.333333333333333e-01
 1.666666666666667e-01 -1.666666666666665e-01 -3.333333333333333e-01
 1.666666666666667e-01 -1.666666666666665e-01 -3.333333333333333e-01
 1.666666666666667e-01 -1.666666666666665e-01 -3.333333333333333e-01
 1.666666666666667e-01 -1.666666666666665e-01 -3.333333333333333e-01
 1.666666666666667e-01 -1.666666666666665e-01 -3.333333333333333e-01
 1.666666666666667e-01 -1.666666666666665e-01 -3.333333333333333e-01
 1.666666666666667e-01 -1.666666666666665e-01 -3.333333333333333e-01
 1.666666666666667e-01 -1.666666666666665e-01 -3.333333333333333e-01
 1.666666666666667e-01 -1.666666666666665e-01 -3.333333333333333e-01
 1.666666666666667e-01 -1.666666666666665e-01 -3.333333333333333e-01
 1.666666666666667e-01 -1.666666666666665e-01 -3.333333333333333e-01
 1.666666666666667e-01 -1.666666666666665e-01 -3.333333333333333e-01
 1.666666666666667e-01 -1.666666666666665e-01 -3.333333333333333e-01
 1.666666666666667e-01 -1.666666666666665e-01 -3.333333333333333e-01
 1.666666666666667e-01 -1.666666666666665e-01 -3.333333333333333e-01
 1.666666666666667e-01 -1.666666666666665e-01 -3.333333333333333e-01
 1.666666666666667e-01 -1.666666666666665e-01 -3.333333333333333e-01
 1.666666666666667e-01 -1.666666666666665e-01 -3.333333333333333e-01
 1.666666666666667e-01 -1.666666666666665e-01 -3.333333333333333e-01
 1.666666666666667e-01 -1.666666666666665e-01 -3.333333333333333e-01
 1.666666666666667e-01 -1.666666666666665e-01 -3.333333333333333e-01
 1.666666666666667e-01 -1.666666666666665e-01 -3.333333333333333e-01
 1.666666666666667e-01 -1.666666666666665e-01 -3.333333333333333e-01
 1.666666666666667e-01 -1.666666666666665e-01 -3.333333333333333e-01
 1.666666666666667e-01 -1.666666666666665e-01 -3.333333333333333e-01
 1.666666666666667e-01 -1.666666666666665e-01 -3.333333333333333e-01
 1.666666666666667e-01 -1.666666666666665e-01 -3.333333333333333e-01
 1.666666666666667e-01 -1.666666666666665e-01 -3.333333333333333e-01
 1.666666666666667e-01 -1.666666666666665e-01 -3.333333333333333e-01
 1.666666666666667e-01 -1.666666666666665e-01 -3.333333333333333e-01
 1.666666666666667e-01 -1.666666666666665e-01 -3.333333333333333e-01
 1.666666666666667e-01 -1.666666666666665e-01 -3.333333333333333e-01
 1.666666666666667e-01 -1.666666666666665e-01 -3.333333333333333e-01
 1.666666666666667e-01 -1.666666666666665e-01 -3.333333333333333e-01
 1.666666666666667e-01 -1.666666666666665e-01 -3.333333333333333e-01
 1.666666666666667e-01 -1.666666666666665e-01 -3.333333333333333e-01
 1.666666666666667e-01 -1.666666666666665e-01 -3.333333333333333e-01
 1.666666666666667e-01 -1.666666666666665e-01 -3.333333333333333e-01
 1.666666666666667e-01 -1.666666666666665e-01 -3.333333333333333e-01
 1.666666666666667e-01 -1.666666666666665e-01 -3.333333333333333e-01
 1.666666666666667e-01 -1.666666666666665e-01 -3.333333333333333e-01
 1.666666666666667e-01 -1.666666666666665e-01 -3.333333333333333e-01
 1.666666666666667e-01 -1.666666666666665e-01 -3.333333333333333e-01
 1.666666666666667e-01 -1.666666666666665e-01 -3.333333333333333e-01
 1.666666666666667e-01 -1.666666666666665e-01 -3.333333333333333e-01
 1.666666666666667e-01 -1.666666666666665e-01 -3.333333333333333e-01
 1.666666666666667e-01 -1.666666666666665e-01 -3.333333333333333e-01
 1.666666666666667e-01 -1.666666666666665e-01 -3.333333333333333e-01
 1.666666666666667e-01 -1.666666666666665e-01 -3.333333333333333e-01
 1.666666666666667e-01 -1.666666666666665e-01 -3.333333333333333e-01
 1.666666666666667e-01 -1.666666666666665e-01 -3.333333333333333e-01
 1.666666666666667e-01 -1.666666666666665e-01 -3.333333333333333e-01
 1.666666666666667e-01 -1.666666666666665e-01 -3.333333333333333e-01
 1.666666666666667e-01 -1.666666666666665e-01 -3.333333333333333e-01
 1.666666666666667e-01 -1.666666666666665e-01 -3.333333333333333e-01
 1.666666666666667e-01 -1.666666666666665e-01 -3.333333333333333e-01
 1.666666666666667e-01 -1.666666666666665e-01 -3.333333333333333e-01
 1.666666666666667e-01 -1.666666666666665e-01 -3.333333333333333e-01
 1.666666666666667e-01 -1.666666666666665e-01 -3.333333333333333e-01
 1.666666666666667e-01 -1.666666666666665e-01 -3.333333333333333e-01
 1.666666666666667e-01 -1.666666666666665e-01 -3.333333333333333e-01
 1.666666666666667e-01 -1.666666666666665e-01 -3.333333333333333e-01
 1.666666666666667e-01 -1.666666666666665e-01 -3.333333333333333e-01
 1.666666666666667e-01 -1.666666666666665e-01 -3.333333333333333e-01
 1.666666666666667e-01 -1.666666666666665e-01 -3.333333333333333e-01
 1.666666666666667e-01 -1.666666666666665e-01 -3.333333333333333e-01
 1.666666666666667e-01 -1.666666666666665e-01 -3.333333333333333e-01
 1.666666666666667e-01 -1.666666666666665e-01 -3.333333333333333e-01
 1.666666666666667e-01 -1.666666666666665e-01 -3.333333333333333e-01
 1.666666666666667e-01 -1.666666666666665e-01 -3.333333333333333e-01
 1.666666666666667e-01 -1.666666666666665e-01 -3.333333333333333e-01
 1.666666666666667e-01 -1.666666666666665e-01 -3.333333333333333e-01
 1.666666666666667e-01 -1.666666666666665e-01 -3.333333333333333e-01
 1.666666666666667e-01 -1.666666666666665e-01 -3.333333333333333e-01
 1.666666666666667e-01 -1.666666666666665e-01 -3.333333333333333e-01
 1.666666666666667e-01 -1.666666666666665e-01 -3.333333333333333e-01
 1.666666666666667e-01 -1.666666666666665e-01 -3.333333333333333e-01
 1.666666666666667e-01 -1.666666666666665e-01 -3.333333333333333e-01
 1.666666666666667e-01 -1.666666666666665e-01 -3.333333333333333e-01
 1.666666666666667e-01 -1.666666666666665e-01 -3.333333333333333e-01
 1.666666666666667e-01 -1.666666666666665e-01 -3.333333333333333e-01
 1.666666666666667e-01 -1.666666666666665e-01 -3.333333333333333e-01
 1.666666666666667e-01 -1.666666666666665e-01 -3.333333333333333e-01
 1.666666666666667e-01 -1.666666666666665e-01 -3.333333333333333e-01
 1.666666666666667e-01 -1.666666666666665e-01 -3.333333333333333e-01
 1.666666666666667e-01 -1.666666666666665e-01 -3.333333333333333e-01
 1.666666666666667e-01 -1.666666666666665e-01 -3.333333333333333e-01
 1.666666666666667e-01 -1.666666666666665e-01 -3.333333333333333e-01
 1.666666666666667e-01 -1.666666666666665e-01 -3.333333333333333e-01
 1.666666666666667e-01 -1.666666666666665e-01 -3.333333333333333e-01
 1.666666666666667e-01 -1.666666666666665e-01 -3.333333333333333e-01
 1.666666666666667e-01 -1.666666666666665e-01 -3.333333333333333e-01
 1.666666666666667e-01 -1.666666666666665e-01 -3.333333333333333e-01
 1.666666666666667e-01 -1.666666666666665e-01 -3.333333333333333e-01
 1.666666666666667e-01 -1.666666666666665e-01 -3.333333333333333e-01
 1.666666666666667e-01 -1.666666666666665e-01 -3.333333333333333e-01
 1.666666666666667e-01 -1.666666666666665e-01 -3.333333333333333e-01
 1.666666666666667e-01 -1.666666666666665e-01 -3.333333333333333e-01
 1.666666666666667e-01 -1.666666666666665e-01 -3.333333333333333e-01
 1.666666666666667e-01 -1.666666666666665e-01 -3.333333333333333e-01
 1.666666666666667e-01 -1.666666666666665e-01 -3.333333333333333e-01
 1.666666666666667e-01 -1.666666666666665e-01 -3.333333333333333e-01
 1.666666666666667e-01 -1.666666666666665e-01 -3.333333333333333e-01
 1.666666666666667e-01 -1.666666666666665e-01 -3.333333333333333e-01
 1.666666666666667e-01 -1.666666666666665e-01 -3.333333333333333e-01
 1.666666666666667e-01 -1.666666666666665e-01 -3.333333333333333e-01
 1.666666666666667e-01 -1.666666666666665e-01 -3.333333333333333e-01
 1.666666666666667e-01 -1.666666666666665e-01 -3.333333333333333e-01
 1.666666666666667e-01 -1.666666666666665e-01 -3.333333333333333e-01
 1.666666666666667e-01 -1.666666666666665e-01 -3.333333333333333e-01
 1.666666666666667e-01 -1.666666666666665e-01 -3.333333333333333e-01
 1.666666666666667e-01 -1.666666666666665e-01 -3.333333333333333e-01
 1.666666666666667e-01 -1.666666666666665e-01 -3.333333333333333e-01
 1.666666666666667e-01 -1.666666666666665e-01 -3.333333333333333e-01
 1.666666666666667e-01 -1.666666666666665e-01 -3.333333333333333e-01
 1.666666666666667e-01 -1.666666666666665e-01 -3.333333333333333e-01
 1.666666666666667e-01 -1.666666666666665e-01 -3.333333333333333e-01
 1.666666666666667e-01 -1.666666666666665e-01 -3.333333333333333e-01
 1.666666666666667e-01 -1.666666666666665e-01 -3.333333333333333e-01
 1.666666666666667e-01 -1.666666666666665e-01 -3.333333333333333e-01
 1.666666666666667e-01 -1.666666666666665e-01 -3.333333333333333e-01
 1.666666666666667e-01 -1.666666666666665e-01 -3.333333333333333e-01
 1.666666666666667e-01 -1.666666666666665e-01 -3.333333333333333e-01
 1.666666666666667e-01 -1.666666666666665e-01 -3.333333333333333e-01
 1.666666666666667e-01 -1.666666666666665e-01 -3.333333333333333e-01
 1.666666666666667e-01 -1.666666666666665e-01 -3.333333333333333e-01
 1.666666666666667e-01 -1.666666666666665e-01 -3.333333333333333e-01
 1.666666666666667e-01 -1.666666666666665e-01 -3.333333333333333e-01
 1.666666666666667e-01 -1.666666666666665e-01 -3.333333333333333e-01
 1.666666666666667e-01 -1.666666666666665e-01 -3.333333333333333e-01
 1.666666666666667e-01 -1.666666666666665e-01 -3.333333333333333e-01
 1.666666666666667e-01 -1.666666666666665e-01 -3.333333333333333e-01
 1.666666666666667e-01 -1.666666666666665e-01 -3.333333333333333e-01
 1.666666666666667e-01 -1.666666666666665e-01 -3.333333333333333e-01
 1.666666666666667e-01 -1.666666666666665e-01 -3.333333333333333e-01
 1.666666666666667e-01 -1.666666666666665e-01 -3.333333333333333e-01
 1.666666666666667e-01 -1.666666666666665e-01 -3.333333333333333e-01
 1.666666666666667e-01 -1.666666666666665e-01 -3.333333333333333e-01
 1.666666666666667e-01 -1.666666666666665e-01 -3.333333333333333e-01
 1.666666666666667e-01 -1.666666666666665e-01 -3.333333333333333e-01
 1.666666666666667e-01 -1.666666666666665e-01 -3.333333333333333e-01
 1.666666666666667e-01 -1.666666666666665e-01 -3.333333333333333e-01
 1.666666666666667e-01 -1.666666666666665e-01 -3.333333333333333e-01
 1.666666666666667e-01 -1.666666666666665e-01 -3.333333333333333e-01
 1.666666666666667e-01 -1.666666666666665e-01 -3.333333333333333e-01
 1.666666666666667e-01 -1.666666666666665e-01 -3.333333333333333e-01
 1.666666666666667e-01 -1.666666666666665e-01 -3.333333333333333e-01
 1.666666666666667e-01 -1.666666666666665e-01 -3.333333333333333e-01
 1.666666666666667e-01 -1.666666666666665e-01 -3.333333333333333e-01
-1.666666666666667e-01  1.666666666666665e-01  3.333333333333333e-01
 1.666666666666667e-01 -1.666666666666665e-01 -3.333333333333333e-01
-1.666666666666667e-01  1.666666666666665e-01  3.333333333333333e-01
-1.666666666666667e-01  1.666666666666665e-01  3.333333333333333e-01
-1.666666666666667e-01  1.666666666666665e-01  3.333333333333333e-01
-1.666666666666667e-01  1.666666666666665e-01  3.333333333333333e-01
-1.666666666666667e-01  1.666666666666665e-01  3.333333333333333e-01
-1.666666666666667e-01  1.666666666666665e-01  3.333333333333333e-01
-1.666666666666667e-01  1.666666666666665e-01  3.333333333333333e-01
-1.666666666666667e-01  1.666666666666665e-01  3.333333333333333e-01
-1.666666666666667e-01  1.666666666666665e-01  3.333333333333333e-01
-1.666666666666667e-01  1.666666666666665e-01  3.333333333333333e-01
-1.666666666666667e-01  1.666666666666665e-01  3.333333333333333e-01
-1.666666666666667e-01  1.666666666666665e-01  3.333333333333333e-01
-1.666666666666667e-01  1.666666666666665e-01  3.333333333333333e-01
-1.666666666666667e-01  1.666666666666665e-01  3.333333333333333e-01
-1.666666666666667e-01  1.666666666666665e-01  3.333333333333333e-01
-1.666666666666667e-01  1.666666666666665e-01  3.333333333333333e-01
-1.666666666666667e-01  1.666666666666665e-01  3.333333333333333e-01
-1.666666666666667e-01  1.666666666666665e-01  3.333333333333333e-01
-1.666666666666667e-01  1.666666666666665e-01  3.333333333333333e-01
-1.666666666666667e-01  1.666666666666665e-01  3.333333333333333e-01
-1.666666666666667e-01  1.666666666666665e-01  3.333333333333333e-01
-1.666666666666667e-01  1.666666666666665e-01  3.333333333333333e-01
-1.666666666666667e-01  1.666666666666665e-01  3.333333333333333e-01
-1.666666666666667e-01  1.666666666666665e-01  3.333333333333333e-01
-1.666666666666667e-01  1.666666666666665e-01  3.333333333333333e-01
-1.666666666666667e-01  1.666666666666665e-01  3.333333333333333e-01
-1.666666666666667e-01  1.666666666666665e-01  3.333333333333333e-01
-1.666666666666667e-01  1.666666666666665e-01  3.333333333333333e-01
-1.666666666666667e-01  1.666666666666665e-01  3.333333333333333e-01
-1.666666666666667e-01  1.666666666666665e-01  3.333333333333333e-01
-1.666666666666667e-01  1.666666666666665e-01  3.333333333333333e-01
-1.666666666666667e-01  1.666666666666665e-01  3.333333333333333e-01
-1.666666666666667e-01  1.666666666666665e-01  3.333333333333333e-01
-1.666666666666667e-01  1.666666666666665e-01  3.333333333333333e-01
-1.666666666666667e-01  1.666666666666665e-01  3.333333333333333e-01
-1.666666666666667e-01  1.666666666666665e-01  3.333333333333333e-01
-1.666666666666667e-01  1.666666666666665e-01  3.333333333333333e-01
-1.666666666666667e-01  1.666666666666665e-01  3.333333333333333e-01
-1.666666666666667e-01  1.666666666666665e-01  3.333333333333333e-01
-1.666666666666667e-01  1.666666666666665e-01  3.333333333333333e-01
-1.666666666666667e-01  1.666666666666665e-01  3.333333333333333e-01
-1.666666666666667e-01  1.666666666666665e-01  3.333333333333333e-01
-1.666666666666667e-01  1.666666666666665e-01  3.333333333333333e-01
-1.666666666666667e-01  1.666666666666665e-01  3.333333333333333e-01
-1.666666666666667e-01  1.666666666666665e-01  3.333333333333333e-01
-1.666666666666667e-01  1.666666666666665e-01  3.333333333333333e-01
-1.666666666666667e-01  1.666666666666665e-01  3.333333333333333e-01
-1.666666666666667e-01  1.666666666666665e-01  3.333333333333333e-01
-1.666666666666667e-01  1.666666666666665e-01  3.333333333333333e-01
-1.666666666666667e-01  1.666666666666665e-01  3.333333333333333e-01
-1.666666666666667e-01  1.666666666666665e-01  3.333333333333333e-01
-1.666666666666667e-01  1.666666666666665e-01  3.333333333333333e-01
-1.666666666666667e-01  1.666666666666665e-01  3.333333333333333e-01
-1.666666666666667e-01  1.666666666666665e-01  3.333333333333333e-01
-1.666666666666667e-01  1.666666666666665e-01  3.333333333333333e-01
-1.666666666666667e-01  1.666666666666665e-01  3.333333333333333e-01
-1.666666666666667e-01  1.666666666666665e-01  3.333333333333333e-01
-1.666666666666667e-01  1.666666666666665e-01  3.333333333333333e-01
-1.666666666666667e-01  1.666666666666665e-01  3.333333333333333e-01
-1.666666666666667e-01  1.666666666666665e-01  3.333333333333333e-01
-1.666666666666667e-01  1.666666666666665e-01  3.333333333333333e-01
-1.666666666666667e-01  1.666666666666665e-01  3.333333333333333e-01
-1.666666666666667e-01  1.666666666666665e-01  3.333333333333333e-01
-1.666666666666667e-01  1.666666666666665e-01  3.333333333333333e-01
-1.666666666666667e-01  1.666666666666665e-01  3.333333333333333e-01
-1.666666666666667e-01  1.666666666666665e-01  3.333333333333333e-01
-1.666666666666667e-01  1.666666666666665e-01  3.333333333333333e-01
-1.666666666666667e-01  1.666666666666665e-01  3.333333333333333e-01
-1.666666666666667e-01  1.666666666666665e-01  3.333333333333333e-01
-1.666666666666667e-01  1.666666666666665e-01  3.333333333333333e-01
-1.666666666666667e-01  1.666666666666665e-01  3.333333333333333e-01
-1.666666666666667e-01  1.666666666666665e-01  3.333333333333333e-01
-1.666666666666667e-01  1.666666666666665e-01  3.333333333333333e-01
-1.666666666666667e-01  1.666666666666665e-01  3.333333333333333e-01
-1.666666666666667e-01  1.666666666666665e-01  3.333333333333333e-01
-1.666666666666667e-01  1.666666666666665e-01  3.333333333333333e-01
-1.666666666666667e-01  1.666666666666665e-01  3.333333333333333e-01
-1.666666666666667e-01  1.666666666666665e-01  3.333333333333333e-01
-1.666666666666667e-01  1.666666666666665e-01  3.333333333333333e-01
-1.666666666666667e-01  1.666666666666665e-01  3.333333333333333e-01
-1.666666666666667e-01  1.666666666666665e-01  3.333333333333333e-01
-1.666666666666667e-01  1.666666666666665e-01  3.333333333333333e-01
-1.666666666666667e-01  1.666666666666665e-01  3.333333333333333e-01
-1.666666666666667e-01  1.666666666666665e-01  3.333333333333333e-01
-1.666666666666667e-01  1.666666666666665e-01  3.333333333333333e-01
-1.666666666666667e-01  1.666666666666665e-01  3.333333333333333e-01
-1.666666666666667e-01  1.666666666666665e-01  3.333333333333333e-01
-1.666666666666667e-01  1.666666666666665e-01  3.333333333333333e-01
-1.666666666666667e-01  1.666666666666665e-01  3.333333333333333e-01
-1.666666666666667e-01  1.666666666666665e-01  3.333333333333333e-01
-1.666666666666667e-01  1.666666666666665e-01  3.333333333333333e-01
-1.666666666666667e-01  1.666666666666665e-01  3.333333333333333e-01
-1.666666666666667e-01  1.666666666666665e-01  3.333333333333333e-01
-1.666666666666667e-01  1.666666666666665e-01  3.333333333333333e-01
-1.666666666666667e-01  1.666666666666665e-01  3.333333333333333e-01
-1.666666666666667e-01  1.666666666666665e-01  3.333333333333333e-01
-1.666666666666667e-01  1.666666666666665e-01  3.333333333333333e-01
-1.666666666666667e-01  1.666666666666665e-01  3.333333333333333e-01
-1.666666666666667e-01  1.666666666666665e-01  3.333333333333333e-01
-1.666666666666667e-01  1.666666666666665e-01  3.333333333333333e-01
-1.666666666666667e-01  1.666666666666665e-01  3.333333333333333e-01
-1.666666666666667e-01  1.666666666666665e-01  3.333333333333333e-01
-1.666666666666667e-01  1.666666666666665e-01  3.333333333333333e-01
-1.666666666666667e-01  1.666666666666665e-01  3.333333333333333e-01
-1.666666666666667e-01  1.666666666666665e-01  3.333333333333333e-01
-1.666666666666667e-01  1.666666666666665e-01  3.333333333333333e-01
-1.666666666666667e-01  1.666666666666665e-01  3.333333333333333e-01
-1.666666666666667e-01  1.666666666666665e-01  3.333333333333333e-01
-1.666666666666667e-01  1.666666666666665e-01  3.333333333333333e-01
-1.666666666666667e-01  1.666666666666665e-01  3.333333333333333e-01
-1.666666666666667e-01  1.666666666666665e-01  3.333333333333333e-01
-1.666666666666667e-01  1.666666666666665e-01  3.333333333333333e-01
-1.666666666666667e-01  1.666666666666665e-01  3.333333333333333e-01
-1.666666666666667e-01  1.666666666666665e-01  3.333333333333333e-01
-1.666666666666667e-01  1.666666666666665e-01  3.333333333333333e-01
-1.666666666666667e-01  1.666666666666665e-01  3.333333333333333e-01
-1.666666666666667e-01  1.666666666666665e-01  3.333333333333333e-01
-1.666666666666667e-01  1.666666666666665e-01  3.333333333333333e-01
-1.666666666666667e-01  1.666666666666665e-01  3.333333333333333e-01
-1.666666666666667e-01  1.666666666666665e-01  3.333333333333333e-01
-1.666666666666667e-01  1.666666666666665e-01  3.333333333333333e-01
-1.666666666666667e-01  1.666666666666665e-01  3.333333333333333e-01
-1.666666666666667e-01  1.666666666666665e-01  3.333333333333333e-01
-1.666666666666667e-01  1.666666666666665e-01  3.333333333333333e-01
-1.666666666666667e-01  1.666666666666665e-01  3.333333333333333e-01
-1.666666666666667e-01  1.666666666666665e-01  3.333333333333333e-01
-1.666666666666667e-01  1.666666666666665e-01  3.333333333333333e-01
-1.666666666666667e-01  1.666666666666665e-01  3.333333333333333e-01
-1.666666666666667e-01  1.666666666666665e-01  3.333333333333333e-01
-1.666666666666667e-01  1.666666666666665e-01  3.333333333333333e-01
-1.666666666666667e-01  1.666666666666665e-01  3.333333333333333e-01
-1.666666666666667e-01  1.666666666666665e-01  3.333333333333333e-01
-1.666666666666667e-01  1.666666666666665e-01  3.333333333333333e-01
-1.666666666666667e-01  1.666666666666665e-01  3.333333333333333e-01
-1.666666666666667e-01  1.666666666666665e-01  3.333333333333333e-01
-1.666666666666667e-01  1.666666666666665e-01  3.333333333333333e-01
-1.666666666666667e-01  1.666666666666665e-01  3.333333333333333e-01
-1.666666666666667e-01  1.666666666666665e-01  3.333333333333333e-01
-1.666666666666667e-01  1.666666666666665e-01  3.333333333333333e-01
-1.666666666666667e-01  1.666666666666665e-01  3.333333333333333e-01
-1.666666666666667e-01  1.666666666666665e-01  3.333333333333333e-01
-1.666666666666667e-01  1.666666666666665e-01  3.333333333333333e-01
-1.666666666666667e-01  1.666666666666665e-01  3.333333333333333e-01
-1.666666666666667e-01  1.666666666666665e-01  3.333333333333333e-01
-1.666666666666667e-01  1.666666666666665e-01  3.333333333333333e-01
-1.666666666666667e-01  1.666666666666665e-01  3.333333333333333e-01
-1.666666666666667e-01  1.666666666666665e-01  3.333333333333333e-01
-1.666666666666667e-01  1.666666666666665e-01  3.333333333333333e-01
-1.666666666666667e-01  1.666666666666665e-01  3.333333333333333e-01
-1.666666666666667e-01  1.666666666666665e-01  3.333333333333333e-01
-1.666666666666667e-01  1.666666666666665e-01  3.333333333333333e-01
 1.666666666666667e-01 -1.666666666666665e-01 -3.333333333333333e-01
-1.666666666666667e-01  1.666666666666665e-01  3.333333333333333e-01
-1.666666666666667e-01  1.666666666666665e-01  3.333333333333333e-01
-1.666666666666667e-01  1.666666666666665e-01  3.333333333333333e-01
-1.666666666666667e-01  1.666666666666665e-01  3.333333333333333e-01
-1.666666666666667e-01  1.666666666666665e-01  3.333333333333333e-01
-1.666666666666667e-01  1.666666666666665e-01  3.333333333333333e-01
-1.666666666666667e-01  1.666666666666665e-01  3.333333333333333e-01
-1.666666666666667e-01  1.666666666666665e-01  3.333333333333333e-01
-1.666666666666667e-01  1.666666666666665e-01  3.333333333333333e-01
-1.666666666666667e-01  1.666666666666665e-01  3.333333333333333e-01
-1.666666666666667e-01  1.666666666666665e-01  3.333333333333333e-01
-1.666666666666667e-01  1.666666666666665e-01  3.333333333333333e-01
-1.666666666666667e-01  1.666666666666665e-01  3.333333333333333e-01
-1.666666666666667e-01  1.666666666666665e-01  3.333333333333333e-01
-1.666666666666667e-01  1.666666666666665e-01  3.333333333333333e-01
-1.666666666666667e-01  1.666666666666665e-01  3.333333333333333e-01
-1.666666666666667e-01  1.666666666666665e-01  3.333333333333333e-01
-1.666666666666667e-01  1.666666666666665e-01  3.333333333333333e-01
-1.666666666666667e-01  1.666666666666665e-01  3.333333333333333e-01
-1.666666666666667e-01  1.666666666666665e-01  3.333333333333333e-01
-1.666666666666667e-01  1.666666666666665e-01  3.333333333333333e-01
-1.666666666666667e-01  1.666666666666665e-01  3.333333333333333e-01
-1.666666666666667e-01  1.666666666666665e-01  3.333333333333333e-01
-1.666666666666667e-01  1.666666666666665e-01  3.333333333333333e-01
-1.666666666666667e-01  1.666666666666665e-01  3.333333333333333e-01
-1.666666666666667e-01  1.666666666666665e-01  3.333333333333333e-01
-1.666666666666667e-01  1.666666666666665e-01  3.333333333333333e-01
-1.666666666666667e-01  1.666666666666665e-01  3.333333333333333e-01
-1.666666666666667e-01  1.666666666666665e-01  3.333333333333333e-01
-1.666666666666667e-01  1.666666666666665e-01  3.333333333333333e-01
-1.666666666666667e-01  1.666666666666665e-01  3.333333333333333e-01
-1.666666666666667e-01  1.666666666666665e-01  3.333333333333333e-01
-1.666666666666667e-01  1.666666666666665e-01  3.333333333333333e-01
-1.666666666666667e-01  1.666666666666665e-01  3.333333333333333e-01
-1.666666666666667e-01  1.666666666666665e-01  3.333333333333333e-01
-1.666666666666667e-01  1.666666666666665e-01  3.333333333333333e-01
-1.666666666666667e-01  1.666666666666665e-01  3.333333333333333e-01
-1.666666666666667e-01  1.666666666666665e-01  3.333333333333333e-01
-1.666666666666667e-01  1.666666666666665e-01  3.333333333333333e-01
-1.666666666666667e-01  1.666666666666665e-01  3.333333333333333e-01
-1.666666666666667e-01  1.666666666666665e-01  3.333333333333333e-01
-1.666666666666667e-01  1.666666666666665e-01  3.333333333333333e-01
-1.666666666666667e-01  1.666666666666665e-01  3.333333333333333e-01
-1.666666666666667e-01  1.666666666666665e-01  3.333333333333333e-01
-1.666666666666667e-01  1.666666666666665e-01  3.333333333333333e-01
-1.666666666666667e-01  1.666666666666665e-01  3.333333333333333e-01
-1.666666666666667e-01  1.666666666666665e-01  3.333333333333333e-01
-1.666666666666667e-01  1.666666666666665e-01  3.333333333333333e-01
-1.666666666666667e-01  1.666666666666665e-01  3.333333333333333e-01
-1.666666666666667e-01  1.666666666666665e-01  3.333333333333333e-01
-1.666666666666667e-01  1.666666666666665e-01  3.333333333333333e-01
-1.666666666666667e-01  1.666666666666665e-01  3.333333333333333e-01
-1.666666666666667e-01  1.666666666666665e-01  3.333333333333333e-01
-1.666666666666667e-01  1.666666666666665e-01  3.333333333333333e-01
-1.666666666666667e-01  1.666666666666665e-01  3.333333333333333e-01
-1.666666666666667e-01  1.666666666666665e-01  3.333333333333333e-01
-1.666666666666667e-01  1.666666666666665e-01  3.333333333333333e-01
-1.666666666666667e-01  1.666666666666665e-01  3.333333333333333e-01
-1.666666666666667e-01  1.666666666666665e-01  3.333333333333333e-01
-1.666666666666667e-01  1.666666666666665e-01  3.333333333333333e-01
-1.666666666666667e-01  1.666666666666665e-01  3.333333333333333e-01
-1.666666666666667e-01  1.666666666666665e-01  3.333333333333333e-01
-1.666666666666667e-01  1.666666666666665e-01  3.333333333333333e-01
-1.666666666666667e-01  1.666666666666665e-01  3.333333333333333e-01
-1.666666666666667e-01  1.666666666666665e-01  3.333333333333333e-01
-1.666666666666667e-01  1.666666666666665e-01  3.333333333333333e-01
-1.666666666666667e-01  1.666666666666665e-01  3.333333333333333e-01
-1.666666666666667e-01  1.666666666666665e-01  3.333333333333333e-01
-1.666666666666667e-01  1.666666666666665e-01  3.333333333333333e-01
-1.666666666666667e-01  1.666666666666665e-01  3.333333333333333e-01
-1.666666666666667e-01  1.666666666666665e-01  3.333333333333333e-01
-1.666666666666667e-01  1.666666666666665e-01  3.333333333333333e-01
-1.666666666666667e-01  1.666666666666665e-01  3.333333333333333e-01
-1.666666666666667e-01  1.666666666666665e-01  3.333333333333333e-01
-1.666666666666667e-01  1.666666666666665e-01  3.333333333333333e-01
-1.666666666666667e-01  1.666666666666665e-01  3.333333333333333e-01
-1.666666666666667e-01  1.666666666666665e-01  3.333333333333333e-01
-1.666666666666667e-01  1.666666666666665e-01  3.333333333333333e-01
-1.666666666666667e-01  1.666666666666665e-01  3.333333333333333e-01
-1.666666666666667e-01  1.666666666666665e-01  3.333333333333333e-01
-1.666666666666667e-01  1.666666666666665e-01  3.333333333333333e-01
-1.666666666666667e-01  1.666666666666665e-01  3.333333333333333e-01
-1.666666666666667e-01  1.666666666666665e-01  3.333333333333333e-01
-1.666666666666667e-01  1.666666666666665e-01  3.333333333333333e-01
-1.666666666666667e-01  1.666666666666665e-01  3.333333333333333e-01
-1.666666666666667e-01  1.666666666666665e-01  3.333333333333333e-01
-1.666666666666667e-01  1.666666666666665e-01  3.333333333333333e-01
-1.666666666666667e-01  1.666666666666665e-01  3.333333333333333e-01
-1.666666666666667e-01  1.666666666666665e-01  3.333333333333333e-01
-1.666666666666667e-01  1.666666666666665e-01  3.333333333333333e-01
-1.666666666666667e-01  1.666666666666665e-01  3.333333333333333e-01
-1.666666666666667e-01  1.666666666666665e-01  3.333333333333333e-01
-1.666666666666667e-01  1.666666666666665e-01  3.333333333333333e-01
-1.666666666666667e-01  1.666666666666665e-01  3.333333333333333e-01
-1.666666666666667e-01  1.666666666666665e-01  3.333333333333333e-01
-1.666666666666667e-01  1.666666666666665e-01  3.333333333333333e-01
-1.666666666666667e-01  1.666666666666665e-01  3.333333333333333e-01
-1.666666666666667e-01  1.666666666666665e-01  3.333333333333333e-01
-1.666666666666667e-01  1.666666666666665e-01  3.333333333333333e-01
-1.666666666666667e-01  1.666666666666665e-01  3.333333333333333e-01
-1.666666666666667e-01  1.666666666666665e-01  3.333333333333333e-01
-1.666666666666667e-01  1.666666666666665e-01  3.333333333333333e-01
-1.666666666666667e-01  1.666666666666665e-01  3.333333333333333e-01
-1.666666666666667e-01  1.666666666666665e-01  3.333333333333333e-01
-1.666666666666667e-01  1.666666666666665e-01  3.333333333333333e-01
-1.666666666666667e-01  1.666666666666665e-01  3.333333333333333e-01
-1.666666666666667e-01  1.666666666666665e-01  3.333333333333333e-01
-1.666666666666667e-01  1.666666666666665e-01  3.333333333333333e-01
-1.666666666666667e-01  1.666666666666665e-01  3.333333333333333e-01
-1.666666666666667e-01  1.666666666666665e-01  3.333333333333333e-01
-1.666666666666667e-01  1.666666666666665e-01  3.333333333333333e-01
-1.666666666666667e-01  1.666666666666665e-01  3.333333333333333e-01
-1.666666666666667e-01  1.666666666666665e-01  3.333333333333333e-01
-1.666666666666667e-01  1.666666666666665e-01  3.333333333333333e-01
-1.666666666666667e-01  1.666666666666665e-01  3.333333333333333e-01
-1.666666666666667e-01  1.666666666666665e-01  3.333333333333333e-01
-1.666666666666667e-01  1.666666666666665e-01  3.333333333333333e-01
-1.666666666666667e-01  1.666666666666665e-01  3.333333333333333e-01
-1.666666666666667e-01  1.666666666666665e-01  3.333333333333333e-01
-1.666666666666667e-01  1.666666666666665e-01  3.333333333333333e-01
-1.666666666666667e-01  1.666666666666665e-01  3.333333333333333e-01
-1.666666666666667e-01  1.666666666666665e-01  3.333333333333333e-01
-1.666666666666667e-01  1.666666666666665e-01  3.333333333333333e-01
-1.666666666666667e-01  1.666666666666665e-01  3.333333333333333e-01
-1.666666666666667e-01  1.666666666666665e-01  3.333333333333333e-01
-1.666666666666667e-01  1.666666666666665e-01  3.333333333333333e-01
-1.666666666666667e-01  1.666666666666665e-01  3.333333333333333e-01
-1.666666666666667e-01  1.666666666666665e-01  3.333333333333333e-01
-1.666666666666667e-01  1.666666666666665e-01  3.333333333333333e-01
-1.666666666666667e-01  1.666666666666665e-01  3.333333333333333e-01
-1.666666666666667e-01  1.666666666666665e-01  3.333333333333333e-01
-1.666666666666667e-01  1.666666666666665e-01  3.333333333333333e-01
-1.666666666666667e-01  1.666666666666665e-01  3.333333333333333e-01
-1.666666666666667e-01  1.666666666666665e-01  3.333333333333333e-01
-1.666666666666667e-01  1.666666666666665e-01  3.333333333333333e-01
-1.666666666666667e-01  1.666666666666665e-01  3.333333333333333e-01
-1.666666666666667e-01  1.666666666666665e-01  3.333333333333333e-01
-1.666666666666667e-01  1.666666666666665e-01  3.333333333333333e-01
-1.666666666666667e-01  1.666666666666665e-01  3.333333333333333e-01
-1.666666666666667e-01  1.666666666666665e-01  3.333333333333333e-01
-1.666666666666667e-01  1.666666666666665e-01  3.333333333333333e-01
