# vtk DataFile Version 3.0
# Dislocation lines converted from MoDELib file
ASCII
DATASET UNSTRUCTURED_GRID
POINTS 3211 double
-1.429999999999877e+00  3.863858941524650e+02 -2.918975276816622e+03
-1.429999999999897e+00 -3.863858941524674e+02 -2.918975276816622e+03
-1.429999999999897e+00  0.000000000000000e+00 -2.918975276816622e+03
-1.430000000000221e+00  0.000000000000000e+00  2.918975276816619e+03
-1.430000000000221e+00 -3.863858941524674e+02  2.918975276816619e+03
-1.430000000000201e+00  3.863858941524653e+02  2.918975276816619e+03
-1.148704710690445e+03  1.110505608000001e+00 -2.918975276816622e+03
-1.148671534017670e+03 -9.974581644762019e-01 -2.918975276816622e+03
-1.148640472003025e+03 -1.683569447576565e+00 -2.918975276816622e+03
-1.148609295535230e+03 -3.943957018068647e+00 -2.918975276816622e+03
-1.148599861706170e+03 -4.824970167794643e+00 -2.918975276816622e+03
-1.148141812525308e+03 -6.194335600375085e+00 -2.918975276816622e+03
-1.148659258003432e+03 -8.262973767204691e+00 -2.918975276816622e+03
-1.148735797395628e+03 -1.309936774216570e+01 -2.918975276816622e+03
-1.148562725459869e+03 -1.379337774587339e+01 -2.918975276816622e+03
-1.148577625448426e+03 -1.661774315865765e+01 -2.918975276816622e+03
-1.148554172009025e+03 -2.010674914269741e+01 -2.918975276816622e+03
-1.148529103920405e+03 -2.290145620547251e+01 -2.918975276816622e+03
-1.148294822497620e+03 -2.691635593152746e+01 -2.918975276816622e+03
-1.148248747480592e+03 -2.808144461600657e+01 -2.918975276816622e+03
-1.148371732572593e+03 -3.259787900160995e+01 -2.918975276816622e+03
-1.148207881643575e+03 -3.389973429099231e+01 -2.918975276816622e+03
-1.148191405467903e+03 -3.495163706240215e+01 -2.918975276816622e+03
-1.148270485728968e+03 -3.583882571925587e+01 -2.918975276816622e+03
-1.148097966105632e+03 -3.840523053836106e+01 -2.918975276816622e+03
-1.147865385241528e+03 -3.985808646549890e+01 -2.918975276816622e+03
-1.147967371765270e+03 -4.118087406656527e+01 -2.918975276816622e+03
-1.147899094206759e+03 -4.323116757189651e+01 -2.918975276816622e+03
-1.147703992713221e+03 -4.488123691357938e+01 -2.918975276816622e+03
-1.147514109469387e+03 -4.974787697945357e+01 -2.918975276816622e+03
-1.147466161831073e+03 -5.029718321272414e+01 -2.918975276816622e+03
-1.147372275110301e+03 -5.216232947841129e+01 -2.918975276816622e+03
-1.147144209432599e+03 -5.413202255025336e+01 -2.918975276816622e+03
-1.147110315124742e+03 -5.436083242567311e+01 -2.918975276816622e+03
-1.147295142049720e+03 -5.594584553487652e+01 -2.918975276816622e+03
-1.147457042373712e+03 -5.844946566487417e+01 -2.918975276816622e+03
-1.147569658627848e+03 -6.015569171185061e+01 -2.918975276816622e+03
-1.147560546397781e+03 -6.138741020645665e+01 -2.918975276816622e+03
-1.147597609016841e+03 -6.331680772221639e+01 -2.918975276816622e+03
-1.147663609110699e+03 -6.433881064590891e+01 -2.918975276816622e+03
-1.147683784500266e+03 -6.626794722592665e+01 -2.918975276816622e+03
-1.147708376718444e+03 -6.732262122631934e+01 -2.918975276816622e+03
-1.147704595655578e+03 -6.986785267030852e+01 -2.918975276816622e+03
-1.147791397765113e+03 -7.057630023498025e+01 -2.918975276816622e+03
-1.147723144485929e+03 -7.212708061014993e+01 -2.918975276816622e+03
-1.147831584578926e+03 -7.427599846022879e+01 -2.918975276816622e+03
-1.147727697382670e+03 -7.534619062159722e+01 -2.918975276816622e+03
-1.147852042357169e+03 -7.627032014202344e+01 -2.918975276816622e+03
-1.147726650502990e+03 -7.831632526174367e+01 -2.918975276816622e+03
-1.147861742770761e+03 -8.034240408164422e+01 -2.918975276816622e+03
-1.147747477532291e+03 -8.146089471258310e+01 -2.918975276816622e+03
-1.147846952741106e+03 -8.336548972254505e+01 -2.918975276816622e+03
-1.147754680826797e+03 -8.502258631369608e+01 -2.918975276816622e+03
-1.147864812918311e+03 -8.766730351205956e+01 -2.918975276816622e+03
-1.147758009937278e+03 -8.949354843793482e+01 -2.918975276816622e+03
-1.147737801671529e+03 -9.041116099490792e+01 -2.918975276816622e+03
-1.147754004238523e+03 -9.206986490952126e+01 -2.918975276816622e+03
-1.148083591906527e+03 -9.484000907324526e+01 -2.918975276816622e+03
-1.147678468630301e+03 -9.579719039645985e+01 -2.918975276816622e+03
-1.147682264019600e+03 -9.848681325358346e+01 -2.918975276816622e+03
-1.147700170424764e+03 -1.002936718469557e+02 -2.918975276816622e+03
-1.147789298719281e+03 -1.013748861835832e+02 -2.918975276816622e+03
-1.147649411060738e+03 -1.032468868192472e+02 -2.918975276816622e+03
-1.147605700908462e+03 -1.042225784890338e+02 -2.918975276816622e+03
-1.147600474065548e+03 -1.061756419460138e+02 -2.918975276816622e+03
-1.147704461486429e+03 -1.072256480152294e+02 -2.918975276816622e+03
-1.147518359023707e+03 -1.097123726196995e+02 -2.918975276816622e+03
-1.147509029917953e+03 -1.104753348392639e+02 -2.918975276816622e+03
-1.147444434470039e+03 -1.122527612072557e+02 -2.918975276816622e+03
-1.147557844215433e+03 -1.141955763388693e+02 -2.918975276816622e+03
-1.147398752457414e+03 -1.144135451858777e+02 -2.918975276816622e+03
-1.147476675239806e+03 -1.157903616904485e+02 -2.918975276816622e+03
-1.147456684291191e+03 -1.183216331140699e+02 -2.918975276816622e+03
-1.147501256866535e+03 -1.202028019814167e+02 -2.918975276816622e+03
-1.147466464843443e+03 -1.213363476396607e+02 -2.918975276816622e+03
-1.147485674459767e+03 -1.233322536152281e+02 -2.918975276816622e+03
-1.147471050127345e+03 -1.248385151077688e+02 -2.918975276816622e+03
-1.147429238020923e+03 -1.295935857244529e+02 -2.918975276816622e+03
-1.147409019729192e+03 -1.303458804093068e+02 -2.918975276816622e+03
-1.147405586673623e+03 -1.322133591926346e+02 -2.918975276816622e+03
-1.147343220180674e+03 -1.341647992289988e+02 -2.918975276816622e+03
-1.147318955770472e+03 -1.344732246896910e+02 -2.918975276816622e+03
-1.147424127015734e+03 -1.357687047507992e+02 -2.918975276816622e+03
-1.147438830660350e+03 -1.384018583041881e+02 -2.918975276816622e+03
-1.147579723513169e+03 -1.400567193936394e+02 -2.918975276816622e+03
-1.147507634318483e+03 -1.412646289904491e+02 -2.918975276816622e+03
-1.147573819476915e+03 -1.431717514828688e+02 -2.918975276816622e+03
-1.147578037811246e+03 -1.441304537330803e+02 -2.918975276816622e+03
-1.147723205870854e+03 -1.461374312141081e+02 -2.918975276816622e+03
-1.147613633859322e+03 -1.471566035780198e+02 -2.918975276816622e+03
-1.147720167377139e+03 -1.496408673420203e+02 -2.918975276816622e+03
-1.147699351183660e+03 -1.503465321509367e+02 -2.918975276816622e+03
-1.147814495840254e+03 -1.520365402722426e+02 -2.918975276816622e+03
-1.147836910944574e+03 -1.540321662869486e+02 -2.918975276816622e+03
-1.147848715837169e+03 -1.540838353386414e+02 -2.918975276816622e+03
-1.147829036975572e+03 -1.559662353706375e+02 -2.918975276816622e+03
-1.147859828135550e+03 -1.601736479036215e+02 -2.918975276816622e+03
-1.147876468306247e+03 -1.612317927189912e+02 -2.918975276816622e+03
-1.147875060971416e+03 -1.631945301774060e+02 -2.918975276816622e+03
-1.147908094156425e+03 -1.647396052636779e+02 -2.918975276816622e+03
-1.148012093439389e+03 -1.696035872433501e+02 -2.918975276816622e+03
-1.147800731287908e+03 -1.702535402214397e+02 -2.918975276816622e+03
-1.147973431717982e+03 -1.724231656167401e+02 -2.918975276816622e+03
-1.147979065561746e+03 -1.756627069301312e+02 -2.918975276816622e+03
-1.148037711446925e+03 -1.783141626753529e+02 -2.918975276816622e+03
-1.147980354047300e+03 -1.801815032545636e+02 -2.918975276816622e+03
-1.148078295690146e+03 -1.812669608913091e+02 -2.918975276816622e+03
-1.147951743257028e+03 -1.831557265208906e+02 -2.918975276816622e+03
-1.147972702988857e+03 -1.847076437680689e+02 -2.918975276816622e+03
-1.147947774977719e+03 -1.894904917114663e+02 -2.918975276816622e+03
-1.147929432088699e+03 -1.901322978537083e+02 -2.918975276816622e+03
-1.147959669796334e+03 -1.919341241519411e+02 -2.918975276816622e+03
-1.147940226426317e+03 -1.939070969693689e+02 -2.918975276816622e+03
-1.147941346308184e+03 -1.943040055122122e+02 -2.918975276816622e+03
-1.147907593852536e+03 -1.960461297965305e+02 -2.918975276816622e+03
-1.147957275941549e+03 -2.000635513640571e+02 -2.918975276816622e+03
-1.147951486588423e+03 -2.010777050401269e+02 -2.918975276816622e+03
-1.147959585851052e+03 -2.031104128059272e+02 -2.918975276816622e+03
-1.147947259845637e+03 -2.040601259952210e+02 -2.918975276816622e+03
-1.147961823704155e+03 -2.060314421092134e+02 -2.918975276816622e+03
-1.147958480227622e+03 -2.070732415064210e+02 -2.918975276816622e+03
-1.147955992840110e+03 -2.095861145474458e+02 -2.918975276816622e+03
-1.147953393491867e+03 -2.103973584926055e+02 -2.918975276816622e+03
-1.147945209008655e+03 -2.124252755837124e+02 -2.918975276816622e+03
-1.147927716178907e+03 -2.156061901842401e+02 -2.918975276816622e+03
-1.147885342996562e+03 -2.182326398311809e+02 -2.918975276816622e+03
-1.147853977103968e+03 -2.201112503529725e+02 -2.918975276816622e+03
-1.147833033021335e+03 -2.212135296818167e+02 -2.918975276816622e+03
-1.147782256716634e+03 -2.230830953704128e+02 -2.918975276816622e+03
-1.147755831392877e+03 -2.246472468743808e+02 -2.918975276816622e+03
-1.147574489606112e+03 -2.294677745388056e+02 -2.918975276816622e+03
-1.147521357269192e+03 -2.301955105186142e+02 -2.918975276816622e+03
-1.147431097597883e+03 -2.319938625874176e+02 -2.918975276816622e+03
-1.147255804647828e+03 -2.337606066263611e+02 -2.918975276816622e+03
-1.147244789336637e+03 -2.338308907715042e+02 -2.918975276816622e+03
-1.147519589593893e+03 -2.355404066320192e+02 -2.918975276816622e+03
-1.147575212512065e+03 -2.381234903245389e+02 -2.918975276816622e+03
-1.147708282683943e+03 -2.401278054899745e+02 -2.918975276816622e+03
-1.147688387856334e+03 -2.411847825029205e+02 -2.918975276816622e+03
-1.147847817161130e+03 -2.431487200889674e+02 -2.918975276816622e+03
-1.147768743197478e+03 -2.444625675358301e+02 -2.918975276816622e+03
-1.147890828531792e+03 -2.470270511769999e+02 -2.918975276816622e+03
-1.147895996322294e+03 -2.470742712196313e+02 -2.918975276816622e+03
-1.147920657157942e+03 -2.498165778541625e+02 -2.918975276816622e+03
-1.147885745548488e+03 -2.508511412351486e+02 -2.918975276816622e+03
-1.147947976066825e+03 -2.516421814702336e+02 -2.918975276816622e+03
-1.147924813906319e+03 -2.539471528288371e+02 -2.918975276816622e+03
-1.148016032363986e+03 -2.552354222141092e+02 -2.918975276816622e+03
-1.147951671361623e+03 -2.574054370155461e+02 -2.918975276816622e+03
-1.147997426331489e+03 -2.577725322084440e+02 -2.918975276816622e+03
-1.148032680239613e+03 -2.601661956010255e+02 -2.918975276816622e+03
-1.148120646649861e+03 -2.609233539469510e+02 -2.918975276816622e+03
-1.148397327140124e+03 -2.632830129560239e+02 -2.918975276816622e+03
-1.148637209143797e+03 -2.660901447645841e+02 -2.918975276816622e+03
-1.148907435113858e+03 -2.675438804739677e+02 -2.918975276816622e+03
-1.147752598746498e+03 -2.679525501450059e+02 -2.918975276816622e+03
-1.149276782479424e+03 -2.692727785759932e+02 -2.918975276816622e+03
-1.148142047837062e+03 -2.697585439148521e+02 -2.918975276816622e+03
-1.148383964541987e+03 -2.710732238122164e+02 -2.918975276816622e+03
-1.147896749658713e+03 -2.738736585836699e+02 -2.918975276816622e+03
-1.148304481590490e+03 -2.758426729702339e+02 -2.918975276816622e+03
-1.147928614545535e+03 -2.775916239201385e+02 -2.918975276816622e+03
-1.147917810199368e+03 -2.802946027810308e+02 -2.918975276816622e+03
-1.147970118312146e+03 -2.843530275731637e+02 -2.918975276816622e+03
-1.148024421596903e+03 -2.858199685570272e+02 -2.918975276816622e+03
-1.148038226266704e+03 -2.877553413759462e+02 -2.918975276816622e+03
-1.148166739950436e+03 -2.950462415550607e+02 -2.918975276816622e+03
-1.148261380276399e+03 -2.985045963645514e+02 -2.918975276816622e+03
-1.148243017362153e+03 -3.001425712340484e+02 -2.918975276816622e+03
-1.148442894232760e+03 -3.037025689464844e+02 -2.918975276816622e+03
-1.148393948490761e+03 -3.043432501808637e+02 -2.918975276816622e+03
-1.148455783619674e+03 -3.072986769572931e+02 -2.918975276816622e+03
-1.148264348106582e+03 -3.106764649238825e+02 -2.918975276816622e+03
-1.148462303646381e+03 -3.141231691936235e+02 -2.918975276816622e+03
-1.148078440849845e+03 -3.179796961012775e+02 -2.918975276816622e+03
-1.148394967457635e+03 -3.209396213364790e+02 -2.918975276816622e+03
-1.146915396244701e+03 -3.208738732535559e+02 -2.918975276816622e+03
-1.147119935054463e+03 -3.226725640454794e+02 -2.918975276816622e+03
-1.147290413185860e+03 -3.243533163623956e+02 -2.918975276816622e+03
-1.147352042730816e+03 -3.277398380190220e+02 -2.918975276816622e+03
-1.146524346279913e+03 -3.286086635190299e+02 -2.918975276816622e+03
-1.147141911680372e+03 -3.303403475065196e+02 -2.918975276816622e+03
-1.147549709244643e+03 -3.327978683101687e+02 -2.918975276816622e+03
-1.147027903877687e+03 -3.352069495953201e+02 -2.918975276816622e+03
-1.148095421566073e+03 -3.388528891150815e+02 -2.918975276816622e+03
-1.147541403735533e+03 -3.430173177035067e+02 -2.918975276816622e+03
-1.148750814383878e+03 -3.451112139116345e+02 -2.918975276816622e+03
-1.147643835560896e+03 -3.463562406210586e+02 -2.918975276816622e+03
-1.148878041624515e+03 -3.469899950805171e+02 -2.918975276816622e+03
-1.148328288000598e+03 -3.490831126607602e+02 -2.918975276816622e+03
-1.147958297829131e+03 -3.525582075536100e+02 -2.918975276816622e+03
-1.147497474472162e+03 -3.535826375288307e+02 -2.918975276816622e+03
-1.148095843737919e+03 -3.563747303052573e+02 -2.918975276816622e+03
-1.147083372116642e+03 -3.561207825955946e+02 -2.918975276816622e+03
-1.147966888115962e+03 -3.580406021658446e+02 -2.918975276816622e+03
-1.147715726933615e+03 -3.588919186898743e+02 -2.918975276816622e+03
-1.148200014480610e+03 -3.622406890417490e+02 -2.918975276816622e+03
-1.148227725709975e+03 -3.696709057768066e+02 -2.918975276816622e+03
-1.148178841062108e+03 -3.717840570390487e+02 -2.918975276816622e+03
-1.148155672130957e+03 -3.740568129793724e+02 -2.918975276816622e+03
-1.148203903248280e+03 -3.743607296087739e+02 -2.918975276816622e+03
-1.148049178637721e+03 -3.763738339793432e+02 -2.918975276816622e+03
-1.148153756916840e+03 -3.775371310357212e+02 -2.918975276816622e+03
-1.147992090521785e+03 -3.796739221851999e+02 -2.918975276816622e+03
-1.148057821222903e+03 -3.800226908484676e+02 -2.918975276816622e+03
-1.148004912303329e+03 -3.823431514298418e+02 -2.918975276816622e+03
-1.148066560946377e+03 -3.860447001584877e+02 -2.918975276816622e+03
-1.148078214142471e+03  3.833374243745956e+02 -2.918975276816622e+03
-1.148108338657935e+03  3.785849555379446e+02 -2.918975276816622e+03
-1.148114874643495e+03  3.772900672755451e+02 -2.918975276816622e+03
-1.148122379745249e+03  3.765465707836318e+02 -2.918975276816622e+03
-1.148140152983660e+03  3.736666296239865e+02 -2.918975276816622e+03
-1.148193026702708e+03  3.684579802745899e+02 -2.918975276816622e+03
-1.148299763619206e+03  3.598559715429751e+02 -2.918975276816622e+03
-1.148250255540655e+03  3.575128870755094e+02 -2.918975276816622e+03
-1.148357895957622e+03  3.546558027115263e+02 -2.918975276816622e+03
-1.148412118397028e+03  3.527838774686443e+02 -2.918975276816622e+03
-1.148421634253799e+03  3.510815370863959e+02 -2.918975276816622e+03
-1.148307762688519e+03  3.487048711035675e+02 -2.918975276816622e+03
-1.148446091299164e+03  3.462327455775388e+02 -2.918975276816622e+03
-1.148172001472689e+03  3.445031217631824e+02 -2.918975276816622e+03
-1.148456439820954e+03  3.415435238808192e+02 -2.918975276816622e+03
-1.147612981686050e+03  3.405832238148680e+02 -2.918975276816622e+03
-1.148232024865031e+03  3.382656967619696e+02 -2.918975276816622e+03
-1.148247508463802e+03  3.297166732885746e+02 -2.918975276816622e+03
-1.148193994664749e+03  3.276549973252453e+02 -2.918975276816622e+03
-1.147944028063377e+03  3.260542991023235e+02 -2.918975276816622e+03
-1.147755565015162e+03  3.235118980299573e+02 -2.918975276816622e+03
-1.147755519434411e+03  3.234480873504787e+02 -2.918975276816622e+03
-1.148129415260702e+03  3.211799602917737e+02 -2.918975276816622e+03
-1.147873454735500e+03  3.203180602563945e+02 -2.918975276816622e+03
-1.148151083386504e+03  3.172679468335749e+02 -2.918975276816622e+03
-1.147819604243135e+03  3.132840997449692e+02 -2.918975276816622e+03
-1.148093948317747e+03  3.120367860928175e+02 -2.918975276816622e+03
-1.147634636396356e+03  3.097344439715077e+02 -2.918975276816622e+03
-1.148027959231609e+03  3.069765266115168e+02 -2.918975276816622e+03
-1.147517718418452e+03  3.045157709230122e+02 -2.918975276816622e+03
-1.147709774441438e+03  3.033269710795622e+02 -2.918975276816622e+03
-1.147448940763333e+03  3.011703037026489e+02 -2.918975276816622e+03
-1.147549607321923e+03  2.962056623587719e+02 -2.918975276816622e+03
-1.147691929541457e+03  2.958485592413734e+02 -2.918975276816622e+03
-1.147726217803971e+03  2.936545088502022e+02 -2.918975276816622e+03
-1.147746917237252e+03  2.890418942064136e+02 -2.918975276816622e+03
-1.147729479340203e+03  2.884998514168697e+02 -2.918975276816622e+03
-1.147783127286224e+03  2.862363142156586e+02 -2.918975276816622e+03
-1.147805541392309e+03  2.831653985433833e+02 -2.918975276816622e+03
-1.147823336714077e+03  2.820150333241353e+02 -2.918975276816622e+03
-1.147823920866098e+03  2.801007932377310e+02 -2.918975276816622e+03
-1.147855439031044e+03  2.780118190838925e+02 -2.918975276816622e+03
-1.147835648316027e+03  2.761890914736857e+02 -2.918975276816622e+03
-1.147863281834001e+03  2.756842313505573e+02 -2.918975276816622e+03
-1.147829962978688e+03  2.742182109965300e+02 -2.918975276816622e+03
-1.147877934064966e+03  2.716918633304557e+02 -2.918975276816622e+03
-1.147827284684644e+03  2.708678218582044e+02 -2.918975276816622e+03
-1.147890186096641e+03  2.691430901755731e+02 -2.918975276816622e+03
-1.147809612862614e+03  2.666850673344385e+02 -2.918975276816622e+03
-1.147876250472460e+03  2.655676695236077e+02 -2.918975276816622e+03
-1.147799160413471e+03  2.630294052011944e+02 -2.918975276816622e+03
-1.147847855702753e+03  2.610225946410313e+02 -2.918975276816622e+03
-1.147776172045203e+03  2.599856401632462e+02 -2.918975276816622e+03
-1.147832388321479e+03  2.580451054874395e+02 -2.918975276816622e+03
-1.147805700556256e+03  2.567075573125426e+02 -2.918975276816622e+03
-1.147771425703277e+03  2.513857577787218e+02 -2.918975276816622e+03
-1.147705607716599e+03  2.502728152710047e+02 -2.918975276816622e+03
-1.147771691533360e+03  2.494849211439078e+02 -2.918975276816622e+03
-1.147676760069047e+03  2.471817428982008e+02 -2.918975276816622e+03
-1.147798171210752e+03  2.458177570485528e+02 -2.918975276816622e+03
-1.147633826827209e+03  2.437210038601793e+02 -2.918975276816622e+03
-1.147721583346209e+03  2.433636518532010e+02 -2.918975276816622e+03
-1.147561892498806e+03  2.407045264813786e+02 -2.918975276816622e+03
-1.147678293567119e+03  2.400922399468145e+02 -2.918975276816622e+03
-1.147494649922756e+03  2.385875275817222e+02 -2.918975276816622e+03
-1.147619746650806e+03  2.362918005922579e+02 -2.918975276816622e+03
-1.147435074278314e+03  2.353752379466600e+02 -2.918975276816622e+03
-1.147562630733403e+03  2.340497578264682e+02 -2.918975276816622e+03
-1.147280744465699e+03  2.320216121492223e+02 -2.918975276816622e+03
-1.147489135036642e+03  2.305160896108328e+02 -2.918975276816622e+03
-1.147206554416775e+03  2.293881738080536e+02 -2.918975276816622e+03
-1.147270032172016e+03  2.272738971227739e+02 -2.918975276816622e+03
-1.147163760104910e+03  2.262880463356895e+02 -2.918975276816622e+03
-1.147247631021614e+03  2.244130839205737e+02 -2.918975276816622e+03
-1.147034782388870e+03  2.233063548360041e+02 -2.918975276816622e+03
-1.147092961410872e+03  2.203779441073103e+02 -2.918975276816622e+03
-1.146392741981864e+03  2.161267307669899e+02 -2.918975276816622e+03
-1.146030480603866e+03  2.157448108744965e+02 -2.918975276816622e+03
-1.146591316872689e+03  2.142315525334277e+02 -2.918975276816622e+03
-1.146434764567123e+03  2.128817589787259e+02 -2.918975276816622e+03
-1.146716668422488e+03  2.118255935207527e+02 -2.918975276816622e+03
-1.146703944125151e+03  2.102759603671599e+02 -2.918975276816622e+03
-1.146998180963035e+03  2.091857216560804e+02 -2.918975276816622e+03
-1.146934276669901e+03  2.071999378826850e+02 -2.918975276816622e+03
-1.147142111538313e+03  2.059091405692954e+02 -2.918975276816622e+03
-1.147118696114043e+03  2.041627574240587e+02 -2.918975276816622e+03
-1.147235863586911e+03  2.032731800857127e+02 -2.918975276816622e+03
-1.146815665527074e+03  2.009425548174320e+02 -2.918975276816622e+03
-1.147368905733744e+03  2.003042200080205e+02 -2.918975276816622e+03
-1.147209746052502e+03  1.986615007137445e+02 -2.918975276816622e+03
-1.147173545367397e+03  1.963892652086325e+02 -2.918975276816622e+03
-1.147072977523950e+03  1.921380770059127e+02 -2.918975276816622e+03
-1.147204049439516e+03  1.903045618289580e+02 -2.918975276816622e+03
-1.147194745075995e+03  1.891611059049926e+02 -2.918975276816622e+03
-1.147208595700689e+03  1.872980552299017e+02 -2.918975276816622e+03
-1.147024470868548e+03  1.863090791752925e+02 -2.918975276816622e+03
-1.147087882837012e+03  1.844211321608963e+02 -2.918975276816622e+03
-1.146943719562524e+03  1.833620664168475e+02 -2.918975276816622e+03
-1.146955020315125e+03  1.805862566282284e+02 -2.918975276816622e+03
-1.146573692789166e+03  1.790806106897121e+02 -2.918975276816622e+03
-1.146760951453410e+03  1.783908872496020e+02 -2.918975276816622e+03
-1.146230137043335e+03  1.766390736403447e+02 -2.918975276816622e+03
-1.146462913723590e+03  1.761152264784304e+02 -2.918975276816622e+03
-1.146756586984016e+03  1.734328534688214e+02 -2.918975276816622e+03
-1.146666376759575e+03  1.717211242463142e+02 -2.918975276816622e+03
-1.146833516026127e+03  1.701616922252062e+02 -2.918975276816622e+03
-1.146973090048130e+03  1.691077788671688e+02 -2.918975276816622e+03
-1.147036981280285e+03  1.673402187810223e+02 -2.918975276816622e+03
-1.146955652997038e+03  1.662901645910966e+02 -2.918975276816622e+03
-1.146768028561191e+03  1.642437885453806e+02 -2.918975276816622e+03
-1.147059281800103e+03  1.632712075519446e+02 -2.918975276816622e+03
-1.147073314248336e+03  1.609285050604039e+02 -2.918975276816622e+03
-1.146871981612080e+03  1.603754146963798e+02 -2.918975276816622e+03
-1.146876221562756e+03  1.582386497083333e+02 -2.918975276816622e+03
-1.146616199837429e+03  1.563811376914339e+02 -2.918975276816622e+03
-1.146628583250541e+03  1.561975347702270e+02 -2.918975276816622e+03
-1.146760482555257e+03  1.531979105246770e+02 -2.918975276816622e+03
-1.146589024084108e+03  1.515842654048407e+02 -2.918975276816622e+03
-1.146905210500370e+03  1.499129374646485e+02 -2.918975276816622e+03
-1.146974013956986e+03  1.491401980967102e+02 -2.918975276816622e+03
-1.146998533628500e+03  1.474861746873729e+02 -2.918975276816622e+03
-1.146870156437557e+03  1.463682273614499e+02 -2.918975276816622e+03
-1.147031694397365e+03  1.444847395579574e+02 -2.918975276816622e+03
-1.146835789744624e+03  1.433829808884717e+02 -2.918975276816622e+03
-1.146985241717185e+03  1.409720720000002e+02 -2.918975276816622e+03
-1.146884810590529e+03  1.407384759123960e+02 -2.918975276816622e+03
-1.146957185928736e+03  1.386247055057952e+02 -2.918975276816622e+03
-1.146583891045452e+03  1.369948612409067e+02 -2.918975276816622e+03
-1.146676432721036e+03  1.365124304725055e+02 -2.918975276816622e+03
-1.146951574625508e+03  1.342186105581384e+02 -2.918975276816622e+03
-1.146956246637498e+03  1.330450047917251e+02 -2.918975276816622e+03
-1.147222006589189e+03  1.305103630170718e+02 -2.918975276816622e+03
-1.147436134554454e+03  1.292870991089463e+02 -2.918975276816622e+03
-1.147356812735733e+03  1.273729330918128e+02 -2.918975276816622e+03
-1.147329790580516e+03  1.257798332510483e+02 -2.918975276816622e+03
-1.147503094386445e+03  1.209924565502497e+02 -2.918975276816622e+03
-1.147559282204595e+03  1.201129458185615e+02 -2.918975276816622e+03
-1.147639636342011e+03  1.178654097392409e+02 -2.918975276816622e+03
-1.147630859909714e+03  1.148106257808946e+02 -2.918975276816622e+03
-1.147730260206049e+03  1.128857838511801e+02 -2.918975276816622e+03
-1.147690607829557e+03  1.120491309111608e+02 -2.918975276816622e+03
-1.147773457121870e+03  1.104968219528919e+02 -2.918975276816622e+03
-1.147697900395874e+03  1.094977529066148e+02 -2.918975276816622e+03
-1.147805304172286e+03  1.072227529413826e+02 -2.918975276816622e+03
-1.147758368666556e+03  1.061188130883369e+02 -2.918975276816622e+03
-1.147823158713811e+03  1.046481564089892e+02 -2.918975276816622e+03
-1.147667237869831e+03  1.034485002475106e+02 -2.918975276816622e+03
-1.147818236789862e+03  1.010488180411039e+02 -2.918975276816622e+03
-1.147687434623198e+03  1.000414594524674e+02 -2.918975276816622e+03
-1.147782846820064e+03  9.868035828350213e+01 -2.918975276816622e+03
-1.147557918811566e+03  9.716896028981473e+01 -2.918975276816622e+03
-1.147705988300147e+03  9.524194831545263e+01 -2.918975276816622e+03
-1.147446349148519e+03  9.135154899994245e+01 -2.918975276816622e+03
-1.147491322040802e+03  8.885153059498462e+01 -2.918975276816622e+03
-1.146905806312957e+03  8.570945713759750e+01 -2.918975276816622e+03
-1.147256275747827e+03  8.511613992837688e+01 -2.918975276816622e+03
-1.146839414285361e+03  8.447591886288149e+01 -2.918975276816622e+03
-1.148526291279827e+03  8.346561272206246e+01 -2.918975276816622e+03
-1.147081700206624e+03  8.262351396332316e+01 -2.918975276816622e+03
-1.147273372901811e+03  8.055808444506732e+01 -2.918975276816622e+03
-1.147144832818551e+03  7.857329244790397e+01 -2.918975276816622e+03
-1.147214075425123e+03  7.611044366147776e+01 -2.918975276816622e+03
-1.146991315127177e+03  7.364298765539301e+01 -2.918975276816622e+03
-1.147306488618341e+03  7.171343325282255e+01 -2.918975276816622e+03
-1.147475856412098e+03  7.074328499437375e+01 -2.918975276816622e+03
-1.147484377940883e+03  6.802751294514452e+01 -2.918975276816622e+03
-1.147290918052048e+03  6.739280290996389e+01 -2.918975276816622e+03
-1.147299756076001e+03  6.559899474424202e+01 -2.918975276816622e+03
-1.147262928973279e+03  6.195488518223141e+01 -2.918975276816622e+03
-1.147577324394278e+03  5.509633234432367e+01 -2.918975276816622e+03
-1.147721498625054e+03  5.302443253299146e+01 -2.918975276816622e+03
-1.147818660694438e+03  5.127060339267867e+01 -2.918975276816622e+03
-1.147818277075261e+03  4.959037031033237e+01 -2.918975276816622e+03
-1.148108851628250e+03  4.776603866476359e+01 -2.918975276816622e+03
-1.148077253317268e+03  4.626021832857522e+01 -2.918975276816622e+03
-1.148985788808313e+03  4.612157750256647e+01 -2.918975276816622e+03
-1.148436619736386e+03  4.459772431155213e+01 -2.918975276816622e+03
-1.148627791172619e+03  4.288714122449883e+01 -2.918975276816622e+03
-1.148265460736502e+03  4.144057686577480e+01 -2.918975276816622e+03
-1.148498320479920e+03  4.023141132983072e+01 -2.918975276816622e+03
-1.148706716280746e+03  3.763391975234033e+01 -2.918975276816622e+03
-1.148564088016692e+03  3.532829137572043e+01 -2.918975276816622e+03
-1.147877306991835e+03  3.168595756499313e+01 -2.918975276816622e+03
-1.148520356810362e+03  2.876154387970123e+01 -2.918975276816622e+03
-1.147884883097302e+03  2.289622121210255e+01 -2.918975276816622e+03
-1.148371236943049e+03  2.231109921396066e+01 -2.918975276816622e+03
-1.148033789998714e+03  2.088162199550352e+01 -2.918975276816622e+03
-1.147777434800211e+03  2.002047135713519e+01 -2.918975276816622e+03
-1.147813106426911e+03  1.797182494028374e+01 -2.918975276816622e+03
-1.148174947607454e+03  1.646698630501728e+01 -2.918975276816622e+03
-1.148407075985305e+03  1.368252609812620e+01 -2.918975276816622e+03
-1.148518584983856e+03  7.651601521655671e+00 -2.918975276816622e+03
-1.148538554109742e+03  6.181969109515560e+00 -2.918975276816622e+03
-1.148491525402950e+03  5.214963200449837e+00 -2.918975276816622e+03
1.145762025595707e+03 5.235608233268954e-01 2.918975276816622e+03
 1.145873654565622e+03 -3.682135717610596e-01  2.918975276816622e+03
 1.145740634789554e+03 -1.780981919666269e+00  2.918975276816622e+03
 1.145850418281720e+03 -3.629519157599066e+00  2.918975276816622e+03
 1.145785735144519e+03 -4.462127390221386e+00  2.918975276816622e+03
 1.145756984311296e+03 -8.848774402990257e+00  2.918975276816622e+03
 1.145722850771616e+03 -9.883615480894214e+00  2.918975276816622e+03
 1.145691312824737e+03 -1.175654309870948e+01  2.918975276816622e+03
 1.145590922240475e+03 -1.341553038760486e+01  2.918975276816622e+03
 1.145493162212174e+03 -1.706171247895711e+01  2.918975276816622e+03
 1.145602874590860e+03 -2.163300648498945e+01  2.918975276816622e+03
 1.145264637581334e+03 -2.390797572023356e+01  2.918975276816622e+03
 1.145007818626661e+03 -2.610814703440085e+01  2.918975276816622e+03
 1.145132398928680e+03 -2.782583089162668e+01  2.918975276816622e+03
 1.145119555977988e+03 -2.988173443845570e+01  2.918975276816622e+03
 1.144954918309494e+03 -3.030706807761979e+01  2.918975276816622e+03
 1.144886843496122e+03 -3.182023945430433e+01  2.918975276816622e+03
 1.144926712319108e+03 -3.326924814518840e+01  2.918975276816622e+03
 1.144761739061964e+03 -3.811287854203868e+01  2.918975276816622e+03
 1.144793540345338e+03 -3.918745465195612e+01  2.918975276816622e+03
 1.144589305234874e+03 -4.180062105734400e+01  2.918975276816622e+03
 1.144718265126217e+03 -4.498013078693846e+01  2.918975276816622e+03
 1.144574631259395e+03 -4.542307054967771e+01  2.918975276816622e+03
 1.144762283841409e+03 -4.717776845916640e+01  2.918975276816622e+03
 1.144577060372869e+03 -4.915903328777448e+01  2.918975276816622e+03
 1.144738237948777e+03 -5.031704260927235e+01  2.918975276816622e+03
 1.144608072512218e+03 -5.367648086943868e+01  2.918975276816622e+03
 1.145052320371046e+03 -5.501694052202784e+01  2.918975276816622e+03
 1.144634109191072e+03 -5.638726588249103e+01  2.918975276816622e+03
 1.144799100600971e+03 -5.869048694005259e+01  2.918975276816622e+03
 1.144638351093552e+03 -6.044271045731344e+01  2.918975276816622e+03
 1.145022742912496e+03 -6.245190323190607e+01  2.918975276816622e+03
 1.144764025246183e+03 -6.375097836170080e+01  2.918975276816622e+03
 1.145033771795172e+03 -6.518991585682124e+01  2.918975276816622e+03
 1.144876735663638e+03 -6.563501445204818e+01  2.918975276816622e+03
 1.144966972307069e+03 -6.705149902973751e+01  2.918975276816622e+03
 1.144798845769056e+03 -6.864954534667498e+01  2.918975276816622e+03
 1.144828480248199e+03 -7.031057843785052e+01  2.918975276816622e+03
 1.144794260998730e+03 -7.500759210032852e+01  2.918975276816622e+03
 1.144904778211189e+03 -7.870627755589656e+01  2.918975276816622e+03
 1.144850752126547e+03 -8.069698861577908e+01  2.918975276816622e+03
 1.144991797403174e+03 -8.229552605342889e+01  2.918975276816622e+03
 1.144911185805254e+03 -8.395204633715052e+01  2.918975276816622e+03
 1.145044187593237e+03 -8.500066509845992e+01  2.918975276816622e+03
 1.145043290885731e+03 -8.512355984061918e+01  2.918975276816622e+03
 1.145083311123530e+03 -8.619255494972811e+01  2.918975276816622e+03
 1.144959418679319e+03 -8.723486894090901e+01  2.918975276816622e+03
 1.145019945521057e+03 -8.884544394331623e+01  2.918975276816622e+03
 1.144951043824034e+03 -9.022859413910456e+01  2.918975276816622e+03
 1.144905578979663e+03 -9.472849793388644e+01  2.918975276816622e+03
 1.144955408364789e+03 -9.802675087208351e+01  2.918975276816622e+03
 1.144945881365889e+03 -9.937856326078592e+01  2.918975276816622e+03
 1.145002804966807e+03 -1.017492863752545e+02  2.918975276816622e+03
 1.145049503366369e+03 -1.027815600967369e+02  2.918975276816622e+03
 1.145123196115989e+03 -1.041331987378603e+02  2.918975276816622e+03
 1.144975940152005e+03 -1.042848541610899e+02  2.918975276816622e+03
 1.144916704348214e+03 -1.055787805127661e+02  2.918975276816622e+03
 1.144995405066484e+03 -1.060995245446819e+02  2.918975276816622e+03
 1.144941864050603e+03 -1.069909682915023e+02  2.918975276816622e+03
 1.144739814853877e+03 -1.086323148405004e+02  2.918975276816622e+03
 1.144712773257653e+03 -1.101999605969665e+02  2.918975276816622e+03
 1.144395968448662e+03 -1.149614536744071e+02  2.918975276816622e+03
 1.144656028134130e+03 -1.192370303404075e+02  2.918975276816622e+03
 1.146295826674303e+03 -1.196579911012921e+02  2.918975276816622e+03
 1.144187932613317e+03 -1.214829861371224e+02  2.918975276816622e+03
 1.145003610435372e+03 -1.241018455161377e+02  2.918975276816622e+03
 1.144782852104638e+03 -1.256711520482444e+02  2.918975276816622e+03
 1.145094202205884e+03 -1.269057211220082e+02  2.918975276816622e+03
 1.144906650139537e+03 -1.287936864263331e+02  2.918975276816622e+03
 1.144772520200852e+03 -1.301893831463085e+02  2.918975276816622e+03
 1.144973433699193e+03 -1.347049999187536e+02  2.918975276816622e+03
 1.144995314862244e+03 -1.379006507180318e+02  2.918975276816622e+03
 1.145020685379211e+03 -1.392790057596922e+02  2.918975276816622e+03
 1.144914811298481e+03 -1.429661824189843e+02  2.918975276816622e+03
 1.145021831012851e+03 -1.447768256496551e+02  2.918975276816622e+03
 1.144792164206203e+03 -1.468465449002510e+02  2.918975276816622e+03
 1.144867823983156e+03 -1.486570193879732e+02  2.918975276816622e+03
 1.144939334870731e+03 -1.502221539336086e+02  2.918975276816622e+03
 1.144937322289771e+03 -1.549097935182018e+02  2.918975276816622e+03
 1.144909517601089e+03 -1.587020609664661e+02  2.918975276816622e+03
 1.144910842823084e+03 -1.605051073005555e+02  2.918975276816622e+03
 1.144932529605088e+03 -1.620741745161063e+02  2.918975276816622e+03
 1.144723958119265e+03 -1.639503421620766e+02  2.918975276816622e+03
 1.144955044353000e+03 -1.651419857823958e+02  2.918975276816622e+03
 1.145093579619095e+03 -1.655149762418605e+02  2.918975276816622e+03
 1.145059476215839e+03 -1.672185235112881e+02  2.918975276816622e+03
 1.144907696505874e+03 -1.686712854412775e+02  2.918975276816622e+03
 1.144961952672986e+03 -1.701800324463885e+02  2.918975276816622e+03
 1.144918189101574e+03 -1.750288018706920e+02  2.918975276816622e+03
 1.144796828393402e+03 -1.783825882572632e+02  2.918975276816622e+03
 1.144574870701826e+03 -1.804799768079396e+02  2.918975276816622e+03
 1.144900092883072e+03 -1.814724448231271e+02  2.918975276816622e+03
 1.145073070278382e+03 -1.821962761723435e+02  2.918975276816622e+03
 1.144902409433417e+03 -1.833026919923029e+02  2.918975276816622e+03
 1.144870912709454e+03 -1.858343087423744e+02  2.918975276816622e+03
 1.145119214335425e+03 -1.873113130205769e+02  2.918975276816622e+03
 1.145063308499798e+03 -1.888414689884467e+02  2.918975276816622e+03
 1.145168518528303e+03 -1.902678723058541e+02  2.918975276816622e+03
 1.145092449292913e+03 -1.948949553865445e+02  2.918975276816622e+03
 1.144839013041141e+03 -1.986802285777559e+02  2.918975276816622e+03
 1.144771433490283e+03 -2.009082669688236e+02  2.918975276816622e+03
 1.144476187917564e+03 -2.012012743276483e+02  2.918975276816622e+03
 1.144967638970559e+03 -2.029309536380349e+02  2.918975276816622e+03
 1.144867559053560e+03 -2.044872594536067e+02  2.918975276816622e+03
 1.144332400007376e+03 -2.049027974744859e+02  2.918975276816622e+03
 1.144922620874928e+03 -2.068970141999754e+02  2.918975276816622e+03
 1.145049794344935e+03 -2.083500857634083e+02  2.918975276816622e+03
 1.145061174188534e+03 -2.101298527697545e+02  2.918975276816622e+03
 1.144982039296411e+03 -2.147486311508247e+02  2.918975276816622e+03
 1.144779698496702e+03 -2.170957795666619e+02  2.918975276816622e+03
 1.144835887309608e+03 -2.185891787748597e+02  2.918975276816622e+03
 1.144922300391890e+03 -2.212014379958233e+02  2.918975276816622e+03
 1.145154579451969e+03 -2.227199192557003e+02  2.918975276816622e+03
 1.144977604220252e+03 -2.241612158641258e+02  2.918975276816622e+03
 1.144837803096093e+03 -2.253016541909003e+02  2.918975276816622e+03
 1.144803455798383e+03 -2.288667253678639e+02  2.918975276816622e+03
 1.144696200788136e+03 -2.301579101016472e+02  2.918975276816622e+03
 1.144788151380163e+03 -2.329015892186718e+02  2.918975276816622e+03
 1.144575791099221e+03 -2.340710339368403e+02  2.918975276816622e+03
 1.144744751370189e+03 -2.367834190000584e+02  2.918975276816622e+03
 1.144431999301510e+03 -2.388161444874640e+02  2.918975276816622e+03
 1.144678461707371e+03 -2.413790775625107e+02  2.918975276816622e+03
 1.144386752724227e+03 -2.448473917087152e+02  2.918975276816622e+03
 1.144852550713924e+03 -2.478232094885286e+02  2.918975276816622e+03
 1.144331575028197e+03 -2.489497310193951e+02  2.918975276816622e+03
 1.144678016941942e+03 -2.530071237745717e+02  2.918975276816622e+03
 1.144765232944888e+03 -2.551983218322176e+02  2.918975276816622e+03
 1.145366319402842e+03 -2.567569481483158e+02  2.918975276816622e+03
 1.145118162413831e+03 -2.572667596840253e+02  2.918975276816622e+03
 1.145211623122269e+03 -2.586097781794537e+02  2.918975276816622e+03
 1.144903791302385e+03 -2.610346068893768e+02  2.918975276816622e+03
 1.144918234163625e+03 -2.657618215862302e+02  2.918975276816622e+03
 1.145066163195841e+03 -2.691080734227273e+02  2.918975276816622e+03
 1.145044238718685e+03 -2.700518287208816e+02  2.918975276816622e+03
 1.145160472967618e+03 -2.727540592069639e+02  2.918975276816622e+03
 1.145200696895786e+03 -2.734040873136529e+02  2.918975276816622e+03
 1.145310380111967e+03 -2.758358820341879e+02  2.918975276816622e+03
 1.145322914720196e+03 -2.785663834454386e+02  2.918975276816622e+03
 1.145495905994006e+03 -2.833106124556561e+02  2.918975276816622e+03
 1.145452989086299e+03 -2.867022276590952e+02  2.918975276816622e+03
 1.145526319210018e+03 -2.884854213633017e+02  2.918975276816622e+03
 1.145475257485400e+03 -2.907296115567429e+02  2.918975276816622e+03
 1.145643981111409e+03 -2.929547271451816e+02  2.918975276816622e+03
 1.145491398375002e+03 -2.948987962845825e+02  2.918975276816622e+03
 1.145532496296098e+03 -2.988516635328822e+02  2.918975276816622e+03
 1.145498476526353e+03 -2.991874518655194e+02  2.918975276816622e+03
 1.145423434162131e+03 -3.026545929544177e+02  2.918975276816622e+03
 1.145382673841815e+03 -3.036236598786551e+02  2.918975276816622e+03
 1.145152073674337e+03 -3.082078943063947e+02  2.918975276816622e+03
 1.145115893121098e+03 -3.100956861560278e+02  2.918975276816622e+03
 1.145057390540069e+03 -3.122237726623770e+02  2.918975276816622e+03
 1.145083363607398e+03 -3.134326281059708e+02  2.918975276816622e+03
 1.144765779683794e+03 -3.148744565998014e+02  2.918975276816622e+03
 1.144808964857592e+03 -3.177829482784988e+02  2.918975276816622e+03
 1.144939582381216e+03 -3.191987236106228e+02  2.918975276816622e+03
 1.144907018314078e+03 -3.216120374000445e+02  2.918975276816622e+03
 1.144643071388214e+03 -3.232502714177446e+02  2.918975276816622e+03
 1.144982878699335e+03 -3.261327181648842e+02  2.918975276816622e+03
 1.144799718887618e+03 -3.264529189160445e+02  2.918975276816622e+03
 1.144936385048247e+03 -3.290458785736039e+02  2.918975276816622e+03
 1.144764389672012e+03 -3.317066628174854e+02  2.918975276816622e+03
 1.144859524034679e+03 -3.343411242333817e+02  2.918975276816622e+03
 1.144675891313602e+03 -3.379051950772878e+02  2.918975276816622e+03
 1.144692359031111e+03 -3.388317051716313e+02  2.918975276816622e+03
 1.144602457784511e+03 -3.405468530143737e+02  2.918975276816622e+03
 1.144834565201753e+03 -3.430431176134923e+02  2.918975276816622e+03
 1.144423194289071e+03 -3.450350943258874e+02  2.918975276816622e+03
 1.144297817633230e+03 -3.484298703598833e+02  2.918975276816622e+03
 1.143466653768462e+03 -3.514560113844703e+02  2.918975276816622e+03
 1.143785577945742e+03 -3.533261006010438e+02  2.918975276816622e+03
 1.143609282835664e+03 -3.539424064737901e+02  2.918975276816622e+03
 1.144488269049575e+03 -3.559044558268502e+02  2.918975276816622e+03
 1.144000064200309e+03 -3.567916893944405e+02  2.918975276816622e+03
 1.145093009817467e+03 -3.598564544497797e+02  2.918975276816622e+03
 1.143898558806427e+03 -3.618761617304740e+02  2.918975276816622e+03
 1.144778732409856e+03 -3.642184068423369e+02  2.918975276816622e+03
 1.144852891850782e+03 -3.668408910486099e+02  2.918975276816622e+03
 1.145118806985765e+03 -3.685581784200025e+02  2.918975276816622e+03
 1.145052250477243e+03 -3.713540386641997e+02  2.918975276816622e+03
 1.145091278611769e+03 -3.716751348350949e+02  2.918975276816622e+03
 1.145093413621769e+03 -3.752687402281533e+02  2.918975276816622e+03
 1.145133912619525e+03 -3.778620519761184e+02  2.918975276816622e+03
 1.145181273349889e+03 -3.828864943084032e+02  2.918975276816622e+03
 1.145164145176787e+03 -3.834896535280208e+02  2.918975276816622e+03
1.145248905861991e+03 3.848677283099657e+02 2.918975276816622e+03
1.145302940546088e+03 3.813321819594453e+02 2.918975276816622e+03
1.145485828742549e+03 3.789285790681460e+02 2.918975276816622e+03
1.145272953747289e+03 3.780212058973347e+02 2.918975276816622e+03
1.145480074315451e+03 3.762925713067755e+02 2.918975276816622e+03
1.145307687131517e+03 3.736863102993243e+02 2.918975276816622e+03
1.144980165046482e+03 3.727714758651240e+02 2.918975276816622e+03
1.144940043342485e+03 3.712274177496496e+02 2.918975276816622e+03
1.144838146711828e+03 3.682969955432605e+02 2.918975276816622e+03
1.143972792600181e+03 3.685669562776490e+02 2.918975276816622e+03
1.144427587190462e+03 3.672429301428052e+02 2.918975276816622e+03
1.144551929504380e+03 3.653336750469085e+02 2.918975276816622e+03
1.144752737772478e+03 3.626139806135701e+02 2.918975276816622e+03
1.144967014013060e+03 3.599596161396106e+02 2.918975276816622e+03
1.145069477615237e+03 3.582852118068795e+02 2.918975276816622e+03
1.145102168173392e+03 3.571776159183246e+02 2.918975276816622e+03
1.145199418387636e+03 3.554698287406360e+02 2.918975276816622e+03
1.145526548771196e+03 3.538219279675320e+02 2.918975276816622e+03
1.145427714432439e+03 3.519988150269742e+02 2.918975276816622e+03
1.145550630783816e+03 3.505754640414501e+02 2.918975276816622e+03
1.145549171095939e+03 3.481476466728801e+02 2.918975276816622e+03
1.145922686966397e+03 3.472176578454927e+02 2.918975276816622e+03
1.145616329546983e+03 3.447373716152892e+02 2.918975276816622e+03
1.146113624294217e+03 3.435539114243407e+02 2.918975276816622e+03
1.145783130164907e+03 3.416383129008678e+02 2.918975276816622e+03
1.145875570141487e+03 3.398875107884951e+02 2.918975276816622e+03
1.146115599506003e+03 3.381725115885619e+02 2.918975276816622e+03
1.146436438593458e+03 3.347181150743959e+02 2.918975276816622e+03
1.146388815205555e+03 3.314534874161016e+02 2.918975276816622e+03
1.146475882093537e+03 3.289751868150248e+02 2.918975276816622e+03
1.146816308681513e+03 3.288447143577816e+02 2.918975276816622e+03
1.146062330777529e+03 3.267582063145080e+02 2.918975276816622e+03
1.147183420470991e+03 3.267282636174878e+02 2.918975276816622e+03
1.146525255420507e+03 3.253365601360841e+02 2.918975276816622e+03
1.146378572330616e+03 3.232451861282087e+02 2.918975276816622e+03
1.145820436123193e+03 3.213810294628155e+02 2.918975276816622e+03
1.146112927697296e+03 3.193689227434823e+02 2.918975276816622e+03
1.146105034906050e+03 3.185120501456025e+02 2.918975276816622e+03
1.146068424610018e+03 3.159245414170009e+02 2.918975276816622e+03
1.145760905018251e+03 3.134113025843027e+02 2.918975276816622e+03
1.145939588422420e+03 3.117707794584838e+02 2.918975276816622e+03
1.145834285066255e+03 3.113276725681371e+02 2.918975276816622e+03
1.145923543364408e+03 3.096056027568212e+02 2.918975276816622e+03
1.145868450326311e+03 3.077895692918998e+02 2.918975276816622e+03
1.145884330187577e+03 3.064933250011830e+02 2.918975276816622e+03
1.145970683435950e+03 3.019288325532218e+02 2.918975276816622e+03
1.145948776470359e+03 3.010770714041453e+02 2.918975276816622e+03
1.145946727069566e+03 2.989365079367852e+02 2.918975276816622e+03
1.145888031510467e+03 2.975573555768153e+02 2.918975276816622e+03
1.145943638156712e+03 2.955170813179677e+02 2.918975276816622e+03
1.145952511238985e+03 2.939687603827048e+02 2.918975276816622e+03
1.145957455853333e+03 2.917948983397797e+02 2.918975276816622e+03
1.145877589522460e+03 2.870284138829670e+02 2.918975276816622e+03
1.145805155541727e+03 2.850085271533915e+02 2.918975276816622e+03
1.145802923071030e+03 2.829723330843013e+02 2.918975276816622e+03
1.145618321363424e+03 2.810023827892048e+02 2.918975276816622e+03
1.145284177339279e+03 2.771969797020612e+02 2.918975276816622e+03
1.145378791797473e+03 2.750976367850662e+02 2.918975276816622e+03
1.145256323570803e+03 2.711687503008818e+02 2.918975276816622e+03
1.145022374120628e+03 2.666496954871911e+02 2.918975276816622e+03
1.144957851161274e+03 2.651425161651287e+02 2.918975276816622e+03
1.144774144383025e+03 2.623975011747595e+02 2.918975276816622e+03
1.144583884237310e+03 2.593289504653947e+02 2.918975276816622e+03
1.144748234472683e+03 2.582118696312708e+02 2.918975276816622e+03
1.144034785829410e+03 2.534214039085153e+02 2.918975276816622e+03
1.143699721592085e+03 2.522918954647053e+02 2.918975276816622e+03
1.144102092391891e+03 2.502792021053911e+02 2.918975276816622e+03
1.142803636216731e+03 2.493360358639068e+02 2.918975276816622e+03
1.142683603731110e+03 2.477717723175770e+02 2.918975276816622e+03
1.141541813619042e+03 2.468354149944160e+02 2.918975276816622e+03
1.144940329493776e+03 2.461064527333644e+02 2.918975276816622e+03
1.144807202052060e+03 2.455047533336613e+02 2.918975276816622e+03
1.144958095651574e+03 2.443338656878134e+02 2.918975276816622e+03
1.144850037260566e+03 2.428293260289060e+02 2.918975276816622e+03
1.144935242750380e+03 2.420726896440769e+02 2.918975276816622e+03
1.144866870802287e+03 2.402514942272642e+02 2.918975276816622e+03
1.144882339084000e+03 2.355491755405624e+02 2.918975276816622e+03
1.144893090442027e+03 2.339539413807128e+02 2.918975276816622e+03
1.144950167362336e+03 2.313472403782724e+02 2.918975276816622e+03
1.145048065857543e+03 2.288274697751730e+02 2.918975276816622e+03
1.145415123774850e+03 2.272948057543974e+02 2.918975276816622e+03
1.145163013090495e+03 2.262000436797550e+02 2.918975276816622e+03
1.145202444628904e+03 2.250304513694327e+02 2.918975276816622e+03
1.145350580085022e+03 2.248754025971880e+02 2.918975276816622e+03
1.145223101285122e+03 2.236549058500994e+02 2.918975276816622e+03
1.145074900285516e+03 2.218263051081355e+02 2.918975276816622e+03
1.145061265972026e+03 2.202237354347431e+02 2.918975276816622e+03
1.145112168468770e+03 2.158155244183643e+02 2.918975276816622e+03
1.145243408309510e+03 2.127312412852942e+02 2.918975276816622e+03
1.145291397456573e+03 2.112080862628748e+02 2.918975276816622e+03
1.145432160803064e+03 2.087631315817977e+02 2.918975276816622e+03
1.145504856822379e+03 2.077555630130190e+02 2.918975276816622e+03
1.145580536715238e+03 2.063435365559084e+02 2.918975276816622e+03
1.145595099947346e+03 2.061742743154377e+02 2.918975276816622e+03
1.145652205501946e+03 2.046695236891452e+02 2.918975276816622e+03
1.145632849722699e+03 2.039516572598205e+02 2.918975276816622e+03
1.145711734654540e+03 2.026293623688195e+02 2.918975276816622e+03
1.145676811486662e+03 2.012893370144371e+02 2.918975276816622e+03
1.145755416493609e+03 2.002407092814660e+02 2.918975276816622e+03
1.145731287696700e+03 1.955968200478238e+02 2.918975276816622e+03
1.144930235207279e+03 1.923972474274253e+02 2.918975276816622e+03
1.145476070666471e+03 1.890116063938531e+02 2.918975276816622e+03
1.144949923034965e+03 1.880279292274304e+02 2.918975276816622e+03
1.145624593980683e+03 1.869382365409711e+02 2.918975276816622e+03
1.145403014740217e+03 1.861761448173966e+02 2.918975276816622e+03
1.145819938673059e+03 1.848898575178681e+02 2.918975276816622e+03
1.145641436718138e+03 1.848940154806751e+02 2.918975276816622e+03
1.145634456819470e+03 1.835444003851317e+02 2.918975276816622e+03
1.145463555434895e+03 1.818699926148893e+02 2.918975276816622e+03
1.145453758397184e+03 1.803191795723518e+02 2.918975276816622e+03
1.145472657381276e+03 1.758104223951172e+02 2.918975276816622e+03
1.145551426102835e+03 1.728874956398080e+02 2.918975276816622e+03
1.145559880264456e+03 1.713537169301050e+02 2.918975276816622e+03
1.145665052621709e+03 1.686585239877446e+02 2.918975276816622e+03
1.145709693812285e+03 1.681687605919497e+02 2.918975276816622e+03
1.145687514339802e+03 1.668636351134619e+02 2.918975276816622e+03
1.145847914886447e+03 1.658805272419125e+02 2.918975276816622e+03
1.145932222773732e+03 1.647226614585727e+02 2.918975276816622e+03
1.145762863845270e+03 1.642835853896193e+02 2.918975276816622e+03
1.145871007954071e+03 1.628493658293596e+02 2.918975276816622e+03
1.145513634758045e+03 1.615149936764540e+02 2.918975276816622e+03
1.145764586637678e+03 1.603267765937654e+02 2.918975276816622e+03
1.145262444602454e+03 1.563613975942106e+02 2.918975276816622e+03
1.145506925624597e+03 1.540336819561227e+02 2.918975276816622e+03
1.145205704868789e+03 1.512710901195857e+02 2.918975276816622e+03
1.145654593435481e+03 1.471980372618043e+02 2.918975276816622e+03
1.145493059444656e+03 1.460567786579315e+02 2.918975276816622e+03
1.145355255443285e+03 1.453430333057252e+02 2.918975276816622e+03
1.145416178790341e+03 1.450870864489732e+02 2.918975276816622e+03
1.145393486382514e+03 1.438015113847079e+02 2.918975276816622e+03
1.145186102118204e+03 1.418466739859285e+02 2.918975276816622e+03
1.145172642882721e+03 1.404163899672162e+02 2.918975276816622e+03
1.145007418234060e+03 1.360132231142121e+02 2.918975276816622e+03
1.145041623461249e+03 1.329154368923959e+02 2.918975276816622e+03
1.144981309790974e+03 1.312901870892727e+02 2.918975276816622e+03
1.145066856782252e+03 1.289094498383994e+02 2.918975276816622e+03
1.144962914587600e+03 1.278072547026637e+02 2.918975276816622e+03
1.144976554949521e+03 1.264502734031624e+02 2.918975276816622e+03
1.145090014083879e+03 1.262785183534776e+02 2.918975276816622e+03
1.145197625896762e+03 1.249994844542881e+02 2.918975276816622e+03
1.144997414864493e+03 1.248636907505615e+02 2.918975276816622e+03
1.145001139205328e+03 1.236183296010037e+02 2.918975276816622e+03
1.144948684092075e+03 1.219731255320257e+02 2.918975276816622e+03
1.144881364441345e+03 1.204643772781818e+02 2.918975276816622e+03
1.144645594938326e+03 1.159787935753631e+02 2.918975276816622e+03
1.144714000317647e+03 1.125610194151003e+02 2.918975276816622e+03
1.144413442535062e+03 1.111864168015608e+02 2.918975276816622e+03
1.144728208639776e+03 1.089773491762544e+02 2.918975276816622e+03
1.144157640296682e+03 1.078084104704383e+02 2.918975276816622e+03
1.144662209126663e+03 1.066854320245594e+02 2.918975276816622e+03
1.144025835229199e+03 1.054517118665430e+02 2.918975276816622e+03
1.144030268249798e+03 1.046093297918106e+02 2.918975276816622e+03
1.144253740351256e+03 1.035012948418931e+02 2.918975276816622e+03
1.144348507890778e+03 1.017192289861264e+02 2.918975276816622e+03
1.144448287490619e+03 1.005658785545094e+02 2.918975276816622e+03
1.145017981140999e+03 9.563723153538513e+01 2.918975276816622e+03
1.145009491045149e+03 9.355503311215529e+01 2.918975276816622e+03
1.145232259907559e+03 8.913822805994161e+01 2.918975276816622e+03
1.145884275110698e+03 8.905667777937030e+01 2.918975276816622e+03
1.145662696654276e+03 8.390510712939248e+01 2.918975276816622e+03
1.145366522793202e+03 8.028867510248969e+01 2.918975276816622e+03
1.145852691159596e+03 7.937779351842775e+01 2.918975276816622e+03
1.145609084138727e+03 7.751526185220986e+01 2.918975276816622e+03
1.146146322094199e+03 7.567954557467519e+01 2.918975276816622e+03
1.146333279728891e+03 7.366041213456070e+01 2.918975276816622e+03
1.145789620020007e+03 7.242027673450387e+01 2.918975276816622e+03
1.145713588272033e+03 7.156627733112632e+01 2.918975276816622e+03
1.146689074694012e+03 6.925145238413170e+01 2.918975276816622e+03
1.146507311171911e+03 6.663209290268111e+01 2.918975276816622e+03
1.149067574542505e+03 6.586231736365721e+01 2.918975276816622e+03
1.146815107736395e+03 6.401800985912838e+01 2.918975276816622e+03
1.146338522256018e+03 6.020371056043997e+01 2.918975276816622e+03
1.145819654218129e+03 5.818012123229558e+01 2.918975276816622e+03
1.145715695369628e+03 5.667219078536879e+01 2.918975276816622e+03
1.145324261091424e+03 5.421378556877451e+01 2.918975276816622e+03
1.145328626914740e+03 5.219210769189458e+01 2.918975276816622e+03
1.145488313296365e+03 5.037605067391802e+01 2.918975276816622e+03
1.145358389068746e+03 4.931206039678787e+01 2.918975276816622e+03
1.145607559592819e+03 4.792854009492226e+01 2.918975276816622e+03
1.145454791775643e+03 4.703654596147639e+01 2.918975276816622e+03
1.145706225263033e+03 4.420455848395976e+01 2.918975276816622e+03
1.145596414141833e+03 4.243582630482684e+01 2.918975276816622e+03
1.145751650314189e+03 4.173708911168734e+01 2.918975276816622e+03
1.145676425721636e+03 4.022666810714315e+01 2.918975276816622e+03
1.145892211451212e+03 3.816287774390597e+01 2.918975276816622e+03
1.145846220452005e+03 3.594265308173943e+01 2.918975276816622e+03
1.145990248490209e+03 3.383679045092060e+01 2.918975276816622e+03
1.146168076041733e+03 2.916797604044844e+01 2.918975276816622e+03
1.146340440844215e+03 2.732825741222706e+01 2.918975276816622e+03
1.146371724758671e+03 2.372625214679899e+01 2.918975276816622e+03
1.146865022020920e+03 2.115529687639524e+01 2.918975276816622e+03
1.146680601818884e+03 1.953939724460871e+01 2.918975276816622e+03
1.147365700492611e+03 1.812945844387327e+01 2.918975276816622e+03
1.147656603207685e+03 1.359820114867219e+01 2.918975276816622e+03
1.148533146064429e+03 1.204261193000285e+01 2.918975276816622e+03
1.145114106073325e+03 1.088331187658878e+01 2.918975276816622e+03
1.145846668309147e+03 9.652051420678383e+00 2.918975276816622e+03
1.145591201468402e+03 7.525066612036596e+00 2.918975276816622e+03
1.145894202100779e+03 4.478212157079414e+00 2.918975276816622e+03
1.145570360606855e+03 2.870115973213043e+00 2.918975276816622e+03
-1.157325874351018e+03  1.302015345734385e+00 -2.918975276816622e+03
-1.157249636628940e+03 -2.014749474955449e+00 -2.918975276816622e+03
-1.157696840587288e+03 -2.748889453149716e+00 -2.918975276816622e+03
-1.157399064328099e+03 -6.170443202596553e+00 -2.918975276816622e+03
-1.157981507214008e+03 -1.082786110589483e+01 -2.918975276816622e+03
-1.157690012811443e+03 -1.153235069578964e+01 -2.918975276816622e+03
-1.157431183838660e+03 -1.380895699329978e+01 -2.918975276816622e+03
-1.157401782510867e+03 -1.458288714228564e+01 -2.918975276816622e+03
-1.157751005193731e+03 -1.684939833174634e+01 -2.918975276816622e+03
-1.157201527649131e+03 -2.085960810384812e+01 -2.918975276816622e+03
-1.158511514378931e+03 -2.317428824018797e+01 -2.918975276816622e+03
-1.157645580478940e+03 -2.579063267114116e+01 -2.918975276816622e+03
-1.158920380604598e+03 -2.874439113695878e+01 -2.918975276816622e+03
-1.155583167520473e+03 -2.819395071405618e+01 -2.918975276816622e+03
-1.156417829532872e+03 -3.028993191489943e+01 -2.918975276816622e+03
-1.156609995330489e+03 -3.252581846680169e+01 -2.918975276816622e+03
-1.157039596031210e+03 -3.449584937862515e+01 -2.918975276816622e+03
-1.156745158501345e+03 -3.582591445279487e+01 -2.918975276816622e+03
-1.156984100434325e+03 -3.727755714848811e+01 -2.918975276816622e+03
-1.156788521471438e+03 -4.048797152538944e+01 -2.918975276816622e+03
-1.156955501694419e+03 -4.129341725866772e+01 -2.918975276816622e+03
-1.156792451648198e+03 -4.355752326872218e+01 -2.918975276816622e+03
-1.156936819203852e+03 -4.524734341088842e+01 -2.918975276816622e+03
-1.156757399946486e+03 -4.578539318900233e+01 -2.918975276816622e+03
-1.156883003294644e+03 -4.742728567005029e+01 -2.918975276816622e+03
-1.156749446578739e+03 -4.969088003067582e+01 -2.918975276816622e+03
-1.156798276327398e+03 -5.054874778971386e+01 -2.918975276816622e+03
-1.156694829594789e+03 -5.218409560489057e+01 -2.918975276816622e+03
-1.156760892323562e+03 -5.517776181401361e+01 -2.918975276816622e+03
-1.156706287632771e+03 -5.626903703292143e+01 -2.918975276816622e+03
-1.156740277490144e+03 -5.865830648710303e+01 -2.918975276816622e+03
-1.156720429666889e+03 -6.044910261608859e+01 -2.918975276816622e+03
-1.156715900108888e+03 -6.139286822017215e+01 -2.918975276816622e+03
-1.156739037542307e+03 -6.352941784978931e+01 -2.918975276816622e+03
-1.156767447201766e+03 -6.488345536008963e+01 -2.918975276816622e+03
-1.156755758599886e+03 -6.598804821392106e+01 -2.918975276816622e+03
-1.156737395620808e+03 -6.745358006119281e+01 -2.918975276816622e+03
-1.156738033294461e+03 -6.992776569994045e+01 -2.918975276816622e+03
-1.156727514674013e+03 -7.046059666867187e+01 -2.918975276816622e+03
-1.156794682045507e+03 -7.197215131374527e+01 -2.918975276816622e+03
-1.156701525019527e+03 -7.330990580626815e+01 -2.918975276816622e+03
-1.156765978821660e+03 -7.528010454514504e+01 -2.918975276816622e+03
-1.156685075841597e+03 -7.615401819455630e+01 -2.918975276816622e+03
-1.156753114793295e+03 -7.680511534710632e+01 -2.918975276816622e+03
-1.156659638349214e+03 -7.866361876113450e+01 -2.918975276816622e+03
-1.156746025440041e+03 -8.044910225008152e+01 -2.918975276816622e+03
-1.156673630403607e+03 -8.129484479049000e+01 -2.918975276816622e+03
-1.156739900706240e+03 -8.346272352854733e+01 -2.918975276816622e+03
-1.156677587531155e+03 -8.486933784174133e+01 -2.918975276816622e+03
-1.156684240825620e+03 -8.593785462881377e+01 -2.918975276816622e+03
-1.156665323095724e+03 -8.732499393038226e+01 -2.918975276816622e+03
-1.156635727287169e+03 -8.970939323727599e+01 -2.918975276816622e+03
-1.156657994202388e+03 -9.051464359071517e+01 -2.918975276816622e+03
-1.156589332181589e+03 -9.203502023722513e+01 -2.918975276816622e+03
-1.156576550789695e+03 -9.523729825381454e+01 -2.918975276816622e+03
-1.156415636520460e+03 -9.647172826385372e+01 -2.918975276816622e+03
-1.156566579687728e+03 -9.891217537976600e+01 -2.918975276816622e+03
-1.156468076763195e+03 -1.011098306869391e+02 -2.918975276816622e+03
-1.156438610062467e+03 -1.013945564267398e+02 -2.918975276816622e+03
-1.156233062536882e+03 -1.035972827570606e+02 -2.918975276816622e+03
-1.156450628780667e+03 -1.053151413936626e+02 -2.918975276816622e+03
-1.156220555966288e+03 -1.067695980550602e+02 -2.918975276816622e+03
-1.156310713876030e+03 -1.071785877926233e+02 -2.918975276816622e+03
-1.156136396698762e+03 -1.095683845350872e+02 -2.918975276816622e+03
-1.156271455997567e+03 -1.108422146082601e+02 -2.918975276816622e+03
-1.156253309462815e+03 -1.127990934889264e+02 -2.918975276816622e+03
-1.156214141403079e+03 -1.134559556216529e+02 -2.918975276816622e+03
-1.156304229685503e+03 -1.182494700265305e+02 -2.918975276816622e+03
-1.156354296911355e+03 -1.203982215902336e+02 -2.918975276816622e+03
-1.156302519332452e+03 -1.211857542968946e+02 -2.918975276816622e+03
-1.156384172695896e+03 -1.233640263709070e+02 -2.918975276816622e+03
-1.156566917985375e+03 -1.247088661590685e+02 -2.918975276816622e+03
-1.156448689940803e+03 -1.259453141555675e+02 -2.918975276816622e+03
-1.156458648338870e+03 -1.273460397568903e+02 -2.918975276816622e+03
-1.156417845913283e+03 -1.298165073330177e+02 -2.918975276816622e+03
-1.156477525839927e+03 -1.313473008760625e+02 -2.918975276816622e+03
-1.156650447228735e+03 -1.324474084493017e+02 -2.918975276816622e+03
-1.156539356402072e+03 -1.333085070154376e+02 -2.918975276816622e+03
-1.156459361404108e+03 -1.350730441308052e+02 -2.918975276816622e+03
-1.156621288313084e+03 -1.362121203184426e+02 -2.918975276816622e+03
-1.156490837882794e+03 -1.385316733489650e+02 -2.918975276816622e+03
-1.156423616916586e+03 -1.403455435182731e+02 -2.918975276816622e+03
-1.156463842966780e+03 -1.412841180947713e+02 -2.918975276816622e+03
-1.156477338507024e+03 -1.434777033427728e+02 -2.918975276816622e+03
-1.156367815900233e+03 -1.448571963827011e+02 -2.918975276816622e+03
-1.156237413084725e+03 -1.458281691071372e+02 -2.918975276816622e+03
-1.156270015647786e+03 -1.475746003891361e+02 -2.918975276816622e+03
-1.156031600470061e+03 -1.516984717677746e+02 -2.918975276816622e+03
-1.156376656819028e+03 -1.529912769265484e+02 -2.918975276816622e+03
-1.156279773398524e+03 -1.550246026412356e+02 -2.918975276816622e+03
-1.156353768486565e+03 -1.561784789185659e+02 -2.918975276816622e+03
-1.156418754228977e+03 -1.586167231828366e+02 -2.918975276816622e+03
-1.156640565676730e+03 -1.605110495483829e+02 -2.918975276816622e+03
-1.156591793333635e+03 -1.611579644771557e+02 -2.918975276816622e+03
-1.156791239023672e+03 -1.633309727838954e+02 -2.918975276816622e+03
-1.156729088662932e+03 -1.646001335959513e+02 -2.918975276816622e+03
-1.156815018013066e+03 -1.659498234635450e+02 -2.918975276816622e+03
-1.156706071402539e+03 -1.673543087194972e+02 -2.918975276816622e+03
-1.156878464858608e+03 -1.697479078439352e+02 -2.918975276816622e+03
-1.156727874359392e+03 -1.716495113051089e+02 -2.918975276816622e+03
-1.157050683134512e+03 -1.731156111327606e+02 -2.918975276816622e+03
-1.157266139627817e+03 -1.747588367590633e+02 -2.918975276816622e+03
-1.157185101871859e+03 -1.751150736522523e+02 -2.918975276816622e+03
-1.157277106298321e+03 -1.769732061719561e+02 -2.918975276816622e+03
-1.159127588338650e+03 -1.799279798207920e+02 -2.918975276816622e+03
-1.157068877972473e+03 -1.796799413184347e+02 -2.918975276816622e+03
-1.157456529511389e+03 -1.824301835938423e+02 -2.918975276816622e+03
-1.157196601858153e+03 -1.845321315403903e+02 -2.918975276816622e+03
-1.157390873110942e+03 -1.857565335486953e+02 -2.918975276816622e+03
-1.157158811415703e+03 -1.871524367355260e+02 -2.918975276816622e+03
-1.157187102142962e+03 -1.896394494753571e+02 -2.918975276816622e+03
-1.156882443269143e+03 -1.912643879363789e+02 -2.918975276816622e+03
-1.156789042084463e+03 -1.928629018027500e+02 -2.918975276816622e+03
-1.157023698004467e+03 -1.936345139931657e+02 -2.918975276816622e+03
-1.157029149069649e+03 -1.951086068060542e+02 -2.918975276816622e+03
-1.156858596811960e+03 -1.973714404454018e+02 -2.918975276816622e+03
-1.156995213452513e+03 -1.985547581295080e+02 -2.918975276816622e+03
-1.157031582183115e+03 -2.003050418658331e+02 -2.918975276816622e+03
-1.157014340227578e+03 -2.009286187051023e+02 -2.918975276816622e+03
-1.157172645863211e+03 -2.032015588032746e+02 -2.918975276816622e+03
-1.157098715776613e+03 -2.044926294027989e+02 -2.918975276816622e+03
-1.157136889243990e+03 -2.055345298557323e+02 -2.918975276816622e+03
-1.157094902213358e+03 -2.071989450290593e+02 -2.918975276816622e+03
-1.157093529378212e+03 -2.095724790470504e+02 -2.918975276816622e+03
-1.157078409656208e+03 -2.108357240848841e+02 -2.918975276816622e+03
-1.157049027268394e+03 -2.123308299861289e+02 -2.918975276816622e+03
-1.157114769092490e+03 -2.152756326209071e+02 -2.918975276816622e+03
-1.157042242079564e+03 -2.158156225804055e+02 -2.918975276816622e+03
-1.157003521247209e+03 -2.183865791432431e+02 -2.918975276816622e+03
-1.156943776404643e+03 -2.206770368715004e+02 -2.918975276816622e+03
-1.157088850654404e+03 -2.208813728478381e+02 -2.918975276816622e+03
-1.156916483491185e+03 -2.231912817597261e+02 -2.918975276816622e+03
-1.156995657919895e+03 -2.247506518002203e+02 -2.918975276816622e+03
-1.156867314432926e+03 -2.258059788367361e+02 -2.918975276816622e+03
-1.156902189144490e+03 -2.272035967133961e+02 -2.918975276816622e+03
-1.156850602826215e+03 -2.296830107039845e+02 -2.918975276816622e+03
-1.157053990135392e+03 -2.311469171274888e+02 -2.918975276816622e+03
-1.156847733690719e+03 -2.318667264748780e+02 -2.918975276816622e+03
-1.156937541487272e+03 -2.350236655057640e+02 -2.918975276816622e+03
-1.156930718524565e+03 -2.350543292897720e+02 -2.918975276816622e+03
-1.157114134969116e+03 -2.382704208044142e+02 -2.918975276816622e+03
-1.157232436693822e+03 -2.391292467500178e+02 -2.918975276816622e+03
-1.157070938835656e+03 -2.410572567913487e+02 -2.918975276816622e+03
-1.157065053963658e+03 -2.436772335810419e+02 -2.918975276816622e+03
-1.157269202381851e+03 -2.456606710300879e+02 -2.918975276816622e+03
-1.158325174848669e+03 -2.452450776010101e+02 -2.918975276816622e+03
-1.157905359728953e+03 -2.469597143119569e+02 -2.918975276816622e+03
-1.157465961672976e+03 -2.493584409048349e+02 -2.918975276816622e+03
-1.157496247725100e+03 -2.502721429933878e+02 -2.918975276816622e+03
-1.157113776154842e+03 -2.517905077184337e+02 -2.918975276816622e+03
-1.157071266767255e+03 -2.544422353116478e+02 -2.918975276816622e+03
-1.156673079820917e+03 -2.563916595413529e+02 -2.918975276816622e+03
-1.156539910103585e+03 -2.601679461835665e+02 -2.918975276816622e+03
-1.156233080294130e+03 -2.609343254492417e+02 -2.918975276816622e+03
-1.156365047063229e+03 -2.628153514785741e+02 -2.918975276816622e+03
-1.155820967221237e+03 -2.643208077324442e+02 -2.918975276816622e+03
-1.155769495532013e+03 -2.660598158142637e+02 -2.918975276816622e+03
-1.154900664964383e+03 -2.665324877032640e+02 -2.918975276816622e+03
-1.154266531460019e+03 -2.673937692169723e+02 -2.918975276816622e+03
-1.153662170682745e+03 -2.679695706922053e+02 -2.918975276816622e+03
-1.155920247241931e+03 -2.696193664412024e+02 -2.918975276816622e+03
-1.155528230824191e+03 -2.711034501065526e+02 -2.918975276816622e+03
-1.156700710762088e+03 -2.719048516188794e+02 -2.918975276816622e+03
-1.155990994189040e+03 -2.735384483927434e+02 -2.918975276816622e+03
-1.156552171020809e+03 -2.753710185532601e+02 -2.918975276816622e+03
-1.155826900794488e+03 -2.771674441049494e+02 -2.918975276816622e+03
-1.156428431642968e+03 -2.781828600510376e+02 -2.918975276816622e+03
-1.155991422410229e+03 -2.802066865912957e+02 -2.918975276816622e+03
-1.156381476333311e+03 -2.821384709060031e+02 -2.918975276816622e+03
-1.156301133054429e+03 -2.862548501960894e+02 -2.918975276816622e+03
-1.156466077257660e+03 -2.886041045350171e+02 -2.918975276816622e+03
-1.156354464045910e+03 -2.893917786689778e+02 -2.918975276816622e+03
-1.156838010051291e+03 -2.934434468420827e+02 -2.918975276816622e+03
-1.156755272616071e+03 -2.949717704878868e+02 -2.918975276816622e+03
-1.157156926184873e+03 -2.988908936093815e+02 -2.918975276816622e+03
-1.157080685175580e+03 -2.995747284310186e+02 -2.918975276816622e+03
-1.157295946337426e+03 -3.013726274821262e+02 -2.918975276816622e+03
-1.157264403302706e+03 -3.018816399537238e+02 -2.918975276816622e+03
-1.157282950099225e+03 -3.038514494622676e+02 -2.918975276816622e+03
-1.157364300491416e+03 -3.054111909852629e+02 -2.918975276816622e+03
-1.157371059623067e+03 -3.075982179468555e+02 -2.918975276816622e+03
-1.157624290992103e+03 -3.093491075229138e+02 -2.918975276816622e+03
-1.156178516624804e+03 -3.087282475982362e+02 -2.918975276816622e+03
-1.156586154586162e+03 -3.106795803855281e+02 -2.918975276816622e+03
-1.156911408281368e+03 -3.151380308849172e+02 -2.918975276816622e+03
-1.156324585275752e+03 -3.171862617958131e+02 -2.918975276816622e+03
-1.157102211562151e+03 -3.187346450851726e+02 -2.918975276816622e+03
-1.156994240427772e+03 -3.202805231180212e+02 -2.918975276816622e+03
-1.157286519250056e+03 -3.219390722951944e+02 -2.918975276816622e+03
-1.156833806692199e+03 -3.238514778056572e+02 -2.918975276816622e+03
-1.157212338735422e+03 -3.248255436923729e+02 -2.918975276816622e+03
-1.156932571529429e+03 -3.267648381170456e+02 -2.918975276816622e+03
-1.157054918002781e+03 -3.272923576143971e+02 -2.918975276816622e+03
-1.157064650941759e+03 -3.289090598132087e+02 -2.918975276816622e+03
-1.156933113395830e+03 -3.298427902344746e+02 -2.918975276816622e+03
-1.156912793080144e+03 -3.312896662892714e+02 -2.918975276816622e+03
-1.156597359669986e+03 -3.348769848622098e+02 -2.918975276816622e+03
-1.156534379844683e+03 -3.353824925493322e+02 -2.918975276816622e+03
-1.156737909932585e+03 -3.365002735964111e+02 -2.918975276816622e+03
-1.156548849915986e+03 -3.385019267030049e+02 -2.918975276816622e+03
-1.156764718515648e+03 -3.413368197202935e+02 -2.918975276816622e+03
-1.156565382663872e+03 -3.427749741627543e+02 -2.918975276816622e+03
-1.156735108069112e+03 -3.441189789328711e+02 -2.918975276816622e+03
-1.156601181331221e+03 -3.478484602940372e+02 -2.918975276816622e+03
-1.156681466545609e+03 -3.483740534706864e+02 -2.918975276816622e+03
-1.156684885316903e+03 -3.532543529175258e+02 -2.918975276816622e+03
-1.156720577721617e+03 -3.575654020943885e+02 -2.918975276816622e+03
-1.156753191910494e+03 -3.587008276262652e+02 -2.918975276816622e+03
-1.156758863089607e+03 -3.622864970162595e+02 -2.918975276816622e+03
-1.156736238733654e+03 -3.629203045827676e+02 -2.918975276816622e+03
-1.156802869813574e+03 -3.647329865344554e+02 -2.918975276816622e+03
-1.156744358127133e+03 -3.672137957860426e+02 -2.918975276816622e+03
-1.156860086834148e+03 -3.710780875097842e+02 -2.918975276816622e+03
-1.156788201658482e+03 -3.725559065686821e+02 -2.918975276816622e+03
-1.156861434062025e+03 -3.741917495991546e+02 -2.918975276816622e+03
-1.156833364935037e+03 -3.768288651124371e+02 -2.918975276816622e+03
-1.156864995251414e+03 -3.776538791628059e+02 -2.918975276816622e+03
-1.156855444773172e+03 -3.798950129133768e+02 -2.918975276816622e+03
-1.156869553072536e+03 -3.803194731140859e+02 -2.918975276816622e+03
-1.156864949606758e+03 -3.825133512139343e+02 -2.918975276816622e+03
-1.156885010787847e+03 -3.861310941351621e+02 -2.918975276816622e+03
-1.156907225969449e+03  3.832717576786824e+02 -2.918975276816622e+03
-1.156908693754707e+03  3.822501156933853e+02 -2.918975276816622e+03
-1.156923155264708e+03  3.786470783008056e+02 -2.918975276816622e+03
-1.156930321761514e+03  3.775404762657868e+02 -2.918975276816622e+03
-1.156937519002341e+03  3.765430809074749e+02 -2.918975276816622e+03
-1.156956260986459e+03  3.736105451169097e+02 -2.918975276816622e+03
-1.156991297739747e+03  3.694445068484847e+02 -2.918975276816622e+03
-1.157050637807727e+03  3.642195811746117e+02 -2.918975276816622e+03
-1.157006538322183e+03  3.601405551529938e+02 -2.918975276816622e+03
-1.156999906376393e+03  3.563357189908802e+02 -2.918975276816622e+03
-1.157129449669352e+03  3.552394457673856e+02 -2.918975276816622e+03
-1.157147795390427e+03  3.532464586022660e+02 -2.918975276816622e+03
-1.157150677444977e+03  3.470799336712757e+02 -2.918975276816622e+03
-1.157165193061535e+03  3.433286355610030e+02 -2.918975276816622e+03
-1.157141785978366e+03  3.380624208692797e+02 -2.918975276816622e+03
-1.157129749326726e+03  3.353795697888702e+02 -2.918975276816622e+03
-1.156985721839014e+03  3.276250269040686e+02 -2.918975276816622e+03
-1.156998649454883e+03  3.263438556481318e+02 -2.918975276816622e+03
-1.156982080886138e+03  3.242099275295158e+02 -2.918975276816622e+03
-1.156945652411946e+03  3.217090807566315e+02 -2.918975276816622e+03
-1.156987269239600e+03  3.202305526718095e+02 -2.918975276816622e+03
-1.156936702192820e+03  3.177785674892409e+02 -2.918975276816622e+03
-1.156895366476366e+03  3.125028138231162e+02 -2.918975276816622e+03
-1.156877676078214e+03  3.104621448829592e+02 -2.918975276816622e+03
-1.156875067623846e+03  3.075695646671871e+02 -2.918975276816622e+03
-1.156581247107169e+03  3.025738383325229e+02 -2.918975276816622e+03
-1.156503319720758e+03  3.005091953521329e+02 -2.918975276816622e+03
-1.156345258961189e+03  2.976370080929829e+02 -2.918975276816622e+03
-1.156506929179289e+03  2.955303699405524e+02 -2.918975276816622e+03
-1.156323432586415e+03  2.941093472919191e+02 -2.918975276816622e+03
-1.156520025097775e+03  2.918633278628210e+02 -2.918975276816622e+03
-1.156557809094474e+03  2.902625948676932e+02 -2.918975276816622e+03
-1.156673634855957e+03  2.890401008570024e+02 -2.918975276816622e+03
-1.156672927643418e+03  2.884421262009433e+02 -2.918975276816622e+03
-1.156700467804497e+03  2.877975903225260e+02 -2.918975276816622e+03
-1.156721847867775e+03  2.865900475216258e+02 -2.918975276816622e+03
-1.156657811305458e+03  2.844041687216946e+02 -2.918975276816622e+03
-1.156763545046665e+03  2.820334180580042e+02 -2.918975276816622e+03
-1.156750109948376e+03  2.780113546610661e+02 -2.918975276816622e+03
-1.156775007388605e+03  2.777094743381184e+02 -2.918975276816622e+03
-1.156701275193429e+03  2.753586898249122e+02 -2.918975276816622e+03
-1.156799442777248e+03  2.740322149291333e+02 -2.918975276816622e+03
-1.156778393493853e+03  2.717603892780460e+02 -2.918975276816622e+03
-1.156798348540298e+03  2.711866818816778e+02 -2.918975276816622e+03
-1.156770292861584e+03  2.695944437661632e+02 -2.918975276816622e+03
-1.156824333639902e+03  2.661700747649444e+02 -2.918975276816622e+03
-1.156645045031345e+03  2.649216662675015e+02 -2.918975276816622e+03
-1.156830472501669e+03  2.627827396781589e+02 -2.918975276816622e+03
-1.156828720148799e+03  2.608666365080753e+02 -2.918975276816622e+03
-1.156891917255200e+03  2.600280718642867e+02 -2.918975276816622e+03
-1.156495120973645e+03  2.576730471373576e+02 -2.918975276816622e+03
-1.156891465649397e+03  2.567811620311163e+02 -2.918975276816622e+03
-1.156690702937221e+03  2.551728195320950e+02 -2.918975276816622e+03
-1.156926945794120e+03  2.540485151685397e+02 -2.918975276816622e+03
-1.156736434597405e+03  2.515638207516679e+02 -2.918975276816622e+03
-1.157070985797206e+03  2.501980955348843e+02 -2.918975276816622e+03
-1.156842344717389e+03  2.497661293845497e+02 -2.918975276816622e+03
-1.156936662248630e+03  2.472703667916918e+02 -2.918975276816622e+03
-1.156683582138764e+03  2.459699053517146e+02 -2.918975276816622e+03
-1.156837487865650e+03  2.443116108419573e+02 -2.918975276816622e+03
-1.156909462193468e+03  2.431388054389771e+02 -2.918975276816622e+03
-1.156863519320723e+03  2.407738553178091e+02 -2.918975276816622e+03
-1.156620634434525e+03  2.399633659058133e+02 -2.918975276816622e+03
-1.156611320776364e+03  2.385179547634141e+02 -2.918975276816622e+03
-1.156653220406533e+03  2.353406890030906e+02 -2.918975276816622e+03
-1.156530595094085e+03  2.341427899730212e+02 -2.918975276816622e+03
-1.156567472756292e+03  2.317143293466738e+02 -2.918975276816622e+03
-1.156497818144363e+03  2.299309210423802e+02 -2.918975276816622e+03
-1.156428845156629e+03  2.292602092413350e+02 -2.918975276816622e+03
-1.156380816651929e+03  2.270063273619978e+02 -2.918975276816622e+03
-1.156511348751457e+03  2.257331274690574e+02 -2.918975276816622e+03
-1.156404342080868e+03  2.249026945405602e+02 -2.918975276816622e+03
-1.156459874437325e+03  2.233019168801387e+02 -2.918975276816622e+03
-1.156375919076542e+03  2.207612408605411e+02 -2.918975276816622e+03
-1.156457865835041e+03  2.198733469405163e+02 -2.918975276816622e+03
-1.156178788417480e+03  2.184998512161566e+02 -2.918975276816622e+03
-1.156396987873224e+03  2.154047651496605e+02 -2.918975276816622e+03
-1.156439026720808e+03  2.142019030945550e+02 -2.918975276816622e+03
-1.156309123331783e+03  2.118737136364566e+02 -2.918975276816622e+03
-1.156340613935364e+03  2.100288910096161e+02 -2.918975276816622e+03
-1.156390737129837e+03  2.091650426618241e+02 -2.918975276816622e+03
-1.156387233497755e+03  2.070562833600739e+02 -2.918975276816622e+03
-1.156410986875940e+03  2.054665549346704e+02 -2.918975276816622e+03
-1.156689885128421e+03  2.044639288790021e+02 -2.918975276816622e+03
-1.156426066493620e+03  2.032368663990371e+02 -2.918975276816622e+03
-1.156392061253844e+03  2.008246132677498e+02 -2.918975276816622e+03
-1.156414636007936e+03  2.000034440283713e+02 -2.918975276816622e+03
-1.156495369528306e+03  1.985040429431285e+02 -2.918975276816622e+03
-1.156456593399423e+03  1.953440487414384e+02 -2.918975276816622e+03
-1.156483776774504e+03  1.942703343069853e+02 -2.918975276816622e+03
-1.156492733345531e+03  1.919216190326936e+02 -2.918975276816622e+03
-1.156522451225109e+03  1.901260077700993e+02 -2.918975276816622e+03
-1.156517134105614e+03  1.892375952358120e+02 -2.918975276816622e+03
-1.156498752515643e+03  1.871153076430093e+02 -2.918975276816622e+03
-1.156487885887326e+03  1.857340070028916e+02 -2.918975276816622e+03
-1.156515038523827e+03  1.845510642173988e+02 -2.918975276816622e+03
-1.156475062532684e+03  1.831881701689387e+02 -2.918975276816622e+03
-1.156477867076292e+03  1.808659186506611e+02 -2.918975276816622e+03
-1.156476491173727e+03  1.802549337517757e+02 -2.918975276816622e+03
-1.156412245609883e+03  1.787071060269705e+02 -2.918975276816622e+03
-1.156343184069988e+03  1.753528311408040e+02 -2.918975276816622e+03
-1.156388424532973e+03  1.743498417680989e+02 -2.918975276816622e+03
-1.156495994795893e+03  1.719396135900040e+02 -2.918975276816622e+03
-1.156460250235105e+03  1.701437824461066e+02 -2.918975276816622e+03
-1.156473615928799e+03  1.692033813990299e+02 -2.918975276816622e+03
-1.156460803803455e+03  1.671261745073643e+02 -2.918975276816622e+03
-1.156425921282151e+03  1.658097464627081e+02 -2.918975276816622e+03
-1.156564739760970e+03  1.646609584996419e+02 -2.918975276816622e+03
-1.156498576187968e+03  1.632700250103077e+02 -2.918975276816622e+03
-1.156601908338987e+03  1.608792739557712e+02 -2.918975276816622e+03
-1.156323241425786e+03  1.600099203313783e+02 -2.918975276816622e+03
-1.156576047296697e+03  1.585506272601137e+02 -2.918975276816622e+03
-1.156413597065018e+03  1.556003877646726e+02 -2.918975276816622e+03
-1.156425981070718e+03  1.543439378209525e+02 -2.918975276816622e+03
-1.156361977067790e+03  1.519082153724235e+02 -2.918975276816622e+03
-1.156408736654480e+03  1.501257654567325e+02 -2.918975276816622e+03
-1.156409379453082e+03  1.493213720037030e+02 -2.918975276816622e+03
-1.156363003787406e+03  1.471210384415621e+02 -2.918975276816622e+03
-1.156420893570751e+03  1.456963142891090e+02 -2.918975276816622e+03
-1.156559125586923e+03  1.447527609774668e+02 -2.918975276816622e+03
-1.156435244595390e+03  1.432971002572346e+02 -2.918975276816622e+03
-1.156365778549680e+03  1.409131272829774e+02 -2.918975276816622e+03
-1.156418726666995e+03  1.400529103377925e+02 -2.918975276816622e+03
-1.156465505630493e+03  1.385770145615489e+02 -2.918975276816622e+03
-1.156361692885175e+03  1.354308312825890e+02 -2.918975276816622e+03
-1.156478757372713e+03  1.343153668906656e+02 -2.918975276816622e+03
-1.156384051406991e+03  1.320022633159016e+02 -2.918975276816622e+03
-1.156573789696785e+03  1.301899795701617e+02 -2.918975276816622e+03
-1.156542909019449e+03  1.293906870929496e+02 -2.918975276816622e+03
-1.156678716428622e+03  1.272012150098581e+02 -2.918975276816622e+03
-1.156230127973059e+03  1.258222735301224e+02 -2.918975276816622e+03
-1.156668437923652e+03  1.246595914742921e+02 -2.918975276816622e+03
-1.156801177702821e+03  1.232922772838695e+02 -2.918975276816622e+03
-1.156669583579007e+03  1.209127447783738e+02 -2.918975276816622e+03
-1.156580644857375e+03  1.199864515109514e+02 -2.918975276816622e+03
-1.156533852276827e+03  1.185611394275038e+02 -2.918975276816622e+03
-1.156656286240760e+03  1.154530443836336e+02 -2.918975276816622e+03
-1.156678831371695e+03  1.143273820680368e+02 -2.918975276816622e+03
-1.156716892267910e+03  1.120200340707886e+02 -2.918975276816622e+03
-1.156692621990604e+03  1.104103788118211e+02 -2.918975276816622e+03
-1.156692650276207e+03  1.094723086473264e+02 -2.918975276816622e+03
-1.156730388066176e+03  1.073277415833974e+02 -2.918975276816622e+03
-1.156723280694435e+03  1.060323105748380e+02 -2.918975276816622e+03
-1.156699833855567e+03  1.046738777177142e+02 -2.918975276816622e+03
-1.156707581362292e+03  1.032450174907930e+02 -2.918975276816622e+03
-1.156763238174320e+03  1.010692898156004e+02 -2.918975276816622e+03
-1.156713785976204e+03  1.003074210112795e+02 -2.918975276816622e+03
-1.156760117284292e+03  9.825148341187405e+01 -2.918975276816622e+03
-1.156639997341774e+03  9.696577672744930e+01 -2.918975276816622e+03
-1.156751532762103e+03  9.517285700166340e+01 -2.918975276816622e+03
-1.156546067567197e+03  9.122190781643134e+01 -2.918975276816622e+03
-1.156741951998806e+03  8.996266385251170e+01 -2.918975276816622e+03
-1.156519301777807e+03  8.808396704221697e+01 -2.918975276816622e+03
-1.156717319202989e+03  8.672950859416925e+01 -2.918975276816622e+03
-1.156566124611647e+03  8.636692644614890e+01 -2.918975276816622e+03
-1.156583665188465e+03  8.507532296208571e+01 -2.918975276816622e+03
-1.156345256744128e+03  8.265120366415644e+01 -2.918975276816622e+03
-1.156262979779969e+03  7.910131853796713e+01 -2.918975276816622e+03
-1.156063063109175e+03  7.340681029794634e+01 -2.918975276816622e+03
-1.156360405808790e+03  7.221266600883833e+01 -2.918975276816622e+03
-1.155785945621046e+03  7.036115219580167e+01 -2.918975276816622e+03
-1.155811189691354e+03  6.691877877657961e+01 -2.918975276816622e+03
-1.155378488067515e+03  6.497566795782714e+01 -2.918975276816622e+03
-1.155574680746897e+03  6.248794549238124e+01 -2.918975276816622e+03
-1.155727935930497e+03  5.830587548692327e+01 -2.918975276816622e+03
-1.155826800032658e+03  5.607735147728614e+01 -2.918975276816622e+03
-1.155804623888990e+03  5.350112207068887e+01 -2.918975276816622e+03
-1.156427771720813e+03  4.986872722884829e+01 -2.918975276816622e+03
-1.156350225980489e+03  4.904501936536468e+01 -2.918975276816622e+03
-1.156549546573052e+03  4.775688961376209e+01 -2.918975276816622e+03
-1.156709375827986e+03  4.678543337325706e+01 -2.918975276816622e+03
-1.156906827346005e+03  4.676396683683699e+01 -2.918975276816622e+03
-1.156985644990718e+03  4.498796010586638e+01 -2.918975276816622e+03
-1.156947920811219e+03  4.422662054550958e+01 -2.918975276816622e+03
-1.157047265442896e+03  4.210311478388441e+01 -2.918975276816622e+03
-1.157041390643881e+03  4.157061465596745e+01 -2.918975276816622e+03
-1.157171916328148e+03  3.899790776372231e+01 -2.918975276816622e+03
-1.157214278105684e+03  3.659219156536483e+01 -2.918975276816622e+03
-1.157350478348531e+03  3.496498607609453e+01 -2.918975276816622e+03
-1.157341677775715e+03  3.322524578376704e+01 -2.918975276816622e+03
-1.157606396751886e+03  2.997480676500407e+01 -2.918975276816622e+03
-1.157588698853907e+03  2.883979921459134e+01 -2.918975276816622e+03
-1.157979243660575e+03  2.368470458095387e+01 -2.918975276816622e+03
-1.158293370315803e+03  2.184022103477963e+01 -2.918975276816622e+03
-1.158293789109213e+03  2.176357965258063e+01 -2.918975276816622e+03
-1.157929659119693e+03  1.902283874528056e+01 -2.918975276816622e+03
-1.157848257046597e+03  1.707055023995038e+01 -2.918975276816622e+03
-1.157778851895031e+03  1.585058207669014e+01 -2.918975276816622e+03
-1.157731171105521e+03  1.464480847831720e+01 -2.918975276816622e+03
-1.157699740305530e+03  1.323619641932706e+01 -2.918975276816622e+03
-1.157660019529431e+03  1.195494274903780e+01 -2.918975276816622e+03
-1.157568857105995e+03  7.567489336738252e+00 -2.918975276816622e+03
1.154291405676900e+03 5.926847561672343e-01 2.918975276816622e+03
 1.154240562952258e+03 -1.130078638223108e+00  2.918975276816622e+03
 1.154372842318053e+03 -2.111944927102804e+00  2.918975276816622e+03
 1.153792650772765e+03 -4.578470648874754e+00  2.918975276816622e+03
 1.153687885436819e+03 -6.087048458034635e+00  2.918975276816622e+03
 1.153311630505593e+03 -7.156274850565329e+00  2.918975276816622e+03
 1.156710629330823e+03 -6.426136249928661e+00  2.918975276816622e+03
 1.155466193180514e+03 -9.556090220008743e+00  2.918975276816622e+03
 1.154523452148871e+03 -1.653255817775330e+01  2.918975276816622e+03
 1.154175986091443e+03 -2.128456878812869e+01  2.918975276816622e+03
 1.153799439313761e+03 -2.696772119514942e+01  2.918975276816622e+03
 1.154033601954866e+03 -2.748977648234682e+01  2.918975276816622e+03
 1.154067182406501e+03 -3.053552709313198e+01  2.918975276816622e+03
 1.153143928859980e+03 -3.459873334126137e+01  2.918975276816622e+03
 1.153179309678586e+03 -3.759705894885415e+01  2.918975276816622e+03
 1.152550601992203e+03 -4.069952940859228e+01  2.918975276816622e+03
 1.152989639047375e+03 -4.181979754343162e+01  2.918975276816622e+03
 1.152777448653273e+03 -4.361344434971461e+01  2.918975276816622e+03
 1.152903874200017e+03 -4.589886190969402e+01  2.918975276816622e+03
 1.152848433109683e+03 -4.901577816474558e+01  2.918975276816622e+03
 1.153034454081087e+03 -5.073713591150791e+01  2.918975276816622e+03
 1.152989622985895e+03 -5.243442861110920e+01  2.918975276816622e+03
 1.153119652697775e+03 -5.459914308267118e+01  2.918975276816622e+03
 1.152966463285754e+03 -5.662029486949081e+01  2.918975276816622e+03
 1.153184210664671e+03 -5.892961326218037e+01  2.918975276816622e+03
 1.153217839889221e+03 -6.061065849948477e+01  2.918975276816622e+03
 1.153252734365985e+03 -6.178776351882671e+01  2.918975276816622e+03
 1.153230291746370e+03 -6.354205715522026e+01  2.918975276816622e+03
 1.153226959000091e+03 -6.532833907404893e+01  2.918975276816622e+03
 1.153278278038372e+03 -6.633995532384630e+01  2.918975276816622e+03
 1.153290237289449e+03 -6.914909369012310e+01  2.918975276816622e+03
 1.153293446393069e+03 -7.101939187359918e+01  2.918975276816622e+03
 1.153244289007411e+03 -7.209630934102428e+01  2.918975276816622e+03
 1.153359705533052e+03 -7.449233577188778e+01  2.918975276816622e+03
 1.153307046315198e+03 -7.814142136170638e+01  2.918975276816622e+03
 1.153334423593363e+03 -8.072521091708197e+01  2.918975276816622e+03
 1.153364186852686e+03 -8.184161885333909e+01  2.918975276816622e+03
 1.153358590503706e+03 -8.480175286263614e+01  2.918975276816622e+03
 1.153431576677988e+03 -8.601924446088263e+01  2.918975276816622e+03
 1.153368959097147e+03 -8.895648783520939e+01  2.918975276816622e+03
 1.153487890448062e+03 -9.070553181455514e+01  2.918975276816622e+03
 1.153387790088969e+03 -9.233853311285405e+01  2.918975276816622e+03
 1.153541387090394e+03 -9.467352809443439e+01  2.918975276816622e+03
 1.153481725706472e+03 -9.734758373895752e+01  2.918975276816622e+03
 1.153476932054148e+03 -9.786198138135005e+01  2.918975276816622e+03
 1.153439315433465e+03 -1.004489617091709e+02  2.918975276816622e+03
 1.153530723184856e+03 -1.036558713088604e+02  2.918975276816622e+03
 1.153493162883336e+03 -1.051935761548814e+02  2.918975276816622e+03
 1.153519825227743e+03 -1.060942482375824e+02  2.918975276816622e+03
 1.153517430075573e+03 -1.089406877420362e+02  2.918975276816622e+03
 1.153478807280999e+03 -1.106577698253416e+02  2.918975276816622e+03
 1.153514058727389e+03 -1.121546991049837e+02  2.918975276816622e+03
 1.153437922870209e+03 -1.141702090412964e+02  2.918975276816622e+03
 1.153472325387019e+03 -1.170897337004196e+02  2.918975276816622e+03
 1.153337611917993e+03 -1.207467187532090e+02  2.918975276816622e+03
 1.153523502409198e+03 -1.242155854994198e+02  2.918975276816622e+03
 1.153364680515509e+03 -1.267657248077705e+02  2.918975276816622e+03
 1.153809657851449e+03 -1.268475096599559e+02  2.918975276816622e+03
 1.153410705774002e+03 -1.291256502262141e+02  2.918975276816622e+03
 1.154086739868542e+03 -1.311197785568051e+02  2.918975276816622e+03
 1.153431694196392e+03 -1.323813530286832e+02  2.918975276816622e+03
 1.154385020031639e+03 -1.362478349929723e+02  2.918975276816622e+03
 1.154483244201075e+03 -1.362537498479616e+02  2.918975276816622e+03
 1.153736551251166e+03 -1.407051379589055e+02  2.918975276816622e+03
 1.153202168917049e+03 -1.434182271211758e+02  2.918975276816622e+03
 1.153367370629871e+03 -1.457878846412405e+02  2.918975276816622e+03
 1.153161271558787e+03 -1.489039851597183e+02  2.918975276816622e+03
 1.153342485180855e+03 -1.506840399006202e+02  2.918975276816622e+03
 1.153286332185632e+03 -1.521310775571825e+02  2.918975276816622e+03
 1.153384532981032e+03 -1.543634847042377e+02  2.918975276816622e+03
 1.153366929631180e+03 -1.579298716025099e+02  2.918975276816622e+03
 1.153399568620068e+03 -1.603244410800938e+02  2.918975276816622e+03
 1.153360174889532e+03 -1.615541894347124e+02  2.918975276816622e+03
 1.153526723338433e+03 -1.625603058324300e+02  2.918975276816622e+03
 1.153525251319741e+03 -1.636511849097675e+02  2.918975276816622e+03
 1.153576810201874e+03 -1.654158346652045e+02  2.918975276816622e+03
 1.153441441815089e+03 -1.664240929687851e+02  2.918975276816622e+03
 1.153529685188948e+03 -1.687436476179993e+02  2.918975276816622e+03
 1.153658813180936e+03 -1.705038002691520e+02  2.918975276816622e+03
 1.153626326278065e+03 -1.720723145625155e+02  2.918975276816622e+03
 1.153692427406954e+03 -1.742722992627355e+02  2.918975276816622e+03
 1.153835127077574e+03 -1.779096721035925e+02  2.918975276816622e+03
 1.153764524112138e+03 -1.804924922061424e+02  2.918975276816622e+03
 1.154018810227280e+03 -1.838376208152605e+02  2.918975276816622e+03
 1.153797803926812e+03 -1.859747086452790e+02  2.918975276816622e+03
 1.154400616230250e+03 -1.881068445770754e+02  2.918975276816622e+03
 1.154013025369567e+03 -1.914432601620144e+02  2.918975276816622e+03
 1.154529452098482e+03 -1.941825354999194e+02  2.918975276816622e+03
 1.154453360022782e+03 -1.974218609385255e+02  2.918975276816622e+03
 1.154805725451735e+03 -2.002831571687333e+02  2.918975276816622e+03
 1.154859672688394e+03 -2.015077439590696e+02  2.918975276816622e+03
 1.154328931500298e+03 -2.033719600051877e+02  2.918975276816622e+03
 1.154591726106330e+03 -2.044519945690703e+02  2.918975276816622e+03
 1.155058328625349e+03 -2.058874639685927e+02  2.918975276816622e+03
 1.154170904014862e+03 -2.088865867448906e+02  2.918975276816622e+03
 1.154034235425311e+03 -2.104415630209078e+02  2.918975276816622e+03
 1.153845083645886e+03 -2.121119663195391e+02  2.918975276816622e+03
 1.153890288415022e+03 -2.143295602223398e+02  2.918975276816622e+03
 1.153618459957311e+03 -2.179155164595497e+02  2.918975276816622e+03
 1.153758804529285e+03 -2.204042708421927e+02  2.918975276816622e+03
 1.153491747654859e+03 -2.234898957981775e+02  2.918975276816622e+03
 1.153615962411982e+03 -2.242467541726085e+02  2.918975276816622e+03
 1.153358555376429e+03 -2.257493977609770e+02  2.918975276816622e+03
 1.153421811397651e+03 -2.288019947476394e+02  2.918975276816622e+03
 1.153233201859311e+03 -2.304700267410234e+02  2.918975276816622e+03
 1.153221981165001e+03 -2.318356480670163e+02  2.918975276816622e+03
 1.152878997286354e+03 -2.344636511074962e+02  2.918975276816622e+03
 1.152730393221783e+03 -2.376915961449879e+02  2.918975276816622e+03
 1.152648739914295e+03 -2.376351614620246e+02  2.918975276816622e+03
 1.152988130286866e+03 -2.398478119850260e+02  2.918975276816622e+03
 1.153026571230140e+03 -2.419000470966223e+02  2.918975276816622e+03
 1.153148732853421e+03 -2.446018475518108e+02  2.918975276816622e+03
 1.153309843852525e+03 -2.476609921425514e+02  2.918975276816622e+03
 1.153395255031103e+03 -2.526118122666790e+02  2.918975276816622e+03
 1.153525842623151e+03 -2.555275784168557e+02  2.918975276816622e+03
 1.153466497754670e+03 -2.572967303903406e+02  2.918975276816622e+03
 1.153797986445888e+03 -2.606738763401353e+02  2.918975276816622e+03
 1.153704934962394e+03 -2.614006545880627e+02  2.918975276816622e+03
 1.153729355677928e+03 -2.657570248058989e+02  2.918975276816622e+03
 1.153779869624897e+03 -2.685456881955864e+02  2.918975276816622e+03
 1.153849503199985e+03 -2.714677367093198e+02  2.918975276816622e+03
 1.153877491599458e+03 -2.723337099585736e+02  2.918975276816622e+03
 1.153906396082228e+03 -2.743379641234044e+02  2.918975276816622e+03
 1.154032707768294e+03 -2.774314941061782e+02  2.918975276816622e+03
 1.154055026688194e+03 -2.795117851552873e+02  2.918975276816622e+03
 1.154085418975448e+03 -2.801899945633423e+02  2.918975276816622e+03
 1.154016164998600e+03 -2.834686747330966e+02  2.918975276816622e+03
 1.154180053659438e+03 -2.861401637222443e+02  2.918975276816622e+03
 1.154389236713452e+03 -2.913650727947251e+02  2.918975276816622e+03
 1.154533072062291e+03 -2.951805031720471e+02  2.918975276816622e+03
 1.154368330909159e+03 -2.965382433440613e+02  2.918975276816622e+03
 1.154392352572307e+03 -2.974541410351368e+02  2.918975276816622e+03
 1.154350900262733e+03 -2.981941441424983e+02  2.918975276816622e+03
 1.154390027263303e+03 -2.988283408338414e+02  2.918975276816622e+03
 1.154310517360124e+03 -3.032923885881183e+02  2.918975276816622e+03
 1.154280307036889e+03 -3.038462575596225e+02  2.918975276816622e+03
 1.154223409689180e+03 -3.073976151239785e+02  2.918975276816622e+03
 1.154091869361528e+03 -3.093779901259587e+02  2.918975276816622e+03
 1.154172229185798e+03 -3.100340146812483e+02  2.918975276816622e+03
 1.153985605166218e+03 -3.110701795418980e+02  2.918975276816622e+03
 1.154055788232372e+03 -3.115947884248259e+02  2.918975276816622e+03
 1.153856946158754e+03 -3.134361395056824e+02  2.918975276816622e+03
 1.153979903744016e+03 -3.145555004837425e+02  2.918975276816622e+03
 1.153816545932459e+03 -3.177029417804874e+02  2.918975276816622e+03
 1.153767038120225e+03 -3.214201124436113e+02  2.918975276816622e+03
 1.153671675972809e+03 -3.260582768172873e+02  2.918975276816622e+03
 1.153670264480523e+03 -3.285319501744418e+02  2.918975276816622e+03
 1.153590605870689e+03 -3.314902268237142e+02  2.918975276816622e+03
 1.153650400435501e+03 -3.323136017401912e+02  2.918975276816622e+03
 1.153541612782155e+03 -3.348064826210551e+02  2.918975276816622e+03
 1.153609553242592e+03 -3.384392300376559e+02  2.918975276816622e+03
 1.153741089938932e+03 -3.394936747285669e+02  2.918975276816622e+03
 1.153563081916216e+03 -3.438126297369695e+02  2.918975276816622e+03
 1.153290291798473e+03 -3.466400553603739e+02  2.918975276816622e+03
 1.153658957858555e+03 -3.506255364527850e+02  2.918975276816622e+03
 1.153616328594339e+03 -3.527579824188671e+02  2.918975276816622e+03
 1.153735173552861e+03 -3.548641019154629e+02  2.918975276816622e+03
 1.153597566946787e+03 -3.571890463977741e+02  2.918975276816622e+03
 1.153831789096329e+03 -3.601342559628401e+02  2.918975276816622e+03
 1.153702253511097e+03 -3.631569132808345e+02  2.918975276816622e+03
 1.153858184012525e+03 -3.647100371183873e+02  2.918975276816622e+03
 1.153774833348604e+03 -3.658924431340069e+02  2.918975276816622e+03
 1.153904643886161e+03 -3.666727276901266e+02  2.918975276816622e+03
 1.153742025176424e+03 -3.688653431975898e+02  2.918975276816622e+03
 1.153895769268281e+03 -3.708140936192622e+02  2.918975276816622e+03
 1.153789346120086e+03 -3.742375033638416e+02  2.918975276816622e+03
 1.153853988267762e+03 -3.760658518663867e+02  2.918975276816622e+03
 1.153821828465938e+03 -3.815155397437057e+02  2.918975276816622e+03
 1.153795012925741e+03 -3.833328038566798e+02  2.918975276816622e+03
 1.153808781775593e+03 -3.837807691816879e+02  2.918975276816622e+03
1.153761722875062e+03 3.851778235987825e+02 2.918975276816622e+03
1.153758831060542e+03 3.839868093840616e+02 2.918975276816622e+03
1.153713749364482e+03 3.815892565881611e+02 2.918975276816622e+03
1.153713290563551e+03 3.811332160839912e+02 2.918975276816622e+03
1.153797576102711e+03 3.765724928268583e+02 2.918975276816622e+03
1.153783417816367e+03 3.733988214888062e+02 2.918975276816622e+03
1.153825699456881e+03 3.723592172749752e+02 2.918975276816622e+03
1.153769971287723e+03 3.708917764157740e+02 2.918975276816622e+03
1.153815413913050e+03 3.676709630688239e+02 2.918975276816622e+03
1.153729716029481e+03 3.665719510731075e+02 2.918975276816622e+03
1.153914995667772e+03 3.649260391574567e+02 2.918975276816622e+03
1.153968335999901e+03 3.626530118199520e+02 2.918975276816622e+03
1.154558104930918e+03 3.598316874722009e+02 2.918975276816622e+03
1.154578635705451e+03 3.578272410380911e+02 2.918975276816622e+03
1.154670606066892e+03 3.571937963078917e+02 2.918975276816622e+03
1.153385603625943e+03 3.560486469960351e+02 2.918975276816622e+03
1.154216979873735e+03 3.553484583951545e+02 2.918975276816622e+03
1.153827767185198e+03 3.530721732620780e+02 2.918975276816622e+03
1.153887354981840e+03 3.522684945761118e+02 2.918975276816622e+03
1.154006937436719e+03 3.504474447631998e+02 2.918975276816622e+03
1.154446484478201e+03 3.452081740037531e+02 2.918975276816622e+03
1.154533890043064e+03 3.430741597352286e+02 2.918975276816622e+03
1.154666195507999e+03 3.419831171783730e+02 2.918975276816622e+03
1.154702101286576e+03 3.397066174678806e+02 2.918975276816622e+03
1.154791687894485e+03 3.326684662998540e+02 2.918975276816622e+03
1.155014376713093e+03 3.319486373912268e+02 2.918975276816622e+03
1.152378019790136e+03 3.322993405614205e+02 2.918975276816622e+03
1.153430125983260e+03 3.303923460194703e+02 2.918975276816622e+03
1.153690724945156e+03 3.285397687588319e+02 2.918975276816622e+03
1.154277062942570e+03 3.270960302193117e+02 2.918975276816622e+03
1.152085438962338e+03 3.266801434800593e+02 2.918975276816622e+03
1.153090629031708e+03 3.254791921224238e+02 2.918975276816622e+03
1.153054737719706e+03 3.247063627546192e+02 2.918975276816622e+03
1.153809186525589e+03 3.238209499323118e+02 2.918975276816622e+03
1.153546318203498e+03 3.217659393136140e+02 2.918975276816622e+03
1.153997444395680e+03 3.193542099201357e+02 2.918975276816622e+03
1.153414319423285e+03 3.187721703725765e+02 2.918975276816622e+03
1.154228935629038e+03 3.171449577474467e+02 2.918975276816622e+03
1.153791622567712e+03 3.152471348903880e+02 2.918975276816622e+03
1.154362448202234e+03 3.136243132570943e+02 2.918975276816622e+03
1.153962649203593e+03 3.110265168066325e+02 2.918975276816622e+03
1.154325941282227e+03 3.084182163699966e+02 2.918975276816622e+03
1.153747913078261e+03 3.049026109056310e+02 2.918975276816622e+03
1.154839792835525e+03 3.043621276756006e+02 2.918975276816622e+03
1.154506032615245e+03 3.018109107645709e+02 2.918975276816622e+03
1.153923306174044e+03 2.999888492485476e+02 2.918975276816622e+03
1.154349056548207e+03 2.945402112331853e+02 2.918975276816622e+03
1.154409285470994e+03 2.936770523236312e+02 2.918975276816622e+03
1.154886122829002e+03 2.880610931093991e+02 2.918975276816622e+03
1.154887371407169e+03 2.877978734191810e+02 2.918975276816622e+03
1.154424762031606e+03 2.817498574403255e+02 2.918975276816622e+03
1.154425838047455e+03 2.798085342478611e+02 2.918975276816622e+03
1.154225496258506e+03 2.769618484902018e+02 2.918975276816622e+03
1.154019301822586e+03 2.749638140965225e+02 2.918975276816622e+03
1.154066492440974e+03 2.707442419125628e+02 2.918975276816622e+03
1.153541498604159e+03 2.682788678480588e+02 2.918975276816622e+03
1.153860947193821e+03 2.643473145297943e+02 2.918975276816622e+03
1.153818559655802e+03 2.635417107641183e+02 2.918975276816622e+03
1.153566663340610e+03 2.605937959333507e+02 2.918975276816622e+03
1.153393022975715e+03 2.579949563481677e+02 2.918975276816622e+03
1.153469732937992e+03 2.564726484411643e+02 2.918975276816622e+03
1.153191543706232e+03 2.546091361526344e+02 2.918975276816622e+03
1.153262149111520e+03 2.533329083109124e+02 2.918975276816622e+03
1.153395351613374e+03 2.524719477010937e+02 2.918975276816622e+03
1.153468821703854e+03 2.505355355706812e+02 2.918975276816622e+03
1.153288719758029e+03 2.487343253765943e+02 2.918975276816622e+03
1.153374686539943e+03 2.482694850735886e+02 2.918975276816622e+03
1.153257960535243e+03 2.465349300261527e+02 2.918975276816622e+03
1.153407023102229e+03 2.455979622411431e+02 2.918975276816622e+03
1.153310449963424e+03 2.434119060247071e+02 2.918975276816622e+03
1.153468735712234e+03 2.416967157721039e+02 2.918975276816622e+03
1.153360442380570e+03 2.400126247242849e+02 2.918975276816622e+03
1.153506078408996e+03 2.383553078105426e+02 2.918975276816622e+03
1.153412924497909e+03 2.358325119965114e+02 2.918975276816622e+03
1.153519736258096e+03 2.331170379491995e+02 2.918975276816622e+03
1.153449644451847e+03 2.327947346325348e+02 2.918975276816622e+03
1.153555108604407e+03 2.299162477435694e+02 2.918975276816622e+03
1.153401057274743e+03 2.286497984778959e+02 2.918975276816622e+03
1.153516876894704e+03 2.268379778077694e+02 2.918975276816622e+03
1.153265097387217e+03 2.255663839139552e+02 2.918975276816622e+03
1.153419316341789e+03 2.243248681178424e+02 2.918975276816622e+03
1.153071849474583e+03 2.213026032258453e+02 2.918975276816622e+03
1.153469560253619e+03 2.184090412039998e+02 2.918975276816622e+03
1.152754685925480e+03 2.170133053450288e+02 2.918975276816622e+03
1.153089764721314e+03 2.159011763340098e+02 2.918975276816622e+03
1.152391425157066e+03 2.124186460569678e+02 2.918975276816622e+03
1.152417382142495e+03 2.119892487396668e+02 2.918975276816622e+03
1.153490450245492e+03 2.107123863015640e+02 2.918975276816622e+03
1.153534701979852e+03 2.093440265640112e+02 2.918975276816622e+03
1.154865097628491e+03 2.039178814965688e+02 2.918975276816622e+03
1.154988710879103e+03 2.012533235213364e+02 2.918975276816622e+03
1.154408039042461e+03 1.996017439746098e+02 2.918975276816622e+03
1.154993392213114e+03 1.974862773814519e+02 2.918975276816622e+03
1.154608741230600e+03 1.956022315400334e+02 2.918975276816622e+03
1.154942377843662e+03 1.928305720554629e+02 2.918975276816622e+03
1.154299306952381e+03 1.926317991939193e+02 2.918975276816622e+03
1.154768848293923e+03 1.899160774494901e+02 2.918975276816622e+03
1.153872853309131e+03 1.874238726980614e+02 2.918975276816622e+03
1.154619381895843e+03 1.844334374745021e+02 2.918975276816622e+03
1.153659379859146e+03 1.818052482538894e+02 2.918975276816622e+03
1.153963770475969e+03 1.757581444207159e+02 2.918975276816622e+03
1.154295438209500e+03 1.733169909691816e+02 2.918975276816622e+03
1.154736790653133e+03 1.718857126716732e+02 2.918975276816622e+03
1.152060344685810e+03 1.716245096481194e+02 2.918975276816622e+03
1.153599092543452e+03 1.695823483611032e+02 2.918975276816622e+03
1.153759010363994e+03 1.690229015996564e+02 2.918975276816622e+03
1.155737942585846e+03 1.656236642966961e+02 2.918975276816622e+03
1.152407517585646e+03 1.661295957005623e+02 2.918975276816622e+03
1.154137845944815e+03 1.633084459125759e+02 2.918975276816622e+03
1.154428648834060e+03 1.609611120719946e+02 2.918975276816622e+03
1.155248885027883e+03 1.592001960447220e+02 2.918975276816622e+03
1.154564563701284e+03 1.585680977580633e+02 2.918975276816622e+03
1.155030116945162e+03 1.575004657818591e+02 2.918975276816622e+03
1.154009716503544e+03 1.534898384787785e+02 2.918975276816622e+03
1.154002730220504e+03 1.512757167691653e+02 2.918975276816622e+03
1.152098452780294e+03 1.492681909981160e+02 2.918975276816622e+03
1.152270666729060e+03 1.487820380131069e+02 2.918975276816622e+03
1.152659215909413e+03 1.470292807536379e+02 2.918975276816622e+03
1.152703638574217e+03 1.457821501838899e+02 2.918975276816622e+03
1.152932335832560e+03 1.447499438185808e+02 2.918975276816622e+03
1.153108991766797e+03 1.415083885874271e+02 2.918975276816622e+03
1.153209016273244e+03 1.392844605620148e+02 2.918975276816622e+03
1.153203639190664e+03 1.388645250639870e+02 2.918975276816622e+03
1.153306279999642e+03 1.363024142945732e+02 2.918975276816622e+03
1.153361502894665e+03 1.303070054819288e+02 2.918975276816622e+03
1.153315817092118e+03 1.281783615214053e+02 2.918975276816622e+03
1.153107225242292e+03 1.268973901505287e+02 2.918975276816622e+03
1.153285143319622e+03 1.257584201849622e+02 2.918975276816622e+03
1.153215226856580e+03 1.246548192225259e+02 2.918975276816622e+03
1.153183610529602e+03 1.216095814227478e+02 2.918975276816622e+03
1.153021736615237e+03 1.198201313567258e+02 2.918975276816622e+03
1.153055609596994e+03 1.186787102388552e+02 2.918975276816622e+03
1.152838279490054e+03 1.163564501215187e+02 2.918975276816622e+03
1.152705185901659e+03 1.130841831808049e+02 2.918975276816622e+03
1.152394112137444e+03 1.116562771237887e+02 2.918975276816622e+03
1.152363588071255e+03 1.102842826232254e+02 2.918975276816622e+03
1.151857175627159e+03 1.085236406895170e+02 2.918975276816622e+03
1.151836055649709e+03 1.084867166012053e+02 2.918975276816622e+03
1.152339668623689e+03 1.068958420010370e+02 2.918975276816622e+03
1.152616357307235e+03 1.055866232969138e+02 2.918975276816622e+03
1.152771071502428e+03 1.045559718588275e+02 2.918975276816622e+03
1.153204077558868e+03 1.014714480042039e+02 2.918975276816622e+03
1.153395214152441e+03 9.939060674945858e+01 2.918975276816622e+03
1.153840812493427e+03 9.670121103745826e+01 2.918975276816622e+03
1.153875829998801e+03 9.657405434835383e+01 2.918975276816622e+03
1.154343915373495e+03 9.361332461036780e+01 2.918975276816622e+03
1.154268921066004e+03 9.130687120825579e+01 2.918975276816622e+03
1.154632494431694e+03 8.754542422646351e+01 2.918975276816622e+03
1.154450547181877e+03 8.581944154383936e+01 2.918975276816622e+03
1.154959066586319e+03 8.256692350671310e+01 2.918975276816622e+03
1.154919624328175e+03 8.012249690654220e+01 2.918975276816622e+03
1.155162025787558e+03 7.832908878067413e+01 2.918975276816622e+03
1.156448881677192e+03 7.348838525308844e+01 2.918975276816622e+03
1.155412878389873e+03 7.268660196597914e+01 2.918975276816622e+03
1.155788262293654e+03 6.766851403088188e+01 2.918975276816622e+03
1.155436818280119e+03 6.616874786299356e+01 2.918975276816622e+03
1.155702444828255e+03 6.264246381480956e+01 2.918975276816622e+03
1.155062391396555e+03 5.997159435862195e+01 2.918975276816622e+03
1.155548520863643e+03 5.803506984870100e+01 2.918975276816622e+03
1.155309331417924e+03 5.742721022222822e+01 2.918975276816622e+03
1.154950329010459e+03 5.535676352160017e+01 2.918975276816622e+03
1.155208994766497e+03 5.384661573311889e+01 2.918975276816622e+03
1.154997877108739e+03 5.210897557732255e+01 2.918975276816622e+03
1.155060323191021e+03 5.088142464656617e+01 2.918975276816622e+03
1.154308115072879e+03 4.799071807095426e+01 2.918975276816622e+03
1.154479906335129e+03 4.784356031229023e+01 2.918975276816622e+03
1.154348223233092e+03 4.425803530952589e+01 2.918975276816622e+03
1.154660613980757e+03 4.240460078857860e+01 2.918975276816622e+03
1.154488793437543e+03 4.192433018232771e+01 2.918975276816622e+03
1.154900287477426e+03 4.063392531864877e+01 2.918975276816622e+03
1.154574169754404e+03 3.875191498556893e+01 2.918975276816622e+03
1.154820807949068e+03 3.549375903626135e+01 2.918975276816622e+03
1.154721130730177e+03 3.405002310905810e+01 2.918975276816622e+03
1.154971630649534e+03 3.209117304502558e+01 2.918975276816622e+03
1.154881572546159e+03 3.003120229033379e+01 2.918975276816622e+03
1.155062991147459e+03 2.820855105182320e+01 2.918975276816622e+03
1.155050184104609e+03 2.544281983783472e+01 2.918975276816622e+03
1.155433529547253e+03 1.943140016880533e+01 2.918975276816622e+03
1.155445511423572e+03 1.935092905718917e+01 2.918975276816622e+03
1.155077683896716e+03 1.595018080913637e+01 2.918975276816622e+03
1.155124467194877e+03 1.437080865545992e+01 2.918975276816622e+03
1.154987646564120e+03 1.336359221673665e+01 2.918975276816622e+03
1.154993849149800e+03 1.163015012036200e+01 2.918975276816622e+03
1.154861137578343e+03 1.023464462176626e+01 2.918975276816622e+03
1.154682260058340e+03 5.460313117508303e+00 2.918975276816622e+03
1.154686487134644e+03 4.585450234590645e+00 2.918975276816622e+03
1.154501203363093e+03 2.600592773187513e+00 2.918975276816622e+03
1.154588216597811e+03 1.328816252005122e+00 2.918975276816622e+03
-1.148067733924225e+03 -3.863858941524650e+02 -2.918975276816622e+03
-1.148067733924225e+03  3.863858941524653e+02 -2.918975276816622e+03
 1.145219755674299e+03 -3.863858941524653e+02  2.918975276816622e+03
1.145219755674299e+03 3.863858941524650e+02 2.918975276816622e+03
-1.156886690970501e+03 -3.863858941524650e+02 -2.918975276816622e+03
-1.156886690970501e+03  3.863858941524653e+02 -2.918975276816622e+03
 1.153776631754414e+03 -3.863858941524653e+02  2.918975276816622e+03
1.153776631754414e+03 3.863858941524650e+02 2.918975276816622e+03
-1.148688122354058e+03  5.652372176189942e-02 -2.918975276816622e+03
-1.148598118046698e+03  3.162734404224918e+00 -2.918975276816622e+03
-1.148656003010348e+03 -1.340513806026384e+00 -2.918975276816622e+03
-1.148624883769128e+03 -2.813763232822606e+00 -2.918975276816622e+03
-1.148604578620700e+03 -4.384463592931644e+00 -2.918975276816622e+03
-1.148370837115739e+03 -5.509652884084864e+00 -2.918975276816622e+03
-1.148400535264370e+03 -7.228654683789888e+00 -2.918975276816622e+03
-1.148678392851481e+03 -9.472072260944941e+00 -2.918975276816622e+03
-1.148716662547579e+03 -1.189026924842545e+01 -2.918975276816622e+03
-1.148649261427749e+03 -1.344637274401955e+01 -2.918975276816622e+03
-1.148570175454147e+03 -1.520556045226552e+01 -2.918975276816622e+03
-1.148565898728726e+03 -1.836224615067753e+01 -2.918975276816622e+03
-1.148541637964715e+03 -2.150410267408497e+01 -2.918975276816622e+03
-1.148411963209013e+03 -2.490890606849999e+01 -2.918975276816622e+03
-1.148271784989106e+03 -2.749890027376702e+01 -2.918975276816622e+03
-1.148279493753592e+03 -2.921055321240742e+01 -2.918975276816622e+03
-1.148340986299593e+03 -3.146877040520911e+01 -2.918975276816622e+03
-1.148289807108084e+03 -3.324880664630113e+01 -2.918975276816622e+03
-1.148199643555739e+03 -3.442568567669723e+01 -2.918975276816622e+03
-1.148230945598435e+03 -3.539523139082900e+01 -2.918975276816622e+03
-1.148184225917300e+03 -3.712202812880845e+01 -2.918975276816622e+03
-1.147981675673580e+03 -3.913165850192999e+01 -2.918975276816622e+03
-1.147916378503399e+03 -4.051948026603208e+01 -2.918975276816622e+03
-1.147933232986014e+03 -4.220602081923087e+01 -2.918975276816622e+03
-1.147801543459990e+03 -4.405620224273794e+01 -2.918975276816622e+03
-1.147656521902263e+03 -4.609789693004790e+01 -2.918975276816622e+03
-1.147561580280346e+03 -4.853121696298501e+01 -2.918975276816622e+03
-1.147490135650230e+03 -5.002253009608884e+01 -2.918975276816622e+03
-1.147419218470687e+03 -5.122975634556771e+01 -2.918975276816622e+03
-1.147258242271451e+03 -5.314717601433234e+01 -2.918975276816622e+03
-1.147127262278671e+03 -5.424642748796322e+01 -2.918975276816622e+03
-1.147202728587231e+03 -5.515333898027482e+01 -2.918975276816622e+03
-1.147376092211716e+03 -5.719765559987533e+01 -2.918975276816622e+03
-1.147513350500780e+03 -5.930257868836239e+01 -2.918975276816622e+03
-1.147565102512815e+03 -6.077155095915364e+01 -2.918975276816622e+03
-1.147579077707311e+03 -6.235210896433651e+01 -2.918975276816622e+03
-1.147630609063771e+03 -6.382780918406264e+01 -2.918975276816622e+03
-1.147673696805483e+03 -6.530337893591778e+01 -2.918975276816622e+03
-1.147696080609355e+03 -6.679528422612300e+01 -2.918975276816622e+03
-1.147706486187011e+03 -6.859523694831394e+01 -2.918975276816622e+03
-1.147747996710346e+03 -7.022207645264437e+01 -2.918975276816622e+03
-1.147757271125521e+03 -7.135169042256508e+01 -2.918975276816622e+03
-1.147777364532428e+03 -7.320153953518935e+01 -2.918975276816622e+03
-1.147779640980798e+03 -7.481109454091299e+01 -2.918975276816622e+03
-1.147789869869919e+03 -7.580825538181031e+01 -2.918975276816622e+03
-1.147789346430080e+03 -7.729332270188355e+01 -2.918975276816622e+03
-1.147794196636875e+03 -7.932936467169394e+01 -2.918975276816622e+03
-1.147804610151526e+03 -8.090164939711366e+01 -2.918975276816622e+03
-1.147797215136699e+03 -8.241319221756407e+01 -2.918975276816622e+03
-1.147800816783951e+03 -8.419403801812057e+01 -2.918975276816622e+03
-1.147809746872554e+03 -8.634494491287782e+01 -2.918975276816622e+03
-1.147811411427795e+03 -8.858042597499718e+01 -2.918975276816622e+03
-1.147747905804403e+03 -8.995235471642137e+01 -2.918975276816622e+03
-1.147745902955026e+03 -9.124051295221460e+01 -2.918975276816622e+03
-1.147918798072524e+03 -9.345493699138325e+01 -2.918975276816622e+03
-1.147881030268414e+03 -9.531859973485255e+01 -2.918975276816622e+03
-1.147680366324951e+03 -9.714200182502167e+01 -2.918975276816622e+03
-1.147691217222182e+03 -9.939024255026958e+01 -2.918975276816622e+03
-1.147744734572022e+03 -1.008342790152694e+02 -2.918975276816622e+03
-1.147719354890010e+03 -1.023108865014152e+02 -2.918975276816622e+03
-1.147627555984600e+03 -1.037347326541405e+02 -2.918975276816622e+03
-1.147603087487005e+03 -1.051991102175238e+02 -2.918975276816622e+03
-1.147652467775989e+03 -1.067006449806216e+02 -2.918975276816622e+03
-1.147611410255068e+03 -1.084690103174644e+02 -2.918975276816622e+03
-1.147513694470830e+03 -1.100938537294817e+02 -2.918975276816622e+03
-1.147476732193996e+03 -1.113640480232598e+02 -2.918975276816622e+03
-1.147501139342736e+03 -1.132241687730625e+02 -2.918975276816622e+03
-1.147478298336423e+03 -1.143045607623735e+02 -2.918975276816622e+03
-1.147437713848610e+03 -1.151019534381631e+02 -2.918975276816622e+03
-1.147466679765499e+03 -1.170559974022592e+02 -2.918975276816622e+03
-1.147478970578863e+03 -1.192622175477433e+02 -2.918975276816622e+03
-1.147483860854989e+03 -1.207695748105387e+02 -2.918975276816622e+03
-1.147476069651605e+03 -1.223343006274444e+02 -2.918975276816622e+03
-1.147478362293556e+03 -1.240853843614984e+02 -2.918975276816622e+03
-1.147460597100740e+03 -1.260272827619398e+02 -2.918975276816622e+03
-1.147439691047528e+03 -1.284048180702819e+02 -2.918975276816622e+03
-1.147419128875058e+03 -1.299697330668798e+02 -2.918975276816622e+03
-1.147407303201407e+03 -1.312796198009707e+02 -2.918975276816622e+03
-1.147374403427148e+03 -1.331890792108167e+02 -2.918975276816622e+03
-1.147331087975573e+03 -1.343190119593449e+02 -2.918975276816622e+03
-1.147371541393103e+03 -1.351209647202451e+02 -2.918975276816622e+03
-1.147431478838042e+03 -1.370852815274937e+02 -2.918975276816622e+03
-1.147509277086760e+03 -1.392292888489137e+02 -2.918975276816622e+03
-1.147543678915826e+03 -1.406606741920442e+02 -2.918975276816622e+03
-1.147540726897699e+03 -1.422181902366589e+02 -2.918975276816622e+03
-1.147575928644080e+03 -1.436511026079745e+02 -2.918975276816622e+03
-1.147650621841050e+03 -1.451339424735942e+02 -2.918975276816622e+03
-1.147668419865088e+03 -1.466470173960640e+02 -2.918975276816622e+03
-1.147666900618230e+03 -1.483987354600201e+02 -2.918975276816622e+03
-1.147709759280400e+03 -1.499936997464785e+02 -2.918975276816622e+03
-1.147756923511957e+03 -1.511915362115896e+02 -2.918975276816622e+03
-1.147825703392414e+03 -1.530343532795956e+02 -2.918975276816622e+03
-1.147842813390872e+03 -1.540580008127950e+02 -2.918975276816622e+03
-1.147838876406371e+03 -1.550250353546394e+02 -2.918975276816622e+03
-1.147844432555561e+03 -1.580699416371295e+02 -2.918975276816622e+03
-1.147868148220899e+03 -1.607027203113064e+02 -2.918975276816622e+03
-1.147875764638831e+03 -1.622131614481987e+02 -2.918975276816622e+03
-1.147891577563921e+03 -1.639670677205419e+02 -2.918975276816622e+03
-1.147934093977166e+03 -1.659556007585959e+02 -2.918975276816622e+03
-1.147986093618648e+03 -1.683875917484321e+02 -2.918975276816622e+03
-1.147906412363648e+03 -1.699285637323950e+02 -2.918975276816622e+03
-1.147887081502945e+03 -1.713383529190899e+02 -2.918975276816622e+03
-1.147976248639864e+03 -1.740429362734357e+02 -2.918975276816622e+03
-1.148008388504335e+03 -1.769884348027421e+02 -2.918975276816622e+03
-1.148009032747113e+03 -1.792478329649583e+02 -2.918975276816622e+03
-1.148029324868723e+03 -1.807242320729363e+02 -2.918975276816622e+03
-1.148015019473587e+03 -1.822113437060998e+02 -2.918975276816622e+03
-1.147962223122942e+03 -1.839316851444797e+02 -2.918975276816622e+03
-1.147966470986073e+03 -1.859033557539182e+02 -2.918975276816622e+03
-1.147954006980504e+03 -1.882947797256169e+02 -2.918975276816622e+03
-1.147938603533209e+03 -1.898113947825873e+02 -2.918975276816622e+03
-1.147944550942516e+03 -1.910332110028247e+02 -2.918975276816622e+03
-1.147949948111326e+03 -1.929206105606550e+02 -2.918975276816622e+03
-1.147940786367251e+03 -1.941055512407906e+02 -2.918975276816622e+03
-1.147924470080360e+03 -1.951750676543714e+02 -2.918975276816622e+03
-1.147932434897042e+03 -1.980548405802938e+02 -2.918975276816622e+03
-1.147954381264986e+03 -2.005706282020920e+02 -2.918975276816622e+03
-1.147955536219737e+03 -2.020940589230270e+02 -2.918975276816622e+03
-1.147953422848344e+03 -2.035852694005741e+02 -2.918975276816622e+03
-1.147954541774896e+03 -2.050457840522172e+02 -2.918975276816622e+03
-1.147960151965889e+03 -2.065523418078172e+02 -2.918975276816622e+03
-1.147957236533866e+03 -2.083296780269334e+02 -2.918975276816622e+03
-1.147954693165989e+03 -2.099917365200256e+02 -2.918975276816622e+03
-1.147949301250261e+03 -2.114113170381590e+02 -2.918975276816622e+03
-1.147936462593781e+03 -2.140157328839762e+02 -2.918975276816622e+03
-1.147906529587734e+03 -2.169194150077105e+02 -2.918975276816622e+03
-1.147869660050265e+03 -2.191719450920767e+02 -2.918975276816622e+03
-1.147843505062652e+03 -2.206623900173946e+02 -2.918975276816622e+03
-1.147807644868985e+03 -2.221483125261147e+02 -2.918975276816622e+03
-1.147769044054756e+03 -2.238651711223968e+02 -2.918975276816622e+03
-1.147710495946186e+03 -2.258523787904870e+02 -2.918975276816622e+03
-1.147619825052803e+03 -2.282626426226994e+02 -2.918975276816622e+03
-1.147547923437652e+03 -2.298316425287099e+02 -2.918975276816622e+03
-1.147476227433537e+03 -2.310946865530159e+02 -2.918975276816622e+03
-1.147343451122855e+03 -2.328772346068893e+02 -2.918975276816622e+03
-1.147250296992233e+03 -2.337957486989326e+02 -2.918975276816622e+03
-1.147382189465265e+03 -2.346856487017617e+02 -2.918975276816622e+03
-1.147547401052979e+03 -2.368319484782791e+02 -2.918975276816622e+03
-1.147641747598004e+03 -2.391256479072567e+02 -2.918975276816622e+03
-1.147698335270138e+03 -2.406562939964475e+02 -2.918975276816622e+03
-1.147768102508732e+03 -2.421667512959439e+02 -2.918975276816622e+03
-1.147808280179304e+03 -2.438056438123988e+02 -2.918975276816622e+03
-1.147829785864635e+03 -2.457448093564150e+02 -2.918975276816622e+03
-1.147893412427043e+03 -2.470506611983156e+02 -2.918975276816622e+03
-1.147908326740118e+03 -2.484454245368970e+02 -2.918975276816622e+03
-1.147903201353215e+03 -2.503338595446556e+02 -2.918975276816622e+03
-1.147916860807656e+03 -2.512466613526911e+02 -2.918975276816622e+03
-1.147936394986572e+03 -2.527946671495353e+02 -2.918975276816622e+03
-1.147970423135153e+03 -2.545912875214732e+02 -2.918975276816622e+03
-1.147983851862805e+03 -2.563204296148276e+02 -2.918975276816622e+03
-1.147974548846555e+03 -2.575889846119950e+02 -2.918975276816622e+03
-1.148015053285551e+03 -2.589693639047348e+02 -2.918975276816622e+03
-1.148076663444737e+03 -2.605447747739883e+02 -2.918975276816622e+03
-1.148258986894992e+03 -2.621031834514875e+02 -2.918975276816622e+03
-1.148517268141961e+03 -2.646865788603040e+02 -2.918975276816622e+03
-1.148772322128828e+03 -2.668170126192759e+02 -2.918975276816622e+03
-1.148330016930178e+03 -2.677482153094868e+02 -2.918975276816622e+03
-1.148514690612961e+03 -2.686126643604996e+02 -2.918975276816622e+03
-1.148709415158243e+03 -2.695156612454226e+02 -2.918975276816622e+03
-1.148263006189524e+03 -2.704158838635342e+02 -2.918975276816622e+03
-1.148140357100350e+03 -2.724734411979431e+02 -2.918975276816622e+03
-1.148100615624602e+03 -2.748581657769519e+02 -2.918975276816622e+03
-1.148116548068013e+03 -2.767171484451862e+02 -2.918975276816622e+03
-1.147923212372451e+03 -2.789431133505847e+02 -2.918975276816622e+03
-1.147943964255757e+03 -2.823238151770972e+02 -2.918975276816622e+03
-1.147997269954524e+03 -2.850864980650954e+02 -2.918975276816622e+03
-1.148031323931803e+03 -2.867876549664867e+02 -2.918975276816622e+03
-1.148059645213993e+03 -2.889704914057985e+02 -2.918975276816622e+03
-1.148102483108570e+03 -2.914007914655034e+02 -2.918975276816622e+03
-1.148145321003147e+03 -2.938310915252084e+02 -2.918975276816622e+03
-1.148214060113417e+03 -2.967754189598061e+02 -2.918975276816622e+03
-1.148252198819276e+03 -2.993235837993001e+02 -2.918975276816622e+03
-1.148342955797457e+03 -3.019225700902666e+02 -2.918975276816622e+03
-1.148418421361760e+03 -3.040229095636741e+02 -2.918975276816622e+03
-1.148424866055217e+03 -3.058209635690784e+02 -2.918975276816622e+03
-1.148360065863128e+03 -3.089875709405877e+02 -2.918975276816622e+03
-1.148363325876481e+03 -3.123998170587528e+02 -2.918975276816622e+03
-1.148270372248113e+03 -3.160514326474505e+02 -2.918975276816622e+03
-1.148236704153740e+03 -3.194596587188784e+02 -2.918975276816622e+03
-1.147655181851168e+03 -3.209067472950176e+02 -2.918975276816622e+03
-1.147017665649582e+03 -3.217732186495177e+02 -2.918975276816622e+03
-1.147205174120161e+03 -3.235129402039374e+02 -2.918975276816622e+03
-1.147321227958338e+03 -3.260465771907089e+02 -2.918975276816622e+03
-1.146938194505365e+03 -3.281742507690261e+02 -2.918975276816622e+03
-1.146833128980142e+03 -3.294745055127746e+02 -2.918975276816622e+03
-1.147345810462507e+03 -3.315691079083443e+02 -2.918975276816622e+03
-1.147288806561165e+03 -3.340024089527446e+02 -2.918975276816622e+03
-1.147561662721880e+03 -3.370299193552008e+02 -2.918975276816622e+03
-1.147818412650803e+03 -3.409351034092941e+02 -2.918975276816622e+03
-1.148146109059706e+03 -3.440642658075706e+02 -2.918975276816622e+03
-1.148197324972387e+03 -3.457337272663465e+02 -2.918975276816622e+03
-1.148260938592706e+03 -3.466731178507880e+02 -2.918975276816622e+03
-1.148603164812557e+03 -3.480365538706388e+02 -2.918975276816622e+03
-1.148143292914865e+03 -3.508206601071852e+02 -2.918975276816622e+03
-1.147727886150647e+03 -3.530704225412204e+02 -2.918975276816622e+03
-1.147796659105040e+03 -3.549786839170441e+02 -2.918975276816622e+03
-1.147589607927280e+03 -3.562477564504258e+02 -2.918975276816622e+03
-1.147525130116302e+03 -3.570806923807194e+02 -2.918975276816622e+03
-1.147841307524788e+03 -3.584662604278593e+02 -2.918975276816622e+03
-1.147957870707113e+03 -3.605663038658114e+02 -2.918975276816622e+03
-1.148204633018838e+03 -3.634790584975919e+02 -2.918975276816622e+03
-1.148213870095293e+03 -3.659557974092777e+02 -2.918975276816622e+03
-1.148223107171748e+03 -3.684325363209637e+02 -2.918975276816622e+03
-1.148203283386042e+03 -3.707274814079277e+02 -2.918975276816622e+03
-1.148167256596532e+03 -3.729204350092107e+02 -2.918975276816622e+03
-1.148179787689618e+03 -3.742087712940731e+02 -2.918975276816622e+03
-1.148126540943000e+03 -3.753672817940586e+02 -2.918975276816622e+03
-1.148101467777281e+03 -3.769554825075322e+02 -2.918975276816622e+03
-1.148072923719312e+03 -3.786055266104605e+02 -2.918975276816622e+03
-1.148024955872344e+03 -3.798483065168337e+02 -2.918975276816622e+03
-1.148031366763116e+03 -3.811829211391547e+02 -2.918975276816622e+03
-1.148035736624853e+03 -3.841939257941647e+02 -2.918975276816622e+03
-1.148067147435301e+03 -3.862152971554764e+02 -2.918975276816622e+03
-1.148085745271337e+03  3.821493071654327e+02 -2.918975276816622e+03
-1.148100807529069e+03  3.797730727471072e+02 -2.918975276816622e+03
-1.148072974033348e+03  3.848616592635303e+02 -2.918975276816622e+03
-1.148111606650715e+03  3.779375114067448e+02 -2.918975276816622e+03
-1.148118627194372e+03  3.769183190295882e+02 -2.918975276816622e+03
-1.148131266364454e+03  3.751066002038092e+02 -2.918975276816622e+03
-1.148153371413422e+03  3.723644672866373e+02 -2.918975276816622e+03
-1.148179808272946e+03  3.697601426119392e+02 -2.918975276816622e+03
-1.148210816188791e+03  3.670243121526541e+02 -2.918975276816622e+03
-1.148246395160957e+03  3.641569759087826e+02 -2.918975276816622e+03
-1.148281974133123e+03  3.612896396649111e+02 -2.918975276816622e+03
-1.148275009579931e+03  3.586844293092423e+02 -2.918975276816622e+03
-1.148304075749139e+03  3.560843448935178e+02 -2.918975276816622e+03
-1.148385007177325e+03  3.537198400900853e+02 -2.918975276816622e+03
-1.148416876325414e+03  3.519327072775199e+02 -2.918975276816622e+03
-1.148364698471159e+03  3.498932040949817e+02 -2.918975276816622e+03
-1.148376926993841e+03  3.474688083405533e+02 -2.918975276816622e+03
-1.148309046385926e+03  3.453679336703607e+02 -2.918975276816622e+03
-1.148314220646821e+03  3.430233228220010e+02 -2.918975276816622e+03
-1.148034710753502e+03  3.410633738478438e+02 -2.918975276816622e+03
-1.147922503275540e+03  3.394244602884187e+02 -2.918975276816622e+03
-1.148234605464826e+03  3.368408595164035e+02 -2.918975276816622e+03
-1.148239766664416e+03  3.339911850252721e+02 -2.918975276816622e+03
-1.148244927864007e+03  3.311415105341403e+02 -2.918975276816622e+03
-1.148220751564275e+03  3.286858353069100e+02 -2.918975276816622e+03
-1.148069011364063e+03  3.268546482137842e+02 -2.918975276816622e+03
-1.147849796539270e+03  3.247830985661402e+02 -2.918975276816622e+03
-1.147755542224787e+03  3.234799926902178e+02 -2.918975276816622e+03
-1.147942467347556e+03  3.223140238211262e+02 -2.918975276816622e+03
-1.148001434998101e+03  3.207490102740841e+02 -2.918975276816622e+03
-1.148012269061002e+03  3.187930035449846e+02 -2.918975276816622e+03
-1.147985343814820e+03  3.152760232892719e+02 -2.918975276816622e+03
-1.147956776280441e+03  3.126604429188935e+02 -2.918975276816622e+03
-1.147864292357051e+03  3.108856150321628e+02 -2.918975276816622e+03
-1.147831297813982e+03  3.083554852915123e+02 -2.918975276816622e+03
-1.147772838825030e+03  3.057461487672644e+02 -2.918975276816622e+03
-1.147613746429945e+03  3.039213710012872e+02 -2.918975276816622e+03
-1.147579357602385e+03  3.022486373911055e+02 -2.918975276816622e+03
-1.147474107402981e+03  2.999291433666797e+02 -2.918975276816622e+03
-1.147524440682276e+03  2.974468226947411e+02 -2.918975276816622e+03
-1.147620768431691e+03  2.960271108000726e+02 -2.918975276816622e+03
-1.147709073672714e+03  2.947515340457879e+02 -2.918975276816622e+03
-1.147731392662291e+03  2.925013551892552e+02 -2.918975276816622e+03
-1.147741742378932e+03  2.901950478673606e+02 -2.918975276816622e+03
-1.147738198288728e+03  2.887708728116415e+02 -2.918975276816622e+03
-1.147756303313213e+03  2.873680828162641e+02 -2.918975276816622e+03
-1.147794334339266e+03  2.847008563795210e+02 -2.918975276816622e+03
-1.147814439053193e+03  2.825902159337593e+02 -2.918975276816622e+03
-1.147823628790088e+03  2.810579132809332e+02 -2.918975276816622e+03
-1.147839679948571e+03  2.790563061608117e+02 -2.918975276816622e+03
-1.147845543673536e+03  2.771004552787891e+02 -2.918975276816622e+03
-1.147849465075014e+03  2.759366614121215e+02 -2.918975276816622e+03
-1.147846622406345e+03  2.749512211735437e+02 -2.918975276816622e+03
-1.147853948521827e+03  2.729550371634929e+02 -2.918975276816622e+03
-1.147852609374805e+03  2.712798425943300e+02 -2.918975276816622e+03
-1.147858735390643e+03  2.700054560168887e+02 -2.918975276816622e+03
-1.147849899479628e+03  2.679140787550058e+02 -2.918975276816622e+03
-1.147842931667537e+03  2.661263684290231e+02 -2.918975276816622e+03
-1.147837705442966e+03  2.642985373624011e+02 -2.918975276816622e+03
-1.147823508058112e+03  2.620259999211129e+02 -2.918975276816622e+03
-1.147812013873978e+03  2.605041174021387e+02 -2.918975276816622e+03
-1.147804280183341e+03  2.590153728253428e+02 -2.918975276816622e+03
-1.147819044438867e+03  2.573763313999910e+02 -2.918975276816622e+03
-1.147797131843012e+03  2.553771074290874e+02 -2.918975276816622e+03
-1.147779994416522e+03  2.527162076621770e+02 -2.918975276816622e+03
-1.147738516709938e+03  2.508292865248632e+02 -2.918975276816622e+03
-1.147738649624979e+03  2.498788682074563e+02 -2.918975276816622e+03
-1.147724225801203e+03  2.483333320210543e+02 -2.918975276816622e+03
-1.147737465639899e+03  2.464997499733768e+02 -2.918975276816622e+03
-1.147715999018980e+03  2.447693804543661e+02 -2.918975276816622e+03
-1.147677705086709e+03  2.435423278566902e+02 -2.918975276816622e+03
-1.147641737922507e+03  2.420340891672898e+02 -2.918975276816622e+03
-1.147620093032962e+03  2.403983832140966e+02 -2.918975276816622e+03
-1.147586471744937e+03  2.393398837642684e+02 -2.918975276816622e+03
-1.147557198286781e+03  2.374396640869901e+02 -2.918975276816622e+03
-1.147527410464560e+03  2.358335192694590e+02 -2.918975276816622e+03
-1.147498852505859e+03  2.347124978865641e+02 -2.918975276816622e+03
-1.147421687599551e+03  2.330356849878453e+02 -2.918975276816622e+03
-1.147384939751170e+03  2.312688508800276e+02 -2.918975276816622e+03
-1.147347844726708e+03  2.299521317094432e+02 -2.918975276816622e+03
-1.147238293294396e+03  2.283310354654137e+02 -2.918975276816622e+03
-1.147216896138463e+03  2.267809717292317e+02 -2.918975276816622e+03
-1.147205695563262e+03  2.253505651281316e+02 -2.918975276816622e+03
-1.147141206705242e+03  2.238597193782889e+02 -2.918975276816622e+03
-1.147063871899871e+03  2.218421494716572e+02 -2.918975276816622e+03
-1.146917906553620e+03  2.193151407722302e+02 -2.918975276816622e+03
-1.146567796839116e+03  2.171895341020700e+02 -2.918975276816622e+03
-1.146211611292865e+03  2.159357708207432e+02 -2.918975276816622e+03
-1.146310898738278e+03  2.149881817039621e+02 -2.918975276816622e+03
-1.146513040719906e+03  2.135566557560768e+02 -2.918975276816622e+03
-1.146575716494805e+03  2.123536762497393e+02 -2.918975276816622e+03
-1.146710306273819e+03  2.110507769439563e+02 -2.918975276816622e+03
-1.146851062544093e+03  2.097308410116201e+02 -2.918975276816622e+03
-1.146966228816468e+03  2.081928297693827e+02 -2.918975276816622e+03
-1.147038194104107e+03  2.065545392259902e+02 -2.918975276816622e+03
-1.147130403826178e+03  2.050359489966770e+02 -2.918975276816622e+03
-1.147177279850477e+03  2.037179687548857e+02 -2.918975276816622e+03
-1.147025764556993e+03  2.021078674515724e+02 -2.918975276816622e+03
-1.147092285630409e+03  2.006233874127263e+02 -2.918975276816622e+03
-1.147289325893123e+03  1.994828603608825e+02 -2.918975276816622e+03
-1.147191645709950e+03  1.975253829611884e+02 -2.918975276816622e+03
-1.147123261445673e+03  1.942636711072726e+02 -2.918975276816622e+03
-1.147138513481733e+03  1.912213194174354e+02 -2.918975276816622e+03
-1.147199397257756e+03  1.897328338669753e+02 -2.918975276816622e+03
-1.147201670388342e+03  1.882295805674471e+02 -2.918975276816622e+03
-1.147116533284619e+03  1.868035672025971e+02 -2.918975276816622e+03
-1.147056176852780e+03  1.853651056680944e+02 -2.918975276816622e+03
-1.147015801199768e+03  1.838915992888719e+02 -2.918975276816622e+03
-1.146949369938824e+03  1.819741615225380e+02 -2.918975276816622e+03
-1.146764356552146e+03  1.798334336589702e+02 -2.918975276816622e+03
-1.146667322121288e+03  1.787357489696570e+02 -2.918975276816622e+03
-1.146495544248373e+03  1.775149804449734e+02 -2.918975276816622e+03
-1.146346525383462e+03  1.763771500593876e+02 -2.918975276816622e+03
-1.146609750353803e+03  1.747740399736259e+02 -2.918975276816622e+03
-1.146711481871796e+03  1.725769888575678e+02 -2.918975276816622e+03
-1.146749946392851e+03  1.709414082357602e+02 -2.918975276816622e+03
-1.146903303037128e+03  1.696347355461875e+02 -2.918975276816622e+03
-1.147005035664208e+03  1.682239988240955e+02 -2.918975276816622e+03
-1.146996317138661e+03  1.668151916860594e+02 -2.918975276816622e+03
-1.146861840779114e+03  1.652669765682386e+02 -2.918975276816622e+03
-1.146913655180647e+03  1.637574980486626e+02 -2.918975276816622e+03
-1.147066298024220e+03  1.620998563061742e+02 -2.918975276816622e+03
-1.146972647930208e+03  1.606519598783919e+02 -2.918975276816622e+03
-1.146874101587418e+03  1.593070322023565e+02 -2.918975276816622e+03
-1.146746210700093e+03  1.573098936998836e+02 -2.918975276816622e+03
-1.146622391543985e+03  1.562893362308305e+02 -2.918975276816622e+03
-1.146694532902900e+03  1.546977226474520e+02 -2.918975276816622e+03
-1.146674753319683e+03  1.523910879647588e+02 -2.918975276816622e+03
-1.146747117292239e+03  1.507486014347446e+02 -2.918975276816622e+03
-1.146939612228678e+03  1.495265677806793e+02 -2.918975276816622e+03
-1.146986273792743e+03  1.483131863920415e+02 -2.918975276816622e+03
-1.146934345033029e+03  1.469272010244114e+02 -2.918975276816622e+03
-1.146950925417461e+03  1.454264834597036e+02 -2.918975276816622e+03
-1.146933742070995e+03  1.439338602232145e+02 -2.918975276816622e+03
-1.146910515730905e+03  1.421775264442360e+02 -2.918975276816622e+03
-1.146935026153857e+03  1.408552739561981e+02 -2.918975276816622e+03
-1.146920998259633e+03  1.396815907090956e+02 -2.918975276816622e+03
-1.146770538487094e+03  1.378097833733509e+02 -2.918975276816622e+03
-1.146630161883244e+03  1.367536458567061e+02 -2.918975276816622e+03
-1.146814003673272e+03  1.353655205153219e+02 -2.918975276816622e+03
-1.146953910631503e+03  1.336318076749317e+02 -2.918975276816622e+03
-1.147089126613343e+03  1.317776839043984e+02 -2.918975276816622e+03
-1.147329070571821e+03  1.298987310630091e+02 -2.918975276816622e+03
-1.147396473645094e+03  1.283300161003796e+02 -2.918975276816622e+03
-1.147343301658125e+03  1.265763831714306e+02 -2.918975276816622e+03
-1.147373116531999e+03  1.245829890758487e+02 -2.918975276816622e+03
-1.147459768434963e+03  1.221893007254494e+02 -2.918975276816622e+03
-1.147531188295520e+03  1.205527011844056e+02 -2.918975276816622e+03
-1.147599459273303e+03  1.189891777789012e+02 -2.918975276816622e+03
-1.147635248125863e+03  1.163380177600678e+02 -2.918975276816622e+03
-1.147680560057882e+03  1.138482048160374e+02 -2.918975276816622e+03
-1.147710434017803e+03  1.124674573811705e+02 -2.918975276816622e+03
-1.147732032475714e+03  1.112729764320263e+02 -2.918975276816622e+03
-1.147735678758872e+03  1.099972874297534e+02 -2.918975276816622e+03
-1.147751602284080e+03  1.083602529239988e+02 -2.918975276816622e+03
-1.147781836419421e+03  1.066707830148598e+02 -2.918975276816622e+03
-1.147790763690183e+03  1.053834847486631e+02 -2.918975276816622e+03
-1.147745198291821e+03  1.040483283282499e+02 -2.918975276816622e+03
-1.147742737329847e+03  1.022486591443072e+02 -2.918975276816622e+03
-1.147752835706530e+03  1.005451387467857e+02 -2.918975276816622e+03
-1.147735140721631e+03  9.936090886798475e+01 -2.918975276816622e+03
-1.147670382815815e+03  9.792465928665845e+01 -2.918975276816622e+03
-1.147631953555856e+03  9.620545430263370e+01 -2.918975276816622e+03
-1.147576168724333e+03  9.329674865769755e+01 -2.918975276816622e+03
-1.147468835594661e+03  9.010153979746354e+01 -2.918975276816622e+03
-1.147198564176879e+03  8.728049386629107e+01 -2.918975276816622e+03
-1.147081041030392e+03  8.541279853298718e+01 -2.918975276816622e+03
-1.147047845016594e+03  8.479602939562919e+01 -2.918975276816622e+03
-1.147682852782594e+03  8.397076579247197e+01 -2.918975276816622e+03
-1.147803995743226e+03  8.304456334269281e+01 -2.918975276816622e+03
-1.147177536554218e+03  8.159079920419525e+01 -2.918975276816622e+03
-1.147209102860181e+03  7.956568844648564e+01 -2.918975276816622e+03
-1.147179454121837e+03  7.734186805469086e+01 -2.918975276816622e+03
-1.147102695276150e+03  7.487671565843540e+01 -2.918975276816622e+03
-1.147148901872759e+03  7.267821045410780e+01 -2.918975276816622e+03
-1.147391172515220e+03  7.122835912359815e+01 -2.918975276816622e+03
-1.147480117176490e+03  6.938539896975915e+01 -2.918975276816622e+03
-1.147387647996466e+03  6.771015792755422e+01 -2.918975276816622e+03
-1.147295337064025e+03  6.649589882710298e+01 -2.918975276816622e+03
-1.147281342524640e+03  6.377693996323671e+01 -2.918975276816622e+03
-1.147341527828529e+03  6.024024697275448e+01 -2.918975276816622e+03
-1.147498725539029e+03  5.681097055380061e+01 -2.918975276816622e+03
-1.147649411509666e+03  5.406038243865756e+01 -2.918975276816622e+03
-1.147770079659746e+03  5.214751796283507e+01 -2.918975276816622e+03
-1.147818468884849e+03  5.043048685150551e+01 -2.918975276816622e+03
-1.147963564351756e+03  4.867820448754798e+01 -2.918975276816622e+03
-1.148093052472759e+03  4.701312849666939e+01 -2.918975276816622e+03
-1.148531521062791e+03  4.619089791557084e+01 -2.918975276816622e+03
-1.148711204272350e+03  4.535965090705929e+01 -2.918975276816622e+03
-1.148532205454502e+03  4.374243276802547e+01 -2.918975276816622e+03
-1.148446625954560e+03  4.216385904513680e+01 -2.918975276816622e+03
-1.148381890608211e+03  4.083599409780276e+01 -2.918975276816622e+03
-1.148602518380333e+03  3.893266554108554e+01 -2.918975276816622e+03
-1.148635402148719e+03  3.648110556403039e+01 -2.918975276816622e+03
-1.148220697504263e+03  3.350712447035676e+01 -2.918975276816622e+03
-1.148198831901098e+03  3.022375072234718e+01 -2.918975276816622e+03
-1.148361488382097e+03  2.729521321280156e+01 -2.918975276816622e+03
-1.148043751525567e+03  2.436255187900222e+01 -2.918975276816622e+03
-1.148128060020176e+03  2.260366021303160e+01 -2.918975276816622e+03
-1.148202513470881e+03  2.159636060473208e+01 -2.918975276816622e+03
-1.147905612399462e+03  2.045104667631935e+01 -2.918975276816622e+03
-1.147795270613561e+03  1.899614814870947e+01 -2.918975276816622e+03
-1.147994027017182e+03  1.721940562265051e+01 -2.918975276816622e+03
-1.148291011796379e+03  1.507475620157174e+01 -2.918975276816622e+03
-1.148434953234943e+03  1.217479495400856e+01 -2.918975276816622e+03
-1.148490707734218e+03  9.159332665773302e+00 -2.918975276816622e+03
-1.148528569546799e+03  6.916785315585614e+00 -2.918975276816622e+03
-1.148515039756346e+03  5.698466154982698e+00 -2.918975276816622e+03
 1.145807144677588e+03 -1.074597745713664e+00  2.918975276816622e+03
1.145722007586239e+03 1.250951200725992e+00 2.918975276816622e+03
 1.145795526535637e+03 -2.705250538632667e+00  2.918975276816622e+03
 1.145818076713120e+03 -4.045823273910226e+00  2.918975276816622e+03
 1.145778547436214e+03 -5.558789143413603e+00  2.918975276816622e+03
 1.145764172019602e+03 -7.752112649798035e+00  2.918975276816622e+03
 1.145739917541455e+03 -9.366194941942235e+00  2.918975276816622e+03
 1.145707081798177e+03 -1.082007928980184e+01  2.918975276816622e+03
 1.145641117532606e+03 -1.258603674315716e+01  2.918975276816622e+03
 1.145542042226325e+03 -1.523862143328098e+01  2.918975276816622e+03
 1.145520590306846e+03 -1.820453598046519e+01  2.918975276816622e+03
 1.145575446496188e+03 -2.049018298348137e+01  2.918975276816622e+03
 1.145433756086097e+03 -2.277049110261151e+01  2.918975276816622e+03
 1.145136228103997e+03 -2.500806137731720e+01  2.918975276816622e+03
 1.145070108777671e+03 -2.696698896301377e+01  2.918975276816622e+03
 1.145125977453334e+03 -2.885378266504119e+01  2.918975276816622e+03
 1.145037237143741e+03 -3.009440125803775e+01  2.918975276816622e+03
 1.144920880902808e+03 -3.106365376596208e+01  2.918975276816622e+03
 1.144906777907615e+03 -3.254474379974638e+01  2.918975276816622e+03
 1.144885469004822e+03 -3.448015574440097e+01  2.918975276816622e+03
 1.144802982376250e+03 -3.690197094282610e+01  2.918975276816622e+03
 1.144777639703651e+03 -3.865016659699739e+01  2.918975276816622e+03
 1.144691422790106e+03 -4.049403785465007e+01  2.918975276816622e+03
 1.144653785180545e+03 -4.339037592214122e+01  2.918975276816622e+03
 1.144646448192806e+03 -4.520160066830808e+01  2.918975276816622e+03
 1.144668457550402e+03 -4.630041950442205e+01  2.918975276816622e+03
 1.144669672107140e+03 -4.816840087347045e+01  2.918975276816622e+03
 1.144657649160823e+03 -4.973803794852341e+01  2.918975276816622e+03
 1.144673155230497e+03 -5.199676173935552e+01  2.918975276816622e+03
 1.144830196441632e+03 -5.434671069573326e+01  2.918975276816622e+03
 1.144843214781059e+03 -5.570210320225942e+01  2.918975276816622e+03
 1.144716604896021e+03 -5.753887641127179e+01  2.918975276816622e+03
 1.144718725847262e+03 -5.956659869868302e+01  2.918975276816622e+03
 1.144830547003024e+03 -6.144730684460977e+01  2.918975276816622e+03
 1.144893384079340e+03 -6.310144079680343e+01  2.918975276816622e+03
 1.144898898520678e+03 -6.447044710926102e+01  2.918975276816622e+03
 1.144955253729405e+03 -6.541246515443471e+01  2.918975276816622e+03
 1.144921853985353e+03 -6.634325674089285e+01  2.918975276816622e+03
 1.144882909038062e+03 -6.785052218820624e+01  2.918975276816622e+03
 1.144813663008628e+03 -6.948006189226275e+01  2.918975276816622e+03
 1.144819925435832e+03 -7.148483185347003e+01  2.918975276816622e+03
 1.144802815811097e+03 -7.383333868470901e+01  2.918975276816622e+03
 1.144849519604959e+03 -7.685693482811251e+01  2.918975276816622e+03
 1.144877765168868e+03 -7.970163308583783e+01  2.918975276816622e+03
 1.144921274764860e+03 -8.149625733460397e+01  2.918975276816622e+03
 1.144951491604214e+03 -8.312378619528968e+01  2.918975276816622e+03
 1.144977686699246e+03 -8.447635571780522e+01  2.918975276816622e+03
 1.145043739239484e+03 -8.506211246953954e+01  2.918975276816622e+03
 1.145063301004631e+03 -8.565805739517366e+01  2.918975276816622e+03
 1.145021364901424e+03 -8.671371194531854e+01  2.918975276816622e+03
 1.144989682100188e+03 -8.804015644211262e+01  2.918975276816622e+03
 1.144985494672546e+03 -8.953701904121040e+01  2.918975276816622e+03
 1.144939677612941e+03 -9.135357008780001e+01  2.918975276816622e+03
 1.144916945190756e+03 -9.360352198519095e+01  2.918975276816622e+03
 1.144930493672226e+03 -9.637762440298498e+01  2.918975276816622e+03
 1.144950644865339e+03 -9.870265706643471e+01  2.918975276816622e+03
 1.144974343166348e+03 -1.005639248180202e+02  2.918975276816622e+03
 1.145026154166588e+03 -1.022654232359957e+02  2.918975276816622e+03
 1.145086349741179e+03 -1.034573794172986e+02  2.918975276816622e+03
 1.145049568133996e+03 -1.042090264494751e+02  2.918975276816622e+03
 1.144946322250109e+03 -1.049318173369280e+02  2.918975276816622e+03
 1.144956054707349e+03 -1.058391525287240e+02  2.918975276816622e+03
 1.144968634558543e+03 -1.065452464180921e+02  2.918975276816622e+03
 1.144840839452240e+03 -1.078116415660013e+02  2.918975276816622e+03
 1.144726294055765e+03 -1.094161377187335e+02  2.918975276816622e+03
 1.144633572055406e+03 -1.113903338663267e+02  2.918975276816622e+03
 1.144475169650909e+03 -1.137710804050470e+02  2.918975276816622e+03
 1.144525998291396e+03 -1.170992420074073e+02  2.918975276816622e+03
 1.145475927404216e+03 -1.194475107208498e+02  2.918975276816622e+03
 1.145241879643810e+03 -1.205704886192073e+02  2.918975276816622e+03
 1.144595771524344e+03 -1.227924158266300e+02  2.918975276816622e+03
 1.144893231270005e+03 -1.248864987821910e+02  2.918975276816622e+03
 1.144938527155261e+03 -1.262884365851263e+02  2.918975276816622e+03
 1.145000426172711e+03 -1.278497037741706e+02  2.918975276816622e+03
 1.144839585170194e+03 -1.294915347863208e+02  2.918975276816622e+03
 1.144822748575437e+03 -1.313182873394198e+02  2.918975276816622e+03
 1.144923205324608e+03 -1.335760957256423e+02  2.918975276816622e+03
 1.144984374280718e+03 -1.363028253183927e+02  2.918975276816622e+03
 1.145008000120728e+03 -1.385898282388620e+02  2.918975276816622e+03
 1.144967748338846e+03 -1.411225940893383e+02  2.918975276816622e+03
 1.144968321155666e+03 -1.438715040343197e+02  2.918975276816622e+03
 1.144906997609527e+03 -1.458116852749531e+02  2.918975276816622e+03
 1.144829994094679e+03 -1.477517821441121e+02  2.918975276816622e+03
 1.144903579426944e+03 -1.494395866607909e+02  2.918975276816622e+03
 1.144938831725491e+03 -1.513940638297569e+02  2.918975276816622e+03
 1.144937825435011e+03 -1.537378836220535e+02  2.918975276816622e+03
 1.144923419945430e+03 -1.568059272423340e+02  2.918975276816622e+03
 1.144910180212087e+03 -1.596035841335108e+02  2.918975276816622e+03
 1.144921686214085e+03 -1.612896409083309e+02  2.918975276816622e+03
 1.144828243862176e+03 -1.630122583390914e+02  2.918975276816622e+03
 1.144839501236132e+03 -1.645461639722361e+02  2.918975276816622e+03
 1.145024311986047e+03 -1.653284810121282e+02  2.918975276816622e+03
 1.145076527917467e+03 -1.663667498765743e+02  2.918975276816622e+03
 1.144983586360856e+03 -1.679449044762828e+02  2.918975276816622e+03
 1.144934824589430e+03 -1.694256589438330e+02  2.918975276816622e+03
 1.144951011780133e+03 -1.713922248024644e+02  2.918975276816622e+03
 1.144929129994427e+03 -1.738166095146161e+02  2.918975276816622e+03
 1.144857508747488e+03 -1.767056950639776e+02  2.918975276816622e+03
 1.144685849547613e+03 -1.794312825326014e+02  2.918975276816622e+03
 1.144737481792449e+03 -1.809762108155334e+02  2.918975276816622e+03
 1.144986581580727e+03 -1.818343604977353e+02  2.918975276816622e+03
 1.144987739855899e+03 -1.827494840823232e+02  2.918975276816622e+03
 1.144886661071435e+03 -1.845685003673386e+02  2.918975276816622e+03
 1.144995063522440e+03 -1.865728108814756e+02  2.918975276816622e+03
 1.145091261417611e+03 -1.880763910045118e+02  2.918975276816622e+03
 1.145115913514051e+03 -1.895546706471504e+02  2.918975276816622e+03
 1.145149501219455e+03 -1.914246430760267e+02  2.918975276816622e+03
 1.145111466601760e+03 -1.937381846163719e+02  2.918975276816622e+03
 1.144965731167027e+03 -1.967875919821502e+02  2.918975276816622e+03
 1.144805223265712e+03 -1.997942477732898e+02  2.918975276816622e+03
 1.144623810703923e+03 -2.010547706482359e+02  2.918975276816622e+03
 1.144721913444062e+03 -2.020661139828416e+02  2.918975276816622e+03
 1.144917599012060e+03 -2.037091065458208e+02  2.918975276816622e+03
 1.144599979530468e+03 -2.046950284640463e+02  2.918975276816622e+03
 1.144627510441152e+03 -2.058999058372306e+02  2.918975276816622e+03
 1.144986207609931e+03 -2.076235499816919e+02  2.918975276816622e+03
 1.145055484266735e+03 -2.092399692665814e+02  2.918975276816622e+03
 1.145041390465503e+03 -2.112845473650221e+02  2.918975276816622e+03
 1.145001823019441e+03 -2.135939365555571e+02  2.918975276816622e+03
 1.144880868896556e+03 -2.159222053587433e+02  2.918975276816622e+03
 1.144807792903155e+03 -2.178424791707608e+02  2.918975276816622e+03
 1.144879093850749e+03 -2.198953083853415e+02  2.918975276816622e+03
 1.145038439921929e+03 -2.219606786257618e+02  2.918975276816622e+03
 1.145066091836110e+03 -2.234405675599131e+02  2.918975276816622e+03
 1.144907703658172e+03 -2.247314350275131e+02  2.918975276816622e+03
 1.144820629447238e+03 -2.270841897793821e+02  2.918975276816622e+03
 1.144749828293260e+03 -2.295123177347555e+02  2.918975276816622e+03
 1.144742176084149e+03 -2.315297496601595e+02  2.918975276816622e+03
 1.144681971239692e+03 -2.334863115777560e+02  2.918975276816622e+03
 1.144660271234705e+03 -2.354272264684493e+02  2.918975276816622e+03
 1.144588375335849e+03 -2.377997817437612e+02  2.918975276816622e+03
 1.144555230504441e+03 -2.400976110249873e+02  2.918975276816622e+03
 1.144532607215799e+03 -2.431132346356129e+02  2.918975276816622e+03
 1.144619651719076e+03 -2.463353005986219e+02  2.918975276816622e+03
 1.144592062871061e+03 -2.483864702539619e+02  2.918975276816622e+03
 1.144504795985069e+03 -2.509784273969834e+02  2.918975276816622e+03
 1.144721624943415e+03 -2.541027228033946e+02  2.918975276816622e+03
 1.145065776173865e+03 -2.559776349902667e+02  2.918975276816622e+03
 1.145242240908336e+03 -2.570118539161705e+02  2.918975276816622e+03
 1.145164892768050e+03 -2.579382689317395e+02  2.918975276816622e+03
 1.145057707212326e+03 -2.598221925344153e+02  2.918975276816622e+03
 1.144907402017695e+03 -2.622164105635902e+02  2.918975276816622e+03
 1.144914623448315e+03 -2.645800179120168e+02  2.918975276816622e+03
 1.144992198679733e+03 -2.674349475044788e+02  2.918975276816622e+03
 1.145055200957263e+03 -2.695799510718045e+02  2.918975276816622e+03
 1.145102355843152e+03 -2.714029439639227e+02  2.918975276816622e+03
 1.145180584931702e+03 -2.730790732603084e+02  2.918975276816622e+03
 1.145255538503876e+03 -2.746199846739204e+02  2.918975276816622e+03
 1.145316647416081e+03 -2.772011327398133e+02  2.918975276816622e+03
 1.145366162538648e+03 -2.797524406979930e+02  2.918975276816622e+03
 1.145452658175553e+03 -2.821245552031017e+02  2.918975276816622e+03
 1.145474447540153e+03 -2.850064200573756e+02  2.918975276816622e+03
 1.145489654148158e+03 -2.875938245111984e+02  2.918975276816622e+03
 1.145500788347709e+03 -2.896075164600223e+02  2.918975276816622e+03
 1.145559619298405e+03 -2.918421693509622e+02  2.918975276816622e+03
 1.145567689743206e+03 -2.939267617148820e+02  2.918975276816622e+03
 1.145511947335550e+03 -2.968752299087324e+02  2.918975276816622e+03
 1.145515486411226e+03 -2.990195576992006e+02  2.918975276816622e+03
 1.145460955344242e+03 -3.009210224099685e+02  2.918975276816622e+03
 1.145403054001973e+03 -3.031391264165364e+02  2.918975276816622e+03
 1.145325023799945e+03 -3.047697184855900e+02  2.918975276816622e+03
 1.145209723716206e+03 -3.070618356994597e+02  2.918975276816622e+03
 1.145133983397717e+03 -3.091517902312111e+02  2.918975276816622e+03
 1.145086641830583e+03 -3.111597294092024e+02  2.918975276816622e+03
 1.145070377073734e+03 -3.128282003841740e+02  2.918975276816622e+03
 1.144924571645596e+03 -3.141535423528859e+02  2.918975276816622e+03
 1.144787372270694e+03 -3.163287024391500e+02  2.918975276816622e+03
 1.144874273619404e+03 -3.184908359445607e+02  2.918975276816622e+03
 1.144923300347647e+03 -3.204053805053338e+02  2.918975276816622e+03
 1.144775044851146e+03 -3.224311544088944e+02  2.918975276816622e+03
 1.144812975043775e+03 -3.246914947913142e+02  2.918975276816622e+03
 1.144891298793477e+03 -3.262928185404642e+02  2.918975276816622e+03
 1.144868051967932e+03 -3.277493987448243e+02  2.918975276816622e+03
 1.144850387360130e+03 -3.303762706955448e+02  2.918975276816622e+03
 1.144811956853345e+03 -3.330238935254334e+02  2.918975276816622e+03
 1.144767707674141e+03 -3.361231596553347e+02  2.918975276816622e+03
 1.144684125172357e+03 -3.383684501244596e+02  2.918975276816622e+03
 1.144647408407811e+03 -3.396892790930027e+02  2.918975276816622e+03
 1.144718511493132e+03 -3.417949853139330e+02  2.918975276816622e+03
 1.144628879745412e+03 -3.440391059696897e+02  2.918975276816622e+03
 1.144360505961150e+03 -3.467324823428852e+02  2.918975276816622e+03
 1.143882235700846e+03 -3.499429408721766e+02  2.918975276816622e+03
 1.143626115857102e+03 -3.523910559927569e+02  2.918975276816622e+03
 1.143697430390703e+03 -3.536342535374169e+02  2.918975276816622e+03
 1.144048775942620e+03 -3.549234311503200e+02  2.918975276816622e+03
 1.144244166624943e+03 -3.563480726106455e+02  2.918975276816622e+03
 1.144546537008888e+03 -3.583240719221100e+02  2.918975276816622e+03
 1.144495784311947e+03 -3.608663080901267e+02  2.918975276816622e+03
 1.144338645608141e+03 -3.630472842864056e+02  2.918975276816622e+03
 1.144815812130320e+03 -3.655296489454733e+02  2.918975276816622e+03
 1.144985849418274e+03 -3.676995347343063e+02  2.918975276816622e+03
 1.145085528731504e+03 -3.699561085421013e+02  2.918975276816622e+03
 1.145071764544506e+03 -3.715145867496475e+02  2.918975276816622e+03
 1.145092346116769e+03 -3.734719375316241e+02  2.918975276816622e+03
 1.145113663120647e+03 -3.765653961021358e+02  2.918975276816622e+03
 1.145145752802116e+03 -3.791181625591897e+02  2.918975276816622e+03
 1.145169433167298e+03 -3.816303837253322e+02  2.918975276816622e+03
 1.145172709263338e+03 -3.831880739182122e+02  2.918975276816622e+03
 1.145191950425543e+03 -3.849377738402431e+02  2.918975276816622e+03
1.145275923204039e+03 3.830999551347056e+02 2.918975276816622e+03
1.145234330768145e+03 3.856268112312155e+02 2.918975276816622e+03
1.145394384644318e+03 3.801303805137956e+02 2.918975276816622e+03
1.145379391244919e+03 3.784748924827402e+02 2.918975276816622e+03
1.145376514031370e+03 3.771568886020549e+02 2.918975276816622e+03
1.145393880723484e+03 3.749894408030499e+02 2.918975276816622e+03
1.145143926089000e+03 3.732288930822240e+02 2.918975276816622e+03
1.144960104194484e+03 3.719994468073867e+02 2.918975276816622e+03
1.144889095027157e+03 3.697622066464550e+02 2.918975276816622e+03
1.144405469656004e+03 3.684319759104548e+02 2.918975276816622e+03
1.144200189895321e+03 3.679049432102273e+02 2.918975276816622e+03
1.144489758347421e+03 3.662883025948569e+02 2.918975276816622e+03
1.144652333638429e+03 3.639738278302395e+02 2.918975276816622e+03
1.144859875892769e+03 3.612867983765904e+02 2.918975276816622e+03
1.145018245814149e+03 3.591224139732449e+02 2.918975276816622e+03
1.145085822894315e+03 3.577314138626022e+02 2.918975276816622e+03
1.145150793280514e+03 3.563237223294803e+02 2.918975276816622e+03
1.145362983579416e+03 3.546458783540839e+02 2.918975276816622e+03
1.145477131601817e+03 3.529103714972530e+02 2.918975276816622e+03
1.145489172608128e+03 3.512871395342123e+02 2.918975276816622e+03
1.145549900939877e+03 3.493615553571652e+02 2.918975276816622e+03
1.145735929031168e+03 3.476826522591865e+02 2.918975276816622e+03
1.145769508256690e+03 3.459775147303910e+02 2.918975276816622e+03
1.145864976920600e+03 3.441456415198150e+02 2.918975276816622e+03
1.145948377229562e+03 3.425961121626043e+02 2.918975276816622e+03
1.145829350153197e+03 3.407629118446814e+02 2.918975276816622e+03
1.145995584823745e+03 3.390300111885284e+02 2.918975276816622e+03
1.146276019049730e+03 3.364453133314788e+02 2.918975276816622e+03
1.146412626899506e+03 3.330858012452488e+02 2.918975276816622e+03
1.146432348649546e+03 3.302143371155632e+02 2.918975276816622e+03
1.146646095387525e+03 3.289099505864032e+02 2.918975276816622e+03
1.146439319729521e+03 3.278014603361449e+02 2.918975276816622e+03
1.146622875624260e+03 3.267432349659978e+02 2.918975276816622e+03
1.146854337945749e+03 3.260324118767859e+02 2.918975276816622e+03
1.146451913875561e+03 3.242908731321462e+02 2.918975276816622e+03
1.146099504226904e+03 3.223131077955119e+02 2.918975276816622e+03
1.145966681910244e+03 3.203749761031490e+02 2.918975276816622e+03
1.146108981301673e+03 3.189404864445426e+02 2.918975276816622e+03
1.146086729758034e+03 3.172182957813015e+02 2.918975276816622e+03
1.145914664814135e+03 3.146679220006516e+02 2.918975276816622e+03
1.145850246720336e+03 3.125910410213934e+02 2.918975276816622e+03
1.145886936744337e+03 3.115492260133104e+02 2.918975276816622e+03
1.145878914215331e+03 3.104666376624793e+02 2.918975276816622e+03
1.145895996845359e+03 3.086975860243607e+02 2.918975276816622e+03
1.145876390256944e+03 3.071414471465415e+02 2.918975276816622e+03
1.145905918499670e+03 3.053522018891927e+02 2.918975276816622e+03
1.145949095123857e+03 3.030699556652121e+02 2.918975276816622e+03
1.145959729953154e+03 3.015029519786836e+02 2.918975276816622e+03
1.145947751769963e+03 3.000067896704653e+02 2.918975276816622e+03
1.145917379290017e+03 2.982469317568003e+02 2.918975276816622e+03
1.145915834833590e+03 2.965372184473914e+02 2.918975276816622e+03
1.145948074697849e+03 2.947429208503362e+02 2.918975276816622e+03
1.145954983546159e+03 2.928818293612422e+02 2.918975276816622e+03
1.145937489270615e+03 2.906032772255764e+02 2.918975276816622e+03
1.145897556105178e+03 2.882200349971700e+02 2.918975276816622e+03
1.145841372532093e+03 2.860184705181792e+02 2.918975276816622e+03
1.145804039306378e+03 2.839904301188464e+02 2.918975276816622e+03
1.145710622217227e+03 2.819873579367530e+02 2.918975276816622e+03
1.145451249351351e+03 2.790996812456330e+02 2.918975276816622e+03
1.145331484568376e+03 2.761473082435637e+02 2.918975276816622e+03
1.145317557684138e+03 2.731331935429740e+02 2.918975276816622e+03
1.145197836208259e+03 2.700389865974591e+02 2.918975276816622e+03
1.145080861483172e+03 2.677794591906137e+02 2.918975276816622e+03
1.144990112640951e+03 2.658961058261598e+02 2.918975276816622e+03
1.144865997772150e+03 2.637700086699440e+02 2.918975276816622e+03
1.144679014310168e+03 2.608632258200770e+02 2.918975276816622e+03
1.144666059354996e+03 2.587704100483327e+02 2.918975276816622e+03
1.144569872311864e+03 2.570142532005819e+02 2.918975276816622e+03
1.144213147990228e+03 2.546190203392042e+02 2.918975276816622e+03
1.143867253710747e+03 2.528566496866103e+02 2.918975276816622e+03
1.143900906991988e+03 2.512855487850482e+02 2.918975276816622e+03
1.143452864304311e+03 2.498076189846490e+02 2.918975276816622e+03
1.142743619973920e+03 2.485539040907419e+02 2.918975276816622e+03
1.142112708675076e+03 2.473035936559965e+02 2.918975276816622e+03
1.143241071556409e+03 2.464709338638902e+02 2.918975276816622e+03
1.144873765772918e+03 2.458056030335129e+02 2.918975276816622e+03
1.144882648851817e+03 2.449193095107374e+02 2.918975276816622e+03
1.144904066456070e+03 2.435815958583597e+02 2.918975276816622e+03
1.144892640005473e+03 2.424510078364914e+02 2.918975276816622e+03
1.144901056776334e+03 2.411620919356706e+02 2.918975276816622e+03
1.144870737872715e+03 2.390759145555888e+02 2.918975276816622e+03
1.144878472013572e+03 2.367247552122379e+02 2.918975276816622e+03
1.144887714763014e+03 2.347515584606376e+02 2.918975276816622e+03
1.144921628902181e+03 2.326505908794926e+02 2.918975276816622e+03
1.144999116609939e+03 2.300873550767227e+02 2.918975276816622e+03
1.145231594816196e+03 2.280611377647852e+02 2.918975276816622e+03
1.145289068432672e+03 2.267474247170762e+02 2.918975276816622e+03
1.145182728859699e+03 2.256152475245938e+02 2.918975276816622e+03
1.145276512356962e+03 2.249529269833103e+02 2.918975276816622e+03
1.145286840685072e+03 2.242651542236437e+02 2.918975276816622e+03
1.145149000785319e+03 2.227406054791174e+02 2.918975276816622e+03
1.145068083128771e+03 2.210250202714393e+02 2.918975276816622e+03
1.145073991596212e+03 2.191216826806484e+02 2.918975276816622e+03
1.145099442844584e+03 2.169175771724590e+02 2.918975276816622e+03
1.145177788389140e+03 2.142733828518293e+02 2.918975276816622e+03
1.145267402883041e+03 2.119696637740845e+02 2.918975276816622e+03
1.145361779129818e+03 2.099856089223363e+02 2.918975276816622e+03
1.145468508812722e+03 2.082593472974084e+02 2.918975276816622e+03
1.145542696768809e+03 2.070495497844637e+02 2.918975276816622e+03
1.145587818331292e+03 2.062589054356731e+02 2.918975276816622e+03
1.145623652724646e+03 2.054218990022915e+02 2.918975276816622e+03
1.145642527612322e+03 2.043105904744828e+02 2.918975276816622e+03
1.145672292188619e+03 2.032905098143200e+02 2.918975276816622e+03
1.145694273070601e+03 2.019593496916283e+02 2.918975276816622e+03
1.145716113990136e+03 2.007650231479515e+02 2.918975276816622e+03
1.145749384294382e+03 1.990797369730554e+02 2.918975276816622e+03
1.145737319895927e+03 1.967577923562343e+02 2.918975276816622e+03
1.145330761451989e+03 1.939970337376245e+02 2.918975276816622e+03
1.145203152936875e+03 1.907044269106392e+02 2.918975276816622e+03
1.145212996850718e+03 1.885197678106418e+02 2.918975276816622e+03
1.145287258507824e+03 1.874830828842007e+02 2.918975276816622e+03
1.145513804360450e+03 1.865571906791839e+02 2.918975276816622e+03
1.145611476706638e+03 1.855330011676323e+02 2.918975276816622e+03
1.145730687695598e+03 1.848919364992716e+02 2.918975276816622e+03
1.145637946768804e+03 1.842192079329034e+02 2.918975276816622e+03
1.145549006127183e+03 1.827071965000106e+02 2.918975276816622e+03
1.145458656916039e+03 1.810945860936206e+02 2.918975276816622e+03
1.145458483143207e+03 1.791919902780431e+02 2.918975276816622e+03
1.145467932635253e+03 1.769376116894258e+02 2.918975276816622e+03
1.145512041742055e+03 1.743489590174626e+02 2.918975276816622e+03
1.145555653183645e+03 1.721206062849565e+02 2.918975276816622e+03
1.145612466443082e+03 1.700061204589248e+02 2.918975276816622e+03
1.145687373216997e+03 1.684136422898472e+02 2.918975276816622e+03
1.145698604076043e+03 1.675161978527058e+02 2.918975276816622e+03
1.145767714613125e+03 1.663720811776872e+02 2.918975276816622e+03
1.145890068830089e+03 1.653015943502426e+02 2.918975276816622e+03
1.145847543309500e+03 1.645031234240960e+02 2.918975276816622e+03
1.145816935899670e+03 1.635664756094895e+02 2.918975276816622e+03
1.145692321356058e+03 1.621821797529068e+02 2.918975276816622e+03
1.145639110697861e+03 1.609208851351097e+02 2.918975276816622e+03
1.145513515620066e+03 1.583440870939880e+02 2.918975276816622e+03
1.145384685113526e+03 1.551975397751666e+02 2.918975276816622e+03
1.145356315246693e+03 1.526523860378542e+02 2.918975276816622e+03
1.145430149152136e+03 1.492345636906950e+02 2.918975276816622e+03
1.145573826440068e+03 1.466274079598679e+02 2.918975276816622e+03
1.145424157443970e+03 1.456999059818284e+02 2.918975276816622e+03
1.145385717116812e+03 1.452150598773492e+02 2.918975276816622e+03
1.145404832586428e+03 1.444442989168406e+02 2.918975276816622e+03
1.145289794250359e+03 1.428240926853182e+02 2.918975276816622e+03
1.145179372500463e+03 1.411315319765723e+02 2.918975276816622e+03
1.145131336720556e+03 1.393155982539652e+02 2.918975276816622e+03
1.145048724396226e+03 1.371140148274631e+02 2.918975276816622e+03
1.145024520847655e+03 1.344643300033040e+02 2.918975276816622e+03
1.145011466626112e+03 1.321028119908343e+02 2.918975276816622e+03
1.145024083286613e+03 1.300998184638361e+02 2.918975276816622e+03
1.145014885684926e+03 1.283583522705316e+02 2.918975276816622e+03
1.144969734768561e+03 1.271287640529130e+02 2.918975276816622e+03
1.145033284516700e+03 1.263643958783200e+02 2.918975276816622e+03
1.145143819990320e+03 1.256390014038828e+02 2.918975276816622e+03
1.145097520380627e+03 1.249315876024248e+02 2.918975276816622e+03
1.144999277034910e+03 1.242410101757826e+02 2.918975276816622e+03
1.144974911648702e+03 1.227957275665147e+02 2.918975276816622e+03
1.144915024266710e+03 1.212187514051038e+02 2.918975276816622e+03
1.144822422065590e+03 1.193429813524772e+02 2.918975276816622e+03
1.144704537314081e+03 1.171001895010678e+02 2.918975276816622e+03
1.144679797627986e+03 1.142699064952317e+02 2.918975276816622e+03
1.144563721426355e+03 1.118737181083306e+02 2.918975276816622e+03
1.144570825587419e+03 1.100818829889076e+02 2.918975276816622e+03
1.144442924468229e+03 1.083928798233464e+02 2.918975276816622e+03
1.144409924711672e+03 1.072469212474989e+02 2.918975276816622e+03
1.144344022177931e+03 1.060685719455512e+02 2.918975276816622e+03
1.144028051739499e+03 1.050305208291768e+02 2.918975276816622e+03
1.144142004300527e+03 1.040553123168518e+02 2.918975276816622e+03
1.144301124121017e+03 1.026102619140097e+02 2.918975276816622e+03
1.144398397690698e+03 1.011425537703179e+02 2.918975276816622e+03
1.144590710903214e+03 9.933371679972832e+01 2.918975276816622e+03
1.144875557728404e+03 9.686939329016617e+01 2.918975276816622e+03
1.145013736093074e+03 9.459613232377019e+01 2.918975276816622e+03
1.145065183260752e+03 9.245083184910183e+01 2.918975276816622e+03
1.145176567691957e+03 9.024242932299501e+01 2.918975276816622e+03
1.145558267509128e+03 8.909745291965595e+01 2.918975276816622e+03
1.145828880496593e+03 8.776878511687583e+01 2.918975276816622e+03
1.145718091268382e+03 8.519299979188693e+01 2.918975276816622e+03
1.145514609723739e+03 8.209689111594106e+01 2.918975276816622e+03
1.145609606976399e+03 7.983323431045872e+01 2.918975276816622e+03
1.145730887649162e+03 7.844652768531881e+01 2.918975276816622e+03
1.145877703116463e+03 7.659740371344252e+01 2.918975276816622e+03
1.146239800911545e+03 7.466997885461795e+01 2.918975276816622e+03
1.146061449874448e+03 7.304034443453227e+01 2.918975276816622e+03
1.145751604146020e+03 7.199327703281509e+01 2.918975276816622e+03
1.146201331483022e+03 7.040886485762901e+01 2.918975276816622e+03
1.146598192932961e+03 6.794177264340641e+01 2.918975276816622e+03
1.147787442857208e+03 6.624720513316915e+01 2.918975276816622e+03
1.147941341139450e+03 6.494016361139278e+01 2.918975276816622e+03
1.146576814996206e+03 6.211086020978418e+01 2.918975276816622e+03
1.146079088237074e+03 5.919191589636777e+01 2.918975276816622e+03
1.145767674793878e+03 5.742615600883217e+01 2.918975276816622e+03
1.145519978230526e+03 5.544298817707166e+01 2.918975276816622e+03
1.145326444003082e+03 5.320294663033456e+01 2.918975276816622e+03
1.145408470105552e+03 5.128407918290631e+01 2.918975276816622e+03
1.145423351182555e+03 4.984405553535294e+01 2.918975276816622e+03
1.145482974330783e+03 4.862030024585506e+01 2.918975276816622e+03
1.145531175684231e+03 4.748254302819934e+01 2.918975276816622e+03
1.145580508519338e+03 4.562055222271808e+01 2.918975276816622e+03
1.145651319702433e+03 4.332019239439331e+01 2.918975276816622e+03
1.145674032228012e+03 4.208645770825711e+01 2.918975276816622e+03
1.145714038017913e+03 4.098187860941526e+01 2.918975276816622e+03
1.145784318586424e+03 3.919477292552455e+01 2.918975276816622e+03
1.145869215951609e+03 3.705276541282270e+01 2.918975276816622e+03
1.145918234471107e+03 3.488972176633003e+01 2.918975276816622e+03
1.146034705378090e+03 3.266958684830258e+01 2.918975276816622e+03
1.146123619153852e+03 3.033517964306650e+01 2.918975276816622e+03
1.146254258442974e+03 2.824811672633776e+01 2.918975276816622e+03
1.146356082801443e+03 2.552725477951303e+01 2.918975276816622e+03
1.146618373389796e+03 2.244077451159712e+01 2.918975276816622e+03
1.146772811919902e+03 2.034734706050198e+01 2.918975276816622e+03
1.147023151155748e+03 1.883442784424099e+01 2.918975276816622e+03
1.147438426171380e+03 1.699664412007300e+01 2.918975276816622e+03
1.147583877528917e+03 1.473101547247246e+01 2.918975276816622e+03
1.148094874636057e+03 1.282040653933752e+01 2.918975276816622e+03
1.146823626068877e+03 1.146296190329582e+01 2.918975276816622e+03
1.145480387191236e+03 1.026768164863359e+01 2.918975276816622e+03
1.145718934888774e+03 8.588559016357488e+00 2.918975276816622e+03
1.145742701784591e+03 6.001639384558005e+00 2.918975276816622e+03
1.145732281353817e+03 3.674164065146229e+00 2.918975276816622e+03
-1.157287755489979e+03 -3.563670646105321e-01 -2.918975276816622e+03
-1.157386620039762e+03  2.868383843485351e+00 -2.918975276816622e+03
-1.157508111417250e+03  6.001120838987284e+00 -2.918975276816622e+03
-1.157473238608114e+03 -2.381819464052582e+00 -2.918975276816622e+03
-1.157547952457694e+03 -4.459666327873133e+00 -2.918975276816622e+03
-1.157544675049576e+03 -7.334797678421122e+00 -2.918975276816622e+03
-1.157835896492531e+03 -9.663506630070261e+00 -2.918975276816622e+03
-1.157835760012725e+03 -1.118010590084223e+01 -2.918975276816622e+03
-1.157560598325051e+03 -1.267065384454471e+01 -2.918975276816622e+03
-1.157416483174763e+03 -1.419592206779271e+01 -2.918975276816622e+03
-1.157576393852299e+03 -1.571614273701599e+01 -2.918975276816622e+03
-1.157476266421431e+03 -1.885450321779723e+01 -2.918975276816622e+03
-1.157856521014031e+03 -2.201694817201804e+01 -2.918975276816622e+03
-1.158078547428936e+03 -2.448246045566457e+01 -2.918975276816622e+03
-1.158282980541769e+03 -2.726751190404997e+01 -2.918975276816622e+03
-1.157251774062535e+03 -2.846917092550748e+01 -2.918975276816622e+03
-1.156000498526672e+03 -2.924194131447781e+01 -2.918975276816622e+03
-1.156513912431681e+03 -3.140787519085056e+01 -2.918975276816622e+03
-1.156824795680850e+03 -3.351083392271340e+01 -2.918975276816622e+03
-1.156892377266278e+03 -3.516088191571001e+01 -2.918975276816622e+03
-1.156864629467835e+03 -3.655173580064149e+01 -2.918975276816622e+03
-1.156886310952881e+03 -3.888276433693878e+01 -2.918975276816622e+03
-1.156872011582929e+03 -4.089069439202857e+01 -2.918975276816622e+03
-1.156873976671309e+03 -4.242547026369495e+01 -2.918975276816622e+03
-1.156864635426025e+03 -4.440243333980531e+01 -2.918975276816622e+03
-1.156847109575169e+03 -4.551636829994537e+01 -2.918975276816622e+03
-1.156820201620565e+03 -4.660633942952631e+01 -2.918975276816622e+03
-1.156816224936691e+03 -4.855908285036305e+01 -2.918975276816622e+03
-1.156773861453068e+03 -5.011981391019482e+01 -2.918975276816622e+03
-1.156746552961094e+03 -5.136642169730219e+01 -2.918975276816622e+03
-1.156727860959175e+03 -5.368092870945207e+01 -2.918975276816622e+03
-1.156733589978166e+03 -5.572339942346751e+01 -2.918975276816622e+03
-1.156723282561458e+03 -5.746367176001223e+01 -2.918975276816622e+03
-1.156730353578517e+03 -5.955370455159583e+01 -2.918975276816622e+03
-1.156718164887888e+03 -6.092098541813038e+01 -2.918975276816622e+03
-1.156727468825597e+03 -6.246114303498074e+01 -2.918975276816622e+03
-1.156753242372036e+03 -6.420643660493948e+01 -2.918975276816622e+03
-1.156761602900826e+03 -6.543575178700534e+01 -2.918975276816622e+03
-1.156746577110347e+03 -6.672081413755693e+01 -2.918975276816622e+03
-1.156737714457634e+03 -6.869067288056662e+01 -2.918975276816622e+03
-1.156732773984237e+03 -7.019418118430617e+01 -2.918975276816622e+03
-1.156761098359760e+03 -7.121637399120856e+01 -2.918975276816622e+03
-1.156748103532517e+03 -7.264102856000673e+01 -2.918975276816622e+03
-1.156733751920593e+03 -7.429500517570661e+01 -2.918975276816622e+03
-1.156725527331628e+03 -7.571706136985067e+01 -2.918975276816622e+03
-1.156719095317446e+03 -7.647956677083131e+01 -2.918975276816622e+03
-1.156706376571254e+03 -7.773436705412041e+01 -2.918975276816622e+03
-1.156702831894627e+03 -7.955636050560801e+01 -2.918975276816622e+03
-1.156709827921824e+03 -8.087197352028579e+01 -2.918975276816622e+03
-1.156706765554924e+03 -8.237878415951867e+01 -2.918975276816622e+03
-1.156708744118698e+03 -8.416603068514435e+01 -2.918975276816622e+03
-1.156680914178387e+03 -8.540359623527755e+01 -2.918975276816622e+03
-1.156674781960672e+03 -8.663142427959801e+01 -2.918975276816622e+03
-1.156650525191446e+03 -8.851719358382913e+01 -2.918975276816622e+03
-1.156646860744778e+03 -9.011201841399557e+01 -2.918975276816622e+03
-1.156623663191988e+03 -9.127483191397013e+01 -2.918975276816622e+03
-1.156582941485642e+03 -9.363615924551983e+01 -2.918975276816622e+03
-1.156496093655078e+03 -9.585451325883413e+01 -2.918975276816622e+03
-1.156491108104094e+03 -9.769195182180987e+01 -2.918975276816622e+03
-1.156517328225462e+03 -1.000110030333526e+02 -2.918975276816622e+03
-1.156453343412830e+03 -1.012521935568394e+02 -2.918975276816622e+03
-1.156335836299674e+03 -1.024959195919002e+02 -2.918975276816622e+03
-1.156341845658774e+03 -1.044562120753616e+02 -2.918975276816622e+03
-1.156335592373478e+03 -1.060423697243614e+02 -2.918975276816622e+03
-1.156265634921160e+03 -1.069740929238418e+02 -2.918975276816622e+03
-1.156223555287396e+03 -1.083734861638553e+02 -2.918975276816622e+03
-1.156203926348164e+03 -1.102052995716736e+02 -2.918975276816622e+03
-1.156262382730191e+03 -1.118206540485933e+02 -2.918975276816622e+03
-1.156233725432947e+03 -1.131275245552896e+02 -2.918975276816622e+03
-1.156236663473685e+03 -1.146543342228723e+02 -2.918975276816622e+03
-1.156281707614897e+03 -1.170510914253111e+02 -2.918975276816622e+03
-1.156329263298429e+03 -1.193238458083821e+02 -2.918975276816622e+03
-1.156328408121904e+03 -1.207919879435641e+02 -2.918975276816622e+03
-1.156343346014174e+03 -1.222748903339007e+02 -2.918975276816622e+03
-1.156475545340636e+03 -1.240364462649877e+02 -2.918975276816622e+03
-1.156507803963088e+03 -1.253270901573180e+02 -2.918975276816622e+03
-1.156453669139836e+03 -1.266456769562289e+02 -2.918975276816622e+03
-1.156438247126077e+03 -1.285812735449540e+02 -2.918975276816622e+03
-1.156447685876605e+03 -1.305819041045401e+02 -2.918975276816622e+03
-1.156563986534331e+03 -1.318973546626821e+02 -2.918975276816622e+03
-1.156594901815404e+03 -1.328779577323696e+02 -2.918975276816622e+03
-1.156499358903090e+03 -1.341907755731214e+02 -2.918975276816622e+03
-1.156540324858596e+03 -1.356425822246239e+02 -2.918975276816622e+03
-1.156556063097939e+03 -1.373718968337038e+02 -2.918975276816622e+03
-1.156457227399690e+03 -1.394386084336190e+02 -2.918975276816622e+03
-1.156443729941683e+03 -1.408148308065222e+02 -2.918975276816622e+03
-1.156470590736902e+03 -1.423809107187721e+02 -2.918975276816622e+03
-1.156422577203629e+03 -1.441674498627370e+02 -2.918975276816622e+03
-1.156302614492479e+03 -1.453426827449192e+02 -2.918975276816622e+03
-1.156253714366256e+03 -1.467013847481367e+02 -2.918975276816622e+03
-1.156150808058923e+03 -1.496365360784553e+02 -2.918975276816622e+03
-1.156204128644544e+03 -1.523448743471615e+02 -2.918975276816622e+03
-1.156328215108776e+03 -1.540079397838920e+02 -2.918975276816622e+03
-1.156316770942544e+03 -1.556015407799008e+02 -2.918975276816622e+03
-1.156386261357771e+03 -1.573976010507013e+02 -2.918975276816622e+03
-1.156529659952854e+03 -1.595638863656098e+02 -2.918975276816622e+03
-1.156616179505182e+03 -1.608345070127693e+02 -2.918975276816622e+03
-1.156691516178654e+03 -1.622444686305255e+02 -2.918975276816622e+03
-1.156760163843302e+03 -1.639655531899233e+02 -2.918975276816622e+03
-1.156772053337999e+03 -1.652749785297481e+02 -2.918975276816622e+03
-1.156760544707803e+03 -1.666520660915211e+02 -2.918975276816622e+03
-1.156792268130574e+03 -1.685511082817162e+02 -2.918975276816622e+03
-1.156803169609000e+03 -1.706987095745220e+02 -2.918975276816622e+03
-1.156889278746952e+03 -1.723825612189347e+02 -2.918975276816622e+03
-1.157158411381164e+03 -1.739372239459119e+02 -2.918975276816622e+03
-1.157225620749838e+03 -1.749369552056578e+02 -2.918975276816622e+03
-1.157231104085090e+03 -1.760441399121042e+02 -2.918975276816622e+03
-1.158202347318485e+03 -1.784505929963740e+02 -2.918975276816622e+03
-1.158098233155561e+03 -1.798039605696133e+02 -2.918975276816622e+03
-1.157262703741931e+03 -1.810550624561385e+02 -2.918975276816622e+03
-1.157326565684771e+03 -1.834811575671163e+02 -2.918975276816622e+03
-1.157293737484547e+03 -1.851443325445428e+02 -2.918975276816622e+03
-1.157274842263322e+03 -1.864544851421106e+02 -2.918975276816622e+03
-1.157172956779332e+03 -1.883959431054416e+02 -2.918975276816622e+03
-1.157034772706052e+03 -1.904519187058680e+02 -2.918975276816622e+03
-1.156835742676803e+03 -1.920636448695644e+02 -2.918975276816622e+03
-1.156906370044465e+03 -1.932487078979578e+02 -2.918975276816622e+03
-1.157026423537058e+03 -1.943715603996100e+02 -2.918975276816622e+03
-1.156943872940804e+03 -1.962400236257280e+02 -2.918975276816622e+03
-1.156926905132236e+03 -1.979630992874549e+02 -2.918975276816622e+03
-1.157013397817814e+03 -1.994298999976705e+02 -2.918975276816622e+03
-1.157022961205347e+03 -2.006168302854677e+02 -2.918975276816622e+03
-1.157093493045395e+03 -2.020650887541885e+02 -2.918975276816622e+03
-1.157135680819912e+03 -2.038470941030367e+02 -2.918975276816622e+03
-1.157117802510301e+03 -2.050135796292656e+02 -2.918975276816622e+03
-1.157115895728674e+03 -2.063667374423958e+02 -2.918975276816622e+03
-1.157094215795785e+03 -2.083857120380549e+02 -2.918975276816622e+03
-1.157085969517210e+03 -2.102041015659672e+02 -2.918975276816622e+03
-1.157063718462300e+03 -2.115832770355065e+02 -2.918975276816622e+03
-1.157081898180442e+03 -2.138032313035180e+02 -2.918975276816622e+03
-1.157078505586027e+03 -2.155456276006563e+02 -2.918975276816622e+03
-1.157022881663386e+03 -2.171011008618243e+02 -2.918975276816622e+03
-1.156973648825926e+03 -2.195318080073718e+02 -2.918975276816622e+03
-1.157016313529524e+03 -2.207792048596692e+02 -2.918975276816622e+03
-1.157002667072794e+03 -2.220363273037821e+02 -2.918975276816622e+03
-1.156956070705540e+03 -2.239709667799733e+02 -2.918975276816622e+03
-1.156931486176411e+03 -2.252783153184782e+02 -2.918975276816622e+03
-1.156884751788708e+03 -2.265047877750661e+02 -2.918975276816622e+03
-1.156876395985352e+03 -2.284433037086903e+02 -2.918975276816622e+03
-1.156952296480803e+03 -2.304149639157366e+02 -2.918975276816622e+03
-1.156950861913055e+03 -2.315068218011834e+02 -2.918975276816622e+03
-1.156892637588995e+03 -2.334451959903210e+02 -2.918975276816622e+03
-1.156934130005919e+03 -2.350389973977680e+02 -2.918975276816622e+03
-1.157022426746841e+03 -2.366623750470931e+02 -2.918975276816622e+03
-1.157173285831469e+03 -2.386998337772160e+02 -2.918975276816622e+03
-1.157151687764739e+03 -2.400932517706833e+02 -2.918975276816622e+03
-1.157067996399656e+03 -2.423672451861953e+02 -2.918975276816622e+03
-1.157167128172754e+03 -2.446689523055649e+02 -2.918975276816622e+03
-1.157797188615260e+03 -2.454528743155490e+02 -2.918975276816622e+03
-1.158115267288811e+03 -2.461023959564835e+02 -2.918975276816622e+03
-1.157685660700964e+03 -2.481590776083959e+02 -2.918975276816622e+03
-1.157481104699038e+03 -2.498152919491114e+02 -2.918975276816622e+03
-1.157305011939971e+03 -2.510313253559108e+02 -2.918975276816622e+03
-1.157092521461048e+03 -2.531163715150407e+02 -2.918975276816622e+03
-1.156872173294086e+03 -2.554169474265003e+02 -2.918975276816622e+03
-1.156606494962251e+03 -2.582798028624596e+02 -2.918975276816622e+03
-1.156386495198858e+03 -2.605511358164040e+02 -2.918975276816622e+03
-1.156299063678680e+03 -2.618748384639080e+02 -2.918975276816622e+03
-1.156093007142233e+03 -2.635680796055092e+02 -2.918975276816622e+03
-1.155795231376625e+03 -2.651903117733539e+02 -2.918975276816622e+03
-1.155335080248198e+03 -2.662961517587638e+02 -2.918975276816622e+03
-1.154583598212201e+03 -2.669631284601181e+02 -2.918975276816622e+03
-1.153964351071382e+03 -2.676816699545888e+02 -2.918975276816622e+03
-1.154791208962338e+03 -2.687944685667039e+02 -2.918975276816622e+03
-1.155724239033061e+03 -2.703614082738775e+02 -2.918975276816622e+03
-1.156114470793140e+03 -2.715041508627160e+02 -2.918975276816622e+03
-1.156345852475564e+03 -2.727216500058114e+02 -2.918975276816622e+03
-1.156271582604925e+03 -2.744547334730017e+02 -2.918975276816622e+03
-1.156189535907648e+03 -2.762692313291047e+02 -2.918975276816622e+03
-1.156127666218728e+03 -2.776751520779935e+02 -2.918975276816622e+03
-1.156209927026599e+03 -2.791947733211667e+02 -2.918975276816622e+03
-1.156186449371770e+03 -2.811725787486494e+02 -2.918975276816622e+03
-1.156341304693869e+03 -2.841966605510463e+02 -2.918975276816622e+03
-1.156383605156044e+03 -2.874294773655534e+02 -2.918975276816622e+03
-1.156410270651785e+03 -2.889979416019974e+02 -2.918975276816622e+03
-1.156596237048601e+03 -2.914176127555304e+02 -2.918975276816622e+03
-1.156796641333681e+03 -2.942076086649849e+02 -2.918975276816622e+03
-1.156956099400472e+03 -2.969313320486341e+02 -2.918975276816622e+03
-1.157118805680226e+03 -2.992328110201999e+02 -2.918975276816622e+03
-1.157188315756503e+03 -3.004736779565724e+02 -2.918975276816622e+03
-1.157280174820066e+03 -3.016271337179251e+02 -2.918975276816622e+03
-1.157273676700966e+03 -3.028665447079956e+02 -2.918975276816622e+03
-1.157323625295320e+03 -3.046313202237651e+02 -2.918975276816622e+03
-1.157367680057241e+03 -3.065047044660593e+02 -2.918975276816622e+03
-1.157497675307585e+03 -3.084736627348848e+02 -2.918975276816622e+03
-1.156901403808454e+03 -3.090386775605750e+02 -2.918975276816622e+03
-1.156382335605483e+03 -3.097039139918821e+02 -2.918975276816622e+03
-1.156667468009963e+03 -3.117941930103755e+02 -2.918975276816622e+03
-1.156830094857566e+03 -3.140234182600701e+02 -2.918975276816622e+03
-1.156617996778560e+03 -3.161621463403652e+02 -2.918975276816622e+03
-1.156713398418952e+03 -3.179604534404927e+02 -2.918975276816622e+03
-1.157048225994962e+03 -3.195075841015967e+02 -2.918975276816622e+03
-1.157140379838914e+03 -3.211097977066077e+02 -2.918975276816622e+03
-1.157060162971127e+03 -3.228952750504258e+02 -2.918975276816622e+03
-1.157023072713810e+03 -3.243385107490150e+02 -2.918975276816622e+03
-1.157072455132425e+03 -3.257951909047093e+02 -2.918975276816622e+03
-1.156993744766105e+03 -3.270285978657212e+02 -2.918975276816622e+03
-1.157059784472270e+03 -3.281007087138029e+02 -2.918975276816622e+03
-1.156998882168794e+03 -3.293759250238417e+02 -2.918975276816622e+03
-1.156922953237987e+03 -3.305662282618731e+02 -2.918975276816622e+03
-1.156755076375065e+03 -3.330833255757407e+02 -2.918975276816622e+03
-1.156565869757335e+03 -3.351297387057712e+02 -2.918975276816622e+03
-1.156636144888633e+03 -3.359413830728715e+02 -2.918975276816622e+03
-1.156643379924285e+03 -3.375011001497081e+02 -2.918975276816622e+03
-1.156656784215817e+03 -3.399193732116491e+02 -2.918975276816622e+03
-1.156665050589760e+03 -3.420558969415239e+02 -2.918975276816622e+03
-1.156650245366492e+03 -3.434469765478128e+02 -2.918975276816622e+03
-1.156668144700167e+03 -3.459837196134542e+02 -2.918975276816622e+03
-1.156641323938415e+03 -3.481112568823618e+02 -2.918975276816622e+03
-1.156682321238432e+03 -3.495941283323961e+02 -2.918975276816622e+03
-1.156684030624079e+03 -3.520342780558158e+02 -2.918975276816622e+03
-1.156693808418081e+03 -3.543321152117416e+02 -2.918975276816622e+03
-1.156711654620438e+03 -3.564876398001730e+02 -2.918975276816622e+03
-1.156736884816055e+03 -3.581331148603268e+02 -2.918975276816622e+03
-1.156756027500050e+03 -3.604936623212622e+02 -2.918975276816622e+03
-1.156747550911630e+03 -3.626034007995136e+02 -2.918975276816622e+03
-1.156769554273613e+03 -3.638266455586116e+02 -2.918975276816622e+03
-1.156773613970353e+03 -3.659733911602489e+02 -2.918975276816622e+03
-1.156802222480640e+03 -3.691459416479134e+02 -2.918975276816622e+03
-1.156824144246315e+03 -3.718169970392332e+02 -2.918975276816622e+03
-1.156824817860254e+03 -3.733738280839183e+02 -2.918975276816622e+03
-1.156847399498531e+03 -3.755103073557959e+02 -2.918975276816622e+03
-1.156849180093225e+03 -3.772413721376215e+02 -2.918975276816622e+03
-1.156860220012293e+03 -3.787744460380912e+02 -2.918975276816622e+03
-1.156862498922854e+03 -3.801072430137314e+02 -2.918975276816622e+03
-1.156867251339647e+03 -3.814164121640101e+02 -2.918975276816622e+03
-1.156874980197302e+03 -3.843222226745481e+02 -2.918975276816622e+03
-1.156885850879174e+03 -3.862584941438138e+02 -2.918975276816622e+03
-1.156907959862078e+03  3.827609366860339e+02 -2.918975276816622e+03
-1.156896958469975e+03  3.848288259155738e+02 -2.918975276816622e+03
-1.156915924509707e+03  3.804485969970955e+02 -2.918975276816622e+03
-1.156926738513111e+03  3.780937772832960e+02 -2.918975276816622e+03
-1.156933920381928e+03  3.770417785866309e+02 -2.918975276816622e+03
-1.156946889994400e+03  3.750768130121924e+02 -2.918975276816622e+03
-1.156973779363103e+03  3.715275259826973e+02 -2.918975276816622e+03
-1.157006132756742e+03  3.681382754300165e+02 -2.918975276816622e+03
-1.157035802790732e+03  3.655258125930800e+02 -2.918975276816622e+03
-1.157028588064955e+03  3.621800681638028e+02 -2.918975276816622e+03
-1.157003222349288e+03  3.582381370719371e+02 -2.918975276816622e+03
-1.157064678022872e+03  3.557875823791329e+02 -2.918975276816622e+03
-1.157138622529889e+03  3.542429521848260e+02 -2.918975276816622e+03
-1.157148515904065e+03  3.517048273695185e+02 -2.918975276816622e+03
-1.157149956931340e+03  3.486215649040233e+02 -2.918975276816622e+03
-1.157157935253256e+03  3.452042846161392e+02 -2.918975276816622e+03
-1.157159341290742e+03  3.420120818880723e+02 -2.918975276816622e+03
-1.157147637749158e+03  3.393789745422105e+02 -2.918975276816622e+03
-1.157135767652546e+03  3.367209953290749e+02 -2.918975276816622e+03
-1.157105744745440e+03  3.340871459747368e+02 -2.918975276816622e+03
-1.157057735582870e+03  3.315022983464696e+02 -2.918975276816622e+03
-1.157009726420300e+03  3.289174507182020e+02 -2.918975276816622e+03
-1.156992185646948e+03  3.269844412761003e+02 -2.918975276816622e+03
-1.156990365170511e+03  3.252768915888237e+02 -2.918975276816622e+03
-1.156963866649042e+03  3.229595041430738e+02 -2.918975276816622e+03
-1.156966460825772e+03  3.209698167142204e+02 -2.918975276816622e+03
-1.156961985716210e+03  3.190045600805252e+02 -2.918975276816622e+03
-1.156926368263707e+03  3.164596290727097e+02 -2.918975276816622e+03
-1.156905700405479e+03  3.138217522396473e+02 -2.918975276816622e+03
-1.156886521277290e+03  3.114824793530378e+02 -2.918975276816622e+03
-1.156876371851030e+03  3.090158547750732e+02 -2.918975276816622e+03
-1.156801612494677e+03  3.063206330835210e+02 -2.918975276816622e+03
-1.156654702236338e+03  3.038227699161889e+02 -2.918975276816622e+03
-1.156542283413963e+03  3.015415168423280e+02 -2.918975276816622e+03
-1.156424289340973e+03  2.990731017225577e+02 -2.918975276816622e+03
-1.156426094070239e+03  2.965836890167674e+02 -2.918975276816622e+03
-1.156415180882852e+03  2.948198586162355e+02 -2.918975276816622e+03
-1.156421728842095e+03  2.929863375773700e+02 -2.918975276816622e+03
-1.156538917096124e+03  2.910629613652572e+02 -2.918975276816622e+03
-1.156615721975216e+03  2.896513478623479e+02 -2.918975276816622e+03
-1.156673281249687e+03  2.887411135289730e+02 -2.918975276816622e+03
-1.156686697723957e+03  2.881198582617346e+02 -2.918975276816622e+03
-1.156711157836135e+03  2.871938189220760e+02 -2.918975276816622e+03
-1.156689829586616e+03  2.854971081216603e+02 -2.918975276816622e+03
-1.156710678176061e+03  2.832187933898495e+02 -2.918975276816622e+03
-1.156756827497520e+03  2.800223863595352e+02 -2.918975276816622e+03
-1.156762558668490e+03  2.778604144995923e+02 -2.918975276816622e+03
-1.156738141291017e+03  2.765340820815153e+02 -2.918975276816622e+03
-1.156750358985338e+03  2.746954523770227e+02 -2.918975276816622e+03
-1.156788918135551e+03  2.728963021035897e+02 -2.918975276816622e+03
-1.156788371017076e+03  2.714735355798619e+02 -2.918975276816622e+03
-1.156784320700941e+03  2.703905628239205e+02 -2.918975276816622e+03
-1.156797313250742e+03  2.678822592655538e+02 -2.918975276816622e+03
-1.156734689335623e+03  2.655458705162230e+02 -2.918975276816622e+03
-1.156737758766507e+03  2.638522029728302e+02 -2.918975276816622e+03
-1.156829596325234e+03  2.618246880931171e+02 -2.918975276816622e+03
-1.156860318702000e+03  2.604473541861810e+02 -2.918975276816622e+03
-1.156693519114423e+03  2.588505595008222e+02 -2.918975276816622e+03
-1.156693293311521e+03  2.572271045842369e+02 -2.918975276816622e+03
-1.156791084293309e+03  2.559769907816056e+02 -2.918975276816622e+03
-1.156808824365670e+03  2.546106673503173e+02 -2.918975276816622e+03
-1.156831690195762e+03  2.528061679601038e+02 -2.918975276816622e+03
-1.156903710197305e+03  2.508809581432761e+02 -2.918975276816622e+03
-1.156956665257297e+03  2.499821124597170e+02 -2.918975276816622e+03
-1.156889503483010e+03  2.485182480881208e+02 -2.918975276816622e+03
-1.156810122193697e+03  2.466201360717032e+02 -2.918975276816622e+03
-1.156760535002207e+03  2.451407580968359e+02 -2.918975276816622e+03
-1.156873475029559e+03  2.437252081404672e+02 -2.918975276816622e+03
-1.156886490757095e+03  2.419563303783931e+02 -2.918975276816622e+03
-1.156742076877624e+03  2.403686106118112e+02 -2.918975276816622e+03
-1.156615977605444e+03  2.392406603346137e+02 -2.918975276816622e+03
-1.156632270591448e+03  2.369293218832523e+02 -2.918975276816622e+03
-1.156591907750309e+03  2.347417394880559e+02 -2.918975276816622e+03
-1.156549033925189e+03  2.329285596598475e+02 -2.918975276816622e+03
-1.156532645450327e+03  2.308226251945270e+02 -2.918975276816622e+03
-1.156463331650496e+03  2.295955651418576e+02 -2.918975276816622e+03
-1.156404830904279e+03  2.281332683016664e+02 -2.918975276816622e+03
-1.156446082701693e+03  2.263697274155276e+02 -2.918975276816622e+03
-1.156457845416162e+03  2.253179110048088e+02 -2.918975276816622e+03
-1.156432108259096e+03  2.241023057103494e+02 -2.918975276816622e+03
-1.156417896756933e+03  2.220315788703399e+02 -2.918975276816622e+03
-1.156416892455791e+03  2.203172939005287e+02 -2.918975276816622e+03
-1.156318327126261e+03  2.191865990783365e+02 -2.918975276816622e+03
-1.156287888145352e+03  2.169523081829086e+02 -2.918975276816622e+03
-1.156418007297016e+03  2.148033341221077e+02 -2.918975276816622e+03
-1.156374075026295e+03  2.130378083655058e+02 -2.918975276816622e+03
-1.156324868633574e+03  2.109513023230363e+02 -2.918975276816622e+03
-1.156365675532601e+03  2.095969668357201e+02 -2.918975276816622e+03
-1.156388985313796e+03  2.081106630109490e+02 -2.918975276816622e+03
-1.156399110186847e+03  2.062614191473722e+02 -2.918975276816622e+03
-1.156550436002181e+03  2.049652419068363e+02 -2.918975276816622e+03
-1.156557975811021e+03  2.038503976390196e+02 -2.918975276816622e+03
-1.156409063873732e+03  2.020307398333935e+02 -2.918975276816622e+03
-1.156403348630890e+03  2.004140286480606e+02 -2.918975276816622e+03
-1.156455002768121e+03  1.992537434857499e+02 -2.918975276816622e+03
-1.156475981463865e+03  1.969240458422834e+02 -2.918975276816622e+03
-1.156470185086964e+03  1.948071915242118e+02 -2.918975276816622e+03
-1.156488255060018e+03  1.930959766698395e+02 -2.918975276816622e+03
-1.156507592285320e+03  1.910238134013965e+02 -2.918975276816622e+03
-1.156519792665361e+03  1.896818015029557e+02 -2.918975276816622e+03
-1.156507943310628e+03  1.881764514394107e+02 -2.918975276816622e+03
-1.156493319201484e+03  1.864246573229505e+02 -2.918975276816622e+03
-1.156501462205576e+03  1.851425356101452e+02 -2.918975276816622e+03
-1.156495050528256e+03  1.838696171931688e+02 -2.918975276816622e+03
-1.156476464804488e+03  1.820270444097999e+02 -2.918975276816622e+03
-1.156477179125009e+03  1.805604262012184e+02 -2.918975276816622e+03
-1.156444368391805e+03  1.794810198893731e+02 -2.918975276816622e+03
-1.156377714839935e+03  1.770299685838872e+02 -2.918975276816622e+03
-1.156365804301480e+03  1.748513364544515e+02 -2.918975276816622e+03
-1.156442209664433e+03  1.731447276790514e+02 -2.918975276816622e+03
-1.156478122515499e+03  1.710416980180553e+02 -2.918975276816622e+03
-1.156466933081952e+03  1.696735819225682e+02 -2.918975276816622e+03
-1.156467209866127e+03  1.681647779531971e+02 -2.918975276816622e+03
-1.156443362542803e+03  1.664679604850362e+02 -2.918975276816622e+03
-1.156495330521561e+03  1.652353524811750e+02 -2.918975276816622e+03
-1.156531657974469e+03  1.639654917549748e+02 -2.918975276816622e+03
-1.156550242263477e+03  1.620746494830395e+02 -2.918975276816622e+03
-1.156462574882387e+03  1.604445971435747e+02 -2.918975276816622e+03
-1.156449644361242e+03  1.592802737957460e+02 -2.918975276816622e+03
-1.156494822180857e+03  1.570755075123932e+02 -2.918975276816622e+03
-1.156419789067868e+03  1.549721627928126e+02 -2.918975276816622e+03
-1.156393979069254e+03  1.531260765966880e+02 -2.918975276816622e+03
-1.156385356861135e+03  1.510169904145779e+02 -2.918975276816622e+03
-1.156409058053781e+03  1.497235687302177e+02 -2.918975276816622e+03
-1.156386191620244e+03  1.482212052226325e+02 -2.918975276816622e+03
-1.156391948679078e+03  1.464086763653356e+02 -2.918975276816622e+03
-1.156490009578837e+03  1.452245376332879e+02 -2.918975276816622e+03
-1.156497185091157e+03  1.440249306173507e+02 -2.918975276816622e+03
-1.156400511572535e+03  1.421051137701060e+02 -2.918975276816622e+03
-1.156392252608337e+03  1.404830188103850e+02 -2.918975276816622e+03
-1.156442116148744e+03  1.393149624496707e+02 -2.918975276816622e+03
-1.156413599257834e+03  1.370039229220689e+02 -2.918975276816622e+03
-1.156420225128944e+03  1.348730990866273e+02 -2.918975276816622e+03
-1.156431404389851e+03  1.331588151032836e+02 -2.918975276816622e+03
-1.156478920551888e+03  1.310961214430317e+02 -2.918975276816622e+03
-1.156558349358117e+03  1.297903333315556e+02 -2.918975276816622e+03
-1.156610812724036e+03  1.282959510514039e+02 -2.918975276816622e+03
-1.156454422200841e+03  1.265117442699902e+02 -2.918975276816622e+03
-1.156449282948355e+03  1.252409325022072e+02 -2.918975276816622e+03
-1.156734807813236e+03  1.239759343790808e+02 -2.918975276816622e+03
-1.156735380640914e+03  1.221025110311216e+02 -2.918975276816622e+03
-1.156625114218191e+03  1.204495981446626e+02 -2.918975276816622e+03
-1.156557248567101e+03  1.192737954692276e+02 -2.918975276816622e+03
-1.156595069258794e+03  1.170070919055687e+02 -2.918975276816622e+03
-1.156667558806228e+03  1.148902132258352e+02 -2.918975276816622e+03
-1.156697861819802e+03  1.131737080694127e+02 -2.918975276816622e+03
-1.156704757129257e+03  1.112152064413049e+02 -2.918975276816622e+03
-1.156692636133406e+03  1.099413437295737e+02 -2.918975276816622e+03
-1.156711519171192e+03  1.084000251153619e+02 -2.918975276816622e+03
-1.156726834380305e+03  1.066800260791177e+02 -2.918975276816622e+03
-1.156711557275001e+03  1.053530941462761e+02 -2.918975276816622e+03
-1.156703707608930e+03  1.039594476042536e+02 -2.918975276816622e+03
-1.156735409768306e+03  1.021571536531968e+02 -2.918975276816622e+03
-1.156738512075262e+03  1.006883554134400e+02 -2.918975276816622e+03
-1.156736951630248e+03  9.927945221157677e+01 -2.918975276816622e+03
-1.156700057313033e+03  9.760863006966166e+01 -2.918975276816622e+03
-1.156695765051938e+03  9.606931686455637e+01 -2.918975276816622e+03
-1.156648800164650e+03  9.319738240904738e+01 -2.918975276816622e+03
-1.156644009783001e+03  9.059228583447150e+01 -2.918975276816622e+03
-1.156630626888306e+03  8.902331544736433e+01 -2.918975276816622e+03
-1.156618310490398e+03  8.740673781819312e+01 -2.918975276816622e+03
-1.156641721907318e+03  8.654821752015906e+01 -2.918975276816622e+03
-1.156574894900056e+03  8.572112470411730e+01 -2.918975276816622e+03
-1.156464460966297e+03  8.386326331312107e+01 -2.918975276816622e+03
-1.156304118262048e+03  8.087626110106176e+01 -2.918975276816622e+03
-1.156213000612270e+03  7.767769147796191e+01 -2.918975276816622e+03
-1.156113042276873e+03  7.483043735795152e+01 -2.918975276816622e+03
-1.156211734458982e+03  7.280973815339232e+01 -2.918975276816622e+03
-1.156073175714918e+03  7.128690910232000e+01 -2.918975276816622e+03
-1.155798567656200e+03  6.863996548619065e+01 -2.918975276816622e+03
-1.155594838879434e+03  6.594722336720338e+01 -2.918975276816622e+03
-1.155476584407206e+03  6.373180672510418e+01 -2.918975276816622e+03
-1.155651308338697e+03  6.039691048965225e+01 -2.918975276816622e+03
-1.155777367981578e+03  5.719161348210470e+01 -2.918975276816622e+03
-1.155815711960825e+03  5.478923677398749e+01 -2.918975276816622e+03
-1.156116197804902e+03  5.168492464976859e+01 -2.918975276816622e+03
-1.156388998850651e+03  4.945687329710648e+01 -2.918975276816622e+03
-1.156449886276771e+03  4.840095448956339e+01 -2.918975276816622e+03
-1.156629461200519e+03  4.727116149350958e+01 -2.918975276816622e+03
-1.156808101586996e+03  4.677470010504703e+01 -2.918975276816622e+03
-1.156946236168362e+03  4.587596347135167e+01 -2.918975276816622e+03
-1.156966782900968e+03  4.460729032568798e+01 -2.918975276816622e+03
-1.156997593127057e+03  4.316486766469701e+01 -2.918975276816622e+03
-1.157044328043389e+03  4.183686471992593e+01 -2.918975276816622e+03
-1.157106653486014e+03  4.028426120984488e+01 -2.918975276816622e+03
-1.157193097216916e+03  3.779504966454357e+01 -2.918975276816622e+03
-1.157282378227107e+03  3.577858882072969e+01 -2.918975276816622e+03
-1.157346078062123e+03  3.409511592993077e+01 -2.918975276816622e+03
-1.157474037263800e+03  3.160002627438554e+01 -2.918975276816622e+03
-1.157597547802896e+03  2.940730298979770e+01 -2.918975276816622e+03
-1.157686335055574e+03  2.755102555618196e+01 -2.918975276816622e+03
-1.157881607458908e+03  2.497347823936324e+01 -2.918975276816622e+03
-1.158136306988189e+03  2.276246280786675e+01 -2.918975276816622e+03
-1.158293579712508e+03  2.180190034368013e+01 -2.918975276816622e+03
-1.158111724114453e+03  2.039320919893059e+01 -2.918975276816622e+03
-1.157888958083145e+03  1.804669449261547e+01 -2.918975276816622e+03
-1.157813554470814e+03  1.646056615832026e+01 -2.918975276816622e+03
-1.157755011500276e+03  1.524769527750367e+01 -2.918975276816622e+03
-1.157715455705526e+03  1.394050244882213e+01 -2.918975276816622e+03
-1.157679879917480e+03  1.259556958418243e+01 -2.918975276816622e+03
-1.157637228923571e+03  1.085807939596291e+01 -2.918975276816622e+03
-1.157591647711853e+03  8.664352689813137e+00 -2.918975276816622e+03
 1.154306702635155e+03 -1.621011782662956e+00  2.918975276816622e+03
1.154414389775034e+03 9.936880689100691e-02 2.918975276816622e+03
 1.154082746545409e+03 -3.345207787988778e+00  2.918975276816622e+03
 1.153740268104792e+03 -5.332759553454693e+00  2.918975276816622e+03
 1.153499757971206e+03 -6.621661654299984e+00  2.918975276816622e+03
 1.155011129918208e+03 -6.791205550246994e+00  2.918975276816622e+03
 1.156088411255668e+03 -7.991113234968701e+00  2.918975276816622e+03
 1.155230507922603e+03 -1.130020720944488e+01  2.918975276816622e+03
 1.154759137406782e+03 -1.478844118831716e+01  2.918975276816622e+03
 1.154436585634514e+03 -1.772056083034715e+01  2.918975276816622e+03
 1.154262852605800e+03 -2.009656613553484e+01  2.918975276816622e+03
 1.154081849397023e+03 -2.270535688988387e+01  2.918975276816622e+03
 1.153893576008182e+03 -2.554693309339424e+01  2.918975276816622e+03
 1.153916520634314e+03 -2.722874883874812e+01  2.918975276816622e+03
 1.154050392180684e+03 -2.901265178773939e+01  2.918975276816622e+03
 1.153605555633241e+03 -3.256713021719668e+01  2.918975276816622e+03
 1.153161619269283e+03 -3.609789614505777e+01  2.918975276816622e+03
 1.152864955835395e+03 -3.914829417872322e+01  2.918975276816622e+03
 1.152770120519789e+03 -4.125966347601195e+01  2.918975276816622e+03
 1.152883543850324e+03 -4.271662094657312e+01  2.918975276816622e+03
 1.152840661426646e+03 -4.475615312970430e+01  2.918975276816622e+03
 1.152876153654850e+03 -4.745732003721981e+01  2.918975276816622e+03
 1.152941443595385e+03 -4.987645703812674e+01  2.918975276816622e+03
 1.153012038533491e+03 -5.158578226130854e+01  2.918975276816622e+03
 1.153054637841835e+03 -5.351678584689020e+01  2.918975276816622e+03
 1.153043057991764e+03 -5.560971897608098e+01  2.918975276816622e+03
 1.153075336975212e+03 -5.777495406583560e+01  2.918975276816622e+03
 1.153201025276946e+03 -5.977013588083257e+01  2.918975276816622e+03
 1.153235287127603e+03 -6.119921100915573e+01  2.918975276816622e+03
 1.153241513056178e+03 -6.266491033702348e+01  2.918975276816622e+03
 1.153228625373230e+03 -6.443519811463460e+01  2.918975276816622e+03
 1.153252618519231e+03 -6.583414719894762e+01  2.918975276816622e+03
 1.153284257663910e+03 -6.774452450698470e+01  2.918975276816622e+03
 1.153291841841259e+03 -7.008424278186114e+01  2.918975276816622e+03
 1.153268867700240e+03 -7.155785060731172e+01  2.918975276816622e+03
 1.153301997270232e+03 -7.329432255645602e+01  2.918975276816622e+03
 1.153333375924125e+03 -7.631687856679709e+01  2.918975276816622e+03
 1.153320734954280e+03 -7.943331613939418e+01  2.918975276816622e+03
 1.153349305223024e+03 -8.128341488521053e+01  2.918975276816622e+03
 1.153361388678196e+03 -8.332168585798760e+01  2.918975276816622e+03
 1.153395083590847e+03 -8.541049866175938e+01  2.918975276816622e+03
 1.153400267887568e+03 -8.748786614804598e+01  2.918975276816622e+03
 1.153428424772604e+03 -8.983100982488227e+01  2.918975276816622e+03
 1.153437840268516e+03 -9.152203246370462e+01  2.918975276816622e+03
 1.153464588589682e+03 -9.350603060364423e+01  2.918975276816622e+03
 1.153511556398433e+03 -9.601055591669595e+01  2.918975276816622e+03
 1.153479328880310e+03 -9.760478256015377e+01  2.918975276816622e+03
 1.153458123743807e+03 -9.915547154526045e+01  2.918975276816622e+03
 1.153485019309161e+03 -1.020524165090157e+02  2.918975276816622e+03
 1.153511943034096e+03 -1.044247237318709e+02  2.918975276816622e+03
 1.153506494055540e+03 -1.056439121962319e+02  2.918975276816622e+03
 1.153518627651658e+03 -1.075174679898093e+02  2.918975276816622e+03
 1.153498118678286e+03 -1.097992287836889e+02  2.918975276816622e+03
 1.153496433004194e+03 -1.114062344651627e+02  2.918975276816622e+03
 1.153475990798799e+03 -1.131624540731401e+02  2.918975276816622e+03
 1.153455124128614e+03 -1.156299713708580e+02  2.918975276816622e+03
 1.153404968652506e+03 -1.189182262268143e+02  2.918975276816622e+03
 1.153430557163595e+03 -1.224811521263144e+02  2.918975276816622e+03
 1.153444091462354e+03 -1.254906551535951e+02  2.918975276816622e+03
 1.153587169183479e+03 -1.268066172338632e+02  2.918975276816622e+03
 1.153610181812725e+03 -1.279865799430850e+02  2.918975276816622e+03
 1.153748722821272e+03 -1.301227143915096e+02  2.918975276816622e+03
 1.153759217032467e+03 -1.317505657927441e+02  2.918975276816622e+03
 1.153908357114016e+03 -1.343145940108278e+02  2.918975276816622e+03
 1.154434132116357e+03 -1.362507924204670e+02  2.918975276816622e+03
 1.154296570963598e+03 -1.373665968756976e+02  2.918975276816622e+03
 1.153923224488643e+03 -1.395922909311695e+02  2.918975276816622e+03
 1.153469360084107e+03 -1.420616825400407e+02  2.918975276816622e+03
 1.153284769773460e+03 -1.446030558812081e+02  2.918975276816622e+03
 1.153264321094329e+03 -1.473459349004794e+02  2.918975276816622e+03
 1.153251878369821e+03 -1.497940125301692e+02  2.918975276816622e+03
 1.153314408683244e+03 -1.514075587289013e+02  2.918975276816622e+03
 1.153335432583332e+03 -1.532472811307101e+02  2.918975276816622e+03
 1.153375731306106e+03 -1.561466781533738e+02  2.918975276816622e+03
 1.153383249125624e+03 -1.591271563413019e+02  2.918975276816622e+03
 1.153379871754800e+03 -1.609393152574031e+02  2.918975276816622e+03
 1.153443449113982e+03 -1.620572476335712e+02  2.918975276816622e+03
 1.153525987329087e+03 -1.631057453710987e+02  2.918975276816622e+03
 1.153551030760807e+03 -1.645335097874860e+02  2.918975276816622e+03
 1.153509126008481e+03 -1.659199638169948e+02  2.918975276816622e+03
 1.153485563502018e+03 -1.675838702933922e+02  2.918975276816622e+03
 1.153594249184942e+03 -1.696237239435757e+02  2.918975276816622e+03
 1.153642569729501e+03 -1.712880574158337e+02  2.918975276816622e+03
 1.153659376842510e+03 -1.731723069126255e+02  2.918975276816622e+03
 1.153763777242264e+03 -1.760909856831640e+02  2.918975276816622e+03
 1.153799825594856e+03 -1.792010821548675e+02  2.918975276816622e+03
 1.153891667169709e+03 -1.821650565107014e+02  2.918975276816622e+03
 1.153908307077046e+03 -1.849061647302698e+02  2.918975276816622e+03
 1.154099210078531e+03 -1.870407766111772e+02  2.918975276816622e+03
 1.154206820799909e+03 -1.897750523695449e+02  2.918975276816622e+03
 1.154271238734025e+03 -1.928128978309669e+02  2.918975276816622e+03
 1.154491406060632e+03 -1.958021982192225e+02  2.918975276816622e+03
 1.154629542737259e+03 -1.988525090536294e+02  2.918975276816622e+03
 1.154832699070065e+03 -2.008954505639015e+02  2.918975276816622e+03
 1.154594302094345e+03 -2.024398519821287e+02  2.918975276816622e+03
 1.154460328803314e+03 -2.039119772871290e+02  2.918975276816622e+03
 1.154825027365839e+03 -2.051697292688315e+02  2.918975276816622e+03
 1.154614616320105e+03 -2.073870253567417e+02  2.918975276816622e+03
 1.154102569720086e+03 -2.096640748828993e+02  2.918975276816622e+03
 1.153939659535598e+03 -2.112767646702234e+02  2.918975276816622e+03
 1.153867686030454e+03 -2.132207632709394e+02  2.918975276816622e+03
 1.153754374186166e+03 -2.161225383409447e+02  2.918975276816622e+03
 1.153688632243298e+03 -2.191598936508712e+02  2.918975276816622e+03
 1.153625276092072e+03 -2.219470833201851e+02  2.918975276816622e+03
 1.153553855033421e+03 -2.238683249853930e+02  2.918975276816622e+03
 1.153487258894206e+03 -2.249980759667928e+02  2.918975276816622e+03
 1.153390183387040e+03 -2.272756962543082e+02  2.918975276816622e+03
 1.153327506628481e+03 -2.296360107443314e+02  2.918975276816622e+03
 1.153227591512156e+03 -2.311528374040198e+02  2.918975276816622e+03
 1.153050489225677e+03 -2.331496495872562e+02  2.918975276816622e+03
 1.152804695254068e+03 -2.360776236262420e+02  2.918975276816622e+03
 1.152689566568038e+03 -2.376633788035062e+02  2.918975276816622e+03
 1.152818435100580e+03 -2.387414867235253e+02  2.918975276816622e+03
 1.153007350758503e+03 -2.408739295408242e+02  2.918975276816622e+03
 1.153087652041780e+03 -2.432509473242166e+02  2.918975276816622e+03
 1.153229288352973e+03 -2.461314198471811e+02  2.918975276816622e+03
 1.153331196647169e+03 -2.488986971735833e+02  2.918975276816622e+03
 1.153373902236458e+03 -2.513741072356471e+02  2.918975276816622e+03
 1.153460548827127e+03 -2.540696953417674e+02  2.918975276816622e+03
 1.153496170188911e+03 -2.564121544035982e+02  2.918975276816622e+03
 1.153632242100279e+03 -2.589853033652379e+02  2.918975276816622e+03
 1.153751460704141e+03 -2.610372654640990e+02  2.918975276816622e+03
 1.153711040141278e+03 -2.624897471425218e+02  2.918975276816622e+03
 1.153723250499044e+03 -2.646679322514399e+02  2.918975276816622e+03
 1.153754612651412e+03 -2.671513565007427e+02  2.918975276816622e+03
 1.153814686412441e+03 -2.700067124524531e+02  2.918975276816622e+03
 1.153863497399721e+03 -2.719007233339466e+02  2.918975276816622e+03
 1.153891943840843e+03 -2.733358370409890e+02  2.918975276816622e+03
 1.153969551925262e+03 -2.758847291147913e+02  2.918975276816622e+03
 1.154043867228245e+03 -2.784716396307328e+02  2.918975276816622e+03
 1.154070222831821e+03 -2.798508898593149e+02  2.918975276816622e+03
 1.154050791987024e+03 -2.818293346482195e+02  2.918975276816622e+03
 1.154098109329019e+03 -2.848044192276705e+02  2.918975276816622e+03
 1.154232349422942e+03 -2.874463909903646e+02  2.918975276816622e+03
 1.154336940949948e+03 -2.900588455266047e+02  2.918975276816622e+03
 1.154461154387871e+03 -2.932727879833861e+02  2.918975276816622e+03
 1.154450701485725e+03 -2.958593732580541e+02  2.918975276816622e+03
 1.154380341740733e+03 -2.969961921895989e+02  2.918975276816622e+03
 1.154371626417520e+03 -2.978241425888174e+02  2.918975276816622e+03
 1.154370463763018e+03 -2.985112424881699e+02  2.918975276816622e+03
 1.154370149787508e+03 -2.999443527724106e+02  2.918975276816622e+03
 1.154330394835918e+03 -3.021763766495491e+02  2.918975276816622e+03
 1.154295412198506e+03 -3.035693230738706e+02  2.918975276816622e+03
 1.154251858363035e+03 -3.056219363418006e+02  2.918975276816622e+03
 1.154157639525354e+03 -3.083878026249686e+02  2.918975276816622e+03
 1.154132049273663e+03 -3.097060024036035e+02  2.918975276816622e+03
 1.154078917176008e+03 -3.105520971115731e+02  2.918975276816622e+03
 1.154020696699295e+03 -3.113324839833620e+02  2.918975276816622e+03
 1.153956367195563e+03 -3.125154639652540e+02  2.918975276816622e+03
 1.153918424951385e+03 -3.139958199947123e+02  2.918975276816622e+03
 1.153898224838238e+03 -3.161292211321150e+02  2.918975276816622e+03
 1.153791792026342e+03 -3.195615271120492e+02  2.918975276816622e+03
 1.153743197583371e+03 -3.225796535370304e+02  2.918975276816622e+03
 1.153695516509663e+03 -3.248987357238682e+02  2.918975276816622e+03
 1.153670970226666e+03 -3.272951134958645e+02  2.918975276816622e+03
 1.153630435175606e+03 -3.300110884990780e+02  2.918975276816622e+03
 1.153620503153095e+03 -3.319019142819529e+02  2.918975276816622e+03
 1.153596006608828e+03 -3.335600421806233e+02  2.918975276816622e+03
 1.153575583012373e+03 -3.366228563293553e+02  2.918975276816622e+03
 1.153675321590762e+03 -3.389664523831113e+02  2.918975276816622e+03
 1.153696587933253e+03 -3.405734134806678e+02  2.918975276816622e+03
 1.153607583921895e+03 -3.427328909848690e+02  2.918975276816622e+03
 1.153426686857345e+03 -3.452263425486716e+02  2.918975276816622e+03
 1.153474624828514e+03 -3.486327959065795e+02  2.918975276816622e+03
 1.153637643226447e+03 -3.516917594358263e+02  2.918975276816622e+03
 1.153675751073600e+03 -3.538110421671649e+02  2.918975276816622e+03
 1.153666370249824e+03 -3.560265741566185e+02  2.918975276816622e+03
 1.153714678021558e+03 -3.586616511803073e+02  2.918975276816622e+03
 1.153767021303713e+03 -3.616455846218375e+02  2.918975276816622e+03
 1.153780218761811e+03 -3.639334751996109e+02  2.918975276816622e+03
 1.153816508680565e+03 -3.653012401261969e+02  2.918975276816622e+03
 1.153839738617383e+03 -3.662825854120668e+02  2.918975276816622e+03
 1.153823334531293e+03 -3.677690354438581e+02  2.918975276816622e+03
 1.153818897222352e+03 -3.698397184084259e+02  2.918975276816622e+03
 1.153842557694183e+03 -3.725257984915518e+02  2.918975276816622e+03
 1.153821667193924e+03 -3.751516776151141e+02  2.918975276816622e+03
 1.153845948317306e+03 -3.774282738357165e+02  2.918975276816622e+03
 1.153829868416394e+03 -3.801531177743759e+02  2.918975276816622e+03
 1.153808420695839e+03 -3.824241718001928e+02  2.918975276816622e+03
 1.153801897350667e+03 -3.835567865191837e+02  2.918975276816622e+03
 1.153792706765004e+03 -3.850833316670766e+02  2.918975276816622e+03
1.153760276967802e+03 3.845823164914222e+02 2.918975276816622e+03
1.153769177314738e+03 3.857818588756238e+02 2.918975276816622e+03
1.153736290212512e+03 3.827880329861114e+02 2.918975276816622e+03
1.153713519964016e+03 3.813612363360760e+02 2.918975276816622e+03
1.153734361948340e+03 3.799930352697079e+02 2.918975276816622e+03
1.153776504717920e+03 3.777126736411414e+02 2.918975276816622e+03
1.153790496959539e+03 3.749856571578323e+02 2.918975276816622e+03
1.153804558636624e+03 3.728790193818907e+02 2.918975276816622e+03
1.153797835372302e+03 3.716254968453748e+02 2.918975276816622e+03
1.153792692600387e+03 3.692813697422990e+02 2.918975276816622e+03
1.153772564971266e+03 3.671214570709657e+02 2.918975276816622e+03
1.153822355848626e+03 3.657489951152821e+02 2.918975276816622e+03
1.153941665833836e+03 3.637895254887042e+02 2.918975276816622e+03
1.154263220465409e+03 3.612423496460765e+02 2.918975276816622e+03
1.154568370318185e+03 3.588294642551459e+02 2.918975276816622e+03
1.154624620886171e+03 3.575105186729914e+02 2.918975276816622e+03
1.154028104846417e+03 3.566212216519633e+02 2.918975276816622e+03
1.153801291749839e+03 3.556985526955947e+02 2.918975276816622e+03
1.154022373529466e+03 3.542103158286161e+02 2.918975276816622e+03
1.153857561083519e+03 3.526703339190948e+02 2.918975276816622e+03
1.153947146209279e+03 3.513579696696558e+02 2.918975276816622e+03
1.154116824197090e+03 3.491376270733383e+02 2.918975276816622e+03
1.154336597717831e+03 3.465179916936146e+02 2.918975276816622e+03
1.154490187260632e+03 3.441411668694909e+02 2.918975276816622e+03
1.154600042775531e+03 3.425286384568008e+02 2.918975276816622e+03
1.154684148397287e+03 3.408448673231268e+02 2.918975276816622e+03
1.154724497938553e+03 3.379470796758737e+02 2.918975276816622e+03
1.154769291242508e+03 3.344280040918605e+02 2.918975276816622e+03
1.154903032303789e+03 3.323085518455403e+02 2.918975276816622e+03
1.153696198251615e+03 3.321239889763235e+02 2.918975276816622e+03
1.152904072886698e+03 3.313458432904454e+02 2.918975276816622e+03
1.153560425464208e+03 3.294660573891513e+02 2.918975276816622e+03
1.153983893943863e+03 3.278178994890720e+02 2.918975276816622e+03
1.153181250952454e+03 3.268880868496855e+02 2.918975276816622e+03
1.152588033997023e+03 3.260796678012414e+02 2.918975276816622e+03
1.153072683375707e+03 3.250927774385214e+02 2.918975276816622e+03
1.153431962122648e+03 3.242636563434657e+02 2.918975276816622e+03
1.153677752364544e+03 3.227934446229630e+02 2.918975276816622e+03
1.153771881299589e+03 3.205600746168749e+02 2.918975276816622e+03
1.153705881909483e+03 3.190631901463560e+02 2.918975276816622e+03
1.153821627526161e+03 3.179585640600117e+02 2.918975276816622e+03
1.154010279098375e+03 3.161960463189174e+02 2.918975276816622e+03
1.154077035384973e+03 3.144357240737413e+02 2.918975276816622e+03
1.154162548702914e+03 3.123254150318634e+02 2.918975276816622e+03
1.154144295242910e+03 3.097223665883143e+02 2.918975276816622e+03
1.154036927180244e+03 3.066604136378137e+02 2.918975276816622e+03
1.154293852956893e+03 3.046323692906157e+02 2.918975276816622e+03
1.154672912725385e+03 3.030865192200857e+02 2.918975276816622e+03
1.154214669394644e+03 3.008998800065592e+02 2.918975276816622e+03
1.154029743767584e+03 2.986266897447071e+02 2.918975276816622e+03
1.154242618954666e+03 2.959023707370259e+02 2.918975276816622e+03
1.154379171009600e+03 2.941086317784083e+02 2.918975276816622e+03
1.154528494810496e+03 2.922730625200732e+02 2.918975276816622e+03
1.154766913489500e+03 2.894650829129571e+02 2.918975276816622e+03
1.154886747118085e+03 2.879294832642900e+02 2.918975276816622e+03
1.154771719063278e+03 2.862858694244672e+02 2.918975276816622e+03
1.154540414375496e+03 2.832618614350393e+02 2.918975276816622e+03
1.154425300039531e+03 2.807791958440933e+02 2.918975276816622e+03
1.154325667152981e+03 2.783851913690315e+02 2.918975276816622e+03
1.154122399040546e+03 2.759628312933621e+02 2.918975276816622e+03
1.154042897131780e+03 2.728540280045426e+02 2.918975276816622e+03
1.153803995522566e+03 2.695115548803108e+02 2.918975276816622e+03
1.153701222898990e+03 2.663130911889265e+02 2.918975276816622e+03
1.153839753424812e+03 2.639445126469563e+02 2.918975276816622e+03
1.153692611498206e+03 2.620677533487345e+02 2.918975276816622e+03
1.153479843158162e+03 2.592943761407592e+02 2.918975276816622e+03
1.153431377956854e+03 2.572338023946660e+02 2.918975276816622e+03
1.153330638322112e+03 2.555408922968993e+02 2.918975276816622e+03
1.153226846408876e+03 2.539710222317734e+02 2.918975276816622e+03
1.153328750362447e+03 2.529024280060030e+02 2.918975276816622e+03
1.153432086658614e+03 2.515037416358875e+02 2.918975276816622e+03
1.153378770730942e+03 2.496349304736378e+02 2.918975276816622e+03
1.153331703148986e+03 2.485019052250914e+02 2.918975276816622e+03
1.153316323537593e+03 2.474022075498707e+02 2.918975276816622e+03
1.153332491818735e+03 2.460664461336479e+02 2.918975276816622e+03
1.153358736532826e+03 2.445049341329251e+02 2.918975276816622e+03
1.153389592837829e+03 2.425543108984055e+02 2.918975276816622e+03
1.153414589046402e+03 2.408546702481944e+02 2.918975276816622e+03
1.153433260394783e+03 2.391839662674138e+02 2.918975276816622e+03
1.153459501453453e+03 2.370939099035270e+02 2.918975276816622e+03
1.153466330378003e+03 2.344747749728554e+02 2.918975276816622e+03
1.153484690354971e+03 2.329558862908671e+02 2.918975276816622e+03
1.153502376528127e+03 2.313554911880521e+02 2.918975276816622e+03
1.153478082939575e+03 2.292830231107326e+02 2.918975276816622e+03
1.153458967084724e+03 2.277438881428326e+02 2.918975276816622e+03
1.153390987140960e+03 2.262021808608623e+02 2.918975276816622e+03
1.153342206864503e+03 2.249456260158988e+02 2.918975276816622e+03
1.153245582908186e+03 2.228137356718439e+02 2.918975276816622e+03
1.153270704864101e+03 2.198558222149226e+02 2.918975276816622e+03
1.153112123089549e+03 2.177111732745143e+02 2.918975276816622e+03
1.152922225323397e+03 2.164572408395193e+02 2.918975276816622e+03
1.152740594939190e+03 2.141599111954888e+02 2.918975276816622e+03
1.152404403649780e+03 2.122039473983173e+02 2.918975276816622e+03
1.152953916193994e+03 2.113508175206154e+02 2.918975276816622e+03
1.153512576112672e+03 2.100282064327876e+02 2.918975276816622e+03
1.153867300892012e+03 2.079874902971506e+02 2.918975276816622e+03
1.154532498716331e+03 2.052744177634294e+02 2.918975276816622e+03
1.154926904253797e+03 2.025856025089526e+02 2.918975276816622e+03
1.154698374960783e+03 2.004275337479731e+02 2.918975276816622e+03
1.154700715627788e+03 1.985440106780308e+02 2.918975276816622e+03
1.154801066721858e+03 1.965442544607426e+02 2.918975276816622e+03
1.154775559537131e+03 1.942164017977482e+02 2.918975276816622e+03
1.154620842398022e+03 1.927311856246911e+02 2.918975276816622e+03
1.154534077623152e+03 1.912739383217047e+02 2.918975276816622e+03
1.154320850801527e+03 1.886699750737758e+02 2.918975276816622e+03
1.154246117602487e+03 1.859286550862817e+02 2.918975276816622e+03
1.154139380877494e+03 1.831193428641957e+02 2.918975276816622e+03
1.153735477513351e+03 1.802934722955960e+02 2.918975276816622e+03
1.153887672821763e+03 1.772699203790093e+02 2.918975276816622e+03
1.154129604342734e+03 1.745375676949488e+02 2.918975276816622e+03
1.154516114431316e+03 1.726013518204275e+02 2.918975276816622e+03
1.153398567669471e+03 1.717551111598963e+02 2.918975276816622e+03
1.152829718614631e+03 1.706034290046113e+02 2.918975276816622e+03
1.153679051453723e+03 1.693026249803799e+02 2.918975276816622e+03
1.154748476474920e+03 1.673232829481763e+02 2.918975276816622e+03
1.154072730085746e+03 1.658766299986292e+02 2.918975276816622e+03
1.153272681765231e+03 1.647190208065691e+02 2.918975276816622e+03
1.154283247389438e+03 1.621347789922853e+02 2.918975276816622e+03
1.154838766930972e+03 1.600806540583583e+02 2.918975276816622e+03
1.154906724364584e+03 1.588841469013926e+02 2.918975276816622e+03
1.154797340323223e+03 1.580342817699612e+02 2.918975276816622e+03
1.154519916724353e+03 1.554951521303188e+02 2.918975276816622e+03
1.154006223362024e+03 1.523827776239719e+02 2.918975276816622e+03
1.153050591500399e+03 1.502719538836407e+02 2.918975276816622e+03
1.152184559754677e+03 1.490251145056115e+02 2.918975276816622e+03
1.152464941319237e+03 1.479056593833724e+02 2.918975276816622e+03
1.152681427241815e+03 1.464057154687639e+02 2.918975276816622e+03
1.152817987203388e+03 1.452660470012354e+02 2.918975276816622e+03
1.153020663799678e+03 1.431291662030040e+02 2.918975276816622e+03
1.153159004020020e+03 1.403964245747210e+02 2.918975276816622e+03
1.153206327731953e+03 1.390744928130009e+02 2.918975276816622e+03
1.153254959595153e+03 1.375834696792801e+02 2.918975276816622e+03
1.153320085723398e+03 1.348035620914121e+02 2.918975276816622e+03
1.153347697170909e+03 1.318058576850899e+02 2.918975276816622e+03
1.153338659993392e+03 1.292426835016670e+02 2.918975276816622e+03
1.153211521167205e+03 1.275378758359670e+02 2.918975276816622e+03
1.153196184280957e+03 1.263279051677455e+02 2.918975276816622e+03
1.153250185088101e+03 1.252066197037441e+02 2.918975276816622e+03
1.153199418693091e+03 1.231322003226368e+02 2.918975276816622e+03
1.153102673572420e+03 1.207148563897368e+02 2.918975276816622e+03
1.153038673106115e+03 1.192494207977905e+02 2.918975276816622e+03
1.152946944543524e+03 1.175175801801869e+02 2.918975276816622e+03
1.152771732695856e+03 1.147203166511618e+02 2.918975276816622e+03
1.152549649019551e+03 1.123702301522968e+02 2.918975276816622e+03
1.152378850104350e+03 1.109702798735071e+02 2.918975276816622e+03
1.152110381849207e+03 1.094039616563712e+02 2.918975276816622e+03
1.151846615638434e+03 1.085051786453611e+02 2.918975276816622e+03
1.152087862136699e+03 1.076912793011212e+02 2.918975276816622e+03
1.152478012965462e+03 1.062412326489754e+02 2.918975276816622e+03
1.152693714404831e+03 1.050712975778706e+02 2.918975276816622e+03
1.152987574530648e+03 1.030137099315157e+02 2.918975276816622e+03
1.153299645855654e+03 1.004310273768312e+02 2.918975276816622e+03
1.153618013322934e+03 9.804590889345840e+01 2.918975276816622e+03
1.153858321246114e+03 9.663763269290604e+01 2.918975276816622e+03
1.154109872686148e+03 9.509368947936083e+01 2.918975276816622e+03
1.154306418219750e+03 9.246009790931177e+01 2.918975276816622e+03
1.154450707748849e+03 8.942614771735965e+01 2.918975276816622e+03
1.154541520806786e+03 8.668243288515144e+01 2.918975276816622e+03
1.154704806884098e+03 8.419318252527623e+01 2.918975276816622e+03
1.154939345457247e+03 8.134471020662762e+01 2.918975276816622e+03
1.155040825057866e+03 7.922579284360816e+01 2.918975276816622e+03
1.155483739759967e+03 7.711891289877769e+01 2.918975276816622e+03
1.156127167704783e+03 7.469856113498484e+01 2.918975276816622e+03
1.155930880033533e+03 7.308749360953378e+01 2.918975276816622e+03
1.155506724365818e+03 7.143207998220483e+01 2.918975276816622e+03
1.155694416317709e+03 6.892303601465619e+01 2.918975276816622e+03
1.155612540286887e+03 6.691863094693771e+01 2.918975276816622e+03
1.155569631554187e+03 6.440560583890155e+01 2.918975276816622e+03
1.155382418112405e+03 6.130702908671576e+01 2.918975276816622e+03
1.155305456130099e+03 5.900333210366149e+01 2.918975276816622e+03
1.155428926140784e+03 5.773114003546461e+01 2.918975276816622e+03
1.155129830214191e+03 5.639198687191421e+01 2.918975276816622e+03
1.155079661888478e+03 5.460168962735953e+01 2.918975276816622e+03
1.155103435937618e+03 5.297779565522073e+01 2.918975276816622e+03
1.155029100149880e+03 5.149520011194436e+01 2.918975276816622e+03
1.154684219131950e+03 4.943607135876020e+01 2.918975276816622e+03
1.154394010704004e+03 4.791713919162224e+01 2.918975276816622e+03
1.154414064784110e+03 4.605079781090807e+01 2.918975276816622e+03
1.154504418606924e+03 4.333131804905226e+01 2.918975276816622e+03
1.154574703709150e+03 4.216446548545316e+01 2.918975276816622e+03
1.154694540457485e+03 4.127912775048823e+01 2.918975276816622e+03
1.154737228615915e+03 3.969292015210885e+01 2.918975276816622e+03
1.154697488851736e+03 3.712283701091514e+01 2.918975276816622e+03
1.154770969339623e+03 3.477189107265971e+01 2.918975276816622e+03
1.154846380689856e+03 3.307059807704184e+01 2.918975276816622e+03
1.154926601597846e+03 3.106118766767969e+01 2.918975276816622e+03
1.154972281846809e+03 2.911987667107848e+01 2.918975276816622e+03
1.155056587626034e+03 2.682568544482896e+01 2.918975276816622e+03
1.155146020465270e+03 2.393996492057737e+01 2.918975276816622e+03
1.155337693186592e+03 2.093425508606268e+01 2.918975276816622e+03
1.155439520485412e+03 1.939116461299725e+01 2.918975276816622e+03
1.155261597660144e+03 1.765055493316277e+01 2.918975276816622e+03
1.155101075545796e+03 1.516049473229814e+01 2.918975276816622e+03
1.155056056879499e+03 1.386720043609829e+01 2.918975276816622e+03
1.154990747856960e+03 1.249687116854933e+01 2.918975276816622e+03
1.154927493364071e+03 1.093239737106413e+01 2.918975276816622e+03
1.154816418198342e+03 9.041061745701768e+00 2.918975276816622e+03
1.154726979438341e+03 6.653895993572791e+00 2.918975276816622e+03
1.154684373596492e+03 5.022881676049474e+00 2.918975276816622e+03
1.154593845248868e+03 3.593021503889080e+00 2.918975276816622e+03
1.154544709980452e+03 1.964704512596318e+00 2.918975276816622e+03

CELLS 1552 6303
3 6 1564 7
3 6 1565 400
3 7 1566 8
3 8 1567 9
3 9 1568 10
3 10 1569 11
3 11 1570 12
4 12 1571 1572 13
3 13 1573 14
3 14 1574 15
3 15 1575 16
3 16 1576 17
3 17 1577 18
3 18 1578 19
4 19 1579 1580 20
3 20 1581 21
3 21 1582 22
3 22 1583 23
3 23 1584 24
3 24 1585 25
3 25 1586 26
3 26 1587 27
3 27 1588 28
4 28 1589 1590 29
3 29 1591 30
3 30 1592 31
3 31 1593 32
3 32 1594 33
3 33 1595 34
3 34 1596 35
3 35 1597 36
3 36 1598 37
3 37 1599 38
3 38 1600 39
3 39 1601 40
3 40 1602 41
3 41 1603 42
3 42 1604 43
3 43 1605 44
3 44 1606 45
3 45 1607 46
3 46 1608 47
3 47 1609 48
3 48 1610 49
3 49 1611 50
3 50 1612 51
3 51 1613 52
3 52 1614 53
3 53 1615 54
3 54 1616 55
3 55 1617 56
3 56 1618 57
3 57 1619 58
3 58 1620 59
3 59 1621 60
3 60 1622 61
3 61 1623 62
3 62 1624 63
3 63 1625 64
3 64 1626 65
3 65 1627 66
3 66 1628 67
3 67 1629 68
3 68 1630 69
3 69 1631 70
3 70 1632 71
3 71 1633 72
3 72 1634 73
3 73 1635 74
3 74 1636 75
3 75 1637 76
4 76 1638 1639 77
3 77 1640 78
3 78 1641 79
3 79 1642 80
3 80 1643 81
3 81 1644 82
3 82 1645 83
3 83 1646 84
3 84 1647 85
3 85 1648 86
3 86 1649 87
3 87 1650 88
3 88 1651 89
3 89 1652 90
3 90 1653 91
3 91 1654 92
3 92 1655 93
3 93 1656 94
3 94 1657 95
3 95 1658 96
3 96 1659 97
3 97 1660 98
3 98 1661 99
4 99 1662 1663 100
3 100 1664 101
3 101 1665 102
3 102 1666 103
3 103 1667 104
3 104 1668 105
3 105 1669 106
3 106 1670 107
3 107 1671 108
4 108 1672 1673 109
3 109 1674 110
3 110 1675 111
3 111 1676 112
3 112 1677 113
3 113 1678 114
3 114 1679 115
3 115 1680 116
3 116 1681 117
3 117 1682 118
3 118 1683 119
3 119 1684 120
3 120 1685 121
3 121 1686 122
3 122 1687 123
3 123 1688 124
3 124 1689 125
3 125 1690 126
3 126 1691 127
3 127 1692 128
3 128 1693 129
4 129 1694 1695 130
3 130 1696 131
3 131 1697 132
3 132 1698 133
3 133 1699 134
3 134 1700 135
3 135 1701 136
3 136 1702 137
3 137 1703 138
3 138 1704 139
3 139 1705 140
3 140 1706 141
3 141 1707 142
3 142 1708 143
3 143 1709 144
3 144 1710 145
3 145 1711 146
3 146 1712 147
3 147 1713 148
3 148 1714 149
3 149 1715 150
3 150 1716 151
3 151 1717 152
3 152 1718 153
3 153 1719 154
3 154 1720 155
3 155 1721 156
3 156 1722 157
3 157 1723 158
3 158 1724 159
3 159 1725 160
3 160 1726 161
3 161 1727 162
3 162 1728 163
3 163 1729 164
3 164 1730 165
5 165 1731 1732 1733 166
3 166 1734 167
3 167 1735 168
3 168 1736 169
3 169 1737 170
3 170 1738 171
3 171 1739 172
3 172 1740 173
3 173 1741 174
3 174 1742 175
3 175 1743 176
3 176 1744 177
3 177 1745 178
3 178 1746 179
3 179 1747 180
3 180 1748 181
3 181 1749 182
3 182 1750 183
3 183 1751 184
3 184 1752 185
3 185 1753 186
3 186 1754 187
3 187 1755 188
3 188 1756 189
3 189 1757 190
3 190 1758 191
3 191 1759 192
3 192 1760 193
3 193 1761 194
3 194 1762 195
3 195 1763 196
5 196 1764 1765 1766 197
3 197 1767 198
3 198 1768 199
3 199 1769 200
3 200 1770 201
3 201 1771 202
3 202 1772 203
3 203 1773 204
3 204 1774 205
3 205 1775 206
3 206 1776 1556
4 207 1777 1778 208
3 207 1779 1557
3 208 1780 209
3 209 1781 210
3 210 1782 211
4 211 1783 1784 212
5 212 1785 1786 1787 213
3 213 1788 214
3 214 1789 215
3 215 1790 216
3 216 1791 217
3 217 1792 218
3 218 1793 219
3 219 1794 220
3 220 1795 221
3 221 1796 222
3 222 1797 223
5 223 1798 1799 1800 224
3 224 1801 225
3 225 1802 226
3 226 1803 227
3 227 1804 228
3 228 1805 229
3 229 1806 230
3 230 1807 231
3 231 1808 232
3 232 1809 233
3 233 1810 234
3 234 1811 235
3 235 1812 236
3 236 1813 237
3 237 1814 238
4 238 1815 1816 239
3 239 1817 240
3 240 1818 241
4 241 1819 1820 242
3 242 1821 243
3 243 1822 244
3 244 1823 245
3 245 1824 246
3 246 1825 247
3 247 1826 248
3 248 1827 249
3 249 1828 250
3 250 1829 251
3 251 1830 252
3 252 1831 253
3 253 1832 254
3 254 1833 255
3 255 1834 256
3 256 1835 257
3 257 1836 258
3 258 1837 259
3 259 1838 260
3 260 1839 261
4 261 1840 1841 262
3 262 1842 263
3 263 1843 264
3 264 1844 265
3 265 1845 266
3 266 1846 267
3 267 1847 268
3 268 1848 269
3 269 1849 270
3 270 1850 271
3 271 1851 272
3 272 1852 273
3 273 1853 274
3 274 1854 275
3 275 1855 276
3 276 1856 277
3 277 1857 278
3 278 1858 279
3 279 1859 280
3 280 1860 281
3 281 1861 282
4 282 1862 1863 283
3 283 1864 284
3 284 1865 285
3 285 1866 286
3 286 1867 287
3 287 1868 288
3 288 1869 289
3 289 1870 290
3 290 1871 291
3 291 1872 292
3 292 1873 293
3 293 1874 294
3 294 1875 295
3 295 1876 296
3 296 1877 297
3 297 1878 298
3 298 1879 299
3 299 1880 300
3 300 1881 301
3 301 1882 302
3 302 1883 303
3 303 1884 304
3 304 1885 305
3 305 1886 306
3 306 1887 307
3 307 1888 308
3 308 1889 309
3 309 1890 310
3 310 1891 311
3 311 1892 312
3 312 1893 313
3 313 1894 314
3 314 1895 315
3 315 1896 316
3 316 1897 317
3 317 1898 318
3 318 1899 319
3 319 1900 320
3 320 1901 321
3 321 1902 322
3 322 1903 323
3 323 1904 324
3 324 1905 325
3 325 1906 326
3 326 1907 327
3 327 1908 328
3 328 1909 329
3 329 1910 330
3 330 1911 331
3 331 1912 332
3 332 1913 333
3 333 1914 334
3 334 1915 335
3 335 1916 336
3 336 1917 337
3 337 1918 338
3 338 1919 339
3 339 1920 340
3 340 1921 341
4 341 1922 1923 342
3 342 1924 343
3 343 1925 344
3 344 1926 345
3 345 1927 346
3 346 1928 347
3 347 1929 348
3 348 1930 349
3 349 1931 350
3 350 1932 351
3 351 1933 352
3 352 1934 353
3 353 1935 354
3 354 1936 355
3 355 1937 356
3 356 1938 357
3 357 1939 358
3 358 1940 359
3 359 1941 360
3 360 1942 361
3 361 1943 362
3 362 1944 363
3 363 1945 364
3 364 1946 365
3 365 1947 366
3 366 1948 367
3 367 1949 368
3 368 1950 369
3 369 1951 370
3 370 1952 371
3 371 1953 372
3 372 1954 373
3 373 1955 374
3 374 1956 375
4 375 1957 1958 376
3 376 1959 377
3 377 1960 378
3 378 1961 379
3 379 1962 380
3 380 1963 381
3 381 1964 382
3 382 1965 383
3 383 1966 384
3 384 1967 385
3 385 1968 386
3 386 1969 387
3 387 1970 388
3 388 1971 389
3 389 1972 390
4 390 1973 1974 391
3 391 1975 392
3 392 1976 393
3 393 1977 394
3 394 1978 395
3 395 1979 396
3 396 1980 397
4 397 1981 1982 398
3 398 1983 399
3 399 1984 400
3 402 1985 403
3 402 1986 784
3 403 1987 404
3 404 1988 405
4 405 1989 1990 406
3 406 1991 407
3 407 1992 408
3 408 1993 409
3 409 1994 410
4 410 1995 1996 411
3 411 1997 412
3 412 1998 413
3 413 1999 414
3 414 2000 415
3 415 2001 416
3 416 2002 417
3 417 2003 418
4 418 2004 2005 419
3 419 2006 420
3 420 2007 421
3 421 2008 422
3 422 2009 423
3 423 2010 424
3 424 2011 425
3 425 2012 426
3 426 2013 427
3 427 2014 428
3 428 2015 429
3 429 2016 430
3 430 2017 431
3 431 2018 432
3 432 2019 433
3 433 2020 434
3 434 2021 435
3 435 2022 436
3 436 2023 437
3 437 2024 438
4 438 2025 2026 439
3 439 2027 440
3 440 2028 441
3 441 2029 442
3 442 2030 443
3 443 2031 444
3 444 2032 445
3 445 2033 446
3 446 2034 447
3 447 2035 448
3 448 2036 449
4 449 2037 2038 450
3 450 2039 451
3 451 2040 452
3 452 2041 453
3 453 2042 454
3 454 2043 455
3 455 2044 456
3 456 2045 457
3 457 2046 458
3 458 2047 459
3 459 2048 460
3 460 2049 461
4 461 2050 2051 462
3 462 2052 463
3 463 2053 464
3 464 2054 465
3 465 2055 466
3 466 2056 467
3 467 2057 468
3 468 2058 469
3 469 2059 470
4 470 2060 2061 471
3 471 2062 472
3 472 2063 473
3 473 2064 474
3 474 2065 475
3 475 2066 476
3 476 2067 477
3 477 2068 478
4 478 2069 2070 479
3 479 2071 480
3 480 2072 481
3 481 2073 482
3 482 2074 483
3 483 2075 484
3 484 2076 485
3 485 2077 486
3 486 2078 487
3 487 2079 488
4 488 2080 2081 489
3 489 2082 490
3 490 2083 491
3 491 2084 492
3 492 2085 493
3 493 2086 494
3 494 2087 495
3 495 2088 496
3 496 2089 497
3 497 2090 498
4 498 2091 2092 499
3 499 2093 500
3 500 2094 501
3 501 2095 502
3 502 2096 503
3 503 2097 504
3 504 2098 505
3 505 2099 506
3 506 2100 507
3 507 2101 508
4 508 2102 2103 509
3 509 2104 510
3 510 2105 511
3 511 2106 512
3 512 2107 513
3 513 2108 514
3 514 2109 515
3 515 2110 516
3 516 2111 517
3 517 2112 518
3 518 2113 519
3 519 2114 520
3 520 2115 521
3 521 2116 522
3 522 2117 523
3 523 2118 524
3 524 2119 525
3 525 2120 526
3 526 2121 527
3 527 2122 528
3 528 2123 529
3 529 2124 530
3 530 2125 531
4 531 2126 2127 532
3 532 2128 533
3 533 2129 534
3 534 2130 535
3 535 2131 536
3 536 2132 537
3 537 2133 538
4 538 2134 2135 539
3 539 2136 540
3 540 2137 541
3 541 2138 542
3 542 2139 543
3 543 2140 544
3 544 2141 545
3 545 2142 546
3 546 2143 547
3 547 2144 548
4 548 2145 2146 549
3 549 2147 550
3 550 2148 551
3 551 2149 552
3 552 2150 553
3 553 2151 554
3 554 2152 555
3 555 2153 556
3 556 2154 557
3 557 2155 558
3 558 2156 559
3 559 2157 560
3 560 2158 561
3 561 2159 562
3 562 2160 563
3 563 2161 564
3 564 2162 565
3 565 2163 566
3 566 2164 567
3 567 2165 568
3 568 2166 569
3 569 2167 570
3 570 2168 571
3 571 2169 572
3 572 2170 573
3 573 2171 574
3 574 2172 575
3 575 2173 576
3 576 2174 577
3 577 2175 578
3 578 2176 579
3 579 2177 580
3 580 2178 581
3 581 2179 582
4 582 2180 2181 583
3 583 2182 584
3 584 2183 1558
3 585 2184 586
3 585 2185 1559
3 586 2186 587
3 587 2187 588
3 588 2188 589
3 589 2189 590
3 590 2190 591
3 591 2191 592
3 592 2192 593
3 593 2193 594
3 594 2194 595
3 595 2195 596
3 596 2196 597
3 597 2197 598
3 598 2198 599
3 599 2199 600
3 600 2200 601
3 601 2201 602
3 602 2202 603
3 603 2203 604
3 604 2204 605
3 605 2205 606
3 606 2206 607
3 607 2207 608
3 608 2208 609
3 609 2209 610
3 610 2210 611
3 611 2211 612
3 612 2212 613
3 613 2213 614
3 614 2214 615
3 615 2215 616
3 616 2216 617
3 617 2217 618
3 618 2218 619
3 619 2219 620
3 620 2220 621
3 621 2221 622
3 622 2222 623
3 623 2223 624
3 624 2224 625
3 625 2225 626
3 626 2226 627
3 627 2227 628
3 628 2228 629
4 629 2229 2230 630
3 630 2231 631
3 631 2232 632
3 632 2233 633
3 633 2234 634
3 634 2235 635
3 635 2236 636
4 636 2237 2238 637
3 637 2239 638
3 638 2240 639
3 639 2241 640
3 640 2242 641
3 641 2243 642
3 642 2244 643
4 643 2245 2246 644
3 644 2247 645
3 645 2248 646
3 646 2249 647
3 647 2250 648
4 648 2251 2252 649
3 649 2253 650
3 650 2254 651
3 651 2255 652
3 652 2256 653
3 653 2257 654
3 654 2258 655
3 655 2259 656
3 656 2260 657
3 657 2261 658
3 658 2262 659
3 659 2263 660
4 660 2264 2265 661
3 661 2266 662
3 662 2267 663
3 663 2268 664
3 664 2269 665
3 665 2270 666
3 666 2271 667
3 667 2272 668
3 668 2273 669
3 669 2274 670
3 670 2275 671
4 671 2276 2277 672
3 672 2278 673
3 673 2279 674
3 674 2280 675
3 675 2281 676
3 676 2282 677
3 677 2283 678
3 678 2284 679
3 679 2285 680
3 680 2286 681
3 681 2287 682
3 682 2288 683
4 683 2289 2290 684
3 684 2291 685
3 685 2292 686
3 686 2293 687
3 687 2294 688
3 688 2295 689
3 689 2296 690
3 690 2297 691
3 691 2298 692
3 692 2299 693
3 693 2300 694
4 694 2301 2302 695
3 695 2303 696
3 696 2304 697
3 697 2305 698
3 698 2306 699
3 699 2307 700
3 700 2308 701
3 701 2309 702
3 702 2310 703
3 703 2311 704
3 704 2312 705
3 705 2313 706
3 706 2314 707
3 707 2315 708
3 708 2316 709
3 709 2317 710
3 710 2318 711
3 711 2319 712
3 712 2320 713
3 713 2321 714
3 714 2322 715
3 715 2323 716
4 716 2324 2325 717
3 717 2326 718
3 718 2327 719
3 719 2328 720
3 720 2329 721
3 721 2330 722
3 722 2331 723
3 723 2332 724
3 724 2333 725
3 725 2334 726
3 726 2335 727
3 727 2336 728
4 728 2337 2338 729
3 729 2339 730
3 730 2340 731
3 731 2341 732
3 732 2342 733
3 733 2343 734
3 734 2344 735
3 735 2345 736
3 736 2346 737
3 737 2347 738
3 738 2348 739
4 739 2349 2350 740
3 740 2351 741
4 741 2352 2353 742
3 742 2354 743
4 743 2355 2356 744
3 744 2357 745
3 745 2358 746
3 746 2359 747
3 747 2360 748
3 748 2361 749
3 749 2362 750
3 750 2363 751
3 751 2364 752
3 752 2365 753
3 753 2366 754
3 754 2367 755
3 755 2368 756
3 756 2369 757
3 757 2370 758
3 758 2371 759
3 759 2372 760
3 760 2373 761
3 761 2374 762
3 762 2375 763
3 763 2376 764
3 764 2377 765
3 765 2378 766
3 766 2379 767
3 767 2380 768
3 768 2381 769
3 769 2382 770
3 770 2383 771
4 771 2384 2385 772
3 772 2386 773
3 773 2387 774
3 774 2388 775
3 775 2389 776
3 776 2390 777
4 777 2391 2392 778
3 778 2393 779
3 779 2394 780
3 780 2395 781
3 781 2396 782
3 782 2397 783
3 783 2398 784
3 785 2399 786
4 785 2400 2401 1197
3 786 2402 787
3 787 2403 788
4 788 2404 2405 789
3 789 2406 790
3 790 2407 791
3 791 2408 792
3 792 2409 793
3 793 2410 794
3 794 2411 795
3 795 2412 796
3 796 2413 797
3 797 2414 798
3 798 2415 799
3 799 2416 800
3 800 2417 801
3 801 2418 802
3 802 2419 803
3 803 2420 804
3 804 2421 805
3 805 2422 806
3 806 2423 807
3 807 2424 808
3 808 2425 809
3 809 2426 810
3 810 2427 811
3 811 2428 812
3 812 2429 813
3 813 2430 814
3 814 2431 815
3 815 2432 816
3 816 2433 817
3 817 2434 818
3 818 2435 819
3 819 2436 820
3 820 2437 821
3 821 2438 822
3 822 2439 823
3 823 2440 824
3 824 2441 825
3 825 2442 826
3 826 2443 827
3 827 2444 828
3 828 2445 829
3 829 2446 830
3 830 2447 831
3 831 2448 832
3 832 2449 833
3 833 2450 834
3 834 2451 835
3 835 2452 836
3 836 2453 837
3 837 2454 838
3 838 2455 839
3 839 2456 840
3 840 2457 841
3 841 2458 842
3 842 2459 843
3 843 2460 844
3 844 2461 845
3 845 2462 846
3 846 2463 847
3 847 2464 848
3 848 2465 849
3 849 2466 850
3 850 2467 851
4 851 2468 2469 852
3 852 2470 853
3 853 2471 854
3 854 2472 855
3 855 2473 856
3 856 2474 857
3 857 2475 858
3 858 2476 859
3 859 2477 860
3 860 2478 861
3 861 2479 862
3 862 2480 863
3 863 2481 864
3 864 2482 865
3 865 2483 866
3 866 2484 867
3 867 2485 868
3 868 2486 869
3 869 2487 870
3 870 2488 871
3 871 2489 872
3 872 2490 873
3 873 2491 874
3 874 2492 875
3 875 2493 876
3 876 2494 877
3 877 2495 878
3 878 2496 879
3 879 2497 880
3 880 2498 881
3 881 2499 882
3 882 2500 883
3 883 2501 884
3 884 2502 885
3 885 2503 886
3 886 2504 887
3 887 2505 888
3 888 2506 889
3 889 2507 890
3 890 2508 891
3 891 2509 892
3 892 2510 893
3 893 2511 894
3 894 2512 895
3 895 2513 896
3 896 2514 897
3 897 2515 898
3 898 2516 899
3 899 2517 900
3 900 2518 901
3 901 2519 902
3 902 2520 903
3 903 2521 904
3 904 2522 905
3 905 2523 906
3 906 2524 907
3 907 2525 908
3 908 2526 909
3 909 2527 910
3 910 2528 911
3 911 2529 912
3 912 2530 913
3 913 2531 914
3 914 2532 915
3 915 2533 916
3 916 2534 917
3 917 2535 918
3 918 2536 919
3 919 2537 920
3 920 2538 921
3 921 2539 922
3 922 2540 923
3 923 2541 924
3 924 2542 925
3 925 2543 926
3 926 2544 927
3 927 2545 928
3 928 2546 929
3 929 2547 930
3 930 2548 931
3 931 2549 932
3 932 2550 933
3 933 2551 934
3 934 2552 935
3 935 2553 936
3 936 2554 937
3 937 2555 938
3 938 2556 939
3 939 2557 940
3 940 2558 941
3 941 2559 942
3 942 2560 943
3 943 2561 944
3 944 2562 945
3 945 2563 946
3 946 2564 947
3 947 2565 948
3 948 2566 949
3 949 2567 950
3 950 2568 951
3 951 2569 952
3 952 2570 953
3 953 2571 954
3 954 2572 955
3 955 2573 956
3 956 2574 957
3 957 2575 958
3 958 2576 959
3 959 2577 960
3 960 2578 961
3 961 2579 962
3 962 2580 963
3 963 2581 964
3 964 2582 965
3 965 2583 966
3 966 2584 967
3 967 2585 968
4 968 2586 2587 969
3 969 2588 970
3 970 2589 971
3 971 2590 972
3 972 2591 973
3 973 2592 974
3 974 2593 975
3 975 2594 976
3 976 2595 977
3 977 2596 978
3 978 2597 979
3 979 2598 980
3 980 2599 981
3 981 2600 982
3 982 2601 983
3 983 2602 984
3 984 2603 985
3 985 2604 986
3 986 2605 987
3 987 2606 988
3 988 2607 989
4 989 2608 2609 990
4 990 2610 2611 991
3 991 2612 992
3 992 2613 993
3 993 2614 994
3 994 2615 995
3 995 2616 996
3 996 2617 997
3 997 2618 998
3 998 2619 999
3 999 2620 1000
3 1000 2621 1001
3 1001 2622 1002
3 1002 2623 1003
3 1003 2624 1004
3 1004 2625 1005
3 1005 2626 1560
3 1006 2627 1007
3 1006 2628 1561
3 1007 2629 1008
3 1008 2630 1009
3 1009 2631 1010
3 1010 2632 1011
3 1011 2633 1012
4 1012 2634 2635 1013
3 1013 2636 1014
3 1014 2637 1015
3 1015 2638 1016
3 1016 2639 1017
4 1017 2640 2641 1018
3 1018 2642 1019
4 1019 2643 2644 1020
3 1020 2645 1021
5 1021 2646 2647 2648 1022
3 1022 2649 1023
3 1023 2650 1024
3 1024 2651 1025
3 1025 2652 1026
3 1026 2653 1027
4 1027 2654 2655 1028
3 1028 2656 1029
3 1029 2657 1030
4 1030 2658 2659 1031
3 1031 2660 1032
3 1032 2661 1033
3 1033 2662 1034
3 1034 2663 1035
3 1035 2664 1036
3 1036 2665 1037
3 1037 2666 1038
3 1038 2667 1039
3 1039 2668 1040
3 1040 2669 1041
3 1041 2670 1042
3 1042 2671 1043
3 1043 2672 1044
3 1044 2673 1045
3 1045 2674 1046
3 1046 2675 1047
3 1047 2676 1048
3 1048 2677 1049
3 1049 2678 1050
3 1050 2679 1051
3 1051 2680 1052
3 1052 2681 1053
3 1053 2682 1054
3 1054 2683 1055
3 1055 2684 1056
3 1056 2685 1057
3 1057 2686 1058
3 1058 2687 1059
3 1059 2688 1060
3 1060 2689 1061
3 1061 2690 1062
3 1062 2691 1063
3 1063 2692 1064
3 1064 2693 1065
3 1065 2694 1066
3 1066 2695 1067
3 1067 2696 1068
3 1068 2697 1069
3 1069 2698 1070
3 1070 2699 1071
3 1071 2700 1072
3 1072 2701 1073
3 1073 2702 1074
3 1074 2703 1075
3 1075 2704 1076
3 1076 2705 1077
3 1077 2706 1078
3 1078 2707 1079
3 1079 2708 1080
3 1080 2709 1081
3 1081 2710 1082
3 1082 2711 1083
3 1083 2712 1084
3 1084 2713 1085
3 1085 2714 1086
3 1086 2715 1087
3 1087 2716 1088
3 1088 2717 1089
3 1089 2718 1090
3 1090 2719 1091
3 1091 2720 1092
3 1092 2721 1093
3 1093 2722 1094
3 1094 2723 1095
3 1095 2724 1096
3 1096 2725 1097
3 1097 2726 1098
3 1098 2727 1099
3 1099 2728 1100
3 1100 2729 1101
3 1101 2730 1102
3 1102 2731 1103
3 1103 2732 1104
3 1104 2733 1105
3 1105 2734 1106
3 1106 2735 1107
3 1107 2736 1108
3 1108 2737 1109
3 1109 2738 1110
3 1110 2739 1111
3 1111 2740 1112
3 1112 2741 1113
3 1113 2742 1114
3 1114 2743 1115
3 1115 2744 1116
3 1116 2745 1117
3 1117 2746 1118
3 1118 2747 1119
3 1119 2748 1120
3 1120 2749 1121
3 1121 2750 1122
3 1122 2751 1123
3 1123 2752 1124
3 1124 2753 1125
3 1125 2754 1126
3 1126 2755 1127
3 1127 2756 1128
3 1128 2757 1129
3 1129 2758 1130
3 1130 2759 1131
3 1131 2760 1132
3 1132 2761 1133
3 1133 2762 1134
3 1134 2763 1135
3 1135 2764 1136
3 1136 2765 1137
3 1137 2766 1138
3 1138 2767 1139
3 1139 2768 1140
3 1140 2769 1141
3 1141 2770 1142
3 1142 2771 1143
3 1143 2772 1144
3 1144 2773 1145
3 1145 2774 1146
3 1146 2775 1147
3 1147 2776 1148
3 1148 2777 1149
3 1149 2778 1150
3 1150 2779 1151
3 1151 2780 1152
3 1152 2781 1153
3 1153 2782 1154
3 1154 2783 1155
3 1155 2784 1156
3 1156 2785 1157
3 1157 2786 1158
3 1158 2787 1159
3 1159 2788 1160
3 1160 2789 1161
3 1161 2790 1162
3 1162 2791 1163
4 1163 2792 2793 1164
3 1164 2794 1165
3 1165 2795 1166
3 1166 2796 1167
3 1167 2797 1168
3 1168 2798 1169
3 1169 2799 1170
3 1170 2800 1171
3 1171 2801 1172
3 1172 2802 1173
3 1173 2803 1174
3 1174 2804 1175
3 1175 2805 1176
3 1176 2806 1177
3 1177 2807 1178
3 1178 2808 1179
3 1179 2809 1180
3 1180 2810 1181
3 1181 2811 1182
3 1182 2812 1183
3 1183 2813 1184
3 1184 2814 1185
3 1185 2815 1186
3 1186 2816 1187
4 1187 2817 2818 1188
3 1188 2819 1189
3 1189 2820 1190
3 1190 2821 1191
3 1191 2822 1192
3 1192 2823 1193
3 1193 2824 1194
3 1194 2825 1195
3 1195 2826 1196
4 1196 2827 2828 1197
3 1199 2829 1200
3 1199 2830 1555
3 1200 2831 1201
3 1201 2832 1202
3 1202 2833 1203
3 1203 2834 1204
3 1204 2835 1205
4 1205 2836 2837 1206
4 1206 2838 2839 1207
4 1207 2840 2841 1208
3 1208 2842 1209
3 1209 2843 1210
3 1210 2844 1211
3 1211 2845 1212
3 1212 2846 1213
3 1213 2847 1214
3 1214 2848 1215
3 1215 2849 1216
3 1216 2850 1217
3 1217 2851 1218
3 1218 2852 1219
3 1219 2853 1220
3 1220 2854 1221
3 1221 2855 1222
3 1222 2856 1223
3 1223 2857 1224
3 1224 2858 1225
3 1225 2859 1226
3 1226 2860 1227
3 1227 2861 1228
3 1228 2862 1229
3 1229 2863 1230
3 1230 2864 1231
3 1231 2865 1232
3 1232 2866 1233
3 1233 2867 1234
3 1234 2868 1235
3 1235 2869 1236
3 1236 2870 1237
3 1237 2871 1238
3 1238 2872 1239
3 1239 2873 1240
3 1240 2874 1241
3 1241 2875 1242
3 1242 2876 1243
3 1243 2877 1244
3 1244 2878 1245
3 1245 2879 1246
3 1246 2880 1247
3 1247 2881 1248
3 1248 2882 1249
3 1249 2883 1250
3 1250 2884 1251
3 1251 2885 1252
3 1252 2886 1253
3 1253 2887 1254
3 1254 2888 1255
3 1255 2889 1256
3 1256 2890 1257
3 1257 2891 1258
3 1258 2892 1259
3 1259 2893 1260
4 1260 2894 2895 1261
3 1261 2896 1262
3 1262 2897 1263
3 1263 2898 1264
3 1264 2899 1265
3 1265 2900 1266
3 1266 2901 1267
3 1267 2902 1268
3 1268 2903 1269
3 1269 2904 1270
3 1270 2905 1271
3 1271 2906 1272
3 1272 2907 1273
3 1273 2908 1274
3 1274 2909 1275
3 1275 2910 1276
3 1276 2911 1277
3 1277 2912 1278
3 1278 2913 1279
3 1279 2914 1280
3 1280 2915 1281
3 1281 2916 1282
3 1282 2917 1283
3 1283 2918 1284
3 1284 2919 1285
3 1285 2920 1286
3 1286 2921 1287
3 1287 2922 1288
3 1288 2923 1289
3 1289 2924 1290
3 1290 2925 1291
3 1291 2926 1292
3 1292 2927 1293
3 1293 2928 1294
3 1294 2929 1295
3 1295 2930 1296
3 1296 2931 1297
3 1297 2932 1298
3 1298 2933 1299
3 1299 2934 1300
3 1300 2935 1301
3 1301 2936 1302
3 1302 2937 1303
3 1303 2938 1304
3 1304 2939 1305
3 1305 2940 1306
3 1306 2941 1307
3 1307 2942 1308
3 1308 2943 1309
3 1309 2944 1310
4 1310 2945 2946 1311
3 1311 2947 1312
3 1312 2948 1313
3 1313 2949 1314
3 1314 2950 1315
4 1315 2951 2952 1316
3 1316 2953 1317
3 1317 2954 1318
3 1318 2955 1319
3 1319 2956 1320
3 1320 2957 1321
3 1321 2958 1322
3 1322 2959 1323
3 1323 2960 1324
3 1324 2961 1325
4 1325 2962 2963 1326
3 1326 2964 1327
3 1327 2965 1328
3 1328 2966 1329
3 1329 2967 1330
3 1330 2968 1331
4 1331 2969 2970 1332
3 1332 2971 1333
3 1333 2972 1334
3 1334 2973 1335
3 1335 2974 1336
3 1336 2975 1337
3 1337 2976 1338
3 1338 2977 1339
3 1339 2978 1340
3 1340 2979 1341
3 1341 2980 1342
4 1342 2981 2982 1343
3 1343 2983 1344
3 1344 2984 1345
3 1345 2985 1346
3 1346 2986 1347
3 1347 2987 1348
3 1348 2988 1349
4 1349 2989 2990 1350
3 1350 2991 1351
3 1351 2992 1352
3 1352 2993 1353
3 1353 2994 1354
3 1354 2995 1355
3 1355 2996 1356
3 1356 2997 1357
3 1357 2998 1358
3 1358 2999 1359
3 1359 3000 1360
3 1360 3001 1361
3 1361 3002 1362
3 1362 3003 1363
3 1363 3004 1364
4 1364 3005 3006 1365
3 1365 3007 1366
3 1366 3008 1367
3 1367 3009 1562
3 1368 3010 1369
3 1368 3011 1563
3 1369 3012 1370
3 1370 3013 1371
4 1371 3014 3015 1372
3 1372 3016 1373
3 1373 3017 1374
3 1374 3018 1375
3 1375 3019 1376
3 1376 3020 1377
3 1377 3021 1378
3 1378 3022 1379
3 1379 3023 1380
3 1380 3024 1381
3 1381 3025 1382
3 1382 3026 1383
3 1383 3027 1384
3 1384 3028 1385
3 1385 3029 1386
3 1386 3030 1387
4 1387 3031 3032 1388
3 1388 3033 1389
3 1389 3034 1390
3 1390 3035 1391
4 1391 3036 3037 1392
3 1392 3038 1393
3 1393 3039 1394
3 1394 3040 1395
3 1395 3041 1396
3 1396 3042 1397
3 1397 3043 1398
3 1398 3044 1399
3 1399 3045 1400
3 1400 3046 1401
3 1401 3047 1402
3 1402 3048 1403
3 1403 3049 1404
3 1404 3050 1405
3 1405 3051 1406
3 1406 3052 1407
3 1407 3053 1408
3 1408 3054 1409
3 1409 3055 1410
3 1410 3056 1411
3 1411 3057 1412
3 1412 3058 1413
4 1413 3059 3060 1414
3 1414 3061 1415
4 1415 3062 3063 1416
3 1416 3064 1417
4 1417 3065 3066 1418
3 1418 3067 1419
3 1419 3068 1420
3 1420 3069 1421
3 1421 3070 1422
3 1422 3071 1423
3 1423 3072 1424
3 1424 3073 1425
3 1425 3074 1426
3 1426 3075 1427
3 1427 3076 1428
3 1428 3077 1429
3 1429 3078 1430
3 1430 3079 1431
3 1431 3080 1432
3 1432 3081 1433
3 1433 3082 1434
3 1434 3083 1435
3 1435 3084 1436
3 1436 3085 1437
3 1437 3086 1438
3 1438 3087 1439
3 1439 3088 1440
3 1440 3089 1441
3 1441 3090 1442
3 1442 3091 1443
3 1443 3092 1444
3 1444 3093 1445
3 1445 3094 1446
3 1446 3095 1447
3 1447 3096 1448
3 1448 3097 1449
3 1449 3098 1450
3 1450 3099 1451
3 1451 3100 1452
3 1452 3101 1453
3 1453 3102 1454
3 1454 3103 1455
3 1455 3104 1456
4 1456 3105 3106 1457
3 1457 3107 1458
3 1458 3108 1459
3 1459 3109 1460
3 1460 3110 1461
3 1461 3111 1462
3 1462 3112 1463
3 1463 3113 1464
3 1464 3114 1465
3 1465 3115 1466
3 1466 3116 1467
4 1467 3117 3118 1468
3 1468 3119 1469
3 1469 3120 1470
3 1470 3121 1471
3 1471 3122 1472
3 1472 3123 1473
3 1473 3124 1474
3 1474 3125 1475
3 1475 3126 1476
3 1476 3127 1477
3 1477 3128 1478
3 1478 3129 1479
3 1479 3130 1480
3 1480 3131 1481
3 1481 3132 1482
3 1482 3133 1483
3 1483 3134 1484
3 1484 3135 1485
3 1485 3136 1486
3 1486 3137 1487
3 1487 3138 1488
3 1488 3139 1489
3 1489 3140 1490
3 1490 3141 1491
4 1491 3142 3143 1492
3 1492 3144 1493
3 1493 3145 1494
3 1494 3146 1495
3 1495 3147 1496
3 1496 3148 1497
3 1497 3149 1498
3 1498 3150 1499
3 1499 3151 1500
3 1500 3152 1501
3 1501 3153 1502
3 1502 3154 1503
3 1503 3155 1504
3 1504 3156 1505
3 1505 3157 1506
3 1506 3158 1507
3 1507 3159 1508
3 1508 3160 1509
3 1509 3161 1510
3 1510 3162 1511
3 1511 3163 1512
3 1512 3164 1513
3 1513 3165 1514
3 1514 3166 1515
3 1515 3167 1516
3 1516 3168 1517
3 1517 3169 1518
3 1518 3170 1519
4 1519 3171 3172 1520
3 1520 3173 1521
4 1521 3174 3175 1522
3 1522 3176 1523
3 1523 3177 1524
3 1524 3178 1525
3 1525 3179 1526
3 1526 3180 1527
3 1527 3181 1528
3 1528 3182 1529
3 1529 3183 1530
3 1530 3184 1531
3 1531 3185 1532
3 1532 3186 1533
3 1533 3187 1534
3 1534 3188 1535
3 1535 3189 1536
3 1536 3190 1537
3 1537 3191 1538
3 1538 3192 1539
3 1539 3193 1540
3 1540 3194 1541
3 1541 3195 1542
3 1542 3196 1543
3 1543 3197 1544
4 1544 3198 3199 1545
3 1545 3200 1546
3 1546 3201 1547
3 1547 3202 1548
3 1548 3203 1549
3 1549 3204 1550
3 1550 3205 1551
4 1551 3206 3207 1552
3 1552 3208 1553
3 1553 3209 1554
3 1554 3210 1555

CELL_TYPES 1552
4
4
4
4
4
4
4
4
4
4
4
4
4
4
4
4
4
4
4
4
4
4
4
4
4
4
4
4
4
4
4
4
4
4
4
4
4
4
4
4
4
4
4
4
4
4
4
4
4
4
4
4
4
4
4
4
4
4
4
4
4
4
4
4
4
4
4
4
4
4
4
4
4
4
4
4
4
4
4
4
4
4
4
4
4
4
4
4
4
4
4
4
4
4
4
4
4
4
4
4
4
4
4
4
4
4
4
4
4
4
4
4
4
4
4
4
4
4
4
4
4
4
4
4
4
4
4
4
4
4
4
4
4
4
4
4
4
4
4
4
4
4
4
4
4
4
4
4
4
4
4
4
4
4
4
4
4
4
4
4
4
4
4
4
4
4
4
4
4
4
4
4
4
4
4
4
4
4
4
4
4
4
4
4
4
4
4
4
4
4
4
4
4
4
4
4
4
4
4
4
4
4
4
4
4
4
4
4
4
4
4
4
4
4
4
4
4
4
4
4
4
4
4
4
4
4
4
4
4
4
4
4
4
4
4
4
4
4
4
4
4
4
4
4
4
4
4
4
4
4
4
4
4
4
4
4
4
4
4
4
4
4
4
4
4
4
4
4
4
4
4
4
4
4
4
4
4
4
4
4
4
4
4
4
4
4
4
4
4
4
4
4
4
4
4
4
4
4
4
4
4
4
4
4
4
4
4
4
4
4
4
4
4
4
4
4
4
4
4
4
4
4
4
4
4
4
4
4
4
4
4
4
4
4
4
4
4
4
4
4
4
4
4
4
4
4
4
4
4
4
4
4
4
4
4
4
4
4
4
4
4
4
4
4
4
4
4
4
4
4
4
4
4
4
4
4
4
4
4
4
4
4
4
4
4
4
4
4
4
4
4
4
4
4
4
4
4
4
4
4
4
4
4
4
4
4
4
4
4
4
4
4
4
4
4
4
4
4
4
4
4
4
4
4
4
4
4
4
4
4
4
4
4
4
4
4
4
4
4
4
4
4
4
4
4
4
4
4
4
4
4
4
4
4
4
4
4
4
4
4
4
4
4
4
4
4
4
4
4
4
4
4
4
4
4
4
4
4
4
4
4
4
4
4
4
4
4
4
4
4
4
4
4
4
4
4
4
4
4
4
4
4
4
4
4
4
4
4
4
4
4
4
4
4
4
4
4
4
4
4
4
4
4
4
4
4
4
4
4
4
4
4
4
4
4
4
4
4
4
4
4
4
4
4
4
4
4
4
4
4
4
4
4
4
4
4
4
4
4
4
4
4
4
4
4
4
4
4
4
4
4
4
4
4
4
4
4
4
4
4
4
4
4
4
4
4
4
4
4
4
4
4
4
4
4
4
4
4
4
4
4
4
4
4
4
4
4
4
4
4
4
4
4
4
4
4
4
4
4
4
4
4
4
4
4
4
4
4
4
4
4
4
4
4
4
4
4
4
4
4
4
4
4
4
4
4
4
4
4
4
4
4
4
4
4
4
4
4
4
4
4
4
4
4
4
4
4
4
4
4
4
4
4
4
4
4
4
4
4
4
4
4
4
4
4
4
4
4
4
4
4
4
4
4
4
4
4
4
4
4
4
4
4
4
4
4
4
4
4
4
4
4
4
4
4
4
4
4
4
4
4
4
4
4
4
4
4
4
4
4
4
4
4
4
4
4
4
4
4
4
4
4
4
4
4
4
4
4
4
4
4
4
4
4
4
4
4
4
4
4
4
4
4
4
4
4
4
4
4
4
4
4
4
4
4
4
4
4
4
4
4
4
4
4
4
4
4
4
4
4
4
4
4
4
4
4
4
4
4
4
4
4
4
4
4
4
4
4
4
4
4
4
4
4
4
4
4
4
4
4
4
4
4
4
4
4
4
4
4
4
4
4
4
4
4
4
4
4
4
4
4
4
4
4
4
4
4
4
4
4
4
4
4
4
4
4
4
4
4
4
4
4
4
4
4
4
4
4
4
4
4
4
4
4
4
4
4
4
4
4
4
4
4
4
4
4
4
4
4
4
4
4
4
4
4
4
4
4
4
4
4
4
4
4
4
4
4
4
4
4
4
4
4
4
4
4
4
4
4
4
4
4
4
4
4
4
4
4
4
4
4
4
4
4
4
4
4
4
4
4
4
4
4
4
4
4
4
4
4
4
4
4
4
4
4
4
4
4
4
4
4
4
4
4
4
4
4
4
4
4
4
4
4
4
4
4
4
4
4
4
4
4
4
4
4
4
4
4
4
4
4
4
4
4
4
4
4
4
4
4
4
4
4
4
4
4
4
4
4
4
4
4
4
4
4
4
4
4
4
4
4
4
4
4
4
4
4
4
4
4
4
4
4
4
4
4
4
4
4
4
4
4
4
4
4
4
4
4
4
4
4
4
4
4
4
4
4
4
4
4
4
4
4
4
4
4
4
4
4
4
4
4
4
4
4
4
4
4
4
4
4
4
4
4
4
4
4
4
4
4
4
4
4
4
4
4
4
4
4
4
4
4
4
4
4
4
4
4
4
4
4
4
4
4
4
4
4
4
4
4
4
4
4
4
4
4
4
4
4
4
4
4
4
4
4
4
4
4
4
4
4
4
4
4
4
4
4
4
4
4
4
4
4
4
4
4
4
4
4
4
4
4
4
4
4
4
4
4
4
4
4
4
4
4
4
4
4
4
4
4
4
4
4
4
4
4
4
4
4
4
4
4
4
4
4
4
4
4
4
4
4
4
4
4
4
4
4
4
4
4
4
4
4
4
4
4
4
4
4
4
4
4
4
4
4
4
4
4
4
4
4
4
4
4
4
4
4
4
4
4
4
4
4
4
4
4
4
4
4
4
4
4
4
4
4
4
4
4
4
4
4
4
4
4
4
4
4
4
4
4
4
4
4
4
4
4
4
4
4
4
4
4
4
4
4
4
4
4
4
4
4
4
4
4
4
4
4
4
4
4
4
4
4
4
4
4
4
4
4
4
4
4
4
4
4
4
4
4
4
4
4
4
4
4
4
4
4
4
4
4
4
4
4
4
4
4
4
4
4
4
4
4
4
4
4
4
4
4
4
4
4
4
4
4
4
4
4
4
4
4
4
4
4
4
4
4
4
4
4
4
4
4
4
4
4
4
4
4
4
4
4
4
4
4
4
4
4
4
4
4
4
4
4
4
4
4
4
4
4
4
4
4
4
4
4
4
4
4
4
4
4
4
4
4
4
4
4
4
4
4
4
4
4
4
4
4
4
4
4
4
4
4
4
4
4
4
4
4
4
4
4
4
4
4
4
4
4
4
4
4
4
4
4
4
4
4
4
4
4
4
4
4
4
4
4
4
4
4
4
4
4
4
4
4
4
4
4
4
4
4
4
4
4
4
4
4
4
4
4
4
4
4
4
4
4
4
4
4
4
4
4
4
4
4
4
4
4
4
4
4
4
4
4
4
4
4
4
4
4
4
4
4
4
4
4
4
4
4
4
4
4
4
4
4
4
4
4
4
4
4
4
4
4
4
4
4
4
4
4
4
4
4

POINT_DATA 3211
VECTORS PK_force double
0.000000000000000e+00 0.000000000000000e+00 0.000000000000000e+00
0.000000000000000e+00 0.000000000000000e+00 0.000000000000000e+00
0.000000000000000e+00 0.000000000000000e+00 0.000000000000000e+00
0.000000000000000e+00 0.000000000000000e+00 0.000000000000000e+00
0.000000000000000e+00 0.000000000000000e+00 0.000000000000000e+00
0.000000000000000e+00 0.000000000000000e+00 0.000000000000000e+00
0.000000000000000e+00 0.000000000000000e+00 0.000000000000000e+00
0.000000000000000e+00 0.000000000000000e+00 0.000000000000000e+00
0.000000000000000e+00 0.000000000000000e+00 0.000000000000000e+00
0.000000000000000e+00 0.000000000000000e+00 0.000000000000000e+00
0.000000000000000e+00 0.000000000000000e+00 0.000000000000000e+00
0.000000000000000e+00 0.000000000000000e+00 0.000000000000000e+00
0.000000000000000e+00 0.000000000000000e+00 0.000000000000000e+00
0.000000000000000e+00 0.000000000000000e+00 0.000000000000000e+00
0.000000000000000e+00 0.000000000000000e+00 0.000000000000000e+00
0.000000000000000e+00 0.000000000000000e+00 0.000000000000000e+00
0.000000000000000e+00 0.000000000000000e+00 0.000000000000000e+00
0.000000000000000e+00 0.000000000000000e+00 0.000000000000000e+00
0.000000000000000e+00 0.000000000000000e+00 0.000000000000000e+00
0.000000000000000e+00 0.000000000000000e+00 0.000000000000000e+00
0.000000000000000e+00 0.000000000000000e+00 0.000000000000000e+00
0.000000000000000e+00 0.000000000000000e+00 0.000000000000000e+00
0.000000000000000e+00 0.000000000000000e+00 0.000000000000000e+00
0.000000000000000e+00 0.000000000000000e+00 0.000000000000000e+00
0.000000000000000e+00 0.000000000000000e+00 0.000000000000000e+00
0.000000000000000e+00 0.000000000000000e+00 0.000000000000000e+00
0.000000000000000e+00 0.000000000000000e+00 0.000000000000000e+00
0.000000000000000e+00 0.000000000000000e+00 0.000000000000000e+00
0.000000000000000e+00 0.000000000000000e+00 0.000000000000000e+00
0.000000000000000e+00 0.000000000000000e+00 0.000000000000000e+00
0.000000000000000e+00 0.000000000000000e+00 0.000000000000000e+00
0.000000000000000e+00 0.000000000000000e+00 0.000000000000000e+00
0.000000000000000e+00 0.000000000000000e+00 0.000000000000000e+00
0.000000000000000e+00 0.000000000000000e+00 0.000000000000000e+00
0.000000000000000e+00 0.000000000000000e+00 0.000000000000000e+00
0.000000000000000e+00 0.000000000000000e+00 0.000000000000000e+00
0.000000000000000e+00 0.000000000000000e+00 0.000000000000000e+00
0.000000000000000e+00 0.000000000000000e+00 0.000000000000000e+00
0.000000000000000e+00 0.000000000000000e+00 0.000000000000000e+00
0.000000000000000e+00 0.000000000000000e+00 0.000000000000000e+00
0.000000000000000e+00 0.000000000000000e+00 0.000000000000000e+00
0.000000000000000e+00 0.000000000000000e+00 0.000000000000000e+00
0.000000000000000e+00 0.000000000000000e+00 0.000000000000000e+00
0.000000000000000e+00 0.000000000000000e+00 0.000000000000000e+00
0.000000000000000e+00 0.000000000000000e+00 0.000000000000000e+00
0.000000000000000e+00 0.000000000000000e+00 0.000000000000000e+00
0.000000000000000e+00 0.000000000000000e+00 0.000000000000000e+00
0.000000000000000e+00 0.000000000000000e+00 0.000000000000000e+00
0.000000000000000e+00 0.000000000000000e+00 0.000000000000000e+00
0.000000000000000e+00 0.000000000000000e+00 0.000000000000000e+00
0.000000000000000e+00 0.000000000000000e+00 0.000000000000000e+00
0.000000000000000e+00 0.000000000000000e+00 0.000000000000000e+00
0.000000000000000e+00 0.000000000000000e+00 0.000000000000000e+00
0.000000000000000e+00 0.000000000000000e+00 0.000000000000000e+00
0.000000000000000e+00 0.000000000000000e+00 0.000000000000000e+00
0.000000000000000e+00 0.000000000000000e+00 0.000000000000000e+00
0.000000000000000e+00 0.000000000000000e+00 0.000000000000000e+00
0.000000000000000e+00 0.000000000000000e+00 0.000000000000000e+00
0.000000000000000e+00 0.000000000000000e+00 0.000000000000000e+00
0.000000000000000e+00 0.000000000000000e+00 0.000000000000000e+00
0.000000000000000e+00 0.000000000000000e+00 0.000000000000000e+00
0.000000000000000e+00 0.000000000000000e+00 0.000000000000000e+00
0.000000000000000e+00 0.000000000000000e+00 0.000000000000000e+00
0.000000000000000e+00 0.000000000000000e+00 0.000000000000000e+00
0.000000000000000e+00 0.000000000000000e+00 0.000000000000000e+00
0.000000000000000e+00 0.000000000000000e+00 0.000000000000000e+00
0.000000000000000e+00 0.000000000000000e+00 0.000000000000000e+00
0.000000000000000e+00 0.000000000000000e+00 0.000000000000000e+00
0.000000000000000e+00 0.000000000000000e+00 0.000000000000000e+00
0.000000000000000e+00 0.000000000000000e+00 0.000000000000000e+00
0.000000000000000e+00 0.000000000000000e+00 0.000000000000000e+00
0.000000000000000e+00 0.000000000000000e+00 0.000000000000000e+00
0.000000000000000e+00 0.000000000000000e+00 0.000000000000000e+00
0.000000000000000e+00 0.000000000000000e+00 0.000000000000000e+00
0.000000000000000e+00 0.000000000000000e+00 0.000000000000000e+00
0.000000000000000e+00 0.000000000000000e+00 0.000000000000000e+00
0.000000000000000e+00 0.000000000000000e+00 0.000000000000000e+00
0.000000000000000e+00 0.000000000000000e+00 0.000000000000000e+00
0.000000000000000e+00 0.000000000000000e+00 0.000000000000000e+00
0.000000000000000e+00 0.000000000000000e+00 0.000000000000000e+00
0.000000000000000e+00 0.000000000000000e+00 0.000000000000000e+00
0.000000000000000e+00 0.000000000000000e+00 0.000000000000000e+00
0.000000000000000e+00 0.000000000000000e+00 0.000000000000000e+00
0.000000000000000e+00 0.000000000000000e+00 0.000000000000000e+00
0.000000000000000e+00 0.000000000000000e+00 0.000000000000000e+00
0.000000000000000e+00 0.000000000000000e+00 0.000000000000000e+00
0.000000000000000e+00 0.000000000000000e+00 0.000000000000000e+00
0.000000000000000e+00 0.000000000000000e+00 0.000000000000000e+00
0.000000000000000e+00 0.000000000000000e+00 0.000000000000000e+00
0.000000000000000e+00 0.000000000000000e+00 0.000000000000000e+00
0.000000000000000e+00 0.000000000000000e+00 0.000000000000000e+00
0.000000000000000e+00 0.000000000000000e+00 0.000000000000000e+00
0.000000000000000e+00 0.000000000000000e+00 0.000000000000000e+00
0.000000000000000e+00 0.000000000000000e+00 0.000000000000000e+00
0.000000000000000e+00 0.000000000000000e+00 0.000000000000000e+00
0.000000000000000e+00 0.000000000000000e+00 0.000000000000000e+00
0.000000000000000e+00 0.000000000000000e+00 0.000000000000000e+00
0.000000000000000e+00 0.000000000000000e+00 0.000000000000000e+00
0.000000000000000e+00 0.000000000000000e+00 0.000000000000000e+00
0.000000000000000e+00 0.000000000000000e+00 0.000000000000000e+00
0.000000000000000e+00 0.000000000000000e+00 0.000000000000000e+00
0.000000000000000e+00 0.000000000000000e+00 0.000000000000000e+00
0.000000000000000e+00 0.000000000000000e+00 0.000000000000000e+00
0.000000000000000e+00 0.000000000000000e+00 0.000000000000000e+00
0.000000000000000e+00 0.000000000000000e+00 0.000000000000000e+00
0.000000000000000e+00 0.000000000000000e+00 0.000000000000000e+00
0.000000000000000e+00 0.000000000000000e+00 0.000000000000000e+00
0.000000000000000e+00 0.000000000000000e+00 0.000000000000000e+00
0.000000000000000e+00 0.000000000000000e+00 0.000000000000000e+00
0.000000000000000e+00 0.000000000000000e+00 0.000000000000000e+00
0.000000000000000e+00 0.000000000000000e+00 0.000000000000000e+00
0.000000000000000e+00 0.000000000000000e+00 0.000000000000000e+00
0.000000000000000e+00 0.000000000000000e+00 0.000000000000000e+00
0.000000000000000e+00 0.000000000000000e+00 0.000000000000000e+00
0.000000000000000e+00 0.000000000000000e+00 0.000000000000000e+00
0.000000000000000e+00 0.000000000000000e+00 0.000000000000000e+00
0.000000000000000e+00 0.000000000000000e+00 0.000000000000000e+00
0.000000000000000e+00 0.000000000000000e+00 0.000000000000000e+00
0.000000000000000e+00 0.000000000000000e+00 0.000000000000000e+00
0.000000000000000e+00 0.000000000000000e+00 0.000000000000000e+00
0.000000000000000e+00 0.000000000000000e+00 0.000000000000000e+00
0.000000000000000e+00 0.000000000000000e+00 0.000000000000000e+00
0.000000000000000e+00 0.000000000000000e+00 0.000000000000000e+00
0.000000000000000e+00 0.000000000000000e+00 0.000000000000000e+00
0.000000000000000e+00 0.000000000000000e+00 0.000000000000000e+00
0.000000000000000e+00 0.000000000000000e+00 0.000000000000000e+00
0.000000000000000e+00 0.000000000000000e+00 0.000000000000000e+00
0.000000000000000e+00 0.000000000000000e+00 0.000000000000000e+00
0.000000000000000e+00 0.000000000000000e+00 0.000000000000000e+00
0.000000000000000e+00 0.000000000000000e+00 0.000000000000000e+00
0.000000000000000e+00 0.000000000000000e+00 0.000000000000000e+00
0.000000000000000e+00 0.000000000000000e+00 0.000000000000000e+00
0.000000000000000e+00 0.000000000000000e+00 0.000000000000000e+00
0.000000000000000e+00 0.000000000000000e+00 0.000000000000000e+00
0.000000000000000e+00 0.000000000000000e+00 0.000000000000000e+00
0.000000000000000e+00 0.000000000000000e+00 0.000000000000000e+00
0.000000000000000e+00 0.000000000000000e+00 0.000000000000000e+00
0.000000000000000e+00 0.000000000000000e+00 0.000000000000000e+00
0.000000000000000e+00 0.000000000000000e+00 0.000000000000000e+00
0.000000000000000e+00 0.000000000000000e+00 0.000000000000000e+00
0.000000000000000e+00 0.000000000000000e+00 0.000000000000000e+00
0.000000000000000e+00 0.000000000000000e+00 0.000000000000000e+00
0.000000000000000e+00 0.000000000000000e+00 0.000000000000000e+00
0.000000000000000e+00 0.000000000000000e+00 0.000000000000000e+00
0.000000000000000e+00 0.000000000000000e+00 0.000000000000000e+00
0.000000000000000e+00 0.000000000000000e+00 0.000000000000000e+00
0.000000000000000e+00 0.000000000000000e+00 0.000000000000000e+00
0.000000000000000e+00 0.000000000000000e+00 0.000000000000000e+00
0.000000000000000e+00 0.000000000000000e+00 0.000000000000000e+00
0.000000000000000e+00 0.000000000000000e+00 0.000000000000000e+00
0.000000000000000e+00 0.000000000000000e+00 0.000000000000000e+00
0.000000000000000e+00 0.000000000000000e+00 0.000000000000000e+00
0.000000000000000e+00 0.000000000000000e+00 0.000000000000000e+00
0.000000000000000e+00 0.000000000000000e+00 0.000000000000000e+00
0.000000000000000e+00 0.000000000000000e+00 0.000000000000000e+00
0.000000000000000e+00 0.000000000000000e+00 0.000000000000000e+00
0.000000000000000e+00 0.000000000000000e+00 0.000000000000000e+00
0.000000000000000e+00 0.000000000000000e+00 0.000000000000000e+00
0.000000000000000e+00 0.000000000000000e+00 0.000000000000000e+00
0.000000000000000e+00 0.000000000000000e+00 0.000000000000000e+00
0.000000000000000e+00 0.000000000000000e+00 0.000000000000000e+00
0.000000000000000e+00 0.000000000000000e+00 0.000000000000000e+00
0.000000000000000e+00 0.000000000000000e+00 0.000000000000000e+00
0.000000000000000e+00 0.000000000000000e+00 0.000000000000000e+00
0.000000000000000e+00 0.000000000000000e+00 0.000000000000000e+00
0.000000000000000e+00 0.000000000000000e+00 0.000000000000000e+00
0.000000000000000e+00 0.000000000000000e+00 0.000000000000000e+00
0.000000000000000e+00 0.000000000000000e+00 0.000000000000000e+00
0.000000000000000e+00 0.000000000000000e+00 0.000000000000000e+00
0.000000000000000e+00 0.000000000000000e+00 0.000000000000000e+00
0.000000000000000e+00 0.000000000000000e+00 0.000000000000000e+00
0.000000000000000e+00 0.000000000000000e+00 0.000000000000000e+00
0.000000000000000e+00 0.000000000000000e+00 0.000000000000000e+00
0.000000000000000e+00 0.000000000000000e+00 0.000000000000000e+00
0.000000000000000e+00 0.000000000000000e+00 0.000000000000000e+00
0.000000000000000e+00 0.000000000000000e+00 0.000000000000000e+00
0.000000000000000e+00 0.000000000000000e+00 0.000000000000000e+00
0.000000000000000e+00 0.000000000000000e+00 0.000000000000000e+00
0.000000000000000e+00 0.000000000000000e+00 0.000000000000000e+00
0.000000000000000e+00 0.000000000000000e+00 0.000000000000000e+00
0.000000000000000e+00 0.000000000000000e+00 0.000000000000000e+00
0.000000000000000e+00 0.000000000000000e+00 0.000000000000000e+00
0.000000000000000e+00 0.000000000000000e+00 0.000000000000000e+00
0.000000000000000e+00 0.000000000000000e+00 0.000000000000000e+00
0.000000000000000e+00 0.000000000000000e+00 0.000000000000000e+00
0.000000000000000e+00 0.000000000000000e+00 0.000000000000000e+00
0.000000000000000e+00 0.000000000000000e+00 0.000000000000000e+00
0.000000000000000e+00 0.000000000000000e+00 0.000000000000000e+00
0.000000000000000e+00 0.000000000000000e+00 0.000000000000000e+00
0.000000000000000e+00 0.000000000000000e+00 0.000000000000000e+00
0.000000000000000e+00 0.000000000000000e+00 0.000000000000000e+00
0.000000000000000e+00 0.000000000000000e+00 0.000000000000000e+00
0.000000000000000e+00 0.000000000000000e+00 0.000000000000000e+00
0.000000000000000e+00 0.000000000000000e+00 0.000000000000000e+00
0.000000000000000e+00 0.000000000000000e+00 0.000000000000000e+00
0.000000000000000e+00 0.000000000000000e+00 0.000000000000000e+00
0.000000000000000e+00 0.000000000000000e+00 0.000000000000000e+00
0.000000000000000e+00 0.000000000000000e+00 0.000000000000000e+00
0.000000000000000e+00 0.000000000000000e+00 0.000000000000000e+00
0.000000000000000e+00 0.000000000000000e+00 0.000000000000000e+00
0.000000000000000e+00 0.000000000000000e+00 0.000000000000000e+00
0.000000000000000e+00 0.000000000000000e+00 0.000000000000000e+00
0.000000000000000e+00 0.000000000000000e+00 0.000000000000000e+00
0.000000000000000e+00 0.000000000000000e+00 0.000000000000000e+00
0.000000000000000e+00 0.000000000000000e+00 0.000000000000000e+00
0.000000000000000e+00 0.000000000000000e+00 0.000000000000000e+00
0.000000000000000e+00 0.000000000000000e+00 0.000000000000000e+00
0.000000000000000e+00 0.000000000000000e+00 0.000000000000000e+00
0.000000000000000e+00 0.000000000000000e+00 0.000000000000000e+00
0.000000000000000e+00 0.000000000000000e+00 0.000000000000000e+00
0.000000000000000e+00 0.000000000000000e+00 0.000000000000000e+00
0.000000000000000e+00 0.000000000000000e+00 0.000000000000000e+00
0.000000000000000e+00 0.000000000000000e+00 0.000000000000000e+00
0.000000000000000e+00 0.000000000000000e+00 0.000000000000000e+00
0.000000000000000e+00 0.000000000000000e+00 0.000000000000000e+00
0.000000000000000e+00 0.000000000000000e+00 0.000000000000000e+00
0.000000000000000e+00 0.000000000000000e+00 0.000000000000000e+00
0.000000000000000e+00 0.000000000000000e+00 0.000000000000000e+00
0.000000000000000e+00 0.000000000000000e+00 0.000000000000000e+00
0.000000000000000e+00 0.000000000000000e+00 0.000000000000000e+00
0.000000000000000e+00 0.000000000000000e+00 0.000000000000000e+00
0.000000000000000e+00 0.000000000000000e+00 0.000000000000000e+00
0.000000000000000e+00 0.000000000000000e+00 0.000000000000000e+00
0.000000000000000e+00 0.000000000000000e+00 0.000000000000000e+00
0.000000000000000e+00 0.000000000000000e+00 0.000000000000000e+00
0.000000000000000e+00 0.000000000000000e+00 0.000000000000000e+00
0.000000000000000e+00 0.000000000000000e+00 0.000000000000000e+00
0.000000000000000e+00 0.000000000000000e+00 0.000000000000000e+00
0.000000000000000e+00 0.000000000000000e+00 0.000000000000000e+00
0.000000000000000e+00 0.000000000000000e+00 0.000000000000000e+00
0.000000000000000e+00 0.000000000000000e+00 0.000000000000000e+00
0.000000000000000e+00 0.000000000000000e+00 0.000000000000000e+00
0.000000000000000e+00 0.000000000000000e+00 0.000000000000000e+00
0.000000000000000e+00 0.000000000000000e+00 0.000000000000000e+00
0.000000000000000e+00 0.000000000000000e+00 0.000000000000000e+00
0.000000000000000e+00 0.000000000000000e+00 0.000000000000000e+00
0.000000000000000e+00 0.000000000000000e+00 0.000000000000000e+00
0.000000000000000e+00 0.000000000000000e+00 0.000000000000000e+00
0.000000000000000e+00 0.000000000000000e+00 0.000000000000000e+00
0.000000000000000e+00 0.000000000000000e+00 0.000000000000000e+00
0.000000000000000e+00 0.000000000000000e+00 0.000000000000000e+00
0.000000000000000e+00 0.000000000000000e+00 0.000000000000000e+00
0.000000000000000e+00 0.000000000000000e+00 0.000000000000000e+00
0.000000000000000e+00 0.000000000000000e+00 0.000000000000000e+00
0.000000000000000e+00 0.000000000000000e+00 0.000000000000000e+00
0.000000000000000e+00 0.000000000000000e+00 0.000000000000000e+00
0.000000000000000e+00 0.000000000000000e+00 0.000000000000000e+00
0.000000000000000e+00 0.000000000000000e+00 0.000000000000000e+00
0.000000000000000e+00 0.000000000000000e+00 0.000000000000000e+00
0.000000000000000e+00 0.000000000000000e+00 0.000000000000000e+00
0.000000000000000e+00 0.000000000000000e+00 0.000000000000000e+00
0.000000000000000e+00 0.000000000000000e+00 0.000000000000000e+00
0.000000000000000e+00 0.000000000000000e+00 0.000000000000000e+00
0.000000000000000e+00 0.000000000000000e+00 0.000000000000000e+00
0.000000000000000e+00 0.000000000000000e+00 0.000000000000000e+00
0.000000000000000e+00 0.000000000000000e+00 0.000000000000000e+00
0.000000000000000e+00 0.000000000000000e+00 0.000000000000000e+00
0.000000000000000e+00 0.000000000000000e+00 0.000000000000000e+00
0.000000000000000e+00 0.000000000000000e+00 0.000000000000000e+00
0.000000000000000e+00 0.000000000000000e+00 0.000000000000000e+00
0.000000000000000e+00 0.000000000000000e+00 0.000000000000000e+00
0.000000000000000e+00 0.000000000000000e+00 0.000000000000000e+00
0.000000000000000e+00 0.000000000000000e+00 0.000000000000000e+00
0.000000000000000e+00 0.000000000000000e+00 0.000000000000000e+00
0.000000000000000e+00 0.000000000000000e+00 0.000000000000000e+00
0.000000000000000e+00 0.000000000000000e+00 0.000000000000000e+00
0.000000000000000e+00 0.000000000000000e+00 0.000000000000000e+00
0.000000000000000e+00 0.000000000000000e+00 0.000000000000000e+00
0.000000000000000e+00 0.000000000000000e+00 0.000000000000000e+00
0.000000000000000e+00 0.000000000000000e+00 0.000000000000000e+00
0.000000000000000e+00 0.000000000000000e+00 0.000000000000000e+00
0.000000000000000e+00 0.000000000000000e+00 0.000000000000000e+00
0.000000000000000e+00 0.000000000000000e+00 0.000000000000000e+00
0.000000000000000e+00 0.000000000000000e+00 0.000000000000000e+00
0.000000000000000e+00 0.000000000000000e+00 0.000000000000000e+00
0.000000000000000e+00 0.000000000000000e+00 0.000000000000000e+00
0.000000000000000e+00 0.000000000000000e+00 0.000000000000000e+00
0.000000000000000e+00 0.000000000000000e+00 0.000000000000000e+00
0.000000000000000e+00 0.000000000000000e+00 0.000000000000000e+00
0.000000000000000e+00 0.000000000000000e+00 0.000000000000000e+00
0.000000000000000e+00 0.000000000000000e+00 0.000000000000000e+00
0.000000000000000e+00 0.000000000000000e+00 0.000000000000000e+00
0.000000000000000e+00 0.000000000000000e+00 0.000000000000000e+00
0.000000000000000e+00 0.000000000000000e+00 0.000000000000000e+00
0.000000000000000e+00 0.000000000000000e+00 0.000000000000000e+00
0.000000000000000e+00 0.000000000000000e+00 0.000000000000000e+00
0.000000000000000e+00 0.000000000000000e+00 0.000000000000000e+00
0.000000000000000e+00 0.000000000000000e+00 0.000000000000000e+00
0.000000000000000e+00 0.000000000000000e+00 0.000000000000000e+00
0.000000000000000e+00 0.000000000000000e+00 0.000000000000000e+00
0.000000000000000e+00 0.000000000000000e+00 0.000000000000000e+00
0.000000000000000e+00 0.000000000000000e+00 0.000000000000000e+00
0.000000000000000e+00 0.000000000000000e+00 0.000000000000000e+00
0.000000000000000e+00 0.000000000000000e+00 0.000000000000000e+00
0.000000000000000e+00 0.000000000000000e+00 0.000000000000000e+00
0.000000000000000e+00 0.000000000000000e+00 0.000000000000000e+00
0.000000000000000e+00 0.000000000000000e+00 0.000000000000000e+00
0.000000000000000e+00 0.000000000000000e+00 0.000000000000000e+00
0.000000000000000e+00 0.000000000000000e+00 0.000000000000000e+00
0.000000000000000e+00 0.000000000000000e+00 0.000000000000000e+00
0.000000000000000e+00 0.000000000000000e+00 0.000000000000000e+00
0.000000000000000e+00 0.000000000000000e+00 0.000000000000000e+00
0.000000000000000e+00 0.000000000000000e+00 0.000000000000000e+00
0.000000000000000e+00 0.000000000000000e+00 0.000000000000000e+00
0.000000000000000e+00 0.000000000000000e+00 0.000000000000000e+00
0.000000000000000e+00 0.000000000000000e+00 0.000000000000000e+00
0.000000000000000e+00 0.000000000000000e+00 0.000000000000000e+00
0.000000000000000e+00 0.000000000000000e+00 0.000000000000000e+00
0.000000000000000e+00 0.000000000000000e+00 0.000000000000000e+00
0.000000000000000e+00 0.000000000000000e+00 0.000000000000000e+00
0.000000000000000e+00 0.000000000000000e+00 0.000000000000000e+00
0.000000000000000e+00 0.000000000000000e+00 0.000000000000000e+00
0.000000000000000e+00 0.000000000000000e+00 0.000000000000000e+00
0.000000000000000e+00 0.000000000000000e+00 0.000000000000000e+00
0.000000000000000e+00 0.000000000000000e+00 0.000000000000000e+00
0.000000000000000e+00 0.000000000000000e+00 0.000000000000000e+00
0.000000000000000e+00 0.000000000000000e+00 0.000000000000000e+00
0.000000000000000e+00 0.000000000000000e+00 0.000000000000000e+00
0.000000000000000e+00 0.000000000000000e+00 0.000000000000000e+00
0.000000000000000e+00 0.000000000000000e+00 0.000000000000000e+00
0.000000000000000e+00 0.000000000000000e+00 0.000000000000000e+00
0.000000000000000e+00 0.000000000000000e+00 0.000000000000000e+00
0.000000000000000e+00 0.000000000000000e+00 0.000000000000000e+00
0.000000000000000e+00 0.000000000000000e+00 0.000000000000000e+00
0.000000000000000e+00 0.000000000000000e+00 0.000000000000000e+00
0.000000000000000e+00 0.000000000000000e+00 0.000000000000000e+00
0.000000000000000e+00 0.000000000000000e+00 0.000000000000000e+00
0.000000000000000e+00 0.000000000000000e+00 0.000000000000000e+00
0.000000000000000e+00 0.000000000000000e+00 0.000000000000000e+00
0.000000000000000e+00 0.000000000000000e+00 0.000000000000000e+00
0.000000000000000e+00 0.000000000000000e+00 0.000000000000000e+00
0.000000000000000e+00 0.000000000000000e+00 0.000000000000000e+00
0.000000000000000e+00 0.000000000000000e+00 0.000000000000000e+00
0.000000000000000e+00 0.000000000000000e+00 0.000000000000000e+00
0.000000000000000e+00 0.000000000000000e+00 0.000000000000000e+00
0.000000000000000e+00 0.000000000000000e+00 0.000000000000000e+00
0.000000000000000e+00 0.000000000000000e+00 0.000000000000000e+00
0.000000000000000e+00 0.000000000000000e+00 0.000000000000000e+00
0.000000000000000e+00 0.000000000000000e+00 0.000000000000000e+00
0.000000000000000e+00 0.000000000000000e+00 0.000000000000000e+00
0.000000000000000e+00 0.000000000000000e+00 0.000000000000000e+00
0.000000000000000e+00 0.000000000000000e+00 0.000000000000000e+00
0.000000000000000e+00 0.000000000000000e+00 0.000000000000000e+00
0.000000000000000e+00 0.000000000000000e+00 0.000000000000000e+00
0.000000000000000e+00 0.000000000000000e+00 0.000000000000000e+00
0.000000000000000e+00 0.000000000000000e+00 0.000000000000000e+00
0.000000000000000e+00 0.000000000000000e+00 0.000000000000000e+00
0.000000000000000e+00 0.000000000000000e+00 0.000000000000000e+00
0.000000000000000e+00 0.000000000000000e+00 0.000000000000000e+00
0.000000000000000e+00 0.000000000000000e+00 0.000000000000000e+00
0.000000000000000e+00 0.000000000000000e+00 0.000000000000000e+00
0.000000000000000e+00 0.000000000000000e+00 0.000000000000000e+00
0.000000000000000e+00 0.000000000000000e+00 0.000000000000000e+00
0.000000000000000e+00 0.000000000000000e+00 0.000000000000000e+00
0.000000000000000e+00 0.000000000000000e+00 0.000000000000000e+00
0.000000000000000e+00 0.000000000000000e+00 0.000000000000000e+00
0.000000000000000e+00 0.000000000000000e+00 0.000000000000000e+00
0.000000000000000e+00 0.000000000000000e+00 0.000000000000000e+00
0.000000000000000e+00 0.000000000000000e+00 0.000000000000000e+00
0.000000000000000e+00 0.000000000000000e+00 0.000000000000000e+00
0.000000000000000e+00 0.000000000000000e+00 0.000000000000000e+00
0.000000000000000e+00 0.000000000000000e+00 0.000000000000000e+00
0.000000000000000e+00 0.000000000000000e+00 0.000000000000000e+00
0.000000000000000e+00 0.000000000000000e+00 0.000000000000000e+00
0.000000000000000e+00 0.000000000000000e+00 0.000000000000000e+00
0.000000000000000e+00 0.000000000000000e+00 0.000000000000000e+00
0.000000000000000e+00 0.000000000000000e+00 0.000000000000000e+00
0.000000000000000e+00 0.000000000000000e+00 0.000000000000000e+00
0.000000000000000e+00 0.000000000000000e+00 0.000000000000000e+00
0.000000000000000e+00 0.000000000000000e+00 0.000000000000000e+00
0.000000000000000e+00 0.000000000000000e+00 0.000000000000000e+00
0.000000000000000e+00 0.000000000000000e+00 0.000000000000000e+00
0.000000000000000e+00 0.000000000000000e+00 0.000000000000000e+00
0.000000000000000e+00 0.000000000000000e+00 0.000000000000000e+00
0.000000000000000e+00 0.000000000000000e+00 0.000000000000000e+00
0.000000000000000e+00 0.000000000000000e+00 0.000000000000000e+00
0.000000000000000e+00 0.000000000000000e+00 0.000000000000000e+00
0.000000000000000e+00 0.000000000000000e+00 0.000000000000000e+00
0.000000000000000e+00 0.000000000000000e+00 0.000000000000000e+00
0.000000000000000e+00 0.000000000000000e+00 0.000000000000000e+00
0.000000000000000e+00 0.000000000000000e+00 0.000000000000000e+00
0.000000000000000e+00 0.000000000000000e+00 0.000000000000000e+00
0.000000000000000e+00 0.000000000000000e+00 0.000000000000000e+00
0.000000000000000e+00 0.000000000000000e+00 0.000000000000000e+00
0.000000000000000e+00 0.000000000000000e+00 0.000000000000000e+00
0.000000000000000e+00 0.000000000000000e+00 0.000000000000000e+00
0.000000000000000e+00 0.000000000000000e+00 0.000000000000000e+00
0.000000000000000e+00 0.000000000000000e+00 0.000000000000000e+00
0.000000000000000e+00 0.000000000000000e+00 0.000000000000000e+00
0.000000000000000e+00 0.000000000000000e+00 0.000000000000000e+00
0.000000000000000e+00 0.000000000000000e+00 0.000000000000000e+00
0.000000000000000e+00 0.000000000000000e+00 0.000000000000000e+00
0.000000000000000e+00 0.000000000000000e+00 0.000000000000000e+00
0.000000000000000e+00 0.000000000000000e+00 0.000000000000000e+00
0.000000000000000e+00 0.000000000000000e+00 0.000000000000000e+00
0.000000000000000e+00 0.000000000000000e+00 0.000000000000000e+00
0.000000000000000e+00 0.000000000000000e+00 0.000000000000000e+00
0.000000000000000e+00 0.000000000000000e+00 0.000000000000000e+00
0.000000000000000e+00 0.000000000000000e+00 0.000000000000000e+00
0.000000000000000e+00 0.000000000000000e+00 0.000000000000000e+00
0.000000000000000e+00 0.000000000000000e+00 0.000000000000000e+00
0.000000000000000e+00 0.000000000000000e+00 0.000000000000000e+00
0.000000000000000e+00 0.000000000000000e+00 0.000000000000000e+00
0.000000000000000e+00 0.000000000000000e+00 0.000000000000000e+00
0.000000000000000e+00 0.000000000000000e+00 0.000000000000000e+00
0.000000000000000e+00 0.000000000000000e+00 0.000000000000000e+00
0.000000000000000e+00 0.000000000000000e+00 0.000000000000000e+00
0.000000000000000e+00 0.000000000000000e+00 0.000000000000000e+00
0.000000000000000e+00 0.000000000000000e+00 0.000000000000000e+00
0.000000000000000e+00 0.000000000000000e+00 0.000000000000000e+00
0.000000000000000e+00 0.000000000000000e+00 0.000000000000000e+00
0.000000000000000e+00 0.000000000000000e+00 0.000000000000000e+00
0.000000000000000e+00 0.000000000000000e+00 0.000000000000000e+00
0.000000000000000e+00 0.000000000000000e+00 0.000000000000000e+00
0.000000000000000e+00 0.000000000000000e+00 0.000000000000000e+00
0.000000000000000e+00 0.000000000000000e+00 0.000000000000000e+00
0.000000000000000e+00 0.000000000000000e+00 0.000000000000000e+00
0.000000000000000e+00 0.000000000000000e+00 0.000000000000000e+00
0.000000000000000e+00 0.000000000000000e+00 0.000000000000000e+00
0.000000000000000e+00 0.000000000000000e+00 0.000000000000000e+00
0.000000000000000e+00 0.000000000000000e+00 0.000000000000000e+00
0.000000000000000e+00 0.000000000000000e+00 0.000000000000000e+00
0.000000000000000e+00 0.000000000000000e+00 0.000000000000000e+00
0.000000000000000e+00 0.000000000000000e+00 0.000000000000000e+00
0.000000000000000e+00 0.000000000000000e+00 0.000000000000000e+00
0.000000000000000e+00 0.000000000000000e+00 0.000000000000000e+00
0.000000000000000e+00 0.000000000000000e+00 0.000000000000000e+00
0.000000000000000e+00 0.000000000000000e+00 0.000000000000000e+00
0.000000000000000e+00 0.000000000000000e+00 0.000000000000000e+00
0.000000000000000e+00 0.000000000000000e+00 0.000000000000000e+00
0.000000000000000e+00 0.000000000000000e+00 0.000000000000000e+00
0.000000000000000e+00 0.000000000000000e+00 0.000000000000000e+00
0.000000000000000e+00 0.000000000000000e+00 0.000000000000000e+00
0.000000000000000e+00 0.000000000000000e+00 0.000000000000000e+00
0.000000000000000e+00 0.000000000000000e+00 0.000000000000000e+00
0.000000000000000e+00 0.000000000000000e+00 0.000000000000000e+00
0.000000000000000e+00 0.000000000000000e+00 0.000000000000000e+00
0.000000000000000e+00 0.000000000000000e+00 0.000000000000000e+00
0.000000000000000e+00 0.000000000000000e+00 0.000000000000000e+00
0.000000000000000e+00 0.000000000000000e+00 0.000000000000000e+00
0.000000000000000e+00 0.000000000000000e+00 0.000000000000000e+00
0.000000000000000e+00 0.000000000000000e+00 0.000000000000000e+00
0.000000000000000e+00 0.000000000000000e+00 0.000000000000000e+00
0.000000000000000e+00 0.000000000000000e+00 0.000000000000000e+00
0.000000000000000e+00 0.000000000000000e+00 0.000000000000000e+00
0.000000000000000e+00 0.000000000000000e+00 0.000000000000000e+00
0.000000000000000e+00 0.000000000000000e+00 0.000000000000000e+00
0.000000000000000e+00 0.000000000000000e+00 0.000000000000000e+00
0.000000000000000e+00 0.000000000000000e+00 0.000000000000000e+00
0.000000000000000e+00 0.000000000000000e+00 0.000000000000000e+00
0.000000000000000e+00 0.000000000000000e+00 0.000000000000000e+00
0.000000000000000e+00 0.000000000000000e+00 0.000000000000000e+00
0.000000000000000e+00 0.000000000000000e+00 0.000000000000000e+00
0.000000000000000e+00 0.000000000000000e+00 0.000000000000000e+00
0.000000000000000e+00 0.000000000000000e+00 0.000000000000000e+00
0.000000000000000e+00 0.000000000000000e+00 0.000000000000000e+00
0.000000000000000e+00 0.000000000000000e+00 0.000000000000000e+00
0.000000000000000e+00 0.000000000000000e+00 0.000000000000000e+00
0.000000000000000e+00 0.000000000000000e+00 0.000000000000000e+00
0.000000000000000e+00 0.000000000000000e+00 0.000000000000000e+00
0.000000000000000e+00 0.000000000000000e+00 0.000000000000000e+00
0.000000000000000e+00 0.000000000000000e+00 0.000000000000000e+00
0.000000000000000e+00 0.000000000000000e+00 0.000000000000000e+00
0.000000000000000e+00 0.000000000000000e+00 0.000000000000000e+00
0.000000000000000e+00 0.000000000000000e+00 0.000000000000000e+00
0.000000000000000e+00 0.000000000000000e+00 0.000000000000000e+00
0.000000000000000e+00 0.000000000000000e+00 0.000000000000000e+00
0.000000000000000e+00 0.000000000000000e+00 0.000000000000000e+00
0.000000000000000e+00 0.000000000000000e+00 0.000000000000000e+00
0.000000000000000e+00 0.000000000000000e+00 0.000000000000000e+00
0.000000000000000e+00 0.000000000000000e+00 0.000000000000000e+00
0.000000000000000e+00 0.000000000000000e+00 0.000000000000000e+00
0.000000000000000e+00 0.000000000000000e+00 0.000000000000000e+00
0.000000000000000e+00 0.000000000000000e+00 0.000000000000000e+00
0.000000000000000e+00 0.000000000000000e+00 0.000000000000000e+00
0.000000000000000e+00 0.000000000000000e+00 0.000000000000000e+00
0.000000000000000e+00 0.000000000000000e+00 0.000000000000000e+00
0.000000000000000e+00 0.000000000000000e+00 0.000000000000000e+00
0.000000000000000e+00 0.000000000000000e+00 0.000000000000000e+00
0.000000000000000e+00 0.000000000000000e+00 0.000000000000000e+00
0.000000000000000e+00 0.000000000000000e+00 0.000000000000000e+00
0.000000000000000e+00 0.000000000000000e+00 0.000000000000000e+00
0.000000000000000e+00 0.000000000000000e+00 0.000000000000000e+00
0.000000000000000e+00 0.000000000000000e+00 0.000000000000000e+00
0.000000000000000e+00 0.000000000000000e+00 0.000000000000000e+00
0.000000000000000e+00 0.000000000000000e+00 0.000000000000000e+00
0.000000000000000e+00 0.000000000000000e+00 0.000000000000000e+00
0.000000000000000e+00 0.000000000000000e+00 0.000000000000000e+00
0.000000000000000e+00 0.000000000000000e+00 0.000000000000000e+00
0.000000000000000e+00 0.000000000000000e+00 0.000000000000000e+00
0.000000000000000e+00 0.000000000000000e+00 0.000000000000000e+00
0.000000000000000e+00 0.000000000000000e+00 0.000000000000000e+00
0.000000000000000e+00 0.000000000000000e+00 0.000000000000000e+00
0.000000000000000e+00 0.000000000000000e+00 0.000000000000000e+00
0.000000000000000e+00 0.000000000000000e+00 0.000000000000000e+00
0.000000000000000e+00 0.000000000000000e+00 0.000000000000000e+00
0.000000000000000e+00 0.000000000000000e+00 0.000000000000000e+00
0.000000000000000e+00 0.000000000000000e+00 0.000000000000000e+00
0.000000000000000e+00 0.000000000000000e+00 0.000000000000000e+00
0.000000000000000e+00 0.000000000000000e+00 0.000000000000000e+00
0.000000000000000e+00 0.000000000000000e+00 0.000000000000000e+00
0.000000000000000e+00 0.000000000000000e+00 0.000000000000000e+00
0.000000000000000e+00 0.000000000000000e+00 0.000000000000000e+00
0.000000000000000e+00 0.000000000000000e+00 0.000000000000000e+00
0.000000000000000e+00 0.000000000000000e+00 0.000000000000000e+00
0.000000000000000e+00 0.000000000000000e+00 0.000000000000000e+00
0.000000000000000e+00 0.000000000000000e+00 0.000000000000000e+00
0.000000000000000e+00 0.000000000000000e+00 0.000000000000000e+00
0.000000000000000e+00 0.000000000000000e+00 0.000000000000000e+00
0.000000000000000e+00 0.000000000000000e+00 0.000000000000000e+00
0.000000000000000e+00 0.000000000000000e+00 0.000000000000000e+00
0.000000000000000e+00 0.000000000000000e+00 0.000000000000000e+00
0.000000000000000e+00 0.000000000000000e+00 0.000000000000000e+00
0.000000000000000e+00 0.000000000000000e+00 0.000000000000000e+00
0.000000000000000e+00 0.000000000000000e+00 0.000000000000000e+00
0.000000000000000e+00 0.000000000000000e+00 0.000000000000000e+00
0.000000000000000e+00 0.000000000000000e+00 0.000000000000000e+00
0.000000000000000e+00 0.000000000000000e+00 0.000000000000000e+00
0.000000000000000e+00 0.000000000000000e+00 0.000000000000000e+00
0.000000000000000e+00 0.000000000000000e+00 0.000000000000000e+00
0.000000000000000e+00 0.000000000000000e+00 0.000000000000000e+00
0.000000000000000e+00 0.000000000000000e+00 0.000000000000000e+00
0.000000000000000e+00 0.000000000000000e+00 0.000000000000000e+00
0.000000000000000e+00 0.000000000000000e+00 0.000000000000000e+00
0.000000000000000e+00 0.000000000000000e+00 0.000000000000000e+00
0.000000000000000e+00 0.000000000000000e+00 0.000000000000000e+00
0.000000000000000e+00 0.000000000000000e+00 0.000000000000000e+00
0.000000000000000e+00 0.000000000000000e+00 0.000000000000000e+00
0.000000000000000e+00 0.000000000000000e+00 0.000000000000000e+00
0.000000000000000e+00 0.000000000000000e+00 0.000000000000000e+00
0.000000000000000e+00 0.000000000000000e+00 0.000000000000000e+00
0.000000000000000e+00 0.000000000000000e+00 0.000000000000000e+00
0.000000000000000e+00 0.000000000000000e+00 0.000000000000000e+00
0.000000000000000e+00 0.000000000000000e+00 0.000000000000000e+00
0.000000000000000e+00 0.000000000000000e+00 0.000000000000000e+00
0.000000000000000e+00 0.000000000000000e+00 0.000000000000000e+00
0.000000000000000e+00 0.000000000000000e+00 0.000000000000000e+00
0.000000000000000e+00 0.000000000000000e+00 0.000000000000000e+00
0.000000000000000e+00 0.000000000000000e+00 0.000000000000000e+00
0.000000000000000e+00 0.000000000000000e+00 0.000000000000000e+00
0.000000000000000e+00 0.000000000000000e+00 0.000000000000000e+00
0.000000000000000e+00 0.000000000000000e+00 0.000000000000000e+00
0.000000000000000e+00 0.000000000000000e+00 0.000000000000000e+00
0.000000000000000e+00 0.000000000000000e+00 0.000000000000000e+00
0.000000000000000e+00 0.000000000000000e+00 0.000000000000000e+00
0.000000000000000e+00 0.000000000000000e+00 0.000000000000000e+00
0.000000000000000e+00 0.000000000000000e+00 0.000000000000000e+00
0.000000000000000e+00 0.000000000000000e+00 0.000000000000000e+00
0.000000000000000e+00 0.000000000000000e+00 0.000000000000000e+00
0.000000000000000e+00 0.000000000000000e+00 0.000000000000000e+00
0.000000000000000e+00 0.000000000000000e+00 0.000000000000000e+00
0.000000000000000e+00 0.000000000000000e+00 0.000000000000000e+00
0.000000000000000e+00 0.000000000000000e+00 0.000000000000000e+00
0.000000000000000e+00 0.000000000000000e+00 0.000000000000000e+00
0.000000000000000e+00 0.000000000000000e+00 0.000000000000000e+00
0.000000000000000e+00 0.000000000000000e+00 0.000000000000000e+00
0.000000000000000e+00 0.000000000000000e+00 0.000000000000000e+00
0.000000000000000e+00 0.000000000000000e+00 0.000000000000000e+00
0.000000000000000e+00 0.000000000000000e+00 0.000000000000000e+00
0.000000000000000e+00 0.000000000000000e+00 0.000000000000000e+00
0.000000000000000e+00 0.000000000000000e+00 0.000000000000000e+00
0.000000000000000e+00 0.000000000000000e+00 0.000000000000000e+00
0.000000000000000e+00 0.000000000000000e+00 0.000000000000000e+00
0.000000000000000e+00 0.000000000000000e+00 0.000000000000000e+00
0.000000000000000e+00 0.000000000000000e+00 0.000000000000000e+00
0.000000000000000e+00 0.000000000000000e+00 0.000000000000000e+00
0.000000000000000e+00 0.000000000000000e+00 0.000000000000000e+00
0.000000000000000e+00 0.000000000000000e+00 0.000000000000000e+00
0.000000000000000e+00 0.000000000000000e+00 0.000000000000000e+00
0.000000000000000e+00 0.000000000000000e+00 0.000000000000000e+00
0.000000000000000e+00 0.000000000000000e+00 0.000000000000000e+00
0.000000000000000e+00 0.000000000000000e+00 0.000000000000000e+00
0.000000000000000e+00 0.000000000000000e+00 0.000000000000000e+00
0.000000000000000e+00 0.000000000000000e+00 0.000000000000000e+00
0.000000000000000e+00 0.000000000000000e+00 0.000000000000000e+00
0.000000000000000e+00 0.000000000000000e+00 0.000000000000000e+00
0.000000000000000e+00 0.000000000000000e+00 0.000000000000000e+00
0.000000000000000e+00 0.000000000000000e+00 0.000000000000000e+00
0.000000000000000e+00 0.000000000000000e+00 0.000000000000000e+00
0.000000000000000e+00 0.000000000000000e+00 0.000000000000000e+00
0.000000000000000e+00 0.000000000000000e+00 0.000000000000000e+00
0.000000000000000e+00 0.000000000000000e+00 0.000000000000000e+00
0.000000000000000e+00 0.000000000000000e+00 0.000000000000000e+00
0.000000000000000e+00 0.000000000000000e+00 0.000000000000000e+00
0.000000000000000e+00 0.000000000000000e+00 0.000000000000000e+00
0.000000000000000e+00 0.000000000000000e+00 0.000000000000000e+00
0.000000000000000e+00 0.000000000000000e+00 0.000000000000000e+00
0.000000000000000e+00 0.000000000000000e+00 0.000000000000000e+00
0.000000000000000e+00 0.000000000000000e+00 0.000000000000000e+00
0.000000000000000e+00 0.000000000000000e+00 0.000000000000000e+00
0.000000000000000e+00 0.000000000000000e+00 0.000000000000000e+00
0.000000000000000e+00 0.000000000000000e+00 0.000000000000000e+00
0.000000000000000e+00 0.000000000000000e+00 0.000000000000000e+00
0.000000000000000e+00 0.000000000000000e+00 0.000000000000000e+00
0.000000000000000e+00 0.000000000000000e+00 0.000000000000000e+00
0.000000000000000e+00 0.000000000000000e+00 0.000000000000000e+00
0.000000000000000e+00 0.000000000000000e+00 0.000000000000000e+00
0.000000000000000e+00 0.000000000000000e+00 0.000000000000000e+00
0.000000000000000e+00 0.000000000000000e+00 0.000000000000000e+00
0.000000000000000e+00 0.000000000000000e+00 0.000000000000000e+00
0.000000000000000e+00 0.000000000000000e+00 0.000000000000000e+00
0.000000000000000e+00 0.000000000000000e+00 0.000000000000000e+00
0.000000000000000e+00 0.000000000000000e+00 0.000000000000000e+00
0.000000000000000e+00 0.000000000000000e+00 0.000000000000000e+00
0.000000000000000e+00 0.000000000000000e+00 0.000000000000000e+00
0.000000000000000e+00 0.000000000000000e+00 0.000000000000000e+00
0.000000000000000e+00 0.000000000000000e+00 0.000000000000000e+00
0.000000000000000e+00 0.000000000000000e+00 0.000000000000000e+00
0.000000000000000e+00 0.000000000000000e+00 0.000000000000000e+00
0.000000000000000e+00 0.000000000000000e+00 0.000000000000000e+00
0.000000000000000e+00 0.000000000000000e+00 0.000000000000000e+00
0.000000000000000e+00 0.000000000000000e+00 0.000000000000000e+00
0.000000000000000e+00 0.000000000000000e+00 0.000000000000000e+00
0.000000000000000e+00 0.000000000000000e+00 0.000000000000000e+00
0.000000000000000e+00 0.000000000000000e+00 0.000000000000000e+00
0.000000000000000e+00 0.000000000000000e+00 0.000000000000000e+00
0.000000000000000e+00 0.000000000000000e+00 0.000000000000000e+00
0.000000000000000e+00 0.000000000000000e+00 0.000000000000000e+00
0.000000000000000e+00 0.000000000000000e+00 0.000000000000000e+00
0.000000000000000e+00 0.000000000000000e+00 0.000000000000000e+00
0.000000000000000e+00 0.000000000000000e+00 0.000000000000000e+00
0.000000000000000e+00 0.000000000000000e+00 0.000000000000000e+00
0.000000000000000e+00 0.000000000000000e+00 0.000000000000000e+00
0.000000000000000e+00 0.000000000000000e+00 0.000000000000000e+00
0.000000000000000e+00 0.000000000000000e+00 0.000000000000000e+00
0.000000000000000e+00 0.000000000000000e+00 0.000000000000000e+00
0.000000000000000e+00 0.000000000000000e+00 0.000000000000000e+00
0.000000000000000e+00 0.000000000000000e+00 0.000000000000000e+00
0.000000000000000e+00 0.000000000000000e+00 0.000000000000000e+00
0.000000000000000e+00 0.000000000000000e+00 0.000000000000000e+00
0.000000000000000e+00 0.000000000000000e+00 0.000000000000000e+00
0.000000000000000e+00 0.000000000000000e+00 0.000000000000000e+00
0.000000000000000e+00 0.000000000000000e+00 0.000000000000000e+00
0.000000000000000e+00 0.000000000000000e+00 0.000000000000000e+00
0.000000000000000e+00 0.000000000000000e+00 0.000000000000000e+00
0.000000000000000e+00 0.000000000000000e+00 0.000000000000000e+00
0.000000000000000e+00 0.000000000000000e+00 0.000000000000000e+00
0.000000000000000e+00 0.000000000000000e+00 0.000000000000000e+00
0.000000000000000e+00 0.000000000000000e+00 0.000000000000000e+00
0.000000000000000e+00 0.000000000000000e+00 0.000000000000000e+00
0.000000000000000e+00 0.000000000000000e+00 0.000000000000000e+00
0.000000000000000e+00 0.000000000000000e+00 0.000000000000000e+00
0.000000000000000e+00 0.000000000000000e+00 0.000000000000000e+00
0.000000000000000e+00 0.000000000000000e+00 0.000000000000000e+00
0.000000000000000e+00 0.000000000000000e+00 0.000000000000000e+00
0.000000000000000e+00 0.000000000000000e+00 0.000000000000000e+00
0.000000000000000e+00 0.000000000000000e+00 0.000000000000000e+00
0.000000000000000e+00 0.000000000000000e+00 0.000000000000000e+00
0.000000000000000e+00 0.000000000000000e+00 0.000000000000000e+00
0.000000000000000e+00 0.000000000000000e+00 0.000000000000000e+00
0.000000000000000e+00 0.000000000000000e+00 0.000000000000000e+00
0.000000000000000e+00 0.000000000000000e+00 0.000000000000000e+00
0.000000000000000e+00 0.000000000000000e+00 0.000000000000000e+00
0.000000000000000e+00 0.000000000000000e+00 0.000000000000000e+00
0.000000000000000e+00 0.000000000000000e+00 0.000000000000000e+00
0.000000000000000e+00 0.000000000000000e+00 0.000000000000000e+00
0.000000000000000e+00 0.000000000000000e+00 0.000000000000000e+00
0.000000000000000e+00 0.000000000000000e+00 0.000000000000000e+00
0.000000000000000e+00 0.000000000000000e+00 0.000000000000000e+00
0.000000000000000e+00 0.000000000000000e+00 0.000000000000000e+00
0.000000000000000e+00 0.000000000000000e+00 0.000000000000000e+00
0.000000000000000e+00 0.000000000000000e+00 0.000000000000000e+00
0.000000000000000e+00 0.000000000000000e+00 0.000000000000000e+00
0.000000000000000e+00 0.000000000000000e+00 0.000000000000000e+00
0.000000000000000e+00 0.000000000000000e+00 0.000000000000000e+00
0.000000000000000e+00 0.000000000000000e+00 0.000000000000000e+00
0.000000000000000e+00 0.000000000000000e+00 0.000000000000000e+00
0.000000000000000e+00 0.000000000000000e+00 0.000000000000000e+00
0.000000000000000e+00 0.000000000000000e+00 0.000000000000000e+00
0.000000000000000e+00 0.000000000000000e+00 0.000000000000000e+00
0.000000000000000e+00 0.000000000000000e+00 0.000000000000000e+00
0.000000000000000e+00 0.000000000000000e+00 0.000000000000000e+00
0.000000000000000e+00 0.000000000000000e+00 0.000000000000000e+00
0.000000000000000e+00 0.000000000000000e+00 0.000000000000000e+00
0.000000000000000e+00 0.000000000000000e+00 0.000000000000000e+00
0.000000000000000e+00 0.000000000000000e+00 0.000000000000000e+00
0.000000000000000e+00 0.000000000000000e+00 0.000000000000000e+00
0.000000000000000e+00 0.000000000000000e+00 0.000000000000000e+00
0.000000000000000e+00 0.000000000000000e+00 0.000000000000000e+00
0.000000000000000e+00 0.000000000000000e+00 0.000000000000000e+00
0.000000000000000e+00 0.000000000000000e+00 0.000000000000000e+00
0.000000000000000e+00 0.000000000000000e+00 0.000000000000000e+00
0.000000000000000e+00 0.000000000000000e+00 0.000000000000000e+00
0.000000000000000e+00 0.000000000000000e+00 0.000000000000000e+00
0.000000000000000e+00 0.000000000000000e+00 0.000000000000000e+00
0.000000000000000e+00 0.000000000000000e+00 0.000000000000000e+00
0.000000000000000e+00 0.000000000000000e+00 0.000000000000000e+00
0.000000000000000e+00 0.000000000000000e+00 0.000000000000000e+00
0.000000000000000e+00 0.000000000000000e+00 0.000000000000000e+00
0.000000000000000e+00 0.000000000000000e+00 0.000000000000000e+00
0.000000000000000e+00 0.000000000000000e+00 0.000000000000000e+00
0.000000000000000e+00 0.000000000000000e+00 0.000000000000000e+00
0.000000000000000e+00 0.000000000000000e+00 0.000000000000000e+00
0.000000000000000e+00 0.000000000000000e+00 0.000000000000000e+00
0.000000000000000e+00 0.000000000000000e+00 0.000000000000000e+00
0.000000000000000e+00 0.000000000000000e+00 0.000000000000000e+00
0.000000000000000e+00 0.000000000000000e+00 0.000000000000000e+00
0.000000000000000e+00 0.000000000000000e+00 0.000000000000000e+00
0.000000000000000e+00 0.000000000000000e+00 0.000000000000000e+00
0.000000000000000e+00 0.000000000000000e+00 0.000000000000000e+00
0.000000000000000e+00 0.000000000000000e+00 0.000000000000000e+00
0.000000000000000e+00 0.000000000000000e+00 0.000000000000000e+00
0.000000000000000e+00 0.000000000000000e+00 0.000000000000000e+00
0.000000000000000e+00 0.000000000000000e+00 0.000000000000000e+00
0.000000000000000e+00 0.000000000000000e+00 0.000000000000000e+00
0.000000000000000e+00 0.000000000000000e+00 0.000000000000000e+00
0.000000000000000e+00 0.000000000000000e+00 0.000000000000000e+00
0.000000000000000e+00 0.000000000000000e+00 0.000000000000000e+00
0.000000000000000e+00 0.000000000000000e+00 0.000000000000000e+00
0.000000000000000e+00 0.000000000000000e+00 0.000000000000000e+00
0.000000000000000e+00 0.000000000000000e+00 0.000000000000000e+00
0.000000000000000e+00 0.000000000000000e+00 0.000000000000000e+00
0.000000000000000e+00 0.000000000000000e+00 0.000000000000000e+00
0.000000000000000e+00 0.000000000000000e+00 0.000000000000000e+00
0.000000000000000e+00 0.000000000000000e+00 0.000000000000000e+00
0.000000000000000e+00 0.000000000000000e+00 0.000000000000000e+00
0.000000000000000e+00 0.000000000000000e+00 0.000000000000000e+00
0.000000000000000e+00 0.000000000000000e+00 0.000000000000000e+00
0.000000000000000e+00 0.000000000000000e+00 0.000000000000000e+00
0.000000000000000e+00 0.000000000000000e+00 0.000000000000000e+00
0.000000000000000e+00 0.000000000000000e+00 0.000000000000000e+00
0.000000000000000e+00 0.000000000000000e+00 0.000000000000000e+00
0.000000000000000e+00 0.000000000000000e+00 0.000000000000000e+00
0.000000000000000e+00 0.000000000000000e+00 0.000000000000000e+00
0.000000000000000e+00 0.000000000000000e+00 0.000000000000000e+00
0.000000000000000e+00 0.000000000000000e+00 0.000000000000000e+00
0.000000000000000e+00 0.000000000000000e+00 0.000000000000000e+00
0.000000000000000e+00 0.000000000000000e+00 0.000000000000000e+00
0.000000000000000e+00 0.000000000000000e+00 0.000000000000000e+00
0.000000000000000e+00 0.000000000000000e+00 0.000000000000000e+00
0.000000000000000e+00 0.000000000000000e+00 0.000000000000000e+00
0.000000000000000e+00 0.000000000000000e+00 0.000000000000000e+00
0.000000000000000e+00 0.000000000000000e+00 0.000000000000000e+00
0.000000000000000e+00 0.000000000000000e+00 0.000000000000000e+00
0.000000000000000e+00 0.000000000000000e+00 0.000000000000000e+00
0.000000000000000e+00 0.000000000000000e+00 0.000000000000000e+00
0.000000000000000e+00 0.000000000000000e+00 0.000000000000000e+00
0.000000000000000e+00 0.000000000000000e+00 0.000000000000000e+00
0.000000000000000e+00 0.000000000000000e+00 0.000000000000000e+00
0.000000000000000e+00 0.000000000000000e+00 0.000000000000000e+00
0.000000000000000e+00 0.000000000000000e+00 0.000000000000000e+00
0.000000000000000e+00 0.000000000000000e+00 0.000000000000000e+00
0.000000000000000e+00 0.000000000000000e+00 0.000000000000000e+00
0.000000000000000e+00 0.000000000000000e+00 0.000000000000000e+00
0.000000000000000e+00 0.000000000000000e+00 0.000000000000000e+00
0.000000000000000e+00 0.000000000000000e+00 0.000000000000000e+00
0.000000000000000e+00 0.000000000000000e+00 0.000000000000000e+00
0.000000000000000e+00 0.000000000000000e+00 0.000000000000000e+00
0.000000000000000e+00 0.000000000000000e+00 0.000000000000000e+00
0.000000000000000e+00 0.000000000000000e+00 0.000000000000000e+00
0.000000000000000e+00 0.000000000000000e+00 0.000000000000000e+00
0.000000000000000e+00 0.000000000000000e+00 0.000000000000000e+00
0.000000000000000e+00 0.000000000000000e+00 0.000000000000000e+00
0.000000000000000e+00 0.000000000000000e+00 0.000000000000000e+00
0.000000000000000e+00 0.000000000000000e+00 0.000000000000000e+00
0.000000000000000e+00 0.000000000000000e+00 0.000000000000000e+00
0.000000000000000e+00 0.000000000000000e+00 0.000000000000000e+00
0.000000000000000e+00 0.000000000000000e+00 0.000000000000000e+00
0.000000000000000e+00 0.000000000000000e+00 0.000000000000000e+00
0.000000000000000e+00 0.000000000000000e+00 0.000000000000000e+00
0.000000000000000e+00 0.000000000000000e+00 0.000000000000000e+00
0.000000000000000e+00 0.000000000000000e+00 0.000000000000000e+00
0.000000000000000e+00 0.000000000000000e+00 0.000000000000000e+00
0.000000000000000e+00 0.000000000000000e+00 0.000000000000000e+00
0.000000000000000e+00 0.000000000000000e+00 0.000000000000000e+00
0.000000000000000e+00 0.000000000000000e+00 0.000000000000000e+00
0.000000000000000e+00 0.000000000000000e+00 0.000000000000000e+00
0.000000000000000e+00 0.000000000000000e+00 0.000000000000000e+00
0.000000000000000e+00 0.000000000000000e+00 0.000000000000000e+00
0.000000000000000e+00 0.000000000000000e+00 0.000000000000000e+00
0.000000000000000e+00 0.000000000000000e+00 0.000000000000000e+00
0.000000000000000e+00 0.000000000000000e+00 0.000000000000000e+00
0.000000000000000e+00 0.000000000000000e+00 0.000000000000000e+00
0.000000000000000e+00 0.000000000000000e+00 0.000000000000000e+00
0.000000000000000e+00 0.000000000000000e+00 0.000000000000000e+00
0.000000000000000e+00 0.000000000000000e+00 0.000000000000000e+00
0.000000000000000e+00 0.000000000000000e+00 0.000000000000000e+00
0.000000000000000e+00 0.000000000000000e+00 0.000000000000000e+00
0.000000000000000e+00 0.000000000000000e+00 0.000000000000000e+00
0.000000000000000e+00 0.000000000000000e+00 0.000000000000000e+00
0.000000000000000e+00 0.000000000000000e+00 0.000000000000000e+00
0.000000000000000e+00 0.000000000000000e+00 0.000000000000000e+00
0.000000000000000e+00 0.000000000000000e+00 0.000000000000000e+00
0.000000000000000e+00 0.000000000000000e+00 0.000000000000000e+00
0.000000000000000e+00 0.000000000000000e+00 0.000000000000000e+00
0.000000000000000e+00 0.000000000000000e+00 0.000000000000000e+00
0.000000000000000e+00 0.000000000000000e+00 0.000000000000000e+00
0.000000000000000e+00 0.000000000000000e+00 0.000000000000000e+00
0.000000000000000e+00 0.000000000000000e+00 0.000000000000000e+00
0.000000000000000e+00 0.000000000000000e+00 0.000000000000000e+00
0.000000000000000e+00 0.000000000000000e+00 0.000000000000000e+00
0.000000000000000e+00 0.000000000000000e+00 0.000000000000000e+00
0.000000000000000e+00 0.000000000000000e+00 0.000000000000000e+00
0.000000000000000e+00 0.000000000000000e+00 0.000000000000000e+00
0.000000000000000e+00 0.000000000000000e+00 0.000000000000000e+00
0.000000000000000e+00 0.000000000000000e+00 0.000000000000000e+00
0.000000000000000e+00 0.000000000000000e+00 0.000000000000000e+00
0.000000000000000e+00 0.000000000000000e+00 0.000000000000000e+00
0.000000000000000e+00 0.000000000000000e+00 0.000000000000000e+00
0.000000000000000e+00 0.000000000000000e+00 0.000000000000000e+00
0.000000000000000e+00 0.000000000000000e+00 0.000000000000000e+00
0.000000000000000e+00 0.000000000000000e+00 0.000000000000000e+00
0.000000000000000e+00 0.000000000000000e+00 0.000000000000000e+00
0.000000000000000e+00 0.000000000000000e+00 0.000000000000000e+00
0.000000000000000e+00 0.000000000000000e+00 0.000000000000000e+00
0.000000000000000e+00 0.000000000000000e+00 0.000000000000000e+00
0.000000000000000e+00 0.000000000000000e+00 0.000000000000000e+00
0.000000000000000e+00 0.000000000000000e+00 0.000000000000000e+00
0.000000000000000e+00 0.000000000000000e+00 0.000000000000000e+00
0.000000000000000e+00 0.000000000000000e+00 0.000000000000000e+00
0.000000000000000e+00 0.000000000000000e+00 0.000000000000000e+00
0.000000000000000e+00 0.000000000000000e+00 0.000000000000000e+00
0.000000000000000e+00 0.000000000000000e+00 0.000000000000000e+00
0.000000000000000e+00 0.000000000000000e+00 0.000000000000000e+00
0.000000000000000e+00 0.000000000000000e+00 0.000000000000000e+00
0.000000000000000e+00 0.000000000000000e+00 0.000000000000000e+00
0.000000000000000e+00 0.000000000000000e+00 0.000000000000000e+00
0.000000000000000e+00 0.000000000000000e+00 0.000000000000000e+00
0.000000000000000e+00 0.000000000000000e+00 0.000000000000000e+00
0.000000000000000e+00 0.000000000000000e+00 0.000000000000000e+00
0.000000000000000e+00 0.000000000000000e+00 0.000000000000000e+00
0.000000000000000e+00 0.000000000000000e+00 0.000000000000000e+00
0.000000000000000e+00 0.000000000000000e+00 0.000000000000000e+00
0.000000000000000e+00 0.000000000000000e+00 0.000000000000000e+00
0.000000000000000e+00 0.000000000000000e+00 0.000000000000000e+00
0.000000000000000e+00 0.000000000000000e+00 0.000000000000000e+00
0.000000000000000e+00 0.000000000000000e+00 0.000000000000000e+00
0.000000000000000e+00 0.000000000000000e+00 0.000000000000000e+00
0.000000000000000e+00 0.000000000000000e+00 0.000000000000000e+00
0.000000000000000e+00 0.000000000000000e+00 0.000000000000000e+00
0.000000000000000e+00 0.000000000000000e+00 0.000000000000000e+00
0.000000000000000e+00 0.000000000000000e+00 0.000000000000000e+00
0.000000000000000e+00 0.000000000000000e+00 0.000000000000000e+00
0.000000000000000e+00 0.000000000000000e+00 0.000000000000000e+00
0.000000000000000e+00 0.000000000000000e+00 0.000000000000000e+00
0.000000000000000e+00 0.000000000000000e+00 0.000000000000000e+00
0.000000000000000e+00 0.000000000000000e+00 0.000000000000000e+00
0.000000000000000e+00 0.000000000000000e+00 0.000000000000000e+00
0.000000000000000e+00 0.000000000000000e+00 0.000000000000000e+00
0.000000000000000e+00 0.000000000000000e+00 0.000000000000000e+00
0.000000000000000e+00 0.000000000000000e+00 0.000000000000000e+00
0.000000000000000e+00 0.000000000000000e+00 0.000000000000000e+00
0.000000000000000e+00 0.000000000000000e+00 0.000000000000000e+00
0.000000000000000e+00 0.000000000000000e+00 0.000000000000000e+00
0.000000000000000e+00 0.000000000000000e+00 0.000000000000000e+00
0.000000000000000e+00 0.000000000000000e+00 0.000000000000000e+00
0.000000000000000e+00 0.000000000000000e+00 0.000000000000000e+00
0.000000000000000e+00 0.000000000000000e+00 0.000000000000000e+00
0.000000000000000e+00 0.000000000000000e+00 0.000000000000000e+00
0.000000000000000e+00 0.000000000000000e+00 0.000000000000000e+00
0.000000000000000e+00 0.000000000000000e+00 0.000000000000000e+00
0.000000000000000e+00 0.000000000000000e+00 0.000000000000000e+00
0.000000000000000e+00 0.000000000000000e+00 0.000000000000000e+00
0.000000000000000e+00 0.000000000000000e+00 0.000000000000000e+00
0.000000000000000e+00 0.000000000000000e+00 0.000000000000000e+00
0.000000000000000e+00 0.000000000000000e+00 0.000000000000000e+00
0.000000000000000e+00 0.000000000000000e+00 0.000000000000000e+00
0.000000000000000e+00 0.000000000000000e+00 0.000000000000000e+00
0.000000000000000e+00 0.000000000000000e+00 0.000000000000000e+00
0.000000000000000e+00 0.000000000000000e+00 0.000000000000000e+00
0.000000000000000e+00 0.000000000000000e+00 0.000000000000000e+00
0.000000000000000e+00 0.000000000000000e+00 0.000000000000000e+00
0.000000000000000e+00 0.000000000000000e+00 0.000000000000000e+00
0.000000000000000e+00 0.000000000000000e+00 0.000000000000000e+00
0.000000000000000e+00 0.000000000000000e+00 0.000000000000000e+00
0.000000000000000e+00 0.000000000000000e+00 0.000000000000000e+00
0.000000000000000e+00 0.000000000000000e+00 0.000000000000000e+00
0.000000000000000e+00 0.000000000000000e+00 0.000000000000000e+00
0.000000000000000e+00 0.000000000000000e+00 0.000000000000000e+00
0.000000000000000e+00 0.000000000000000e+00 0.000000000000000e+00
0.000000000000000e+00 0.000000000000000e+00 0.000000000000000e+00
0.000000000000000e+00 0.000000000000000e+00 0.000000000000000e+00
0.000000000000000e+00 0.000000000000000e+00 0.000000000000000e+00
0.000000000000000e+00 0.000000000000000e+00 0.000000000000000e+00
0.000000000000000e+00 0.000000000000000e+00 0.000000000000000e+00
0.000000000000000e+00 0.000000000000000e+00 0.000000000000000e+00
0.000000000000000e+00 0.000000000000000e+00 0.000000000000000e+00
0.000000000000000e+00 0.000000000000000e+00 0.000000000000000e+00
0.000000000000000e+00 0.000000000000000e+00 0.000000000000000e+00
0.000000000000000e+00 0.000000000000000e+00 0.000000000000000e+00
0.000000000000000e+00 0.000000000000000e+00 0.000000000000000e+00
0.000000000000000e+00 0.000000000000000e+00 0.000000000000000e+00
0.000000000000000e+00 0.000000000000000e+00 0.000000000000000e+00
0.000000000000000e+00 0.000000000000000e+00 0.000000000000000e+00
0.000000000000000e+00 0.000000000000000e+00 0.000000000000000e+00
0.000000000000000e+00 0.000000000000000e+00 0.000000000000000e+00
0.000000000000000e+00 0.000000000000000e+00 0.000000000000000e+00
0.000000000000000e+00 0.000000000000000e+00 0.000000000000000e+00
0.000000000000000e+00 0.000000000000000e+00 0.000000000000000e+00
0.000000000000000e+00 0.000000000000000e+00 0.000000000000000e+00
0.000000000000000e+00 0.000000000000000e+00 0.000000000000000e+00
0.000000000000000e+00 0.000000000000000e+00 0.000000000000000e+00
0.000000000000000e+00 0.000000000000000e+00 0.000000000000000e+00
0.000000000000000e+00 0.000000000000000e+00 0.000000000000000e+00
0.000000000000000e+00 0.000000000000000e+00 0.000000000000000e+00
0.000000000000000e+00 0.000000000000000e+00 0.000000000000000e+00
0.000000000000000e+00 0.000000000000000e+00 0.000000000000000e+00
0.000000000000000e+00 0.000000000000000e+00 0.000000000000000e+00
0.000000000000000e+00 0.000000000000000e+00 0.000000000000000e+00
0.000000000000000e+00 0.000000000000000e+00 0.000000000000000e+00
0.000000000000000e+00 0.000000000000000e+00 0.000000000000000e+00
0.000000000000000e+00 0.000000000000000e+00 0.000000000000000e+00
0.000000000000000e+00 0.000000000000000e+00 0.000000000000000e+00
0.000000000000000e+00 0.000000000000000e+00 0.000000000000000e+00
0.000000000000000e+00 0.000000000000000e+00 0.000000000000000e+00
0.000000000000000e+00 0.000000000000000e+00 0.000000000000000e+00
0.000000000000000e+00 0.000000000000000e+00 0.000000000000000e+00
0.000000000000000e+00 0.000000000000000e+00 0.000000000000000e+00
0.000000000000000e+00 0.000000000000000e+00 0.000000000000000e+00
0.000000000000000e+00 0.000000000000000e+00 0.000000000000000e+00
0.000000000000000e+00 0.000000000000000e+00 0.000000000000000e+00
0.000000000000000e+00 0.000000000000000e+00 0.000000000000000e+00
0.000000000000000e+00 0.000000000000000e+00 0.000000000000000e+00
0.000000000000000e+00 0.000000000000000e+00 0.000000000000000e+00
0.000000000000000e+00 0.000000000000000e+00 0.000000000000000e+00
0.000000000000000e+00 0.000000000000000e+00 0.000000000000000e+00
0.000000000000000e+00 0.000000000000000e+00 0.000000000000000e+00
0.000000000000000e+00 0.000000000000000e+00 0.000000000000000e+00
0.000000000000000e+00 0.000000000000000e+00 0.000000000000000e+00
0.000000000000000e+00 0.000000000000000e+00 0.000000000000000e+00
0.000000000000000e+00 0.000000000000000e+00 0.000000000000000e+00
0.000000000000000e+00 0.000000000000000e+00 0.000000000000000e+00
0.000000000000000e+00 0.000000000000000e+00 0.000000000000000e+00
0.000000000000000e+00 0.000000000000000e+00 0.000000000000000e+00
0.000000000000000e+00 0.000000000000000e+00 0.000000000000000e+00
0.000000000000000e+00 0.000000000000000e+00 0.000000000000000e+00
0.000000000000000e+00 0.000000000000000e+00 0.000000000000000e+00
0.000000000000000e+00 0.000000000000000e+00 0.000000000000000e+00
0.000000000000000e+00 0.000000000000000e+00 0.000000000000000e+00
0.000000000000000e+00 0.000000000000000e+00 0.000000000000000e+00
0.000000000000000e+00 0.000000000000000e+00 0.000000000000000e+00
0.000000000000000e+00 0.000000000000000e+00 0.000000000000000e+00
0.000000000000000e+00 0.000000000000000e+00 0.000000000000000e+00
0.000000000000000e+00 0.000000000000000e+00 0.000000000000000e+00
0.000000000000000e+00 0.000000000000000e+00 0.000000000000000e+00
0.000000000000000e+00 0.000000000000000e+00 0.000000000000000e+00
0.000000000000000e+00 0.000000000000000e+00 0.000000000000000e+00
0.000000000000000e+00 0.000000000000000e+00 0.000000000000000e+00
0.000000000000000e+00 0.000000000000000e+00 0.000000000000000e+00
0.000000000000000e+00 0.000000000000000e+00 0.000000000000000e+00
0.000000000000000e+00 0.000000000000000e+00 0.000000000000000e+00
0.000000000000000e+00 0.000000000000000e+00 0.000000000000000e+00
0.000000000000000e+00 0.000000000000000e+00 0.000000000000000e+00
0.000000000000000e+00 0.000000000000000e+00 0.000000000000000e+00
0.000000000000000e+00 0.000000000000000e+00 0.000000000000000e+00
0.000000000000000e+00 0.000000000000000e+00 0.000000000000000e+00
0.000000000000000e+00 0.000000000000000e+00 0.000000000000000e+00
0.000000000000000e+00 0.000000000000000e+00 0.000000000000000e+00
0.000000000000000e+00 0.000000000000000e+00 0.000000000000000e+00
0.000000000000000e+00 0.000000000000000e+00 0.000000000000000e+00
0.000000000000000e+00 0.000000000000000e+00 0.000000000000000e+00
0.000000000000000e+00 0.000000000000000e+00 0.000000000000000e+00
0.000000000000000e+00 0.000000000000000e+00 0.000000000000000e+00
0.000000000000000e+00 0.000000000000000e+00 0.000000000000000e+00
0.000000000000000e+00 0.000000000000000e+00 0.000000000000000e+00
0.000000000000000e+00 0.000000000000000e+00 0.000000000000000e+00
0.000000000000000e+00 0.000000000000000e+00 0.000000000000000e+00
0.000000000000000e+00 0.000000000000000e+00 0.000000000000000e+00
0.000000000000000e+00 0.000000000000000e+00 0.000000000000000e+00
0.000000000000000e+00 0.000000000000000e+00 0.000000000000000e+00
0.000000000000000e+00 0.000000000000000e+00 0.000000000000000e+00
0.000000000000000e+00 0.000000000000000e+00 0.000000000000000e+00
0.000000000000000e+00 0.000000000000000e+00 0.000000000000000e+00
0.000000000000000e+00 0.000000000000000e+00 0.000000000000000e+00
0.000000000000000e+00 0.000000000000000e+00 0.000000000000000e+00
0.000000000000000e+00 0.000000000000000e+00 0.000000000000000e+00
0.000000000000000e+00 0.000000000000000e+00 0.000000000000000e+00
0.000000000000000e+00 0.000000000000000e+00 0.000000000000000e+00
0.000000000000000e+00 0.000000000000000e+00 0.000000000000000e+00
0.000000000000000e+00 0.000000000000000e+00 0.000000000000000e+00
0.000000000000000e+00 0.000000000000000e+00 0.000000000000000e+00
0.000000000000000e+00 0.000000000000000e+00 0.000000000000000e+00
0.000000000000000e+00 0.000000000000000e+00 0.000000000000000e+00
0.000000000000000e+00 0.000000000000000e+00 0.000000000000000e+00
0.000000000000000e+00 0.000000000000000e+00 0.000000000000000e+00
0.000000000000000e+00 0.000000000000000e+00 0.000000000000000e+00
0.000000000000000e+00 0.000000000000000e+00 0.000000000000000e+00
0.000000000000000e+00 0.000000000000000e+00 0.000000000000000e+00
0.000000000000000e+00 0.000000000000000e+00 0.000000000000000e+00
0.000000000000000e+00 0.000000000000000e+00 0.000000000000000e+00
0.000000000000000e+00 0.000000000000000e+00 0.000000000000000e+00
0.000000000000000e+00 0.000000000000000e+00 0.000000000000000e+00
0.000000000000000e+00 0.000000000000000e+00 0.000000000000000e+00
0.000000000000000e+00 0.000000000000000e+00 0.000000000000000e+00
0.000000000000000e+00 0.000000000000000e+00 0.000000000000000e+00
0.000000000000000e+00 0.000000000000000e+00 0.000000000000000e+00
0.000000000000000e+00 0.000000000000000e+00 0.000000000000000e+00
0.000000000000000e+00 0.000000000000000e+00 0.000000000000000e+00
0.000000000000000e+00 0.000000000000000e+00 0.000000000000000e+00
0.000000000000000e+00 0.000000000000000e+00 0.000000000000000e+00
0.000000000000000e+00 0.000000000000000e+00 0.000000000000000e+00
0.000000000000000e+00 0.000000000000000e+00 0.000000000000000e+00
0.000000000000000e+00 0.000000000000000e+00 0.000000000000000e+00
0.000000000000000e+00 0.000000000000000e+00 0.000000000000000e+00
0.000000000000000e+00 0.000000000000000e+00 0.000000000000000e+00
0.000000000000000e+00 0.000000000000000e+00 0.000000000000000e+00
0.000000000000000e+00 0.000000000000000e+00 0.000000000000000e+00
0.000000000000000e+00 0.000000000000000e+00 0.000000000000000e+00
0.000000000000000e+00 0.000000000000000e+00 0.000000000000000e+00
0.000000000000000e+00 0.000000000000000e+00 0.000000000000000e+00
0.000000000000000e+00 0.000000000000000e+00 0.000000000000000e+00
0.000000000000000e+00 0.000000000000000e+00 0.000000000000000e+00
0.000000000000000e+00 0.000000000000000e+00 0.000000000000000e+00
0.000000000000000e+00 0.000000000000000e+00 0.000000000000000e+00
0.000000000000000e+00 0.000000000000000e+00 0.000000000000000e+00
0.000000000000000e+00 0.000000000000000e+00 0.000000000000000e+00
0.000000000000000e+00 0.000000000000000e+00 0.000000000000000e+00
0.000000000000000e+00 0.000000000000000e+00 0.000000000000000e+00
0.000000000000000e+00 0.000000000000000e+00 0.000000000000000e+00
0.000000000000000e+00 0.000000000000000e+00 0.000000000000000e+00
0.000000000000000e+00 0.000000000000000e+00 0.000000000000000e+00
0.000000000000000e+00 0.000000000000000e+00 0.000000000000000e+00
0.000000000000000e+00 0.000000000000000e+00 0.000000000000000e+00
0.000000000000000e+00 0.000000000000000e+00 0.000000000000000e+00
0.000000000000000e+00 0.000000000000000e+00 0.000000000000000e+00
0.000000000000000e+00 0.000000000000000e+00 0.000000000000000e+00
0.000000000000000e+00 0.000000000000000e+00 0.000000000000000e+00
0.000000000000000e+00 0.000000000000000e+00 0.000000000000000e+00
0.000000000000000e+00 0.000000000000000e+00 0.000000000000000e+00
0.000000000000000e+00 0.000000000000000e+00 0.000000000000000e+00
0.000000000000000e+00 0.000000000000000e+00 0.000000000000000e+00
0.000000000000000e+00 0.000000000000000e+00 0.000000000000000e+00
0.000000000000000e+00 0.000000000000000e+00 0.000000000000000e+00
0.000000000000000e+00 0.000000000000000e+00 0.000000000000000e+00
0.000000000000000e+00 0.000000000000000e+00 0.000000000000000e+00
0.000000000000000e+00 0.000000000000000e+00 0.000000000000000e+00
0.000000000000000e+00 0.000000000000000e+00 0.000000000000000e+00
0.000000000000000e+00 0.000000000000000e+00 0.000000000000000e+00
0.000000000000000e+00 0.000000000000000e+00 0.000000000000000e+00
0.000000000000000e+00 0.000000000000000e+00 0.000000000000000e+00
0.000000000000000e+00 0.000000000000000e+00 0.000000000000000e+00
0.000000000000000e+00 0.000000000000000e+00 0.000000000000000e+00
0.000000000000000e+00 0.000000000000000e+00 0.000000000000000e+00
0.000000000000000e+00 0.000000000000000e+00 0.000000000000000e+00
0.000000000000000e+00 0.000000000000000e+00 0.000000000000000e+00
0.000000000000000e+00 0.000000000000000e+00 0.000000000000000e+00
0.000000000000000e+00 0.000000000000000e+00 0.000000000000000e+00
0.000000000000000e+00 0.000000000000000e+00 0.000000000000000e+00
0.000000000000000e+00 0.000000000000000e+00 0.000000000000000e+00
0.000000000000000e+00 0.000000000000000e+00 0.000000000000000e+00
0.000000000000000e+00 0.000000000000000e+00 0.000000000000000e+00
0.000000000000000e+00 0.000000000000000e+00 0.000000000000000e+00
0.000000000000000e+00 0.000000000000000e+00 0.000000000000000e+00
0.000000000000000e+00 0.000000000000000e+00 0.000000000000000e+00
0.000000000000000e+00 0.000000000000000e+00 0.000000000000000e+00
0.000000000000000e+00 0.000000000000000e+00 0.000000000000000e+00
0.000000000000000e+00 0.000000000000000e+00 0.000000000000000e+00
0.000000000000000e+00 0.000000000000000e+00 0.000000000000000e+00
0.000000000000000e+00 0.000000000000000e+00 0.000000000000000e+00
0.000000000000000e+00 0.000000000000000e+00 0.000000000000000e+00
0.000000000000000e+00 0.000000000000000e+00 0.000000000000000e+00
0.000000000000000e+00 0.000000000000000e+00 0.000000000000000e+00
0.000000000000000e+00 0.000000000000000e+00 0.000000000000000e+00
0.000000000000000e+00 0.000000000000000e+00 0.000000000000000e+00
0.000000000000000e+00 0.000000000000000e+00 0.000000000000000e+00
0.000000000000000e+00 0.000000000000000e+00 0.000000000000000e+00
0.000000000000000e+00 0.000000000000000e+00 0.000000000000000e+00
0.000000000000000e+00 0.000000000000000e+00 0.000000000000000e+00
0.000000000000000e+00 0.000000000000000e+00 0.000000000000000e+00
0.000000000000000e+00 0.000000000000000e+00 0.000000000000000e+00
0.000000000000000e+00 0.000000000000000e+00 0.000000000000000e+00
0.000000000000000e+00 0.000000000000000e+00 0.000000000000000e+00
0.000000000000000e+00 0.000000000000000e+00 0.000000000000000e+00
0.000000000000000e+00 0.000000000000000e+00 0.000000000000000e+00
0.000000000000000e+00 0.000000000000000e+00 0.000000000000000e+00
0.000000000000000e+00 0.000000000000000e+00 0.000000000000000e+00
0.000000000000000e+00 0.000000000000000e+00 0.000000000000000e+00
0.000000000000000e+00 0.000000000000000e+00 0.000000000000000e+00
0.000000000000000e+00 0.000000000000000e+00 0.000000000000000e+00
0.000000000000000e+00 0.000000000000000e+00 0.000000000000000e+00
0.000000000000000e+00 0.000000000000000e+00 0.000000000000000e+00
0.000000000000000e+00 0.000000000000000e+00 0.000000000000000e+00
0.000000000000000e+00 0.000000000000000e+00 0.000000000000000e+00
0.000000000000000e+00 0.000000000000000e+00 0.000000000000000e+00
0.000000000000000e+00 0.000000000000000e+00 0.000000000000000e+00
0.000000000000000e+00 0.000000000000000e+00 0.000000000000000e+00
0.000000000000000e+00 0.000000000000000e+00 0.000000000000000e+00
0.000000000000000e+00 0.000000000000000e+00 0.000000000000000e+00
0.000000000000000e+00 0.000000000000000e+00 0.000000000000000e+00
0.000000000000000e+00 0.000000000000000e+00 0.000000000000000e+00
0.000000000000000e+00 0.000000000000000e+00 0.000000000000000e+00
0.000000000000000e+00 0.000000000000000e+00 0.000000000000000e+00
0.000000000000000e+00 0.000000000000000e+00 0.000000000000000e+00
0.000000000000000e+00 0.000000000000000e+00 0.000000000000000e+00
0.000000000000000e+00 0.000000000000000e+00 0.000000000000000e+00
0.000000000000000e+00 0.000000000000000e+00 0.000000000000000e+00
0.000000000000000e+00 0.000000000000000e+00 0.000000000000000e+00
0.000000000000000e+00 0.000000000000000e+00 0.000000000000000e+00
0.000000000000000e+00 0.000000000000000e+00 0.000000000000000e+00
0.000000000000000e+00 0.000000000000000e+00 0.000000000000000e+00
0.000000000000000e+00 0.000000000000000e+00 0.000000000000000e+00
0.000000000000000e+00 0.000000000000000e+00 0.000000000000000e+00
0.000000000000000e+00 0.000000000000000e+00 0.000000000000000e+00
0.000000000000000e+00 0.000000000000000e+00 0.000000000000000e+00
0.000000000000000e+00 0.000000000000000e+00 0.000000000000000e+00
0.000000000000000e+00 0.000000000000000e+00 0.000000000000000e+00
0.000000000000000e+00 0.000000000000000e+00 0.000000000000000e+00
0.000000000000000e+00 0.000000000000000e+00 0.000000000000000e+00
0.000000000000000e+00 0.000000000000000e+00 0.000000000000000e+00
0.000000000000000e+00 0.000000000000000e+00 0.000000000000000e+00
0.000000000000000e+00 0.000000000000000e+00 0.000000000000000e+00
0.000000000000000e+00 0.000000000000000e+00 0.000000000000000e+00
0.000000000000000e+00 0.000000000000000e+00 0.000000000000000e+00
0.000000000000000e+00 0.000000000000000e+00 0.000000000000000e+00
0.000000000000000e+00 0.000000000000000e+00 0.000000000000000e+00
0.000000000000000e+00 0.000000000000000e+00 0.000000000000000e+00
0.000000000000000e+00 0.000000000000000e+00 0.000000000000000e+00
0.000000000000000e+00 0.000000000000000e+00 0.000000000000000e+00
0.000000000000000e+00 0.000000000000000e+00 0.000000000000000e+00
0.000000000000000e+00 0.000000000000000e+00 0.000000000000000e+00
0.000000000000000e+00 0.000000000000000e+00 0.000000000000000e+00
0.000000000000000e+00 0.000000000000000e+00 0.000000000000000e+00
0.000000000000000e+00 0.000000000000000e+00 0.000000000000000e+00
0.000000000000000e+00 0.000000000000000e+00 0.000000000000000e+00
0.000000000000000e+00 0.000000000000000e+00 0.000000000000000e+00
0.000000000000000e+00 0.000000000000000e+00 0.000000000000000e+00
0.000000000000000e+00 0.000000000000000e+00 0.000000000000000e+00
0.000000000000000e+00 0.000000000000000e+00 0.000000000000000e+00
0.000000000000000e+00 0.000000000000000e+00 0.000000000000000e+00
0.000000000000000e+00 0.000000000000000e+00 0.000000000000000e+00
0.000000000000000e+00 0.000000000000000e+00 0.000000000000000e+00
0.000000000000000e+00 0.000000000000000e+00 0.000000000000000e+00
0.000000000000000e+00 0.000000000000000e+00 0.000000000000000e+00
0.000000000000000e+00 0.000000000000000e+00 0.000000000000000e+00
0.000000000000000e+00 0.000000000000000e+00 0.000000000000000e+00
0.000000000000000e+00 0.000000000000000e+00 0.000000000000000e+00
0.000000000000000e+00 0.000000000000000e+00 0.000000000000000e+00
0.000000000000000e+00 0.000000000000000e+00 0.000000000000000e+00
0.000000000000000e+00 0.000000000000000e+00 0.000000000000000e+00
0.000000000000000e+00 0.000000000000000e+00 0.000000000000000e+00
0.000000000000000e+00 0.000000000000000e+00 0.000000000000000e+00
0.000000000000000e+00 0.000000000000000e+00 0.000000000000000e+00
0.000000000000000e+00 0.000000000000000e+00 0.000000000000000e+00
0.000000000000000e+00 0.000000000000000e+00 0.000000000000000e+00
0.000000000000000e+00 0.000000000000000e+00 0.000000000000000e+00
0.000000000000000e+00 0.000000000000000e+00 0.000000000000000e+00
0.000000000000000e+00 0.000000000000000e+00 0.000000000000000e+00
0.000000000000000e+00 0.000000000000000e+00 0.000000000000000e+00
0.000000000000000e+00 0.000000000000000e+00 0.000000000000000e+00
0.000000000000000e+00 0.000000000000000e+00 0.000000000000000e+00
0.000000000000000e+00 0.000000000000000e+00 0.000000000000000e+00
0.000000000000000e+00 0.000000000000000e+00 0.000000000000000e+00
0.000000000000000e+00 0.000000000000000e+00 0.000000000000000e+00
0.000000000000000e+00 0.000000000000000e+00 0.000000000000000e+00
0.000000000000000e+00 0.000000000000000e+00 0.000000000000000e+00
0.000000000000000e+00 0.000000000000000e+00 0.000000000000000e+00
0.000000000000000e+00 0.000000000000000e+00 0.000000000000000e+00
0.000000000000000e+00 0.000000000000000e+00 0.000000000000000e+00
0.000000000000000e+00 0.000000000000000e+00 0.000000000000000e+00
0.000000000000000e+00 0.000000000000000e+00 0.000000000000000e+00
0.000000000000000e+00 0.000000000000000e+00 0.000000000000000e+00
0.000000000000000e+00 0.000000000000000e+00 0.000000000000000e+00
0.000000000000000e+00 0.000000000000000e+00 0.000000000000000e+00
0.000000000000000e+00 0.000000000000000e+00 0.000000000000000e+00
0.000000000000000e+00 0.000000000000000e+00 0.000000000000000e+00
0.000000000000000e+00 0.000000000000000e+00 0.000000000000000e+00
0.000000000000000e+00 0.000000000000000e+00 0.000000000000000e+00
0.000000000000000e+00 0.000000000000000e+00 0.000000000000000e+00
0.000000000000000e+00 0.000000000000000e+00 0.000000000000000e+00
0.000000000000000e+00 0.000000000000000e+00 0.000000000000000e+00
0.000000000000000e+00 0.000000000000000e+00 0.000000000000000e+00
0.000000000000000e+00 0.000000000000000e+00 0.000000000000000e+00
0.000000000000000e+00 0.000000000000000e+00 0.000000000000000e+00
0.000000000000000e+00 0.000000000000000e+00 0.000000000000000e+00
0.000000000000000e+00 0.000000000000000e+00 0.000000000000000e+00
0.000000000000000e+00 0.000000000000000e+00 0.000000000000000e+00
0.000000000000000e+00 0.000000000000000e+00 0.000000000000000e+00
0.000000000000000e+00 0.000000000000000e+00 0.000000000000000e+00
0.000000000000000e+00 0.000000000000000e+00 0.000000000000000e+00
0.000000000000000e+00 0.000000000000000e+00 0.000000000000000e+00
0.000000000000000e+00 0.000000000000000e+00 0.000000000000000e+00
0.000000000000000e+00 0.000000000000000e+00 0.000000000000000e+00
0.000000000000000e+00 0.000000000000000e+00 0.000000000000000e+00
0.000000000000000e+00 0.000000000000000e+00 0.000000000000000e+00
0.000000000000000e+00 0.000000000000000e+00 0.000000000000000e+00
0.000000000000000e+00 0.000000000000000e+00 0.000000000000000e+00
0.000000000000000e+00 0.000000000000000e+00 0.000000000000000e+00
0.000000000000000e+00 0.000000000000000e+00 0.000000000000000e+00
0.000000000000000e+00 0.000000000000000e+00 0.000000000000000e+00
0.000000000000000e+00 0.000000000000000e+00 0.000000000000000e+00
0.000000000000000e+00 0.000000000000000e+00 0.000000000000000e+00
0.000000000000000e+00 0.000000000000000e+00 0.000000000000000e+00
0.000000000000000e+00 0.000000000000000e+00 0.000000000000000e+00
0.000000000000000e+00 0.000000000000000e+00 0.000000000000000e+00
0.000000000000000e+00 0.000000000000000e+00 0.000000000000000e+00
0.000000000000000e+00 0.000000000000000e+00 0.000000000000000e+00
0.000000000000000e+00 0.000000000000000e+00 0.000000000000000e+00
0.000000000000000e+00 0.000000000000000e+00 0.000000000000000e+00
0.000000000000000e+00 0.000000000000000e+00 0.000000000000000e+00
0.000000000000000e+00 0.000000000000000e+00 0.000000000000000e+00
0.000000000000000e+00 0.000000000000000e+00 0.000000000000000e+00
0.000000000000000e+00 0.000000000000000e+00 0.000000000000000e+00
0.000000000000000e+00 0.000000000000000e+00 0.000000000000000e+00
0.000000000000000e+00 0.000000000000000e+00 0.000000000000000e+00
0.000000000000000e+00 0.000000000000000e+00 0.000000000000000e+00
0.000000000000000e+00 0.000000000000000e+00 0.000000000000000e+00
0.000000000000000e+00 0.000000000000000e+00 0.000000000000000e+00
0.000000000000000e+00 0.000000000000000e+00 0.000000000000000e+00
0.000000000000000e+00 0.000000000000000e+00 0.000000000000000e+00
0.000000000000000e+00 0.000000000000000e+00 0.000000000000000e+00
0.000000000000000e+00 0.000000000000000e+00 0.000000000000000e+00
0.000000000000000e+00 0.000000000000000e+00 0.000000000000000e+00
0.000000000000000e+00 0.000000000000000e+00 0.000000000000000e+00
0.000000000000000e+00 0.000000000000000e+00 0.000000000000000e+00
0.000000000000000e+00 0.000000000000000e+00 0.000000000000000e+00
0.000000000000000e+00 0.000000000000000e+00 0.000000000000000e+00
0.000000000000000e+00 0.000000000000000e+00 0.000000000000000e+00
0.000000000000000e+00 0.000000000000000e+00 0.000000000000000e+00
0.000000000000000e+00 0.000000000000000e+00 0.000000000000000e+00
0.000000000000000e+00 0.000000000000000e+00 0.000000000000000e+00
0.000000000000000e+00 0.000000000000000e+00 0.000000000000000e+00
0.000000000000000e+00 0.000000000000000e+00 0.000000000000000e+00
0.000000000000000e+00 0.000000000000000e+00 0.000000000000000e+00
0.000000000000000e+00 0.000000000000000e+00 0.000000000000000e+00
0.000000000000000e+00 0.000000000000000e+00 0.000000000000000e+00
0.000000000000000e+00 0.000000000000000e+00 0.000000000000000e+00
0.000000000000000e+00 0.000000000000000e+00 0.000000000000000e+00
0.000000000000000e+00 0.000000000000000e+00 0.000000000000000e+00
0.000000000000000e+00 0.000000000000000e+00 0.000000000000000e+00
0.000000000000000e+00 0.000000000000000e+00 0.000000000000000e+00
0.000000000000000e+00 0.000000000000000e+00 0.000000000000000e+00
0.000000000000000e+00 0.000000000000000e+00 0.000000000000000e+00
0.000000000000000e+00 0.000000000000000e+00 0.000000000000000e+00
0.000000000000000e+00 0.000000000000000e+00 0.000000000000000e+00
0.000000000000000e+00 0.000000000000000e+00 0.000000000000000e+00
0.000000000000000e+00 0.000000000000000e+00 0.000000000000000e+00
0.000000000000000e+00 0.000000000000000e+00 0.000000000000000e+00
0.000000000000000e+00 0.000000000000000e+00 0.000000000000000e+00
0.000000000000000e+00 0.000000000000000e+00 0.000000000000000e+00
0.000000000000000e+00 0.000000000000000e+00 0.000000000000000e+00
0.000000000000000e+00 0.000000000000000e+00 0.000000000000000e+00
0.000000000000000e+00 0.000000000000000e+00 0.000000000000000e+00
0.000000000000000e+00 0.000000000000000e+00 0.000000000000000e+00
0.000000000000000e+00 0.000000000000000e+00 0.000000000000000e+00
0.000000000000000e+00 0.000000000000000e+00 0.000000000000000e+00
0.000000000000000e+00 0.000000000000000e+00 0.000000000000000e+00
0.000000000000000e+00 0.000000000000000e+00 0.000000000000000e+00
0.000000000000000e+00 0.000000000000000e+00 0.000000000000000e+00
0.000000000000000e+00 0.000000000000000e+00 0.000000000000000e+00
0.000000000000000e+00 0.000000000000000e+00 0.000000000000000e+00
0.000000000000000e+00 0.000000000000000e+00 0.000000000000000e+00
0.000000000000000e+00 0.000000000000000e+00 0.000000000000000e+00
0.000000000000000e+00 0.000000000000000e+00 0.000000000000000e+00
0.000000000000000e+00 0.000000000000000e+00 0.000000000000000e+00
0.000000000000000e+00 0.000000000000000e+00 0.000000000000000e+00
0.000000000000000e+00 0.000000000000000e+00 0.000000000000000e+00
0.000000000000000e+00 0.000000000000000e+00 0.000000000000000e+00
0.000000000000000e+00 0.000000000000000e+00 0.000000000000000e+00
0.000000000000000e+00 0.000000000000000e+00 0.000000000000000e+00
0.000000000000000e+00 0.000000000000000e+00 0.000000000000000e+00
0.000000000000000e+00 0.000000000000000e+00 0.000000000000000e+00
0.000000000000000e+00 0.000000000000000e+00 0.000000000000000e+00
0.000000000000000e+00 0.000000000000000e+00 0.000000000000000e+00
0.000000000000000e+00 0.000000000000000e+00 0.000000000000000e+00
0.000000000000000e+00 0.000000000000000e+00 0.000000000000000e+00
0.000000000000000e+00 0.000000000000000e+00 0.000000000000000e+00
0.000000000000000e+00 0.000000000000000e+00 0.000000000000000e+00
0.000000000000000e+00 0.000000000000000e+00 0.000000000000000e+00
0.000000000000000e+00 0.000000000000000e+00 0.000000000000000e+00
0.000000000000000e+00 0.000000000000000e+00 0.000000000000000e+00
0.000000000000000e+00 0.000000000000000e+00 0.000000000000000e+00
0.000000000000000e+00 0.000000000000000e+00 0.000000000000000e+00
0.000000000000000e+00 0.000000000000000e+00 0.000000000000000e+00
0.000000000000000e+00 0.000000000000000e+00 0.000000000000000e+00
0.000000000000000e+00 0.000000000000000e+00 0.000000000000000e+00
0.000000000000000e+00 0.000000000000000e+00 0.000000000000000e+00
0.000000000000000e+00 0.000000000000000e+00 0.000000000000000e+00
0.000000000000000e+00 0.000000000000000e+00 0.000000000000000e+00
0.000000000000000e+00 0.000000000000000e+00 0.000000000000000e+00
0.000000000000000e+00 0.000000000000000e+00 0.000000000000000e+00
0.000000000000000e+00 0.000000000000000e+00 0.000000000000000e+00
0.000000000000000e+00 0.000000000000000e+00 0.000000000000000e+00
0.000000000000000e+00 0.000000000000000e+00 0.000000000000000e+00
0.000000000000000e+00 0.000000000000000e+00 0.000000000000000e+00
0.000000000000000e+00 0.000000000000000e+00 0.000000000000000e+00
0.000000000000000e+00 0.000000000000000e+00 0.000000000000000e+00
0.000000000000000e+00 0.000000000000000e+00 0.000000000000000e+00
0.000000000000000e+00 0.000000000000000e+00 0.000000000000000e+00
0.000000000000000e+00 0.000000000000000e+00 0.000000000000000e+00
0.000000000000000e+00 0.000000000000000e+00 0.000000000000000e+00
0.000000000000000e+00 0.000000000000000e+00 0.000000000000000e+00
0.000000000000000e+00 0.000000000000000e+00 0.000000000000000e+00
0.000000000000000e+00 0.000000000000000e+00 0.000000000000000e+00
0.000000000000000e+00 0.000000000000000e+00 0.000000000000000e+00
0.000000000000000e+00 0.000000000000000e+00 0.000000000000000e+00
0.000000000000000e+00 0.000000000000000e+00 0.000000000000000e+00
0.000000000000000e+00 0.000000000000000e+00 0.000000000000000e+00
0.000000000000000e+00 0.000000000000000e+00 0.000000000000000e+00
0.000000000000000e+00 0.000000000000000e+00 0.000000000000000e+00
0.000000000000000e+00 0.000000000000000e+00 0.000000000000000e+00
0.000000000000000e+00 0.000000000000000e+00 0.000000000000000e+00
0.000000000000000e+00 0.000000000000000e+00 0.000000000000000e+00
0.000000000000000e+00 0.000000000000000e+00 0.000000000000000e+00
0.000000000000000e+00 0.000000000000000e+00 0.000000000000000e+00
0.000000000000000e+00 0.000000000000000e+00 0.000000000000000e+00
0.000000000000000e+00 0.000000000000000e+00 0.000000000000000e+00
0.000000000000000e+00 0.000000000000000e+00 0.000000000000000e+00
0.000000000000000e+00 0.000000000000000e+00 0.000000000000000e+00
0.000000000000000e+00 0.000000000000000e+00 0.000000000000000e+00
0.000000000000000e+00 0.000000000000000e+00 0.000000000000000e+00
0.000000000000000e+00 0.000000000000000e+00 0.000000000000000e+00
0.000000000000000e+00 0.000000000000000e+00 0.000000000000000e+00
0.000000000000000e+00 0.000000000000000e+00 0.000000000000000e+00
0.000000000000000e+00 0.000000000000000e+00 0.000000000000000e+00
0.000000000000000e+00 0.000000000000000e+00 0.000000000000000e+00
0.000000000000000e+00 0.000000000000000e+00 0.000000000000000e+00
0.000000000000000e+00 0.000000000000000e+00 0.000000000000000e+00
0.000000000000000e+00 0.000000000000000e+00 0.000000000000000e+00
0.000000000000000e+00 0.000000000000000e+00 0.000000000000000e+00
0.000000000000000e+00 0.000000000000000e+00 0.000000000000000e+00
0.000000000000000e+00 0.000000000000000e+00 0.000000000000000e+00
0.000000000000000e+00 0.000000000000000e+00 0.000000000000000e+00
0.000000000000000e+00 0.000000000000000e+00 0.000000000000000e+00
0.000000000000000e+00 0.000000000000000e+00 0.000000000000000e+00
0.000000000000000e+00 0.000000000000000e+00 0.000000000000000e+00
0.000000000000000e+00 0.000000000000000e+00 0.000000000000000e+00
0.000000000000000e+00 0.000000000000000e+00 0.000000000000000e+00
0.000000000000000e+00 0.000000000000000e+00 0.000000000000000e+00
0.000000000000000e+00 0.000000000000000e+00 0.000000000000000e+00
0.000000000000000e+00 0.000000000000000e+00 0.000000000000000e+00
0.000000000000000e+00 0.000000000000000e+00 0.000000000000000e+00
0.000000000000000e+00 0.000000000000000e+00 0.000000000000000e+00
0.000000000000000e+00 0.000000000000000e+00 0.000000000000000e+00
0.000000000000000e+00 0.000000000000000e+00 0.000000000000000e+00
0.000000000000000e+00 0.000000000000000e+00 0.000000000000000e+00
0.000000000000000e+00 0.000000000000000e+00 0.000000000000000e+00
0.000000000000000e+00 0.000000000000000e+00 0.000000000000000e+00
0.000000000000000e+00 0.000000000000000e+00 0.000000000000000e+00
0.000000000000000e+00 0.000000000000000e+00 0.000000000000000e+00
0.000000000000000e+00 0.000000000000000e+00 0.000000000000000e+00
0.000000000000000e+00 0.000000000000000e+00 0.000000000000000e+00
0.000000000000000e+00 0.000000000000000e+00 0.000000000000000e+00
0.000000000000000e+00 0.000000000000000e+00 0.000000000000000e+00
0.000000000000000e+00 0.000000000000000e+00 0.000000000000000e+00
0.000000000000000e+00 0.000000000000000e+00 0.000000000000000e+00
0.000000000000000e+00 0.000000000000000e+00 0.000000000000000e+00
0.000000000000000e+00 0.000000000000000e+00 0.000000000000000e+00
0.000000000000000e+00 0.000000000000000e+00 0.000000000000000e+00
0.000000000000000e+00 0.000000000000000e+00 0.000000000000000e+00
0.000000000000000e+00 0.000000000000000e+00 0.000000000000000e+00
0.000000000000000e+00 0.000000000000000e+00 0.000000000000000e+00
0.000000000000000e+00 0.000000000000000e+00 0.000000000000000e+00
0.000000000000000e+00 0.000000000000000e+00 0.000000000000000e+00
0.000000000000000e+00 0.000000000000000e+00 0.000000000000000e+00
0.000000000000000e+00 0.000000000000000e+00 0.000000000000000e+00
0.000000000000000e+00 0.000000000000000e+00 0.000000000000000e+00
0.000000000000000e+00 0.000000000000000e+00 0.000000000000000e+00
0.000000000000000e+00 0.000000000000000e+00 0.000000000000000e+00
0.000000000000000e+00 0.000000000000000e+00 0.000000000000000e+00
0.000000000000000e+00 0.000000000000000e+00 0.000000000000000e+00
0.000000000000000e+00 0.000000000000000e+00 0.000000000000000e+00
0.000000000000000e+00 0.000000000000000e+00 0.000000000000000e+00
0.000000000000000e+00 0.000000000000000e+00 0.000000000000000e+00
0.000000000000000e+00 0.000000000000000e+00 0.000000000000000e+00
0.000000000000000e+00 0.000000000000000e+00 0.000000000000000e+00
0.000000000000000e+00 0.000000000000000e+00 0.000000000000000e+00
0.000000000000000e+00 0.000000000000000e+00 0.000000000000000e+00
0.000000000000000e+00 0.000000000000000e+00 0.000000000000000e+00
0.000000000000000e+00 0.000000000000000e+00 0.000000000000000e+00
0.000000000000000e+00 0.000000000000000e+00 0.000000000000000e+00
0.000000000000000e+00 0.000000000000000e+00 0.000000000000000e+00
0.000000000000000e+00 0.000000000000000e+00 0.000000000000000e+00
0.000000000000000e+00 0.000000000000000e+00 0.000000000000000e+00
0.000000000000000e+00 0.000000000000000e+00 0.000000000000000e+00
0.000000000000000e+00 0.000000000000000e+00 0.000000000000000e+00
0.000000000000000e+00 0.000000000000000e+00 0.000000000000000e+00
0.000000000000000e+00 0.000000000000000e+00 0.000000000000000e+00
0.000000000000000e+00 0.000000000000000e+00 0.000000000000000e+00
0.000000000000000e+00 0.000000000000000e+00 0.000000000000000e+00
0.000000000000000e+00 0.000000000000000e+00 0.000000000000000e+00
0.000000000000000e+00 0.000000000000000e+00 0.000000000000000e+00
0.000000000000000e+00 0.000000000000000e+00 0.000000000000000e+00
0.000000000000000e+00 0.000000000000000e+00 0.000000000000000e+00
0.000000000000000e+00 0.000000000000000e+00 0.000000000000000e+00
0.000000000000000e+00 0.000000000000000e+00 0.000000000000000e+00
0.000000000000000e+00 0.000000000000000e+00 0.000000000000000e+00
0.000000000000000e+00 0.000000000000000e+00 0.000000000000000e+00
0.000000000000000e+00 0.000000000000000e+00 0.000000000000000e+00
0.000000000000000e+00 0.000000000000000e+00 0.000000000000000e+00
0.000000000000000e+00 0.000000000000000e+00 0.000000000000000e+00
0.000000000000000e+00 0.000000000000000e+00 0.000000000000000e+00
0.000000000000000e+00 0.000000000000000e+00 0.000000000000000e+00
0.000000000000000e+00 0.000000000000000e+00 0.000000000000000e+00
0.000000000000000e+00 0.000000000000000e+00 0.000000000000000e+00
0.000000000000000e+00 0.000000000000000e+00 0.000000000000000e+00
0.000000000000000e+00 0.000000000000000e+00 0.000000000000000e+00
0.000000000000000e+00 0.000000000000000e+00 0.000000000000000e+00
0.000000000000000e+00 0.000000000000000e+00 0.000000000000000e+00
0.000000000000000e+00 0.000000000000000e+00 0.000000000000000e+00
0.000000000000000e+00 0.000000000000000e+00 0.000000000000000e+00
0.000000000000000e+00 0.000000000000000e+00 0.000000000000000e+00
0.000000000000000e+00 0.000000000000000e+00 0.000000000000000e+00
0.000000000000000e+00 0.000000000000000e+00 0.000000000000000e+00
0.000000000000000e+00 0.000000000000000e+00 0.000000000000000e+00
0.000000000000000e+00 0.000000000000000e+00 0.000000000000000e+00
0.000000000000000e+00 0.000000000000000e+00 0.000000000000000e+00
0.000000000000000e+00 0.000000000000000e+00 0.000000000000000e+00
0.000000000000000e+00 0.000000000000000e+00 0.000000000000000e+00
0.000000000000000e+00 0.000000000000000e+00 0.000000000000000e+00
0.000000000000000e+00 0.000000000000000e+00 0.000000000000000e+00
0.000000000000000e+00 0.000000000000000e+00 0.000000000000000e+00
0.000000000000000e+00 0.000000000000000e+00 0.000000000000000e+00
0.000000000000000e+00 0.000000000000000e+00 0.000000000000000e+00
0.000000000000000e+00 0.000000000000000e+00 0.000000000000000e+00
0.000000000000000e+00 0.000000000000000e+00 0.000000000000000e+00
0.000000000000000e+00 0.000000000000000e+00 0.000000000000000e+00
0.000000000000000e+00 0.000000000000000e+00 0.000000000000000e+00
0.000000000000000e+00 0.000000000000000e+00 0.000000000000000e+00
0.000000000000000e+00 0.000000000000000e+00 0.000000000000000e+00
0.000000000000000e+00 0.000000000000000e+00 0.000000000000000e+00
0.000000000000000e+00 0.000000000000000e+00 0.000000000000000e+00
0.000000000000000e+00 0.000000000000000e+00 0.000000000000000e+00
0.000000000000000e+00 0.000000000000000e+00 0.000000000000000e+00
0.000000000000000e+00 0.000000000000000e+00 0.000000000000000e+00
0.000000000000000e+00 0.000000000000000e+00 0.000000000000000e+00
0.000000000000000e+00 0.000000000000000e+00 0.000000000000000e+00
0.000000000000000e+00 0.000000000000000e+00 0.000000000000000e+00
0.000000000000000e+00 0.000000000000000e+00 0.000000000000000e+00
0.000000000000000e+00 0.000000000000000e+00 0.000000000000000e+00
0.000000000000000e+00 0.000000000000000e+00 0.000000000000000e+00
0.000000000000000e+00 0.000000000000000e+00 0.000000000000000e+00
0.000000000000000e+00 0.000000000000000e+00 0.000000000000000e+00
0.000000000000000e+00 0.000000000000000e+00 0.000000000000000e+00
0.000000000000000e+00 0.000000000000000e+00 0.000000000000000e+00
0.000000000000000e+00 0.000000000000000e+00 0.000000000000000e+00
0.000000000000000e+00 0.000000000000000e+00 0.000000000000000e+00
0.000000000000000e+00 0.000000000000000e+00 0.000000000000000e+00
0.000000000000000e+00 0.000000000000000e+00 0.000000000000000e+00
0.000000000000000e+00 0.000000000000000e+00 0.000000000000000e+00
0.000000000000000e+00 0.000000000000000e+00 0.000000000000000e+00
0.000000000000000e+00 0.000000000000000e+00 0.000000000000000e+00
0.000000000000000e+00 0.000000000000000e+00 0.000000000000000e+00
0.000000000000000e+00 0.000000000000000e+00 0.000000000000000e+00
0.000000000000000e+00 0.000000000000000e+00 0.000000000000000e+00
0.000000000000000e+00 0.000000000000000e+00 0.000000000000000e+00
0.000000000000000e+00 0.000000000000000e+00 0.000000000000000e+00
0.000000000000000e+00 0.000000000000000e+00 0.000000000000000e+00
0.000000000000000e+00 0.000000000000000e+00 0.000000000000000e+00
0.000000000000000e+00 0.000000000000000e+00 0.000000000000000e+00
0.000000000000000e+00 0.000000000000000e+00 0.000000000000000e+00
0.000000000000000e+00 0.000000000000000e+00 0.000000000000000e+00
0.000000000000000e+00 0.000000000000000e+00 0.000000000000000e+00
0.000000000000000e+00 0.000000000000000e+00 0.000000000000000e+00
0.000000000000000e+00 0.000000000000000e+00 0.000000000000000e+00
0.000000000000000e+00 0.000000000000000e+00 0.000000000000000e+00
0.000000000000000e+00 0.000000000000000e+00 0.000000000000000e+00
0.000000000000000e+00 0.000000000000000e+00 0.000000000000000e+00
0.000000000000000e+00 0.000000000000000e+00 0.000000000000000e+00
0.000000000000000e+00 0.000000000000000e+00 0.000000000000000e+00
0.000000000000000e+00 0.000000000000000e+00 0.000000000000000e+00
0.000000000000000e+00 0.000000000000000e+00 0.000000000000000e+00
0.000000000000000e+00 0.000000000000000e+00 0.000000000000000e+00
0.000000000000000e+00 0.000000000000000e+00 0.000000000000000e+00
0.000000000000000e+00 0.000000000000000e+00 0.000000000000000e+00
0.000000000000000e+00 0.000000000000000e+00 0.000000000000000e+00
0.000000000000000e+00 0.000000000000000e+00 0.000000000000000e+00
0.000000000000000e+00 0.000000000000000e+00 0.000000000000000e+00
0.000000000000000e+00 0.000000000000000e+00 0.000000000000000e+00
0.000000000000000e+00 0.000000000000000e+00 0.000000000000000e+00
0.000000000000000e+00 0.000000000000000e+00 0.000000000000000e+00
0.000000000000000e+00 0.000000000000000e+00 0.000000000000000e+00
0.000000000000000e+00 0.000000000000000e+00 0.000000000000000e+00
0.000000000000000e+00 0.000000000000000e+00 0.000000000000000e+00
0.000000000000000e+00 0.000000000000000e+00 0.000000000000000e+00
0.000000000000000e+00 0.000000000000000e+00 0.000000000000000e+00
0.000000000000000e+00 0.000000000000000e+00 0.000000000000000e+00
0.000000000000000e+00 0.000000000000000e+00 0.000000000000000e+00
0.000000000000000e+00 0.000000000000000e+00 0.000000000000000e+00
0.000000000000000e+00 0.000000000000000e+00 0.000000000000000e+00
0.000000000000000e+00 0.000000000000000e+00 0.000000000000000e+00
0.000000000000000e+00 0.000000000000000e+00 0.000000000000000e+00
0.000000000000000e+00 0.000000000000000e+00 0.000000000000000e+00
0.000000000000000e+00 0.000000000000000e+00 0.000000000000000e+00
0.000000000000000e+00 0.000000000000000e+00 0.000000000000000e+00
0.000000000000000e+00 0.000000000000000e+00 0.000000000000000e+00
0.000000000000000e+00 0.000000000000000e+00 0.000000000000000e+00
0.000000000000000e+00 0.000000000000000e+00 0.000000000000000e+00
0.000000000000000e+00 0.000000000000000e+00 0.000000000000000e+00
0.000000000000000e+00 0.000000000000000e+00 0.000000000000000e+00
0.000000000000000e+00 0.000000000000000e+00 0.000000000000000e+00
0.000000000000000e+00 0.000000000000000e+00 0.000000000000000e+00
0.000000000000000e+00 0.000000000000000e+00 0.000000000000000e+00
0.000000000000000e+00 0.000000000000000e+00 0.000000000000000e+00
0.000000000000000e+00 0.000000000000000e+00 0.000000000000000e+00
0.000000000000000e+00 0.000000000000000e+00 0.000000000000000e+00
0.000000000000000e+00 0.000000000000000e+00 0.000000000000000e+00
0.000000000000000e+00 0.000000000000000e+00 0.000000000000000e+00
0.000000000000000e+00 0.000000000000000e+00 0.000000000000000e+00
0.000000000000000e+00 0.000000000000000e+00 0.000000000000000e+00
0.000000000000000e+00 0.000000000000000e+00 0.000000000000000e+00
0.000000000000000e+00 0.000000000000000e+00 0.000000000000000e+00
0.000000000000000e+00 0.000000000000000e+00 0.000000000000000e+00
0.000000000000000e+00 0.000000000000000e+00 0.000000000000000e+00
0.000000000000000e+00 0.000000000000000e+00 0.000000000000000e+00
0.000000000000000e+00 0.000000000000000e+00 0.000000000000000e+00
0.000000000000000e+00 0.000000000000000e+00 0.000000000000000e+00
0.000000000000000e+00 0.000000000000000e+00 0.000000000000000e+00
0.000000000000000e+00 0.000000000000000e+00 0.000000000000000e+00
0.000000000000000e+00 0.000000000000000e+00 0.000000000000000e+00
0.000000000000000e+00 0.000000000000000e+00 0.000000000000000e+00
0.000000000000000e+00 0.000000000000000e+00 0.000000000000000e+00
0.000000000000000e+00 0.000000000000000e+00 0.000000000000000e+00
0.000000000000000e+00 0.000000000000000e+00 0.000000000000000e+00
0.000000000000000e+00 0.000000000000000e+00 0.000000000000000e+00
0.000000000000000e+00 0.000000000000000e+00 0.000000000000000e+00
0.000000000000000e+00 0.000000000000000e+00 0.000000000000000e+00
0.000000000000000e+00 0.000000000000000e+00 0.000000000000000e+00
0.000000000000000e+00 0.000000000000000e+00 0.000000000000000e+00
0.000000000000000e+00 0.000000000000000e+00 0.000000000000000e+00
0.000000000000000e+00 0.000000000000000e+00 0.000000000000000e+00
0.000000000000000e+00 0.000000000000000e+00 0.000000000000000e+00
0.000000000000000e+00 0.000000000000000e+00 0.000000000000000e+00
0.000000000000000e+00 0.000000000000000e+00 0.000000000000000e+00
0.000000000000000e+00 0.000000000000000e+00 0.000000000000000e+00
0.000000000000000e+00 0.000000000000000e+00 0.000000000000000e+00
0.000000000000000e+00 0.000000000000000e+00 0.000000000000000e+00
0.000000000000000e+00 0.000000000000000e+00 0.000000000000000e+00
0.000000000000000e+00 0.000000000000000e+00 0.000000000000000e+00
0.000000000000000e+00 0.000000000000000e+00 0.000000000000000e+00
0.000000000000000e+00 0.000000000000000e+00 0.000000000000000e+00
0.000000000000000e+00 0.000000000000000e+00 0.000000000000000e+00
0.000000000000000e+00 0.000000000000000e+00 0.000000000000000e+00
0.000000000000000e+00 0.000000000000000e+00 0.000000000000000e+00
0.000000000000000e+00 0.000000000000000e+00 0.000000000000000e+00
0.000000000000000e+00 0.000000000000000e+00 0.000000000000000e+00
0.000000000000000e+00 0.000000000000000e+00 0.000000000000000e+00
0.000000000000000e+00 0.000000000000000e+00 0.000000000000000e+00
0.000000000000000e+00 0.000000000000000e+00 0.000000000000000e+00
0.000000000000000e+00 0.000000000000000e+00 0.000000000000000e+00
0.000000000000000e+00 0.000000000000000e+00 0.000000000000000e+00
0.000000000000000e+00 0.000000000000000e+00 0.000000000000000e+00
0.000000000000000e+00 0.000000000000000e+00 0.000000000000000e+00
0.000000000000000e+00 0.000000000000000e+00 0.000000000000000e+00
0.000000000000000e+00 0.000000000000000e+00 0.000000000000000e+00
0.000000000000000e+00 0.000000000000000e+00 0.000000000000000e+00
0.000000000000000e+00 0.000000000000000e+00 0.000000000000000e+00
0.000000000000000e+00 0.000000000000000e+00 0.000000000000000e+00
0.000000000000000e+00 0.000000000000000e+00 0.000000000000000e+00
0.000000000000000e+00 0.000000000000000e+00 0.000000000000000e+00
0.000000000000000e+00 0.000000000000000e+00 0.000000000000000e+00
0.000000000000000e+00 0.000000000000000e+00 0.000000000000000e+00
0.000000000000000e+00 0.000000000000000e+00 0.000000000000000e+00
0.000000000000000e+00 0.000000000000000e+00 0.000000000000000e+00
0.000000000000000e+00 0.000000000000000e+00 0.000000000000000e+00
0.000000000000000e+00 0.000000000000000e+00 0.000000000000000e+00
0.000000000000000e+00 0.000000000000000e+00 0.000000000000000e+00
0.000000000000000e+00 0.000000000000000e+00 0.000000000000000e+00
0.000000000000000e+00 0.000000000000000e+00 0.000000000000000e+00
0.000000000000000e+00 0.000000000000000e+00 0.000000000000000e+00
0.000000000000000e+00 0.000000000000000e+00 0.000000000000000e+00
0.000000000000000e+00 0.000000000000000e+00 0.000000000000000e+00
0.000000000000000e+00 0.000000000000000e+00 0.000000000000000e+00
0.000000000000000e+00 0.000000000000000e+00 0.000000000000000e+00
0.000000000000000e+00 0.000000000000000e+00 0.000000000000000e+00
0.000000000000000e+00 0.000000000000000e+00 0.000000000000000e+00
0.000000000000000e+00 0.000000000000000e+00 0.000000000000000e+00
0.000000000000000e+00 0.000000000000000e+00 0.000000000000000e+00
0.000000000000000e+00 0.000000000000000e+00 0.000000000000000e+00
0.000000000000000e+00 0.000000000000000e+00 0.000000000000000e+00
0.000000000000000e+00 0.000000000000000e+00 0.000000000000000e+00
0.000000000000000e+00 0.000000000000000e+00 0.000000000000000e+00
0.000000000000000e+00 0.000000000000000e+00 0.000000000000000e+00
0.000000000000000e+00 0.000000000000000e+00 0.000000000000000e+00
0.000000000000000e+00 0.000000000000000e+00 0.000000000000000e+00
7.089926151046894e-03 1.115864337798068e-04 3.187034560906915e-19
 6.979493509445796e-03 -3.625144850118440e-04  3.226167625377379e-19
7.138059107243598e-03 3.231582135283642e-04 3.305335337874369e-19
6.985563966177818e-03 9.634861422321017e-05 3.199021229748654e-19
5.784386740966692e-03 6.193882094287714e-05 2.777370856253722e-19
6.598850428236832e-03 2.207298330575461e-03 3.373703767204867e-19
 6.659680477999362e-03 -1.665840650309185e-03  3.186108557849127e-19
 6.772948092252826e-03 -1.071867455471586e-04  3.239849884576244e-19
 6.967125989549058e-03 -1.102597495898413e-04  3.249920215018126e-19
6.748016724894992e-03 1.682817698412190e-03 3.800942518814512e-19
 6.935660098714404e-03 -3.658919474075963e-05  3.125789425222194e-19
6.844661936584790e-03 4.601048684960204e-05 3.093298497005592e-19
6.886984741513507e-03 6.177518428618918e-05 3.084434632299076e-19
6.748133060633787e-03 3.937737733096044e-04 2.906437337177929e-19
6.875390754482304e-03 2.718966807496213e-04 3.014557358739731e-19
 6.878830295783169e-03 -1.873144840737563e-04  3.150795109778303e-19
 6.967431622386959e-03 -1.897271488826575e-04  3.270270677640590e-19
7.050227543834935e-03 8.873385101024386e-04 3.037163517059537e-19
7.656359818456852e-03 1.199231837800491e-04 3.324168748215834e-19
 7.022028182041232e-03 -6.259140235279701e-04  2.793018977883273e-19
6.927542070600730e-03 4.656852807334814e-04 3.438460211408068e-19
7.050012991211399e-03 1.128603382356565e-03 3.205032914422192e-19
 7.065204580556862e-03 -5.447251350997192e-04  3.062018446830932e-19
6.628235453427249e-03 2.207292433102977e-04 3.016142527537627e-19
6.699634930802204e-03 7.921538496237658e-04 3.208380431193834e-19
6.629554807813258e-03 2.586674492139076e-04 3.028079490724726e-19
6.467768960915765e-03 2.523549993512763e-04 2.973598286920706e-19
6.344091846670447e-03 5.537607310309391e-04 2.830289563814169e-19
6.206770876377084e-03 3.124330648394272e-04 2.843646267233390e-19
5.998430117949893e-03 6.945427435156036e-04 2.716162285887550e-19
6.960347417571087e-03 1.031057587567369e-03 3.081433954589126e-19
 6.232305719781648e-03 -7.267434540566133e-04  2.831337183780295e-19
 6.206657518756883e-03 -4.013627511424176e-04  2.756081977977648e-19
 6.457282703698331e-03 -4.262008491073412e-04  2.951025682959459e-19
6.570883606153106e-03 4.861127232040304e-05 3.013441539835807e-19
 6.802785337817602e-03 -1.306776024477737e-04  3.054008684232144e-19
 6.717370001825537e-03 -4.338021353170935e-04  3.344313698553563e-19
 6.739374042262153e-03 -7.048204784678133e-05  3.082941511463791e-19
 6.773841667216908e-03 -1.579481357488731e-04  3.076122512084307e-19
6.857227830066231e-03 1.018673942952894e-05 3.090853005502177e-19
 6.623663493243884e-03 -8.115603648424888e-04  3.038159551944761e-19
6.752751812579902e-03 2.972035641521850e-04 3.145159365298674e-19
 6.818676462745005e-03 -3.440884953817171e-04  3.166141363460297e-19
6.999445796498067e-03 6.794600310039121e-04 2.944472687272437e-19
 6.875683143835853e-03 -9.251480731688127e-04  3.426210576079959e-19
6.788523481618782e-03 4.160427255473898e-04 3.047204274454661e-19
 6.795450002492934e-03 -4.530982419529817e-04  3.042447850618402e-19
6.798034095005448e-03 6.944885951687283e-04 2.765531334052308e-19
 6.913763950192806e-03 -3.610993985841552e-04  2.999766883870481e-19
6.842906098857455e-03 3.810327343329764e-04 3.270702892648741e-19
 6.900829305585540e-03 -2.873663638129833e-04  3.160461840083095e-19
6.779461804894495e-03 3.964784352319415e-04 3.117190940574784e-19
7.037622771683595e-03 1.549871458639066e-04 3.166654640172993e-19
 7.140489902381690e-03 -6.974979982383391e-05  3.136752872222150e-19
 6.938586686076711e-03 -8.255428129180293e-04  3.071493559671233e-19
6.278356358705561e-03 2.657289936255452e-03 3.532696261682723e-19
 7.068780718897336e-03 -9.974920695023796e-06  3.137715434778487e-19
 6.975296594462332e-03 -6.912687435049905e-05  3.125982957322482e-19
 6.741671216634399e-03 -5.557396321745570e-04  3.460900421550967e-19
6.826212358994926e-03 5.100975103470847e-04 3.204969267560708e-19
7.141859412454659e-03 3.199491930898797e-04 3.114703746826563e-19
7.101085451300422e-03 1.900412300362056e-05 3.158052302507233e-19
 6.765398672359940e-03 -6.700117073554745e-04  3.350230590133282e-19
6.880422324777450e-03 5.149197208676191e-04 3.366423643765997e-19
6.975579665857315e-03 8.529376518000329e-05 3.127814287148228e-19
6.886823879701378e-03 2.502818013867114e-04 3.113637181842347e-19
 6.518329292659979e-03 -3.805004673074867e-04  3.042244205227314e-19
5.447847306101128e-03 3.976291186746755e-03 4.626221666034365e-20
 7.168866700600867e-03 -4.057316556375025e-04  3.139001074536725e-19
6.768432358595757e-03 5.345431636669394e-05 3.052031019287742e-19
 6.796387036598977e-03 -1.610341732297333e-04  3.134759844317983e-19
6.803287160577629e-03 2.088139302329990e-04 2.955161645866030e-19
 6.858669911967453e-03 -6.601133475968262e-05  3.087473528873799e-19
6.787607349232639e-03 6.590105815691669e-05 3.066592195606193e-19
6.783912856624310e-03 5.965204498277403e-05 3.044101137449282e-19
6.710255771737579e-03 5.900436630030500e-05 3.017170210185478e-19
6.692625457042317e-03 1.798676192457022e-04 2.917541745897008e-19
6.605543698249047e-03 1.214321618307039e-05 2.990195366173531e-19
6.531534586959425e-03 2.087427223839561e-04 2.979631961357879e-19
6.990844390734597e-03 5.499828567124400e-04 2.879889137785194e-19
 6.629690211402562e-03 -5.382196115283829e-04  2.829699227679844e-19
 6.616979268732431e-03 -3.694950166212903e-05  2.985630647254329e-19
 6.621195837486406e-03 -5.637205301201008e-04  2.995413660408613e-19
6.662363126053057e-03 3.976161740378494e-04 2.847263013300093e-19
 6.903441341786802e-03 -2.395784018855468e-04  2.958967641213634e-19
 6.995245543072038e-03 -3.077940457981045e-05  3.120704898844878e-19
 6.805504720451055e-03 -4.922536123379189e-04  3.190691192190497e-19
6.852048881594397e-03 7.366690911735960e-04 3.544765440974845e-19
 7.020819849160483e-03 -3.010761769061493e-04  2.758962642110256e-19
7.099036102551549e-03 2.094123260118830e-04 3.305558679016477e-19
 7.118021873663977e-03 -4.849693761431580e-04  3.263816436790857e-19
 7.103270852667366e-03 -7.978476728737740e-05  3.142581783226384e-19
 6.863183457736539e-03 -1.568040072899711e-03  4.229577103383622e-19
7.107432963463781e-03 7.430205441218200e-05 3.188344212097497e-19
 7.012975740656434e-03 -5.132314843363184e-05  3.091195600608127e-19
 6.929332971636337e-03 -1.089692845358717e-04  3.122578036911224e-19
6.922113706804469e-03 4.963339179374744e-06 3.084876037065686e-19
 6.942481836720507e-03 -1.484279236502957e-04  2.912374566739219e-19
 6.939064548822074e-03 -1.483676832136315e-04  3.172985659045061e-19
 6.692180071952293e-03 -1.430889201185689e-04  3.111483602538092e-19
6.634069873332870e-03 2.157373423578112e-03 3.769710442988359e-19
 6.910180797267609e-03 -5.500448133402301e-04  2.665246241058512e-19
 6.676921127482476e-03 -1.161174586826909e-05  2.980657482689776e-19
 6.670127368001249e-03 -1.475323600830151e-04  2.860255353234474e-19
6.769469770283696e-03 2.079316366716045e-04 2.835765849817158e-19
 6.561533871913650e-03 -5.920520389265540e-04  2.240717292958961e-19
6.541702017133862e-03 4.383118233611667e-04 2.870987051117010e-19
 6.714933987568288e-03 -9.068989721320174e-05  2.893051440733601e-19
6.585398731574737e-03 3.432283335508568e-05 2.907766703684559e-19
6.621416214534123e-03 3.451055502781558e-05 2.918112980800185e-19
6.733911279032800e-03 1.924559132979836e-04 3.145065158525814e-19
 6.701315053117738e-03 -1.124594560210901e-04  3.013450900067232e-19
6.676841629159195e-03 6.579933650930505e-05 2.963108743451015e-19
 6.652243888097834e-03 -1.876938010117610e-05  2.903375446456601e-19
6.701401581758576e-03 1.298350305469886e-04 2.907652361734807e-19
 6.691759559739240e-03 -8.275471929288327e-05  2.895308253946871e-19
6.720100625620522e-03 3.836207123734827e-05 2.933276973573305e-19
 6.733750391939940e-03 -2.683042482577866e-05  2.927368614808092e-19
6.748347325817947e-03 8.758451142575490e-05 2.876852701155748e-19
 6.745693136275309e-03 -4.983641119254189e-05  2.955402050532316e-19
6.723706877024897e-03 2.157858434537093e-05 2.919317909794005e-19
6.749943996060267e-03 6.681486141893182e-06 2.932792983161123e-19
6.744482077458305e-03 2.161034019685468e-05 2.936428994206077e-19
6.761793251626634e-03 2.728996347835692e-05 2.913321958318469e-19
6.775633177224128e-03 3.726129509538337e-05 2.858449338683604e-19
6.772257325720925e-03 1.092585555107198e-04 2.891887260356401e-19
6.758412904976040e-03 1.128406611305205e-04 2.794734348692417e-19
6.722601670552384e-03 1.277341606723745e-04 2.842214525084126e-19
6.731955982123661e-03 1.828359657351931e-04 2.833991222656051e-19
6.689661876488315e-03 1.130174925299354e-04 2.914349091654358e-19
6.631919448380897e-03 2.494839167346759e-04 2.916934891676745e-19
6.489313975359561e-03 2.441192900630040e-04 2.861452605938267e-19
6.291225027592912e-03 4.593252183232595e-04 2.501174973705869e-19
6.108071763340244e-03 3.065654157793340e-04 2.756245046407451e-19
6.154933922283065e-03 6.106807216264828e-04 2.570425165605537e-19
7.267149395644558e-03 1.138946940292630e-03 2.985656836447378e-19
 6.118379470938288e-03 -9.835136903010569e-04  2.356436211737718e-19
 6.195006694326173e-03 -1.334003816577303e-04  2.763523800807228e-19
 6.389480886983367e-03 -4.242093930623883e-04  2.888600170526893e-19
6.562327515142088e-03 1.235186508534460e-04 2.786677454255008e-19
 6.488729365102319e-03 -5.267446476069650e-04  2.751647173557884e-19
6.482096223907136e-03 3.901252328971468e-04 3.060369905526821e-19
 6.612701233038144e-03 -3.148056114672385e-04  2.741513646873347e-19
 6.329486763545098e-03 -6.927029234923345e-04  3.497327031980984e-19
 6.574136271476707e-03 -5.911946245426174e-05  2.710198980162556e-19
6.769990848636754e-03 2.284550959906017e-04 2.996303741818984e-19
 6.669711968143755e-03 -5.247010386103493e-04  2.665239503522464e-19
6.675478551263192e-03 6.708044552390161e-05 2.716516755313068e-19
 6.679256788928684e-03 -4.729379659376644e-04  2.054934756222601e-19
6.772867845151437e-03 2.008781521235018e-04 2.725774166969258e-19
 6.933191755763068e-03 -8.641572703687331e-04  3.176988661326377e-19
 6.910024522618407e-03 -1.017709383919884e-04  2.967458658089554e-19
 7.444672685627968e-03 -8.649196500939522e-04  2.559115062392354e-19
 7.497964461265788e-03 -8.791696067704617e-04  4.701734859074739e-19
 8.440570476016476e-03 -7.212846050769562e-04  2.848151163740719e-19
 6.679379771720592e-03 -1.241588733473635e-03  5.364703010893083e-19
 3.940836408009357e-03  1.113618534554831e-02 -6.031676387997876e-19
 5.717918782546490e-03 -6.601250654805196e-03  7.796167156851574e-20
 2.098755836815519e-03  4.902636650627608e-03 -8.440087482325725e-19
 9.389607968733043e-03 -1.727799310609853e-03  3.340222691623919e-19
7.307694417375330e-03 1.271380258114458e-03 1.640546389815159e-19
 7.092967753882818e-03 -1.468770093330327e-03  3.293105475931313e-19
6.812671895747505e-03 1.464111302746204e-03 3.347038668201885e-19
7.094982229243593e-03 2.836006051075506e-05 2.724834073492051e-19
 6.949319275715993e-03 -8.956819333208826e-05  2.664180701717780e-19
 7.028621371598816e-03 -2.601858097814074e-04  2.358711387131575e-19
 7.042105731819598e-03 -5.023008661833812e-05  2.602962539169002e-19
 7.055303424464462e-03 -1.243609171228950e-04  2.405754048960393e-19
 7.013681075532205e-03 -1.236272571830437e-04  2.350004086976805e-19
 6.986049671794670e-03 -1.231402098509223e-04  2.295500354356577e-19
 6.954020147999230e-03 -1.903016809462370e-04  2.612658629278893e-19
6.990616648745669e-03 7.837000214744406e-05 2.471906035764964e-19
 7.031696167508850e-03 -3.947961595891023e-04  3.241896133124769e-19
7.041929206855503e-03 5.379780640354132e-04 1.553436820076689e-19
 7.259016891114294e-03 -1.518773020628329e-04  2.524363771018598e-19
7.141646252302444e-03 4.047514906678504e-04 2.400087296468587e-19
 7.341462409387773e-03 -4.216442840554412e-04  1.288664230763630e-19
7.493263816630562e-03 7.458486023057887e-04 8.127013859596013e-20
 6.362417412557301e-03 -6.803801585898231e-04  2.618234306986835e-19
-2.845443502033446e-04  6.403283725479195e-03 -2.467257382612560e-19
 8.632492933396758e-03 -9.816472279763140e-04  1.665085140190098e-19
 5.290117773436434e-03 -5.365748324764548e-04  3.607093612271337e-20
 5.737192803756021e-03 -1.044081856472362e-04  2.980323261706585e-20
 4.716177618379225e-03  4.492920012736901e-03 -2.281012735631458e-19
 6.603830825147075e-03 -2.355104890705640e-03  1.245791511424152e-19
 5.485038692667233e-03 -9.101796475055228e-04 -2.470853568419571e-20
 6.037246776780639e-03  1.307663543434232e-03 -1.867163495624541e-19
 6.300361332979673e-03 -1.844722637258065e-03  2.513048911701608e-20
 6.817037361499721e-03  9.069095962463233e-04 -2.850888104026753e-19
 5.563870144649979e-03 -3.213628150634735e-03 -6.580543206400186e-19
 7.132440664817834e-03  6.341599511368012e-03 -3.648821663587533e-19
 4.555073476885703e-03 -8.870784609869890e-03  5.602136683627294e-19
 6.465940524319030e-03  1.698267822518421e-03 -8.196368791166844e-19
 7.245153500942039e-03  7.713848596288711e-04 -9.204675120304525e-19
 6.648729968652382e-03  2.990824300195026e-03 -2.019366355532580e-18
 5.222131462622763e-03 -1.119147255907313e-03 -1.228675632343551e-18
-1.862325239497299e-03  7.424959481150573e-03 -2.140593142645782e-18
 7.627894169221846e-03 -3.510416626677994e-03 -5.789018008540845e-19
 5.240500077878210e-03  1.546087922059772e-03 -2.979740196107449e-18
 6.834971755770952e-03 -9.884498958063089e-04 -2.751305603309028e-18
 7.202305305313773e-03 -2.686122644705442e-05 -4.612623064678851e-18
 7.274572654992885e-03 -2.713074982355261e-05 -6.667287077340247e-18
 7.183804220078349e-03 -2.679222606190575e-05 -9.892047894568782e-18
 7.115016808850638e-03  1.645954539489911e-04 -1.482166990840034e-17
 7.112454274335503e-03  7.250578932686663e-05 -2.185035610491721e-17
 6.614786574374948e-03 -1.049756796688908e-03 -2.485803431590895e-17
 6.963147020196853e-03  5.351785166837265e-04 -3.562251229446368e-17
 6.886010775334933e-03 -6.190397826044992e-04 -4.463952484771798e-17
 6.824877057318961e-03  5.163599029427224e-04 -6.585732054080620e-17
 6.899183277079739e-03 -1.300254872947631e-03 -8.207160854208769e-17
 6.689610016854649e-03  1.525300801068655e-04 -1.193614915648369e-16
 6.772526053853443e-03 -1.127952302759856e-04  2.624393620414504e-16
 6.766823032317630e-03 -2.326340339830825e-05 -6.518411922367588e-15
 6.866743072928358e-03 -4.352628391534433e-05  1.953723558934234e-16
 6.864956931172284e-03 -4.351496208309255e-05 -1.257343033769588e-16
 6.865836253903125e-03 -2.360379719173520e-05 -6.556561283589484e-15
 6.877230035204758e-03 -3.471301540863137e-05 -8.228369581075665e-17
 6.869287166884517e-03 -6.934087749505006e-05 -6.449662239300928e-17
 6.866638443333096e-03 -4.237669986084920e-05 -4.634029523247446e-17
 6.871173057396671e-03 -6.975022686154972e-05 -2.777503623553082e-17
 6.882753774469517e-03 -6.986778432026935e-05 -1.739152724459381e-17
 6.904120817587507e-03 -8.566889318460669e-05 -1.089606823284732e-17
 6.939911113267258e-03 -8.611299245497633e-05 -6.901541449538386e-18
 6.949766531515600e-03 -8.623528214189142e-05 -4.519152571502144e-18
 6.919867258945735e-03  1.462129669559439e-04 -3.205471689049647e-18
 6.951391696599543e-03 -2.618931068871072e-04 -2.004608482414713e-18
 7.054475424778234e-03 -2.043408879244481e-04 -1.672663841706031e-18
 7.023250594720628e-03 -3.925903857095737e-05 -1.353419675771932e-18
 7.106869040192266e-03  3.405065363383599e-04 -1.080989320747368e-18
 6.977983412489464e-03 -3.904553957258128e-04 -7.896768901741057e-19
 7.016680211147048e-03  1.111918467782370e-03 -6.312912066067852e-19
 6.637196229749635e-03 -6.378816338361125e-04 -4.546512788582951e-19
 5.204408081055171e-03  4.571175707439342e-03 -3.219678552590290e-19
 6.780828174835957e-03 -1.811251965420253e-03 -2.625895202295843e-19
 6.719058086271140e-03 -1.216924948834965e-05 -1.933801528407718e-19
 7.054367428405356e-03 -1.277654637249821e-05 -1.038189454623379e-19
 7.131169683286719e-03 -1.291564709002718e-05 -3.541067626608824e-20
6.941299114625940e-03 1.801715170574566e-04 1.470721971182890e-21
6.613980828535007e-03 1.032845720429980e-03 1.273622517612868e-20
6.532170291769245e-03 4.842165691419943e-04 2.954534206917881e-20
7.723386410134732e-03 5.516909667403600e-06 9.197547869081731e-20
 6.259696158471339e-03 -1.031897335079747e-03  8.575696152335043e-20
6.247793838595458e-03 1.855422353678185e-03 3.770238265654174e-20
 7.028697159502045e-03 -6.397689004319534e-04  1.412537235811570e-19
6.963830216218775e-03 5.794309930319552e-04 1.391085580242910e-19
 6.428200209293413e-03 -1.413869426342545e-03  1.893270110350120e-19
6.570953865494943e-03 1.310890079019531e-03 1.541081340895387e-19
 6.798391969483042e-03 -9.695587124520079e-04  1.936775445219418e-19
6.757567396720125e-03 1.401190170798764e-03 1.819977047240933e-19
 6.737030854052216e-03 -1.088397983641576e-03  2.124765188796361e-19
6.268523753239037e-03 7.581336483988266e-04 2.096654556501767e-19
 6.434877882971452e-03 -1.304781083983658e-04  2.027317907449758e-19
 6.688355308251188e-03 -1.356177948964902e-04  2.194391841771994e-19
 6.233414802361881e-03 -2.484306035780729e-03  2.453179288100468e-19
 6.660077387523629e-03 -1.040826057352446e-04  2.285189490132478e-19
 6.957168305358026e-03 -3.122078306521548e-05  2.414610211996766e-19
 6.874820411196306e-03 -3.085124108683322e-05  2.423618300004163e-19
6.932982865816470e-03 2.230389256884361e-04 2.428255347671385e-19
 6.877961920535141e-03 -1.630141221683892e-04  2.515571215704727e-19
 6.869147184312616e-03 -5.013677030884831e-05  2.519198163216001e-19
 6.864499600593058e-03 -1.061888669155002e-04  2.549144402973524e-19
 6.881694660835144e-03 -2.100026990077305e-06  2.571881886692678e-19
 6.874836421309285e-03 -1.037266200251893e-04  2.619093735673097e-19
6.903115683645246e-03 7.495228275212462e-05 2.626478597996233e-19
 6.817909155930689e-03 -3.731782459630850e-04  2.634028479582744e-19
6.844535363290707e-03 1.555586065551356e-04 2.646492467061578e-19
 6.845373814068306e-03 -1.299821169705545e-04  2.639051347991957e-19
6.920953535635433e-03 4.253936477971065e-04 2.664934280855591e-19
 6.910912125690108e-03 -2.520427584579033e-04  2.750711271197402e-19
6.884493270075930e-03 2.256715755939309e-04 2.696058935105200e-19
 6.857065725159425e-03 -4.089308803504626e-04  2.740988124256287e-19
6.816650028535623e-03 2.070296415429188e-04 2.663831176822332e-19
 6.779940458404048e-03 -1.645153600896728e-04  2.735602583749820e-19
6.817567255627923e-03 4.712918136243949e-04 2.640221150281359e-19
 6.881480032226556e-03 -1.993528832549877e-04  2.758607553265940e-19
6.766932401966204e-03 1.350189149118148e-04 2.719548936559898e-19
6.844872606370919e-03 4.408414874583453e-05 2.786623975231581e-19
6.774653162222860e-03 4.363190301407441e-05 2.778159176164265e-19
6.930251510989623e-03 4.098461497037391e-04 2.928098756193316e-19
 6.773660726117914e-03 -5.681338885914148e-04  2.846106519237585e-19
6.787168264015060e-03 2.797507414111700e-04 2.829113165544193e-19
 6.728365350374473e-03 -5.989054206148430e-04  2.905671108265189e-19
6.851394586501822e-03 5.370151460714730e-04 2.776717476116790e-19
 6.702171856354460e-03 -1.645882100470332e-03  2.805254981334021e-19
6.776064118158735e-03 4.069290724486188e-04 2.813289879963059e-19
 6.421081875771830e-03 -1.220704274661572e-03  2.587070672802549e-19
6.581799456277318e-03 8.032801927171277e-04 2.766657362797163e-19
 6.738420839228779e-03 -3.671840785435455e-04  2.897903913860347e-19
6.792168096837175e-03 1.368510709915927e-03 3.070733803978692e-19
 6.858505450400878e-03 -6.600224546092612e-04  2.966646477615936e-19
6.756744088355198e-03 9.391008714354570e-04 2.621750664011154e-19
 6.487763206630163e-03 -8.980195542057867e-04  2.944716384015885e-19
6.232379392150068e-03 1.561419414057944e-03 3.078391049048714e-19
 6.785189232511109e-03 -2.037143881740351e-04  2.891821071524071e-19
6.675651094655311e-03 7.196172589263674e-04 2.872579713213571e-19
 6.598308959877883e-03 -2.951559011015897e-04  2.773646936106062e-19
6.549434968436710e-03 1.259602099302232e-03 2.924158277082425e-19
 6.777146669380247e-03 -1.346422348917667e-04  2.828922882512501e-19
6.247908853943141e-03 1.029096123854138e-03 2.190225384847374e-19
5.387681543265802e-03 8.874076626831954e-04 1.794387954084177e-19
5.500751184944541e-03 5.217611712436078e-03 1.170192259050639e-19
 5.813020208166568e-03 -2.154392594882439e-03  3.487417639004997e-19
5.261287399278732e-03 6.102167770292516e-04 2.425947023332251e-19
 5.890150426062224e-03 -1.572155291819698e-03  3.421413852611301e-19
6.180656132011329e-03 5.075040255863250e-05 2.689146839647852e-19
 6.104492908465423e-03 -1.647498545062193e-03  2.562347127039200e-19
6.509396111865100e-03 2.094781732189211e-04 2.794647045492039e-19
 6.759310477755734e-03 -1.088335394818032e-03  3.032105724713619e-19
6.756360058569791e-03 9.058896252209859e-05 2.933703387922201e-19
 6.199380514835263e-03 -8.165290604480885e-04  2.693324285568015e-19
7.017117099578126e-03 1.265145036838241e-03 2.405520210101329e-19
 5.310272091095482e-03 -4.602374781754659e-03  1.315958403552264e-20
5.725464196675683e-03 5.547284065400547e-04 2.483168729877797e-19
6.906115769864133e-03 1.100265010916497e-04 2.970441007832103e-19
6.587754493485178e-03 1.558426094016229e-04 2.822089387365243e-19
 6.692712345295658e-03 -4.784397961146285e-04  2.847058158472032e-19
6.660159781462473e-03 5.419408515575690e-05 2.926368344408627e-19
 6.652983216052706e-03 -4.946079827647200e-05  2.927171542479829e-19
6.756328899358486e-03 1.257874666107709e-03 2.573134166212447e-19
 6.752654615515147e-03 -2.268067473602042e-04  2.938317702732355e-19
6.519320037059329e-03 8.874298212914548e-04 2.842575637745120e-19
 6.538447622114158e-03 -2.661903537949002e-05  2.887375061761629e-19
6.296632275495017e-03 1.594717022151601e-03 2.720357198541217e-19
 5.583191637917451e-03 -1.515826413217522e-03  1.972667845478996e-19
5.670201283541029e-03 1.718119172853970e-03 2.493574360077985e-19
 6.646065123472469e-03 -2.953244932251742e-03  3.620326858433953e-19
 5.607524330549301e-03 -6.139265296718359e-04  2.540555080471583e-19
6.178982475579776e-03 3.256399368605490e-04 2.848461688991332e-19
 6.692225717559286e-03 -7.172699309036622e-04  2.751947818217267e-19
 6.343847703268983e-03 -8.401414899675555e-04  3.075519389480158e-19
 6.413445863349063e-03 -2.318240617606928e-04  2.899403288827130e-19
6.319309251222847e-03 4.894400476143040e-04 2.855835724618716e-19
6.929517980218502e-03 6.353411458495080e-04 3.138127679520306e-19
 6.637537293257898e-03 -1.987705135207163e-03  2.445225012248983e-19
 6.319341954163542e-03 -3.785194200363118e-05  2.882473613459700e-19
6.315140975275816e-03 2.298799732531802e-03 1.579783098759576e-19
 6.650994378840058e-03 -1.319746826380825e-05  2.919691793282823e-19
6.176519236184693e-03 8.646130812076589e-04 2.445031453667875e-19
 6.978206590782307e-03 -4.706570812151183e-04  3.112055543081089e-19
 5.984179774301938e-03 -2.631360086842171e-04  2.682185805429059e-19
6.301368093737530e-03 6.695542447462291e-04 3.019410054172712e-19
 6.490574403840607e-03 -1.227904716291010e-03  3.219049582830665e-19
 5.864753245008056e-03 -5.221880910954892e-04  2.791588661296102e-19
 6.304809886457227e-03 -9.346413509109106e-05  2.919761771634183e-19
6.830259782657271e-03 7.843388896586971e-04 3.143509209991117e-19
 6.517069600055527e-03 -5.589386483770859e-04  2.997128102064593e-19
6.381412063143250e-03 1.134684344990858e-03 2.683114428223971e-19
 6.498852700298457e-03 -4.028631525984867e-04  2.838421123633317e-19
5.811007409103962e-03 2.498355289607025e-03 2.695979036604978e-19
 6.273647577173999e-03 -2.148092166358342e-04  2.886561371693040e-19
6.088898622199774e-03 1.394583979264188e-03 2.590876675419741e-19
 7.213263460636435e-03 -1.383675194049814e-03  2.569904557959131e-19
 5.848980802547102e-03 -7.015806721143168e-04  2.629896076658055e-19
 6.151017293674671e-03 -2.448660987368832e-05  2.781332697701435e-19
 6.628067106529265e-03 -6.949600577278743e-04  2.938640957157849e-19
 6.395868051631119e-03 -1.119573791808614e-03  3.129221895882387e-19
6.675261152994343e-03 2.766185640898941e-04 2.526107423114261e-19
6.915508478864714e-03 1.173008362317880e-04 3.518308200961535e-19
 6.682250547575552e-03 -2.418985436992721e-04  3.109416598856145e-19
 6.727471144450126e-03 -2.435355365733481e-04  3.134599407478454e-19
 6.797014086496390e-03 -4.342293705969934e-04  3.057165407216209e-19
 6.826106939616594e-03 -2.440476662834750e-04  3.066110261369847e-19
6.890135355039887e-03 1.979544455007803e-05 3.083105699508069e-19
 6.835667235464853e-03 -3.529990376654190e-04  3.087027554972332e-19
6.895350846856340e-03 3.267986458245946e-04 3.133956333063769e-19
 6.861325197522361e-03 -3.662002553815224e-04  3.083536982397869e-19
6.908618935389568e-03 5.224790317164401e-04 3.080224396831148e-19
 6.976800244015118e-03 -3.293778922766430e-04  3.131725121640115e-19
6.963404244005344e-03 2.960586112462949e-04 3.145099795774526e-19
 6.809018272785737e-03 -2.999725373359678e-04  3.103452527010970e-19
6.934152393749725e-03 9.012406456382610e-04 3.126672492109345e-19
 6.926094241773939e-03 -4.358213549036653e-04  3.141216876304524e-19
6.900769972169224e-03 8.960420590954088e-04 3.164740456953283e-19
 6.852685328609050e-03 -4.803682316506106e-04  3.173816178517573e-19
6.827183742236415e-03 1.016029430502981e-03 2.914789403549944e-19
 6.950583300626618e-03 -5.340752046982086e-04  3.033830400616770e-19
6.816952495662288e-03 4.549527231311204e-04 3.082393673211002e-19
 6.624008988738532e-03 -1.191594598421150e-04  3.034643301986677e-19
6.212070213166020e-03 1.157600183959784e-03 2.751863591551673e-19
 6.341009622830287e-03 -3.745601887962574e-03  2.132150672579459e-19
8.170892781430805e-03 5.320240926276035e-03 4.002538060487736e-19
 2.028208088892916e-03 -3.386436473966080e-03  1.298401502021533e-19
 1.565019044442906e-03  2.684735629320647e-03 -6.660227022740708e-20
 7.867694326704672e-03 -7.301252176234967e-04  3.284824581128102e-19
6.413093413119852e-03 4.153279348453751e-04 2.897223827216749e-19
 6.494402002232595e-03 -1.825890916431242e-04  2.985643786525586e-19
6.466105591056830e-03 5.837557405143380e-04 2.766945721260689e-19
 6.904472605306623e-03 -1.127776823894470e-03  2.902231864478493e-19
 6.479115934545668e-03 -1.131119457025200e-03  3.070156696721497e-19
 7.146826889077244e-03 -2.242525880317325e-05  3.302535276288633e-19
6.931172409741598e-03 2.112624300165249e-03 3.079557452239398e-19
 7.354242827645245e-03 -3.623407201985567e-05  3.269230232612138e-19
6.822867890858361e-03 6.895140017060607e-05 3.116482479377274e-19
 6.832325112348755e-03 -3.131931445109184e-04  3.137616110709123e-19
 6.942068107094673e-03 -3.182237531320448e-04  3.166640987293473e-19
 6.988311681854775e-03 -4.862853192231017e-04  3.139125677675843e-19
 6.833610856534980e-03 -3.785817882273697e-04  3.231849069340209e-19
7.051996791426756e-03 1.610063052481014e-06 3.191542343946216e-19
 6.987049151257196e-03 -1.112878071688538e-03  3.198366160205326e-19
9.422595643802429e-03 1.977248548534215e-04 3.986600877627371e-19
 8.898768453205781e-04 -5.831505191562816e-03  2.636689168639000e-19
4.992701589087638e-03 1.799279165642018e-03 1.697708956318387e-19
 7.807361052061053e-03 -8.725354744895141e-04  3.550283955322363e-19
7.341763025088242e-03 1.838939403355208e-03 2.860277572964283e-19
 7.938407445180358e-03 -1.528769606708290e-03  3.410878395273968e-19
 7.314865627058435e-03 -5.868689983423470e-04  3.396628044664433e-19
7.345014336848656e-03 4.543692534919728e-04 3.455172510231348e-19
6.348462127399054e-03 1.197035624050278e-03 2.674453839204767e-19
 6.324855054116834e-03 -1.390773444680341e-03  2.797079915690312e-19
6.713007163101838e-03 7.273154145979326e-04 3.090362785401426e-19
6.533234224336049e-03 7.078380587252016e-04 3.002005373257566e-19
 4.333792363741254e-03 -3.602251478264346e-03  2.607153440776114e-19
4.389328755721449e-03 1.036158923819093e-03 2.416557119053166e-19
6.156543696709956e-03 1.832736238167916e-03 3.053953777341318e-19
 6.211827448737476e-03 -1.081621445527510e-04  2.738422095010510e-19
 5.847703191823007e-03 -1.406090843765096e-03  3.008286125187420e-19
 6.363908628077884e-03 -5.305314771501384e-04  3.037365386457653e-19
 6.823155684590427e-03 -1.261569843397863e-04  3.102075479885634e-19
 6.846803649786474e-03 -1.265942242494140e-04  3.117992048851289e-19
 6.724020894568567e-03 -9.136490090697473e-05  3.045368475971746e-19
6.937125318903347e-03 3.373754281591122e-04 3.002892550080532e-19
-6.799204327363207e-03  6.401818376000772e-04 -3.179854287990963e-19
-6.588009886597067e-03 -6.170167585327136e-04 -3.028213597284304e-19
-6.982036916090581e-03 -4.146588877671135e-04 -3.185431980676145e-19
-6.723118697928079e-03  5.223013562847240e-04 -3.137741425466006e-19
-6.976719763842800e-03  4.572661210132742e-05 -3.187729976877289e-19
-6.837801679939410e-03  4.481611926923303e-05 -3.145853644555828e-19
-6.798313026479526e-03  2.242378007622370e-04 -3.160132034754224e-19
-6.734419964129954e-03  1.133998863936227e-04 -3.161180602169277e-19
-6.665816316816762e-03  4.033696937340327e-04 -8.747423281490936e-20
-6.637261183738937e-03  1.779556875951888e-04  1.142477814606360e-18
-6.938411786444479e-03 -1.665238902561466e-04 -2.298911845059273e-19
-7.066545220038688e-03 -1.695991297332373e-04 -2.407766604384754e-19
-6.860410544093086e-03  1.019989506058019e-03 -3.314404975021630e-19
-6.847985827996740e-03  7.993434650446417e-04 -3.124035172019282e-19
-6.816059008924142e-03 -4.943556326389474e-04 -3.106922221323643e-19
-6.456584120314680e-03  4.033340553760942e-05 -3.087021598595913e-19
-6.231687921807720e-03  2.412154778643729e-03 -3.097308638403517e-19
-7.297946710165090e-03  3.283212780436203e-04 -3.147411801531823e-19
-6.870014328408450e-03 -1.890253570543288e-04 -3.316243158929157e-19
-6.883652783172430e-03  2.344560851352145e-04 -5.169910407849851e-19
-7.060308932676953e-03  2.404729646223874e-04 -5.218575733259263e-19
-6.899301284590624e-03 -2.041797069686781e-04 -1.138332269943937e-18
-6.934209211767975e-03  5.419513206015404e-04 -3.737419620710781e-19
-6.898711351038742e-03 -2.798095121258467e-04 -3.201979930479617e-19
-6.964868388753503e-03  2.258526018057403e-03 -3.221295709704307e-19
-7.173468322011222e-03 -7.671519099336279e-04 -3.201305853326265e-19
-7.075605014847433e-03  6.614805269558740e-04 -2.594037415170050e-19
-7.113818790273695e-03 -9.901371662313957e-04 -1.271885510719163e-19
-7.080968178664836e-03  2.743605456792418e-04 -6.437726678802583e-19
-6.344789887479932e-03 -2.102755809757730e-03 -2.543182663165094e-19
-6.418534786521881e-03  1.958880047196957e-03 -3.052027871682361e-19
-7.219001841729047e-03 -5.171337280144947e-04 -3.252387571729420e-19
-7.104646810662797e-03  6.517824147163808e-04 -3.237337521008840e-19
-6.885001056118808e-03 -1.317214611189114e-03 -3.133090485884199e-19
-7.106568506847713e-03  1.415310613998284e-03 -3.293791173768474e-19
-7.231347281453381e-03 -1.355605076891566e-03 -3.270747024911997e-19
-6.460486284489819e-03  2.279337173440135e-03 -3.153775225277531e-19
-7.328259896084581e-03 -4.668441758032535e-04 -3.346968615320865e-19
-7.085277793112020e-03  7.454247186640793e-04 -3.271958642514632e-19
-7.206503779843917e-03 -1.285711808487444e-04 -3.265592725829506e-19
-6.941247619553414e-03  5.056921290608141e-05 -3.195606641457563e-19
-6.956663246667375e-03  5.068152068882218e-05 -3.189321135266898e-19
-6.990181631443404e-03 -2.088675551806586e-04 -3.198339033489187e-19
-7.115407431037624e-03  1.931056755936599e-04 -3.244890689171971e-19
-7.024973843481867e-03 -6.198412096666056e-04 -3.205016958820378e-19
-7.211991067327400e-03  3.509586509932236e-04 -3.287043880447766e-19
-7.363628126372266e-03 -9.339673701990197e-04 -3.279498288909657e-19
-6.823265412945951e-03  4.978629025592462e-05 -3.183044057525313e-19
-6.779617493502621e-03 -2.538102391315784e-04 -3.157968048015223e-19
-7.214099176094006e-03  8.574886140520334e-04 -3.311314289631859e-19
-7.321223313505417e-03 -2.751380868093389e-04 -3.304769839710750e-19
-7.033120180469181e-03  3.503552378337660e-04 -3.283122032015361e-19
-7.072270084379247e-03  7.145478512311559e-05 -2.883899416848969e-19
-6.983048411630296e-03  7.055333263635574e-05 -2.848594641130193e-19
-6.986509797359848e-03 -1.055508761454342e-04 -2.159586716625769e-18
-7.079061158926933e-03  4.989021289940887e-05 -3.426774780315782e-19
-7.210673995904863e-03 -1.731360049531369e-04 -3.300668115025202e-19
-7.327713251038742e-03 -3.314939382398894e-04 -3.273575178477222e-19
-6.701065752869474e-03 -3.653490997414981e-04 -3.112755754459560e-19
-4.947422740922281e-03  4.803900114061674e-03 -2.543046983575306e-19
-7.899132502222371e-03  3.616214032661759e-04 -3.487751360939306e-19
-7.133009245327377e-03 -1.078020902063586e-03 -3.277818449512767e-19
-6.565766926078804e-03  3.943466231170550e-04 -3.102072738439319e-19
-6.997619911854307e-03  8.614046089449726e-04 -3.210966232070664e-19
-6.920910539588603e-03  1.193844129256617e-04 -3.139921021496012e-19
-6.491236489640571e-03  4.318928753599440e-04 -3.018631304953369e-19
-6.286021723413767e-03  4.182389597163741e-04 -2.894523444257454e-19
-6.492237999741202e-03 -3.948869366847827e-04 -2.916738160087877e-19
-7.417051560794790e-04 -2.889217108078556e-03  6.961974133475521e-20
-3.104619620893130e-03  3.585877841866948e-03 -2.650076599986367e-19
-7.066267660612353e-03 -2.200880987214929e-03 -2.923326898720683e-19
-6.776516733753704e-03  9.532697989355806e-04 -3.132130422448265e-19
-7.036254307441645e-03 -1.774496492394721e-03 -3.138131826070231e-19
-6.628224629469487e-03  6.584534274118770e-04 -3.141538946970516e-19
-7.126930630117463e-03  6.849158235812225e-04 -3.153037764882967e-19
-6.790905133965120e-03 -3.021479846766184e-04 -3.013965116639229e-19
-6.769015373528048e-03 -3.011740427836540e-04 -3.050081135190711e-19
-6.970348405948358e-03 -4.772715780720752e-05 -3.144527841938177e-19
-6.956748667886111e-03 -1.280485105669161e-04 -3.136177043532935e-19
-7.015947344231166e-03  2.014568446709140e-04 -3.162548823284968e-19
-6.914973666089276e-03 -4.087158055707436e-04 -3.071172999075418e-19
-6.903139476086832e-03  7.660082394586235e-04 -3.151019619357029e-19
-7.114130904476874e-03 -2.972997195482923e-04 -3.125652439271557e-19
-6.918116584262437e-03 -3.160882613371417e-04 -3.113357831880071e-19
-7.091909693999659e-03  3.044825046552770e-06 -3.199462423723601e-19
-7.136562841293715e-03  3.063996331461176e-06 -3.203329259971549e-19
-7.079727071694063e-03  5.190815517904610e-05 -3.300728788691521e-19
-7.056571772653291e-03 -5.186513480814534e-06 -3.334927964625629e-19
-6.726752428261194e-03 -9.297346350781548e-05 -6.351641975717756e-19
-7.041506421719472e-03  7.827964947365531e-04 -5.801412076969631e-19
-7.479383033496843e-03 -1.450418922566707e-03 -2.804040002430987e-19
-5.876485801511204e-03 -2.182630958940448e-03 -3.691717891396419e-19
-6.588967088197763e-03  1.319048820575480e-04 -3.074112929097514e-19
-7.237503373327787e-03  7.561501579830263e-04 -3.269724094989182e-19
-7.225235668928852e-03 -2.598272556981649e-04 -3.144788198459232e-19
-6.946043084166443e-03  6.269294865209351e-05 -3.084472578141546e-19
-6.918023982354156e-03  6.244005645290749e-05 -3.073403239844197e-19
-6.656587466555884e-03  2.408764530111372e-04 -2.996348764472915e-19
-6.696930185414730e-03  7.087075802532655e-04 -2.887217334699079e-19
-6.782516232004821e-03 -2.222565049508004e-03 -3.124832974616206e-19
-5.097713525825925e-03 -1.218224671661124e-03 -2.454863569052260e-19
-5.923401693378940e-03  9.136643925613405e-04 -2.685975747243419e-19
-6.886878075398123e-03  8.568204397393204e-05 -2.976958733898815e-19
-6.608355971011615e-03 -1.110941624753921e-03 -2.947344752391305e-19
-6.732735208659742e-03  2.459874651974076e-04 -2.971322843762751e-19
-7.010684035952550e-03 -5.171007794629127e-04 -3.063178606244693e-19
-6.922496568415501e-03  1.138058279408499e-04 -3.031993676093135e-19
-6.844393975535493e-03  1.125218214904039e-04 -2.994037145425451e-19
-6.511372683996043e-03  4.359574074474463e-04 -2.880391462314832e-19
-5.834525280069331e-03  1.769693913173406e-04 -2.583553700365794e-19
-5.309617833559310e-03  5.350176748025228e-03 -1.763397488596345e-19
-6.399733831021135e-03 -1.818346274512583e-03 -2.862021764945681e-19
-4.467792440683856e-03  2.873061914709980e-04 -2.240635201654836e-19
-4.640602702102330e-03  5.976494065503614e-03 -2.027272624601392e-19
-6.833583105004412e-03 -2.022510039745773e-03 -3.008642491479682e-19
-6.032693087552304e-03 -5.279839842243250e-04 -2.589331751585348e-19
-6.793728514828834e-03 -4.343915112559936e-05 -2.990734009068982e-19
-7.000499534184858e-03  1.199416230313595e-04 -3.026427206577444e-19
-6.855348849579480e-03  1.174547135457340e-04 -2.979021991903281e-19
-6.708432088810693e-03  5.783143087522663e-04 -2.749913869481888e-19
-6.821080791703403e-03 -2.566416469999969e-04 -2.888825029227034e-19
-6.912968174482250e-03 -2.286797890819397e-04 -2.891717373298683e-19
-6.904067194666023e-03 -1.056101435738919e-03 -3.244785249440023e-19
-6.744966191175274e-03  8.282070100142356e-04 -3.099697410482940e-19
-7.438577547608345e-03  9.118612369339944e-04 -3.293794500524725e-19
-7.001095953024463e-03  6.745131164453535e-05 -2.982721476478605e-19
-7.068065914671592e-03  5.871239507937116e-04 -3.015547912729813e-19
-6.982584671905449e-03 -2.340116198267467e-04 -2.973191611012281e-19
-7.024847091050702e-03  1.275646876379310e-03 -3.521906994451319e-19
-7.072235852231723e-03 -4.405447081037649e-04 -2.968760940892745e-19
-6.923552609491411e-03  1.065247331546273e-03 -3.089105259369079e-19
-6.936973800762763e-03 -6.670885279752744e-04 -2.976485860417631e-19
-6.803305015715961e-03  5.722045652426288e-04 -2.910116978632618e-19
-6.642314796470012e-03 -1.039706429646339e-03 -2.483117776107884e-19
-5.927841835988215e-03  2.741413617731098e-03 -3.642308945415470e-19
-6.391353650050241e-03 -5.457279892667633e-04 -2.715208192038364e-19
-7.081109920319670e-03 -2.818485994525140e-04 -2.834232368647786e-19
-6.440142353780712e-03 -2.483650068118948e-03 -4.433416958063954e-19
-5.762471703732012e-03  2.804953452585990e-03 -1.286533685918902e-19
-7.727493890833920e-03 -5.377565952671531e-04 -3.064358583805756e-19
-7.183502398209546e-03  9.119450818634965e-04 -3.058565800934777e-19
-6.874234434151783e-03 -2.100256079430728e-05 -2.680589173450429e-19
-6.679079761254263e-03 -2.040631288901903e-05 -2.612377761739541e-19
-6.729643180517279e-03 -2.974999048191270e-04 -2.657195720796613e-19
-6.805237228408412e-03  1.580931714487049e-04 -2.609211620201050e-19
-6.882124561802730e-03 -2.960289966473381e-04 -2.402251000559834e-19
-6.925525688130516e-03 -4.285535424292748e-04 -2.377161080077010e-19
-6.972062284765688e-03 -3.144665988258209e-04 -2.911993744559587e-19
-7.022004709703918e-03 -3.223513368515230e-05 -2.624949411401085e-19
-7.040815360604777e-03 -2.567328885832551e-04 -2.710739033283736e-19
-7.066636939350291e-03 -2.576744341514299e-04 -2.699795151755314e-19
-7.057763485062833e-03  8.930770914029819e-05 -2.485019213633444e-19
-6.956130283935242e-03 -2.860563567035595e-04 -2.349387226083643e-19
-7.010091830168776e-03  1.594995734411476e-04 -2.345702456028651e-19
-6.997580709939995e-03 -5.306048803973582e-04 -2.330764877840966e-19
-6.965841065405050e-03  5.467228863406391e-04 -2.190802198882107e-19
-6.992196287467744e-03 -7.269779460308544e-05 -2.054366541595539e-19
-6.850363098463838e-03  6.940317832016392e-04 -2.556289633116131e-19
-7.037640480660667e-03  1.523218025081377e-04 -2.083895820913127e-19
-6.893715557202723e-03  2.899593900641984e-04 -2.038557268437558e-19
-6.881722271230508e-03  3.461704093226117e-04 -1.862062510817106e-19
-6.799418516166379e-03  3.420302938898156e-04 -1.708002841277343e-19
-6.790690055998483e-03  1.301472528084150e-04 -1.557817760269836e-19
-6.836111645089516e-03  1.879294729056064e-04 -1.306925346582440e-19
-6.254191409852683e-03 -1.343754833863360e-04 -1.005372187988267e-19
-6.394562894946288e-03  1.408496490809726e-03 -7.128977848689476e-20
-6.540645422931864e-03 -9.711525441529877e-05 -6.535872798940075e-20
-6.587528715443342e-03 -6.077565190489603e-04 -4.456584307548759e-20
-6.606046640841958e-03  8.913873830716108e-05 -5.998087209050785e-20
-6.793101496400076e-03  1.094482374117255e-03 -3.206288628392907e-20
-6.581163911493785e-03 -7.758435138584879e-04  1.793734138121680e-19
-5.709124643092900e-03  3.265708125018899e-03 -2.546933850398278e-19
-7.111303204822533e-03 -3.748128140917018e-04  3.125902344594969e-20
-6.934115721507401e-03  4.482271890782987e-04  7.830201992745937e-20
-6.948200406652950e-03 -2.509099633719533e-04  1.467196638161805e-19
-6.917890487371941e-03  3.564326047213862e-04  2.589519607616597e-19
-6.818910953745653e-03 -1.211987867046838e-04  3.573104156768070e-19
-6.984596088339654e-03  3.661048218082904e-04  4.118917341043728e-19
-6.986696006285164e-03 -6.496362467533023e-04  5.945905372758993e-19
-6.788531156935592e-03  1.401926157279531e-03  6.858891569085476e-19
-6.646643894013898e-03  2.454753938550845e-04  9.522643603127639e-19
-5.453725781317172e-03  1.497927479571097e-03  8.560122630635040e-19
-5.105919589422626e-03 -8.707612395634598e-04  1.923432498650165e-18
-5.914198245755870e-03  1.691764230822476e-03  1.882295277104190e-18
-4.980514386304363e-03 -2.231240247304864e-03  3.281580537363067e-18
-5.357039771180399e-03  2.947738779881845e-03  2.887783527949155e-18
-6.623307760949139e-03 -2.361980464311120e-03  4.025426580429083e-18
-5.685389579201977e-03  3.362328489849970e-03  4.674647000218301e-18
-6.148370590933033e-03 -2.310447130760230e-03  6.860691715818583e-18
-6.738001345671088e-03 -1.905393411186526e-04  9.698976092362753e-18
-7.043335882054993e-03 -1.090632612224571e-03  1.373194208661740e-17
-7.207090687043841e-03  1.715675144076411e-04  2.033413953466425e-17
-7.214550287703297e-03 -8.769037587190861e-04  2.824400779596741e-17
-7.026922294516146e-03 -4.174790420127786e-06  3.932932198563148e-17
-6.987951848672096e-03 -1.091288181843531e-04  7.461042854036537e-17
-6.993949503877269e-03 -6.592543703880703e-05  1.368316933944034e-16
-6.976838075997416e-03 -6.576414357211671e-05  1.234909725766763e-16
-7.021701455711321e-03  1.993982916733237e-04 -1.231173311810839e-15
-7.016240860344867e-03 -1.347183109059080e-04  6.295822997919176e-15
-7.134705220686459e-03 -1.090415750488995e-04  5.489404439427629e-18
-7.029473231170461e-03 -1.349723846584881e-04  6.612569391037140e-15
-7.188103261441296e-03 -5.469369529466667e-04  1.432196023684854e-16
-7.435389932016096e-03  1.744385493695251e-03  8.571312958662819e-17
-7.739111034625105e-03 -9.272804578326318e-04  7.280496813549078e-17
-7.202228755423640e-03  4.763805043475746e-04  4.327020441146649e-17
-6.878357610533981e-03  2.462537418794523e-03  2.406833962481262e-17
-7.432970721080010e-03  1.931426337526301e-04  2.445202321996891e-17
-5.308727884663876e-03  1.845950673407334e-04  1.677457784290867e-17
 2.473078275032404e-03  7.927406400679026e-03 -1.313399716195609e-17
-9.317595639240842e-03 -3.200535079806054e-03  1.504066487965739e-17
-5.461898359823621e-03 -3.557120690205578e-04  1.015501503409713e-17
-5.960397054399673e-03 -4.400851047802830e-04  7.426942861172881e-18
-6.335815570226820e-03 -5.114650812775875e-04  5.093562253353566e-18
-6.437687307517854e-03 -3.939482347963313e-04  3.771029720212765e-18
-6.571273482414390e-03 -1.939503388803311e-04  3.045417270558366e-18
-6.927958887791000e-03 -3.945137280086537e-04  2.628954144858405e-18
-6.637664698517317e-03 -1.317665380224802e-03  2.424049737003337e-18
-6.895089791178166e-03  3.737956245157091e-04  1.494778939250621e-18
-7.062683914903596e-03 -6.099123452880910e-04  1.479461655972334e-18
-7.158449957044392e-03  4.303908011324809e-06  1.072334608495404e-18
-6.226360041171110e-03 -2.500722828137893e-03  1.307585464833115e-18
-7.083928603470568e-03  8.749853383208662e-04  5.697578919973214e-19
-6.450757248804918e-03 -2.710634223311401e-03  9.195352958000648e-19
-6.466517240251672e-03  1.115654433223338e-03  3.256660502570142e-19
-7.281912098702149e-03 -3.844750809406379e-04  4.243130905365893e-19
-6.943470604496549e-03 -9.718003581549100e-04  3.996024522944134e-19
-7.524895168905387e-03 -6.989008034498563e-04  2.346333680462504e-19
-7.890983971799116e-03  1.151112561540035e-04  6.144885790070639e-20
-8.352573274907446e-03 -2.934400134403376e-04  4.141242681043067e-21
-2.296271950715444e-03 -5.991394979174963e-03  4.145025383128243e-19
-9.030318040693644e-03  3.263184290414114e-03 -2.025601273890904e-19
-2.181510933136868e-04 -8.167832782898054e-03  3.538056451584256e-19
-5.016382396692535e-03  2.372349870130131e-03 -1.907657122113176e-19
-8.443630132715084e-03  5.922124656302345e-04 -1.369370769360789e-19
-7.548873630715072e-03  2.260163953376359e-03 -1.751485895320553e-19
-7.512004645263924e-03 -1.091988830539372e-03 -7.210514244324945e-20
-6.924238187737320e-03  6.378027105285429e-05 -1.163328093888972e-19
-7.450940776936285e-03  1.054223100955564e-04 -1.503456482864172e-19
-7.225331321588290e-03  8.840906441071120e-04 -1.763982395944542e-19
-6.970352156128084e-03 -7.592006670997062e-04 -1.333258649430417e-19
-6.621950954778083e-03  1.573691754955118e-03 -1.998252367629556e-19
-7.178388194010792e-03 -3.720701155492799e-04 -1.679733049859911e-19
-7.059814554157599e-03  2.141737141422124e-04 -1.885080396929137e-19
-7.221836485873108e-03 -8.847233681130481e-05 -1.925849671323455e-19
-7.146964959920983e-03 -1.352096968799263e-04 -1.978678059130991e-19
-7.194360028350515e-03 -1.361063394228654e-04 -2.103983865982820e-19
-7.186430468540680e-03  1.848321975776685e-04 -2.228680669615457e-19
-7.193050504985923e-03  6.886711669268197e-06 -2.240084001442050e-19
-7.203088318820842e-03  3.065573524598265e-04 -2.330888952364130e-19
-7.184606889184848e-03 -1.958128383797030e-04 -2.289977516270399e-19
-7.130237722413378e-03 -4.086180357850710e-05 -2.362177029132744e-19
-7.179161586287372e-03 -1.632954837395297e-05 -2.430612407167213e-19
-7.154878341973092e-03  1.198858165163298e-04 -2.489593684989845e-19
-7.111219726389195e-03  1.191542808385609e-04 -2.518683518595547e-19
-7.143613534893737e-03  2.561729613731241e-04 -2.584363277357770e-19
-7.092972631180611e-03  7.776691716863052e-06 -2.595303507718256e-19
-6.930914882491892e-03  6.494878199538144e-04 -2.659327919657464e-19
-6.700007355069714e-03  5.883128194721907e-04 -2.557200897140384e-19
-6.774091565583597e-03 -3.052988618711213e-04 -2.520891610181327e-19
-7.001286483289532e-03  2.182387155927502e-04 -2.728458650379439e-19
-7.001788856757558e-03  3.624794831686973e-04 -2.766589545301536e-19
-6.981427133505710e-03  3.614253658464319e-04 -2.769077999978429e-19
-6.909636226783828e-03  2.958043352163865e-04 -2.761977975520779e-19
-6.842589941497119e-03  4.579319812247851e-04 -2.763640241044725e-19
-6.907836641487588e-03  4.283083874004148e-04 -2.767268206812997e-19
-6.725018916911882e-03 -9.894167083693377e-04 -2.651842305628839e-19
-6.700988214103486e-03  9.979845857639104e-04 -2.877581524090973e-19
-6.344331380918066e-03  9.448673423732581e-04 -2.700221495672258e-19
-6.768746431424700e-03  2.007922006355074e-03 -2.803356528538731e-19
-4.048032825759810e-03 -8.092689322014696e-04 -1.703661838350398e-19
-1.820536581416621e-03  2.506331187729040e-03 -2.032497029473551e-19
-4.100653551299584e-03  3.146603010634835e-04 -1.564273496668725e-19
-6.018775786933471e-03  7.339269433036930e-03 -1.699779889219570e-19
-1.183158004577674e-03 -5.516034883718555e-03  1.269313271010007e-20
-1.580818419913000e-03  3.497598836954716e-04 -1.308180012655949e-19
-6.761195634228507e-03 -8.713228377495119e-04 -2.870058518598742e-19
-8.380942955813937e-03  6.019324286808753e-04 -3.536598377002704e-19
-8.209175835363458e-03 -9.244425222563026e-04 -3.369894144568813e-19
-7.631197753105016e-03  2.864930648546284e-04 -3.189143820004078e-19
-7.336371412706327e-03 -2.413300061636850e-05 -3.056666093784369e-19
-7.071248622874444e-03 -2.326087895151594e-05 -2.982127788984490e-19
-7.002243117479203e-03 -4.719283515868133e-05 -2.967106803435573e-19
-6.941519473776428e-03 -1.519930952779528e-04 -2.948618281765626e-19
-7.234518041507060e-03 -2.810765507553590e-04 -3.045200064088328e-19
-6.858510766013778e-03 -1.642545687425009e-03 -2.886176707800921e-19
-6.993840857497181e-03  1.610598362597263e-03 -3.200170188572676e-19
-8.466400981882975e-03 -2.854355424141970e-04 -3.540624771950894e-19
-5.109057222730312e-03 -4.881254530881889e-03 -1.878802549163448e-19
-6.734383942431688e-03  7.033948964582142e-04 -3.073682720759975e-19
-7.412234883691351e-03  6.007328958520439e-04 -3.219808026137479e-19
-7.295385178630952e-03  6.206754702142077e-05 -3.131832711175807e-19
-7.081980952854752e-03 -8.177705446779830e-05 -3.075699807568026e-19
-7.134337288409443e-03 -8.238162357535343e-05 -3.100554788039699e-19
-7.178972435366681e-03 -3.054736411820354e-04 -3.111969114848115e-19
-7.235772534828429e-03 -2.279732182046375e-04 -3.136051220765416e-19
-7.234556445189107e-03 -4.165150313384527e-04 -3.124845658536916e-19
-7.230120170843578e-03 -5.216527905631028e-04 -3.132166276130738e-19
-7.223877539477850e-03 -3.871756619436824e-04 -3.141287910569172e-19
-7.138992951299866e-03 -6.142351127915103e-04 -3.105125623204095e-19
-7.127066024651249e-03 -2.704734265548528e-04 -3.117075813910448e-19
-7.276250718325815e-03  1.961890080039117e-04 -3.174145436922403e-19
-7.168093039629309e-03 -4.276311847779608e-04 -3.115960797996220e-19
-7.214642313775619e-03  1.880249234680121e-04 -3.146764345555249e-19
-7.246826302570394e-03 -5.432212156387376e-04 -3.141524380125044e-19
-7.230878805356823e-03  3.757032034855626e-05 -3.173388697460145e-19
-7.004734557289501e-03  3.639531630360140e-05 -3.151976517398034e-19
-6.197692703145415e-03  1.551668850042063e-03 -2.823493416877385e-19
-5.837236549618876e-03 -9.410834346811370e-04 -2.574509221366179e-19
-6.582346921976091e-03  3.520754939689244e-03 -2.861074557692934e-19
-6.309654798894586e-03 -3.906551657377035e-03 -2.651828084860501e-19
-6.014175754844075e-03  1.748630059296625e-03 -2.904102655187605e-19
-6.436247179186828e-03 -2.086178949034219e-03 -2.797772775175741e-19
 1.325461491649759e-04  5.690225680553589e-03 -7.422635547510708e-20
-7.164062332414288e-03  3.705088161715900e-05 -3.247898298401047e-19
-7.202912954725374e-03  7.351780246206783e-04 -3.223971143950513e-19
-7.206701504914255e-03  4.552729728086001e-05 -3.163667402772210e-19
-6.921456760716202e-03 -2.901209714137990e-05 -3.087514258131739e-19
-6.963126663760971e-03 -2.918676142330798e-05 -3.111867505377907e-19
-7.026788811128266e-03 -1.893619709467965e-04 -3.140488205784066e-19
-7.129761515764832e-03 -3.929912170055191e-05 -3.186128992182445e-19
-7.218267969298772e-03 -2.816726942556311e-04 -3.207620989559704e-19
-7.116599470369713e-03 -6.486672461348393e-04 -3.164245018795692e-19
-7.599075933147508e-03  1.291396868192346e-04 -3.355384892180108e-19
-7.611147998981375e-03 -1.241809098432689e-03 -3.348043065484089e-19
-6.832726805863911e-03 -4.975125525645001e-04 -3.139447141121163e-19
-6.995631521301050e-03  2.698331205311575e-03 -3.261522270602875e-19
-7.395504337141770e-03 -5.576414154695347e-04 -3.318026821024772e-19
-7.394075652163770e-03  1.980290462237401e-03 -3.283210798990770e-19
-7.367780994483996e-03 -1.556078023310924e-03 -3.235711705196998e-19
-6.772942012631364e-03  8.576680531827688e-04 -3.128937455785982e-19
-6.745739222172817e-03 -7.085080295736819e-04 -3.047286500977582e-19
-6.910920737264199e-03  7.535361323651412e-04 -3.202881516453207e-19
-7.507129722073865e-03 -8.273559952636557e-04 -3.357819781930731e-19
-7.382240265615712e-03  1.044883891597797e-03 -3.497695952663599e-19
-8.474100319736061e-03  1.636108632405808e-03 -3.740971434607866e-19
-8.413908977619896e-03 -2.002773166459320e-03 -3.668886357378487e-19
-7.625665053061924e-03  1.346048987264830e-04 -3.457315371605670e-19
-7.506387566102882e-03  7.963356256606240e-04 -3.415669042908939e-19
-7.485574105999172e-03  7.044062808711595e-05 -3.365233957625344e-19
-7.165686786850665e-03  2.688855819677607e-04 -3.282223467435622e-19
-7.127601308021586e-03  2.674564605947378e-04 -3.251350167374562e-19
-7.074520854397939e-03 -7.811565284094510e-05 -3.229536490816713e-19
-7.167913210695860e-03  2.660041263304236e-04 -3.273404395806679e-19
-7.126190669086407e-03 -2.560652885104586e-04 -3.248558924904181e-19
-7.188856721718046e-03  6.779430615047403e-04 -3.294999261199516e-19
-7.966288900735086e-03 -8.007705324795794e-05 -3.517443322895214e-19
-6.305773384849364e-03 -4.165511238331353e-03 -2.727165327100784e-19
-6.326601814596770e-03 -5.322901066850378e-04 -3.000236021870394e-19
-3.891275466512987e-03  5.737204720189465e-03 -2.188636321399020e-19
-7.959701622648509e-03 -2.380405217770745e-05 -3.557316125300750e-19
-7.387255967918615e-03  2.355326951382052e-04 -3.368097202002360e-19
-7.290510085225095e-03  3.252991951008483e-04 -3.339351703602006e-19
-7.208172764832346e-03  3.788731685845498e-04 -3.340964702176015e-19
-7.190938660474201e-03  3.779673163056278e-04 -3.310314876288407e-19
-7.217622716009674e-03 -1.444578244580767e-04 -2.908842953468446e-19
-7.381340921246376e-03  1.613935138736585e-03  1.616514798762312e-19
-6.933859230211048e-03 -9.879932309570041e-04 -4.596302605909454e-19
-6.855200045337547e-03  3.346078038129177e-03 -3.042623618065197e-19
-6.100927122942694e-03 -2.741225952754913e-03 -2.761461652156018e-19
-5.044272342567532e-03  2.601921699706895e-03 -2.686820963085670e-19
-8.256999349683450e-03 -4.345231136177035e-05 -3.508152533236985e-19
-6.351210971241352e-03 -1.280932936866585e-03 -2.789041879075412e-19
-5.977935758804853e-03 -3.178974904023466e-04 -2.784011650625588e-19
-6.441102866967664e-03 -5.572379816092422e-04 -2.940051369568079e-19
-6.527631571158143e-03 -7.545174656815572e-04 -2.965398035322984e-19
-6.718862286795510e-03 -7.766214881513145e-04 -3.064433435562372e-19
-6.671230976613378e-03  2.720172573210427e-05 -3.065274349806291e-19
-6.469869449121809e-03 -3.263185583438011e-04 -2.927529277921699e-19
-7.592909135213034e-03 -3.829609209463274e-04 -3.286559520122244e-19
-8.308830348268642e-04 -6.643120869015014e-03 -1.582421534616338e-20
-6.714273392103240e-03  2.887931536417715e-04 -3.209069851643985e-19
-7.135642909909365e-03  3.069170256960229e-04 -3.230557748471503e-19
-6.268801702687508e-03  5.133941937207594e-04 -2.840017225823228e-19
-5.188319265442679e-03 -2.769181796789459e-03 -2.285238410814337e-19
-5.899336253980154e-03  7.715947900413090e-04 -2.786292678869880e-19
-6.571505539848999e-03 -1.923206894120437e-03 -2.942091817911034e-19
-5.855457470111303e-03 -5.421744085359431e-04 -2.848937860191308e-19
-5.522843691899672e-03  2.421144976275782e-03 -2.656058845336673e-19
-8.527211751179915e-03  7.591794704055610e-04 -3.391809905089277e-19
-5.664588061752634e-03 -2.387104367228862e-03 -2.509406350122531e-19
-8.263324151537516e-03  5.734115201380059e-04 -3.552528279757926e-19
-1.951204632759216e-03 -6.489681077839430e-03 -3.313822567979282e-20
-3.987814893916974e-03  4.870348711047315e-03 -2.995720983541161e-19
-7.740890462929246e-03  9.672014991308521e-04 -3.324356827319155e-19
-6.337179449740560e-03  1.624914611429487e-03 -2.956798708692698e-19
-6.220545248389094e-03  4.288531492894696e-04 -2.882148464624291e-19
-5.648244699147160e-03  8.993296027870725e-04 -2.716403312403226e-19
-5.868315318719111e-03 -1.267265578643856e-05 -2.709430587412184e-19
-5.665856341893406e-03 -4.982002707451354e-04 -2.667610176826862e-19
-6.239746558290387e-03  7.619376507028377e-04 -2.935901590000204e-19
-6.075855999983140e-03 -1.094255155975566e-03 -2.785111146361886e-19
-6.034405632620409e-03  1.033485470237400e-03 -2.901881236863466e-19
-6.545166555240665e-03 -5.811021643266076e-04 -2.992129683571408e-19
-6.726197574821039e-03  4.175936333446572e-04 -3.096597306842316e-19
-6.516368498197098e-03 -1.447720420858242e-03 -2.936556908274959e-19
-6.528662858528914e-03  3.251517305254857e-04 -3.020883902351725e-19
-6.692707601348880e-03 -6.997759163538900e-04 -3.050536060068517e-19
-6.694978968123384e-03  1.386836105664819e-04 -3.092370907416021e-19
-6.756039552856649e-03 -4.620715086486513e-04 -3.075916827100730e-19
-6.722485786269028e-03 -2.560485558902574e-04 -3.093005574179159e-19
-6.825119289387675e-03 -2.599576991885839e-04 -3.120532253998230e-19
-6.783517284804832e-03 -6.355535020414489e-04 -3.113692275826136e-19
-6.782863177215110e-03 -5.891010583405678e-05 -3.117406978927865e-19
-6.758641529673517e-03 -1.296801776945449e-03 -3.077944712446503e-19
-7.722621048056611e-03  8.813711606272041e-04 -3.423703898137318e-19
-7.392797817270133e-03 -3.592209801658678e-03 -3.344708888893591e-19
-8.551015596967979e-03 -5.489676466696188e-04 -3.852591533269590e-19
-1.025970610373267e-02 -6.586640676091307e-04 -4.499160204053809e-19
-4.598313935631223e-03 -2.591056292347642e-03 -1.990637584800110e-19
-2.518167407472196e-03  7.426649420990476e-03 -1.278643267615320e-19
-9.820534785757664e-03 -5.842917219573629e-03 -4.515642691736205e-19
-4.968805819574533e-03  5.967908749723564e-04 -2.447873535950925e-19
-5.908788295976276e-03 -5.876114585501981e-04 -2.799011487349472e-19
-6.233394661221770e-03  1.255292972871604e-03 -3.020472965864293e-19
-7.140298933997350e-03 -1.641238240001138e-04 -3.361141489768351e-19
-7.095441583423851e-03 -2.751699147091049e-04 -3.320966871398328e-19
-6.815898571609100e-03 -2.643288943421282e-04 -3.235714405835479e-19
-6.117553126078089e-03  3.726529074351899e-03 -3.204130996822962e-19
-6.862475760997427e-03 -5.972381293774501e-04 -3.209824521630939e-19
-6.490855700574470e-03  8.117271854826614e-04 -3.296466630948086e-19
-6.548406031990442e-03  8.189242594431479e-04 -3.222457861681826e-19
-6.664424263952902e-03 -2.757517495118185e-03 -2.787039424206468e-19
-6.359873806567676e-03 -7.230585306650794e-04 -3.090122232565985e-19
-6.007603588932982e-03 -2.282266979760411e-04 -3.198643412963566e-19
-6.841312411199609e-03  1.054105307600294e-03 -3.207866668458852e-19
-7.003192877188339e-03 -9.595750459961263e-04 -3.174444937133175e-19
-5.302325640295215e-03  3.000836321535084e-03 -2.155694868228001e-19
-4.754919599659620e-03 -1.573740071972969e-03 -3.471808370817530e-19
-8.639760893725318e-03  3.728797869031561e-03 -3.531756361647137e-19
 1.185525588881003e-03 -7.187610760700064e-03 -1.630834970193334e-19
-1.700168667052656e-03  6.770414736976294e-04 -2.486831789056762e-19
-8.607852459753878e-03  7.398116117696664e-04 -3.875816151433598e-19
-7.707301320107607e-03  1.680715783652992e-03 -3.412620926181002e-19
-7.004788337642592e-03 -1.550655389288247e-03 -3.311199419651757e-19
-6.527076385802028e-03  1.074363721154215e-03 -3.196831119233843e-19
-6.830009384262017e-03 -4.160852759366270e-04 -3.270722391102600e-19
-6.720934925427232e-03  1.393344288910214e-03 -3.236972394380748e-19
-6.845381254576685e-03 -4.929714973586725e-04 -3.155354883930064e-19
-6.904693363919284e-03  5.898933730349921e-04 -3.171707594146044e-19
-6.377864420078289e-03 -2.126776637366592e-03 -2.758625454620842e-19
-6.414246468419141e-03  4.906842814911739e-04 -3.209311726483292e-19
-6.666939225134657e-03 -3.933631058380602e-04 -3.181875820244888e-19
-6.685006815368061e-03  3.805099319158624e-04 -3.131787018350155e-19
-6.745567177791110e-03 -4.267024284754188e-04 -3.113797404055324e-19
-6.703927056700840e-03  1.479389096576640e-04 -3.212693176203936e-19
-6.691567855544275e-03 -3.348293696441393e-04 -3.196582722869607e-19
-6.643815920882880e-03  9.451523149365209e-05 -3.179852997981363e-19
-6.718733558278637e-03 -7.446533639632640e-05 -3.197999881475556e-19
-6.643483757276645e-03 -3.188508341539918e-05 -3.208075469987818e-19
-6.676701171924426e-03  7.230430161052344e-05 -3.214507907282871e-19
-6.728746556490077e-03  1.411788054639697e-04 -3.201819133622604e-19
-6.771271745444834e-03 -7.165237343512786e-05 -3.208388595179510e-19
-6.689236142914458e-03 -8.381551282349138e-05 -3.216441603682429e-19
-6.729049832080976e-03  1.734282877208776e-06 -3.235949244236803e-19
-6.567935901741495e-03 -1.296576755683564e-04 -3.216014415233195e-19
-6.821775696882368e-03  3.031321057263988e-04 -3.247250108132841e-19
-6.741288306823568e-03 -4.694421685384939e-04 -3.231927565712198e-19
-6.753831339888284e-03  2.209473086292887e-04 -3.260594764344176e-19
-6.672803396309318e-03 -6.177380116414050e-04 -3.223111480228509e-19
-6.691636285906130e-03  6.992687900019944e-04 -3.147512319531722e-19
-6.825637983290988e-03 -3.433065349502148e-04 -3.280619451613443e-19
-6.843748882425441e-03  3.311212676922272e-04 -3.312059713036608e-19
-6.824014105675304e-03 -5.841313711901526e-04 -3.281450200035456e-19
-6.736528896103515e-03  2.059302491441613e-04 -3.281250277761614e-19
-6.811436390094533e-03 -3.017474117662187e-04 -3.271469199086785e-19
-6.703854801930102e-03  4.174264792889031e-05 -3.264411639958783e-19
-6.826151908142882e-03 -9.309468622497424e-05 -3.267594047959561e-19
-6.777388377589771e-03 -8.412277605834123e-05 -3.275735234328004e-19
-6.909359241634693e-03  1.910587381866697e-04 -3.279036360410659e-19
-6.858883637383864e-03 -3.097553570339022e-04 -3.262936733793911e-19
-6.892888813749895e-03 -2.751188771038791e-05 -3.307450816781722e-19
-6.729664093292637e-03 -8.772461548735875e-04 -3.183809440771607e-19
-6.808240623620194e-03  4.210939038791491e-04 -3.322658167657794e-19
-6.973872748384158e-03 -3.125817132464849e-04 -3.279076002341948e-19
-7.117368001293238e-03 -7.365872611714151e-04 -3.277812537927448e-19
-6.800023454597618e-03 -6.345445531605982e-04 -3.353492528430775e-19
-7.087077128667834e-03  8.975760388233398e-04 -3.325739198982560e-19
-7.030602153511046e-03 -1.112133807191951e-03 -3.299728446915257e-19
-6.605750829452573e-03  1.456175136832278e-03 -3.418864813603652e-19
-7.123059400674090e-03 -5.195720565581767e-04 -3.431116602639103e-19
-6.986034057726001e-03  7.407022970561965e-04 -3.394066757168975e-19
-7.272242297780541e-03 -6.743697777173232e-05 -3.387801496541136e-19
-6.948533615078034e-03 -4.143344031512556e-04 -3.287330562933444e-19
-6.999592189665531e-03  1.315488355254626e-04 -3.387886190896905e-19
-6.977981756713888e-03  1.311426936799152e-04 -3.369531230933187e-19
-7.005475938429456e-03  1.632318747028075e-04 -3.362599527585697e-19
-6.861611016994572e-03 -4.511274297929063e-04 -3.347906103311365e-19
-6.670175386924604e-03  2.500340804998837e-04 -3.303699490811659e-19
-6.900785416861059e-03  9.377221284882795e-04 -3.281856460656096e-19
-6.908574085146587e-03 -6.605916360245546e-04 -3.262707912460282e-19
-6.552261307039647e-03  4.658301831446722e-05 -3.248450930156004e-19
-6.777413871294997e-03 -1.119362698093891e-04 -3.274269341659173e-19
-6.456640265047235e-03  2.517203048924224e-04 -3.277120486315098e-19
-6.947651601045621e-03  1.092072805452260e-03 -3.350438345493630e-19
-7.127161121606020e-03 -9.194792000543563e-04 -3.311335695602360e-19
-6.240525070718136e-03 -2.829131708127995e-04 -3.214744887216140e-19
-6.536716503389429e-03  9.292357348287277e-04 -3.338955211838451e-19
-6.749202355234137e-03 -3.795715552814567e-04 -3.239105438298587e-19
-6.581270828089851e-03 -2.438980426660799e-04 -3.299248115306351e-19
-6.617541216470263e-03  2.836189598579185e-04 -3.265989552253067e-19
-6.859364805829857e-03  4.220070037116431e-05 -3.313979842754996e-19
-7.108204970011933e-03 -5.643443753528069e-04 -3.301200853197901e-19
-6.672056913948250e-03 -8.960653424263520e-04 -3.415569189656666e-19
-7.072976684666219e-03  1.320390734905003e-04 -3.430651854712619e-19
-7.495007920375514e-03 -4.333121674566858e-04 -3.508063417132332e-19
-7.177393729003567e-03  1.915683317335237e-03 -3.346772539012902e-19
-7.473241835870432e-03 -3.560832512387457e-04 -3.486811397921144e-19
-7.038581536101713e-03  4.513659485697632e-04 -3.527214341304325e-19
-7.176508703609028e-03  1.912731849159039e-04 -3.472170003960757e-19
-7.058574499485199e-03  8.265062754128764e-04 -3.385707903119190e-19
-6.947488093741637e-03 -5.237864483966568e-04 -3.419914429702186e-19
-6.741730992092319e-03  6.187777495357796e-04 -3.349313464484205e-19
-6.804150711588249e-03 -3.331968787887725e-04 -3.329324678860339e-19
-6.858707879710720e-03  4.366664705838244e-04 -3.360690035755173e-19
-6.868951699243159e-03 -5.328279541117343e-04 -3.472425258123003e-19
-7.034496070255233e-03  5.066433543012746e-04 -3.429219949958500e-19
-6.967022636117455e-03 -5.517277593604603e-04 -3.337216564645682e-19
-6.551341555537539e-03  1.442487409828315e-03 -3.353664369192726e-19
-7.267196296738513e-03  9.528604016306546e-04 -3.335614655007120e-19
-6.831850627434050e-03 -1.554128318734321e-03 -3.349503933710427e-19
-5.517607470641039e-03  2.732013488777038e-04 -3.049862515663146e-19
-6.243361796607593e-03  3.910021629050540e-03 -6.774568653396744e-20
 9.944653450323533e-04 -8.254025464452036e-03  2.263080491496039e-19
-3.413916108071670e-03  4.811975457065352e-04 -2.633983986215214e-19
-6.501115670792677e-03 -8.039303458973645e-04 -3.044722833651684e-19
-6.555309472876378e-03  1.040106251931324e-03 -3.173992598234600e-19
-6.725053084527182e-03 -1.118005341695842e-03 -3.490689643209146e-19
-6.647594502460096e-03  7.561894637122682e-05 -3.264125868781076e-19
-6.940623697310205e-03 -1.301293956630708e-03 -3.289173377428469e-19
-6.334902771002595e-03 -3.701484460603939e-04 -3.322004808237703e-19
-6.560659626866107e-03  1.995170164104427e-03 -3.065449409642492e-19
-7.566025580678686e-03  2.797849514407939e-05 -3.438269130645497e-19
-6.809174641628161e-03 -5.132149743295137e-04 -3.330985391368071e-19
-6.658138657800577e-03  7.686968157256686e-04 -3.509309525182183e-19
-7.002965775641909e-03  1.455129648004355e-04 -3.371727627158624e-19
-6.541595165422876e-03 -1.808756930708805e-04 -3.305998466911695e-19
-6.613686498782790e-03  4.606297569868299e-04 -3.266358651965523e-19
-6.602967489510610e-03 -3.781032257143415e-04 -3.337575075188361e-19
-6.458954937975662e-03  2.366451659783181e-04 -3.306356804268306e-19
-6.619925708407855e-03 -1.669962086126069e-04 -3.232405210301179e-19
-6.614166751542083e-03 -3.825586869861130e-06 -3.316386495625856e-19
-6.702082756826495e-03 -8.021692157910110e-05 -3.320543008395203e-19
-6.592646297902974e-03 -1.295611836505538e-04 -3.333932029697145e-19
-6.643362810327476e-03  1.483110562754997e-04 -3.365052838458972e-19
-6.701275546865087e-03 -9.000602504872775e-04 -3.369548484721172e-19
-6.617618087299767e-03 -9.966705943320478e-05 -3.319558830113443e-19
-6.490199370204014e-03 -1.692918995221550e-04 -3.299501848845204e-19
-5.632933299331446e-03  3.999264285211392e-03 -3.155541035802790e-19
-6.789014182553512e-03 -5.066014117171462e-04 -3.342324330728517e-19
-6.732989545372135e-03  3.418563823370793e-04 -3.344932621787282e-19
-6.751711949034134e-03 -8.211087412403928e-04 -3.308082946036653e-19
-6.591613406674749e-03  1.644803061959390e-04 -3.349950881013069e-19
-6.677782639481952e-03 -1.389369511988728e-04 -3.376047708683152e-19
-7.014912990382134e-03  9.746143976943420e-04 -3.778906040158652e-19
-6.802328649929936e-03 -1.949160743632789e-03 -3.771906499348447e-19
-6.660764537162881e-03  1.894837311039272e-04 -3.406406790887470e-19
-6.393853096933943e-03 -1.422688772454823e-03 -3.152552536497164e-19
-6.502476488528286e-03  3.708417850888783e-04 -3.266451446779084e-19
-6.801068305379425e-03  9.368348901021785e-04 -3.347595038026053e-19
-6.693420493426780e-03 -5.606677612262541e-04 -3.537496987072575e-19
-6.782323116322568e-03 -1.523414388415045e-05 -3.464355218113964e-19
-4.020975873284936e-03  4.138652643275383e-04 -2.970663563668584e-19
2.799982711109976e-03 7.114416262688865e-03 2.447491272908318e-19
-8.802150711664739e-03 -2.155136380309657e-03 -3.950247959170058e-19
-4.834071947933947e-03 -8.855039264085385e-04 -3.029178699952095e-19
-5.902302392118016e-03  1.956408331986509e-04 -3.285101628316419e-19
-5.945180945117678e-03 -1.497573444667512e-03 -4.009865484992145e-19
-6.419855778842610e-03 -1.029156004773978e-04 -3.478108936112760e-19
-6.627201289814492e-03 -1.353663817319508e-03 -3.531284119691137e-19
-6.993492470596419e-03 -2.466236024203227e-04 -3.673417760025658e-19
-6.171737520609028e-03 -2.470934604135607e-03 -3.452810425253195e-19
-7.139520492920276e-03  5.008859195304129e-04 -3.853118679712137e-19
-7.420339479770126e-03 -2.681749882337689e-03 -3.118625498872648e-19
-1.067574820006337e-02 -3.159840367181978e-04 -4.453062470834114e-19
-5.994189076649325e-03 -1.101807579242143e-02 -1.184798678845824e-19
-6.624764750780628e-03 -4.877598346341424e-03 -3.362091390925758e-19
-2.838662910638243e-03 -2.979458366963314e-03 -3.083152952746758e-19
-5.827622866477946e-03  7.976271364846238e-03 -2.764402342320704e-19
-8.138263898457147e-03 -2.149698925051577e-03 -3.605208591421378e-19
-4.346658477357246e-03  6.359321492659087e-03 -2.446558565133154e-19
-7.276840240494659e-03 -3.161425267685737e-03 -3.272232830299775e-19
-6.413923007291393e-03  1.964096693262112e-03 -4.018535343827895e-19
-6.294876449823490e-03 -2.541428150546868e-03 -3.139084506586592e-19
-5.859584941075079e-03  3.471209128557981e-03 -3.870744482144688e-19
-7.651176345727413e-03 -1.652135021397204e-03 -3.654001768533081e-19
-6.997725031441503e-03  1.412937293452235e-03 -3.822003822527256e-19
-7.235425657174783e-03 -1.412206651615356e-04 -3.970788610566916e-19
-7.468107772469480e-03  5.243455618074214e-04 -4.152294642201264e-19
-7.176202952072583e-03 -1.016866017446532e-03 -3.872041833565600e-19
-7.103227046893506e-03  8.477340485681789e-04 -4.043150273397387e-19
-6.951880738238271e-03 -3.763474993119204e-04 -3.977550243519057e-19
-6.758160533643507e-03  6.926139375362788e-04 -4.360238864917609e-19
-6.433769936174506e-03 -7.173035036671611e-04 -3.646498845697235e-19
-6.345551945134117e-03  7.597483759850159e-04 -4.415582070019328e-19
-6.768752349793131e-03 -4.194533578149951e-04 -3.993727176446898e-19
-6.209537456229109e-03  5.846607358705156e-05 -4.133397555282594e-19
-6.112409352199740e-03  3.188008337928519e-04 -4.167815521048302e-19
-6.101545065913532e-03  1.885717327701667e-05 -4.187534388716290e-19
-1.155875101356131e-02  1.671743543133685e-03 -5.406992065212732e-19
 2.547988937162662e-03 -5.933410979015281e-03  2.981331093669506e-19
-2.567367806397176e-03  5.363291107857731e-04 -4.101497818575278e-19
-7.712272691360504e-03  5.626271260938689e-04 -4.949939665305189e-19
-7.641258808671760e-03  5.574465083526563e-04 -4.969054329889745e-19
-6.696183555494885e-03 -1.918472443358714e-03 -4.731672555123961e-19
-6.094855503883069e-03  3.060947430903948e-03 -5.271102440973099e-19
-7.021335276515679e-03 -4.904019065843741e-04 -4.987993756641662e-19
-6.328342138355128e-03  1.115215884256129e-03 -5.569429596849276e-19
-5.774248692638577e-03 -1.366904080251354e-03 -4.752253315915718e-19
-5.530540107545825e-03  2.149224888774702e-03 -5.480151451906567e-19
-6.343148508213816e-03 -9.150776245034849e-04 -4.895331513380302e-19
-5.424242083530390e-03  1.258032912267536e-03 -6.403532362220025e-19
-6.539982050693905e-03  3.937227663982037e-05 -5.871241367858494e-19
-6.218412704819115e-03 -8.760073872918662e-04 -5.310193465326710e-19
-6.236273475618125e-03 -8.758389863989734e-05 -6.154713697245168e-19
-6.692656456320945e-03 -5.884861927108190e-04 -6.479648687111299e-19
-5.910287000917816e-03 -7.363465527737499e-04 -6.422557929616978e-19
-6.836988885579413e-03  1.244906551694605e-03 -8.439008599485701e-19
-7.075966952881099e-03 -6.683387971464220e-04 -7.497940727164762e-19
-6.945452222773230e-03  5.288753530402726e-04 -9.117870206496949e-19
-6.774294370320614e-03 -9.389532157467629e-04 -8.648445808775279e-19
-6.692723394282563e-03  8.451794335183025e-04 -1.106294226091847e-18
-7.038037565939038e-03 -2.527379335294555e-04 -1.156641598884452e-18
-6.857258473385993e-03  1.047457408329752e-03 -1.446972337958169e-18
-7.127041386507418e-03  4.992669971296430e-06 -1.454602031302090e-18
-6.987078776771911e-03  4.894622677779420e-06 -1.722938097927769e-18
-6.954127699497406e-03  5.757520503717635e-05 -2.077578206732136e-18
-6.899471634029850e-03  5.712269189508277e-05 -2.509656553207183e-18
-6.908502652919093e-03  1.984412046881071e-04 -3.003360751691075e-18
-6.907609737498223e-03  1.092523816451815e-05 -3.750062198841079e-18
-6.800034970289530e-03 -2.427336305016874e-04 -4.628803850436990e-18
-6.946118020718851e-03  2.553273863283527e-04 -5.808779429276088e-18
-7.003456363203402e-03 -1.651816005053405e-04 -7.288636743270246e-18
-6.975468599236699e-03  2.089029554508531e-04 -1.220398414726835e-17
-6.896876886615454e-03 -3.354830238194492e-04 -1.799258934529529e-17
-6.864055517962606e-03  3.072857690283646e-04 -2.491192072620321e-17
-6.918366522859192e-03 -7.363822612218549e-05 -3.560571975431559e-17
-6.872100808346989e-03  2.634703283444980e-04 -5.003863342737993e-17
-6.903651137669002e-03 -2.941956050674780e-05 -6.640478192880405e-17
-6.871032104338058e-03  2.283808416097632e-04 -8.915897874595826e-17
-6.900221066753608e-03 -1.447889540626000e-05 -1.222066325033535e-16
-6.884193196685490e-03  3.817436710544098e-05  3.338282526312790e-16
-6.869091087819511e-03  4.529563153904096e-05 -6.268079165732795e-15
-6.898686160213057e-03  9.911289850979290e-06  8.697511502819359e-16
-6.887964161849099e-03  4.542008290604980e-05 -6.597371261261455e-15
-6.894413860660123e-03  2.767210665135153e-05 -1.432605546006984e-16
-6.899298589507377e-03  4.468074316314718e-05 -8.853950458008020e-17
-6.907664569628129e-03  4.984595631393673e-05 -6.919977744577099e-17
-6.901720527620945e-03  4.410924392828799e-05 -4.690354160682813e-17
-6.896322632570775e-03  5.799868822707612e-05 -2.434385060507645e-17
-6.866248166451283e-03  7.798075195650797e-05 -1.366021686661167e-17
-6.848349164823428e-03  7.777747098378826e-05 -9.111319108990198e-18
-6.911581132430841e-03 -7.472302716951971e-05 -5.735661916546345e-18
-7.044932969017727e-03 -1.227953361321602e-05 -3.609247077938458e-18
-6.863826558935913e-03  8.110776362000814e-04 -2.821935423895574e-18
-6.947984644356107e-03  6.395715464531890e-05 -2.439616420103153e-18
-6.782230240702316e-03  3.169817319060799e-06 -1.949618191633730e-18
-6.815669912481595e-03  3.185446049874676e-06 -1.549474365045485e-18
-6.787907190329671e-03  2.626574990927056e-05 -1.131231867351249e-18
-6.752383853494731e-03 -3.001275483390754e-05 -1.042662423101267e-18
-6.737643481227811e-03 -2.994723735317685e-05 -9.202315568663707e-19
-6.738793438248018e-03 -3.023369790512924e-05 -8.259837465605754e-19
-6.766124581550837e-03 -1.256692934069109e-04 -7.463721709058673e-19
-6.822081634064523e-03 -1.267086007926636e-04 -6.886889569744185e-19
-6.846985471577701e-03 -1.271711473546845e-04 -6.413829903629058e-19
-6.830340146438387e-03  6.892131965995062e-05 -6.131795349663013e-19
-6.850937846912021e-03 -5.319309197630962e-05 -5.872749092910407e-19
-6.778042406904610e-03 -9.873205570792691e-05 -5.575745072183103e-19
-6.778163126526159e-03  1.907881558320612e-04 -5.398906169929446e-19
-6.770638752397310e-03 -1.396302102290422e-04 -5.166028601508953e-19
-6.751774934029497e-03 -5.290039526055423e-05 -4.987659017314742e-19
-6.738806785785922e-03 -5.279878936068557e-05 -4.804044184438654e-19
-6.672854861809134e-03 -5.784645269716619e-05 -4.640542533233074e-19
-6.603964391309992e-03 -5.955285065236011e-06 -4.496237064722512e-19
-6.651825629734931e-03 -3.912229598757356e-04 -4.341331706990082e-19
-6.802028083315702e-03 -4.000570231451916e-04 -4.298413073461735e-19
-7.012615306988853e-03 -2.646824598588805e-04 -4.283486348166882e-19
-7.137473846747009e-03 -3.927858582426683e-04 -4.239747730817980e-19
-7.284979328528896e-03  5.590728505203307e-04 -4.274408467035652e-19
-7.149097390549992e-03 -9.231626354056317e-04 -4.041586161387971e-19
-7.023197506516506e-03  6.147355707123104e-04 -4.172342046278957e-19
-6.981561012461003e-03  1.647940531334269e-04 -4.051711586978104e-19
-6.815914307822638e-03  6.457769592349846e-04 -4.013628504986839e-19
-6.940066708017675e-03 -8.207876623842177e-06 -3.949454733219111e-19
-6.769443038357712e-03  2.892493000536938e-04 -3.925986099975024e-19
-6.861531341083451e-03  1.214863557190469e-04 -3.919264703157867e-19
-6.732232768580061e-03 -1.972245868472448e-04 -3.858011594608040e-19
-6.758797014594678e-03  3.014373908456726e-04 -3.861517769214315e-19
-6.735543164021560e-03 -2.249906963261479e-05 -3.779971883537392e-19
-6.911994576186092e-03  5.700635607471282e-04 -3.825842552931987e-19
-6.806975739565368e-03 -2.135003276418705e-04 -3.742036633371145e-19
-6.758958813630599e-03  5.002059654335808e-04 -3.764995489670714e-19
-6.816636946212276e-03 -6.315859793751128e-05 -3.701146483456592e-19
-6.781273243440859e-03  2.358704513579453e-04 -3.710568384905871e-19
-6.770108564584871e-03 -1.192911970242891e-04 -3.668252222091983e-19
-6.798283089541745e-03  1.072853157036107e-04 -3.657433362349271e-19
-6.631039764506230e-03 -9.523083951228608e-04 -3.546785228651603e-19
-6.669712482333284e-03  5.782096120309916e-04 -3.672801709019508e-19
-6.747406016477071e-03 -6.170772263835854e-06 -3.572287179692356e-19
-7.284935396636532e-03  5.490177063785472e-04 -3.678647815625666e-19
-6.557592308109072e-03 -1.104883619291646e-03 -3.479988608632814e-19
-6.232992281786225e-03  2.769878415503070e-03 -3.406469276045210e-19
-7.100966558994739e-03 -8.863841540726163e-04 -3.522983656584478e-19
-6.504104702938739e-03  1.366665759199980e-03 -3.557558350615205e-19
-6.602070033927765e-03 -5.062064189529736e-04 -3.461795566918673e-19
-6.774703088139994e-03  1.659546897558099e-03 -3.557318360500790e-19
-6.458549575436505e-03 -3.418531169243465e-03 -2.914526615825559e-19
-6.462713373277615e-03  2.442328337765650e-04 -3.428933172170915e-19
-6.402664727465489e-03 -1.246009333957256e-03 -3.319352003124031e-19
-6.207289091807688e-03  5.760963049969472e-04 -3.419976775288888e-19
-6.741683013992311e-03  4.137328341570668e-04 -3.457720186468672e-19
-6.700849672285551e-03 -1.301745356156696e-04 -3.383452584995544e-19
-6.273944199148068e-03 -1.880155619885855e-03 -3.150412950763869e-19
-6.203068824061681e-03 -3.997012398967385e-05 -3.386723895170213e-19
-6.809900181885943e-03  8.980435400522538e-05 -3.444211677978882e-19
-6.680571045139420e-03 -6.838699182257550e-04 -3.389323336836082e-19
-6.651630785508238e-03  1.010090880500928e-04 -3.401442791609499e-19
-6.868478494346912e-03 -2.682622946832071e-04 -3.391497572754180e-19
-6.671566130282894e-03 -6.860738817397271e-04 -3.333609304376980e-19
-6.626881639299256e-03 -1.412137960182324e-04 -3.376848943045037e-19
-6.865096824826196e-03  7.038293884357089e-04 -3.407803844813393e-19
-6.780754013420199e-03 -8.737441473708609e-04 -3.322067894903282e-19
-6.465080924066655e-03  2.242792283243538e-04 -3.313032411571852e-19
-6.503262103052805e-03 -2.148970242241859e-04 -3.284406193008966e-19
-7.091934471327816e-03  6.545388230619403e-04 -3.382329849939393e-19
-6.582017047137402e-03 -1.337384811092717e-03 -3.251782205465081e-19
-6.575522399561895e-03  4.635655933287479e-04 -3.314656936925801e-19
-6.759082755787664e-03  2.362233047193167e-04 -3.298637161220643e-19
-6.477622547062279e-03 -3.614246764852267e-04 -3.227448000529044e-19
-6.448529462509552e-03  1.100745849670332e-04 -3.269997956890927e-19
-6.656160475339253e-03  3.862113376723307e-04 -3.300848464645647e-19
-6.619829267116754e-03 -1.099862188345830e-05 -3.279286758513595e-19
-6.067028703106101e-03  9.065223024665686e-05 -3.197376307200674e-19
-6.736743114558696e-03  1.873944798702021e-03 -3.226579306314274e-19
-6.876577532640277e-03 -1.478465299352680e-03 -3.136107889134964e-19
-6.381811320919902e-03 -8.996362005141950e-05 -3.244784067827554e-19
-6.434308388172261e-03  1.768854977082368e-04 -3.273518180916853e-19
-6.674998113917197e-03  3.594075671340016e-04 -3.298999363048647e-19
-6.568865733171656e-03 -8.060621888118106e-05 -3.248089619853388e-19
-6.530911012516422e-03  1.653439666769120e-04 -3.257253875168979e-19
-6.555505698871593e-03  2.499871016964669e-05 -3.244058645090915e-19
-6.512592031968780e-03  1.077852594126779e-04 -3.229645614895636e-19
-6.553231165513824e-03 -3.922087075782031e-05 -3.221802578533474e-19
-6.477774234405401e-03 -5.610539792202302e-05 -3.207083055140210e-19
-6.412045493620433e-03 -5.044326565201119e-05 -3.196139816444823e-19
-6.504458762397872e-03  1.492998702745440e-04 -3.210075080599042e-19
-6.476791466454332e-03 -1.899752651999237e-04 -3.186048188305284e-19
-6.397741488231927e-03  7.726443433022826e-06 -3.169175281438689e-19
-6.589252849158339e-03 -1.483861535037563e-05 -3.187499420755152e-19
-6.496619112683944e-03 -2.696546594185745e-04 -3.158984429891187e-19
-6.563980014581597e-03 -1.351465169170494e-04 -3.193565021746755e-19
-6.373266141007528e-03  2.874701555131557e-04 -3.193853272514364e-19
-6.480228793486756e-03  2.892173950276293e-04 -3.172243133650161e-19
-6.407785528539563e-03 -1.275417681202657e-04 -3.140594341192927e-19
-6.348298005433035e-03  9.022683128652269e-05 -3.143697693320407e-19
-6.486407779934296e-03 -4.000789224988302e-05 -3.161187702298454e-19
-6.202206551199426e-03 -1.643451786324914e-04 -3.124180925426439e-19
-6.406236383064611e-03  7.741237010186089e-04 -3.169206483182535e-19
-6.464345376053389e-03 -3.074943485686852e-04 -3.137988990107938e-19
-6.491606073381913e-03  2.805777782095932e-04 -3.141981079055728e-19
-5.677643861511547e-03 -1.819940062072422e-03 -2.813484010944163e-19
-5.863177889308063e-03  1.015728657798703e-03 -3.062631085174700e-19
-6.432903408995246e-03 -3.542175646340168e-04 -3.109474400292083e-19
-6.408327346611223e-03  6.316269325904185e-05 -3.150347065106722e-19
-6.536417900457503e-03 -1.717588597563940e-04 -3.167258416903687e-19
-6.529308505048284e-03  1.712854674809166e-04 -3.177786827726234e-19
-6.718753349126248e-03  5.369020894600555e-06 -3.190920041345061e-19
-6.522334196324520e-03 -1.374689707581428e-04 -3.163485875188507e-19
-6.205138730709423e-03  2.521289023739395e-04 -3.119564924100168e-19
-6.701933233471494e-03  9.818435605969526e-04 -3.150146780195554e-19
-6.707036267548214e-03 -5.707884340929027e-04 -3.139866472412450e-19
-6.389847000826403e-03 -1.861922969050582e-04 -3.147661671523375e-19
-6.353810833522132e-03  3.910900887129962e-04 -3.172716441861608e-19
-6.699095978017543e-03  2.123298753665990e-04 -3.191209013336532e-19
-6.558973152849966e-03 -2.164225504650682e-04 -3.158074264403295e-19
-6.655804490816761e-03  6.985057949957881e-04 -3.272894497899835e-19
-6.681119911598389e-03 -2.735467275379989e-04 -3.470868938934855e-19
-6.552852606575871e-03  6.860553982072784e-04 -3.234644670645344e-19
-6.656849592700198e-03 -2.571874879468892e-04 -2.978709690168943e-19
-6.863351801850942e-03  4.257163330167057e-04 -4.563760637571872e-19
-5.816794086714292e-03 -1.892282387638856e-03 -2.699628308434534e-19
-5.356151764832243e-03  2.019171624466529e-03 -2.874897053691925e-19
-7.213980315951330e-03  7.003380501566590e-04 -3.304760847516148e-19
-6.537634588209069e-03 -3.615476121739615e-04 -3.159917305982410e-19
-6.533238003749453e-03 -6.272935976137504e-04 -3.200918935628936e-19
-6.555888315358342e-03 -2.152279038552040e-04 -3.244579171318381e-19
-6.858922240216985e-03  2.701864088208120e-04 -3.304594938668017e-19
-6.800371063088079e-03  1.362000432088742e-04 -3.272490648901927e-19
-6.710438987740154e-03  1.106921548776092e-04 -3.244681192948694e-19
-6.723371108163090e-03 -1.013745522963062e-04 -3.244276055122826e-19
-6.624446598781214e-03  1.997467549430726e-07 -3.247238319148038e-19
-6.725353261765053e-03  1.183455500771511e-04 -3.259021460459014e-19
-6.803511285475156e-03 -3.732740958900739e-05 -3.256597100567341e-19
-6.713535596775156e-03 -1.158770465132691e-04 -3.246323103796231e-19
-6.647736010085757e-03  3.604507877624839e-05 -3.244087641637899e-19
-6.736758642209491e-03  1.723315439271801e-04 -3.246570078606408e-19
-6.635067636635961e-03 -4.306760920262521e-04 -3.182285411291951e-19
-6.677653370558422e-03  1.504833686149209e-04 -3.221977573989989e-19
-6.523926108459492e-03 -6.095119817290678e-04 -3.154924754225502e-19
-6.554350688564548e-03  4.077384215936845e-04 -3.206672180932995e-19
-6.634480590813433e-03 -3.450195848596103e-04 -3.217455233161270e-19
-6.679295308620028e-03  1.039012298300958e-03 -3.239080314964527e-19
-6.478866989845978e-03 -7.678307426759129e-04 -3.125119597747484e-19
-6.540409831917091e-03  9.561866710759478e-04 -3.142309402195194e-19
-6.460700600592061e-03 -2.694073584204634e-03 -2.810702070112926e-19
-6.389851908938273e-03  8.677716470108307e-05 -3.152490236858511e-19
-6.603147606971732e-03 -6.494095195950305e-04 -3.160106974178755e-19
-6.813769154976563e-03 -1.579251780331395e-04 -3.260900011858577e-19
-6.849799942732270e-03 -2.404754093659938e-04 -3.271726727913202e-19
-6.657265576987571e-03 -2.337161199259272e-04 -3.263194227257979e-19
-7.161994512643865e-03  1.783341261555938e-03 -3.350967426277894e-19
-6.856242722376934e-03 -2.127253090837093e-03 -3.130873132141655e-19
-7.276231255986446e-03  5.335902618082013e-05 -3.445086952596980e-19
-7.472824873479133e-03 -1.664085972975982e-03 -3.452630455148783e-19
-7.765551136265382e-03  6.124253430456277e-04 -3.654669231153452e-19
-7.626918152790161e-03  2.794943031282572e-04 -3.572828587746667e-19
-7.621122833198719e-03  3.380961852379840e-04 -3.566103756306882e-19
-7.711851728094609e-03 -6.638350273950246e-05 -3.584301940461292e-19
-7.467818225700324e-03  1.281125796730258e-03 -3.533424902409306e-19
-7.246272888848364e-03 -6.821806864634439e-04 -3.398926671762169e-19
-6.473755047995841e-03  1.001725711770671e-03 -3.337170709578974e-19
-6.201897966784582e-03  1.020369924940351e-03 -3.221639813356617e-19
-7.970201305588573e-04  7.331077151481501e-03 -9.840369083504268e-20
-7.353756315244504e-03  3.263533535402274e-04 -3.389021399135990e-19
-6.593361751653867e-03 -3.266993798521307e-04 -3.211382411373236e-19
-6.633102396655616e-03  3.103184961320251e-04 -3.271172959453351e-19
-6.766699155157910e-03 -7.465349856320880e-05 -3.285230086163165e-19
-6.817824595762529e-03  3.459007410673428e-04 -3.286942465652060e-19
-6.825360683885351e-03  1.201864172872138e-04 -3.279788623031894e-19
-6.838026172181596e-03  5.723560001418549e-04 -3.323051533198455e-19
-6.789021294230140e-03 -3.434264097689498e-05 -3.238338153457291e-19
-6.633975550557615e-03  5.402775457558001e-04 -3.199377128849055e-19
-6.546133773740472e-03 -1.020722792889481e-04 -3.137671918356073e-19
-6.351450991319267e-03  4.811795661869243e-04 -3.127014927855693e-19
-5.968831048812732e-03  4.521926625327218e-04 -3.003812249082189e-19
-5.714000517884800e-03  9.731286973959800e-04 -2.840905111312266e-19
-7.150278432824638e-03  3.907144414571022e-05 -3.075065160706869e-19
-5.676024963744714e-03 -7.541066377562064e-04 -2.849841249797015e-19
-6.024647861503877e-03 -2.512020248331022e-04 -3.189098469670775e-19
-6.350778377586948e-03 -3.613018348632374e-04 -2.862561056798230e-19
-6.385357221160731e-03 -2.525008625295669e-04 -3.219797664990970e-19
-6.519378630280469e-03 -1.454689277206502e-04 -3.075128775705792e-19
-6.585124895211100e-03 -2.041487003054769e-04 -3.207354618544845e-19
-6.616046157078008e-03 -1.374680810405902e-04 -3.138892593332305e-19
-6.694045718120190e-03 -1.390887544343218e-04 -3.182223685448099e-19
7.953231029568667e-03 1.071478233373325e-03 3.475395188539505e-19
 7.167488100044270e-03 -1.013383442028288e-03  3.414306071238569e-19
 8.394024326636393e-03 -1.974494691972689e-03  3.632243932492090e-19
 6.103610658465704e-03 -4.238739409005994e-04  3.452084974826466e-19
-3.131235383985475e-03  1.101864639969966e-03  1.302570979005097e-19
-1.483572451902668e-03  6.906443539300109e-03 -1.002750825089714e-19
 7.819192583296721e-03 -3.108827161644942e-03  3.155439440150740e-19
 5.201612486409945e-03 -7.029020345749762e-04  3.052101238392790e-19
 6.370508612185308e-03 -8.608567970954303e-04  3.318796437795353e-19
 6.791436057110275e-03 -4.965884347734830e-04  2.214082290991900e-19
 6.932848996808520e-03 -5.069285204035236e-04  2.288918508415833e-19
 7.059228240313842e-03 -4.677209858971228e-04  3.863257573495167e-19
 6.883287265737112e-03 -4.560637220593026e-04  3.822000869902891e-19
5.856977330156277e-03 2.627088191914736e-03 2.745751126482633e-19
6.481804922634718e-03 7.146413627667397e-05 3.159507077101976e-19
 6.674764770967180e-03 -1.516659473003280e-03  3.297251627676607e-19
7.520901448604961e-03 8.874808300790101e-05 5.391559472671392e-19
 7.581816563115371e-03 -1.536435692728677e-03 -1.669605478635509e-19
 7.177585303085232e-03  2.812921136207921e-03 -4.974668284586070e-19
 8.133903760472004e-03 -9.622497798737521e-04  2.964748601879581e-19
7.454376763548527e-03 4.123638824122865e-04 3.513924214456416e-19
 7.469259432241394e-03 -1.328569178725481e-04  3.769820812085095e-19
7.338482657857763e-03 7.930435583242334e-04 4.928078392823695e-19
 7.310791814750196e-03 -1.931021112905984e-04  4.892046463265982e-19
 7.224194744208646e-03  4.339417385046853e-04 -1.110785067412418e-19
 7.216972754047474e-03 -5.469969252063540e-04  3.539202477892556e-19
7.133305958540771e-03 6.726048172498026e-04 3.268011698160977e-19
7.179279651104186e-03 1.436211246050133e-04 3.419484182951681e-19
7.087534519982648e-03 2.101051346815799e-04 3.427821874431837e-19
 7.074723482942111e-03 -9.050670008688476e-05  3.429053878545480e-19
 6.993297047984655e-03 -1.304770790639468e-05  3.407292266382115e-19
7.057344798650588e-03 3.580173291591265e-04 3.427111791010423e-19
7.075098746185325e-03 3.012058192392238e-05 3.424428754167201e-19
7.142125498879928e-03 1.225463458284952e-05 3.436455217454678e-19
 6.976103519832552e-03 -3.184338832760190e-04  3.335544386340695e-19
7.037677163516973e-03 3.390047106076222e-04 3.399208974984806e-19
 7.051355105205760e-03 -1.017566827409402e-04  3.415810463127644e-19
7.107631351625602e-03 7.531093242642882e-05 3.435394245967132e-19
7.155592043621333e-03 1.907669541643901e-04 3.436807732166730e-19
 7.088196197899395e-03 -1.340075126230768e-05  3.445323515068387e-19
7.119286008945392e-03 4.267868872054895e-04 3.353796793247256e-19
 7.080019672768399e-03 -1.509352980737031e-04  3.446691715801058e-19
7.125820836444006e-03 4.845409883698052e-04 3.426097726322341e-19
 7.044439492404892e-03 -4.318128366014476e-04  3.431166272994694e-19
6.927123695252674e-03 4.556692568864523e-04 3.747511274382088e-19
 6.958896629687221e-03 -1.552613178964718e-04 -5.519048699670327e-19
 6.956815042102281e-03 -6.483029828724071e-05  4.117297571548324e-19
 7.041701233014697e-03 -1.023915804062115e-04  1.211966161947383e-18
7.018165952131642e-03 2.000414257504085e-04 2.837407734679959e-19
 6.931475566770567e-03 -1.693096779529713e-04  3.389635014042791e-19
6.833106676911750e-03 2.022785507475040e-04 3.349404934997751e-19
 6.897616020699912e-03 -5.804036922800443e-06  3.360366074636830e-19
 6.823802097677637e-03 -1.534896375610005e-04  3.334518466682026e-19
6.895037353490276e-03 1.623724266247511e-04 3.351181971899682e-19
 6.897432843211795e-03 -2.605504207142539e-04  3.360183775209291e-19
6.925151994074759e-03 8.160323535651191e-05 3.364995942055442e-19
 7.106723339709298e-03 -2.617925259951818e-04  3.429621156207350e-19
7.163961285004150e-03 3.839041334454732e-04 3.394530700023692e-19
 6.587152382298837e-03 -4.102458292967926e-04  3.346403876218268e-19
1.391730956012773e-03 7.572169131609210e-03 4.689878382754678e-20
 7.324227078189441e-03 -1.282631832212300e-03  3.557940547813573e-19
6.867505241146420e-03 2.328168962962319e-03 3.673200249679723e-19
 6.289908351409819e-03 -3.265900932248282e-03  3.189166007531230e-19
6.058257655135918e-03 1.493733474658905e-03 2.983707896220192e-19
 4.854669917143625e-04  8.061836196473167e-03 -1.042465827357471e-20
 5.950182136015573e-03 -9.981064200437892e-04  3.542540693749815e-19
 6.142939774420961e-03 -1.030440327142257e-03  3.682955525231519e-19
 7.098377010234136e-03 -1.398128497922593e-03  3.534417508880639e-19
7.506636422316317e-03 5.233284489435978e-04 3.518612828834428e-19
 7.473082658754310e-03 -4.942701254255990e-04  3.629777823312012e-19
7.355703418176856e-03 7.488273414538309e-04 3.565063714545302e-19
 7.415089206301997e-03 -2.877461183484169e-04  3.553178914947314e-19
7.140308522382482e-03 3.140932321502618e-04 3.457684096508605e-19
 7.140279441632565e-03 -3.524374686007253e-05  3.503292736735734e-19
7.223173668620663e-03 9.845489442428094e-05 3.326762983683319e-19
 6.834512694162689e-03 -2.189366226113085e-04  1.355243960409534e-19
 6.893254261036160e-03  1.141081496793847e-03 -5.225898943654650e-20
 7.306016862087143e-03 -9.858648507410808e-06  4.104228490402856e-19
7.164947481781660e-03 2.093427784010052e-04 7.393408128177030e-19
 6.972185002392553e-03 -9.360829787314770e-04  6.684102579747532e-19
6.951404865893225e-03 2.644539625906041e-04 3.140033044129946e-19
7.108382209782231e-03 5.214838158670794e-04 3.467635327588192e-19
 7.034453326439663e-03 -1.456968565288602e-04  3.444035260760380e-19
6.863667934486075e-03 2.062269790972461e-04 3.403692174821878e-19
6.809973600998637e-03 2.671656253863039e-04 3.357847709780332e-19
 6.832154434760965e-03 -1.867611154697198e-04  3.406800622884766e-19
6.847525509554669e-03 5.205272692407974e-04 3.351052549239422e-19
 6.608264260703457e-03 -6.833916773374955e-04  3.384671006755428e-19
6.383810840817194e-03 1.804875411681459e-03 3.029334187660277e-19
 6.566333079495291e-03 -7.628098553715628e-04  3.255796109732380e-19
6.441497079537682e-03 1.214394632064443e-03 3.190115613302931e-19
 6.239232637979244e-03 -1.465601932245176e-04  3.154380925380748e-19
5.830608011447904e-03 7.180328521466978e-04 3.257332478228916e-19
6.719377958281822e-03 2.960115818447482e-04 3.165504826737428e-19
 5.424897507162514e-03 -1.544465060392663e-03  2.894498724653748e-19
4.081041625850506e-03 9.930013002654740e-04 2.991738756735302e-19
6.260615758001894e-03 2.035027067985736e-03 2.489499658552822e-19
 5.567441257437827e-03 -1.647376502334911e-03  2.790275482935436e-19
 6.436183973298162e-03 -5.656833478983585e-04  3.341896074927094e-19
 6.855136400397295e-03 -7.762563983226187e-04  3.409022160994243e-19
7.003184646318278e-03 1.427571318438042e-04 3.461714948994067e-19
 6.989481587779509e-03 -5.298279941311402e-04  3.560400532117804e-19
6.911389182394914e-03 3.897435453303847e-04 3.469712275576404e-19
 6.770680886100096e-03 -5.859937292995657e-04  3.589107162556691e-19
7.118884877861502e-03 1.168343491945106e-03 3.437307088491687e-19
 7.088363904415558e-03 -1.214256496806494e-03  3.595472093992631e-19
6.974335121995271e-03 1.445224156407487e-04 3.572610074600487e-19
 6.952043997573489e-03 -7.860891242529545e-04  3.604179780775938e-19
 7.103285095211379e-03 -5.836448884507290e-05  3.629155536513676e-19
 7.373748645193768e-03 -9.623569195102166e-04  3.763512525946027e-19
 7.914573561740428e-03 -3.643611607269652e-04  3.898369882567625e-19
-3.812029176256630e-03 -5.515487535993587e-03 -1.815504545554606e-19
7.431677541962780e-03 1.139917842234219e-03 3.692698877054474e-19
7.518966543033450e-03 1.408396945987159e-04 3.743265357001021e-19
7.145844574237080e-03 3.230986104914593e-04 3.673732030382486e-19
6.984401909100600e-03 3.678361503827022e-04 3.638401705190489e-19
6.932860447736671e-03 1.196051900309114e-04 3.644832944327164e-19
6.941924803805871e-03 1.197615676240186e-04 3.668042228069282e-19
7.001603738554429e-03 3.135788419248980e-04 3.665412623294924e-19
 6.941541157352351e-03 -2.328487621244420e-04  3.738065499793200e-19
6.848428045255496e-03 6.722174532475301e-04 3.645648295113080e-19
 7.009330582986282e-03 -8.974245045193932e-04  3.772047904230490e-19
6.691490190116397e-03 3.751081066457325e-05 3.694771726574207e-19
6.898947949528092e-03 3.867376667483280e-05 3.752250168145414e-19
6.948053655367998e-03 1.258572889022336e-04 3.778831985451277e-19
6.942086436459194e-03 1.654326733003285e-04 3.803666895447995e-19
6.967041991271596e-03 2.251759561462420e-04 3.816002439178786e-19
6.924656319860538e-03 9.986438486697454e-05 3.843162560366564e-19
6.872842588078142e-03 2.806245099295844e-04 3.847826616779746e-19
6.836902483582618e-03 7.335140866907542e-05 3.885236230342849e-19
6.977085220575425e-03 3.126609210939611e-04 3.902209398101071e-19
 7.006579498780502e-03 -1.479965929177729e-04  4.006945816620881e-19
6.998517199245860e-03 4.293401980306145e-04 4.014088948683860e-19
6.850720481727044e-03 2.742736022157823e-04 4.026949123452042e-19
6.662837405505402e-03 2.667515659207473e-04 4.036914623249979e-19
6.451446690564144e-03 2.432087585110881e-04 4.045352596454289e-19
 6.499504913673440e-03 -7.886162288873262e-04  4.179477369958398e-19
6.341622000099367e-03 1.663245895033642e-04 4.174834766197223e-19
 6.498222290908003e-03 -3.640070148405410e-04  4.286076699189439e-19
6.566932201812138e-03 4.051493227785206e-04 4.221768363129565e-19
 6.699553027681985e-03 -1.193268625017869e-04  4.345328224858068e-19
 6.659188166905315e-03 -1.186079171972420e-04  4.420451058670545e-19
 6.619770006242896e-03 -3.610698593272780e-04  4.489580156866454e-19
 6.628213175269920e-03 -1.061925595741851e-04  4.564784462896159e-19
 6.551727654121270e-03 -4.351783886633690e-04  4.713092361591143e-19
6.936884532399950e-03 8.497346898160423e-04 4.698045075378104e-19
 6.729819480783408e-03 -1.212110167259563e-03  4.888986457124410e-19
6.611700494779080e-03 8.845245063921582e-04 4.750998395490053e-19
 6.735442996042498e-03 -7.273406283020221e-04  5.059435081258005e-19
6.683114999881013e-03 7.341149982204910e-04 4.959956945432232e-19
 6.856753855128162e-03 -3.558777427611781e-04  5.312282741369332e-19
 6.877944286362991e-03 -9.160514949284379e-05  5.628009915296444e-19
 6.882552694935223e-03 -1.415074912866599e-04  5.995570842514567e-19
 6.888523492654728e-03 -1.416302528031665e-04  6.323167344024160e-19
 6.912647779092872e-03 -3.944396695408154e-06  6.685719405433685e-19
 6.889584966093080e-03 -1.855184033803957e-04  7.248030001341140e-19
6.972641925959954e-03 5.063623887585486e-04 7.567490353390323e-19
 6.997635211361073e-03 -3.053721176389943e-04  8.160787033493824e-19
6.884096520103999e-03 1.287479237140234e-04 9.122330975937438e-19
6.752762825335622e-03 8.423733562031494e-04 9.801859739303466e-19
 6.671370798454537e-03 -2.749640879161861e-04  1.051989742729792e-18
 6.702635614916235e-03 -2.762526839187124e-04  1.179483286338802e-18
 6.983265988887310e-03 -6.737457337766850e-04  1.412648964572024e-18
6.845472592423146e-03 6.332217746185178e-04 1.731164550038878e-18
 6.476284134119784e-03 -1.294659897052281e-04  2.207815622047312e-18
6.456754904561200e-03 3.643443641536246e-04 2.645601741580554e-18
 6.520075305599811e-03 -3.859040252250164e-04  3.279541420969434e-18
6.536247296698223e-03 5.198047398504983e-04 4.280929483681658e-18
 6.558237884588107e-03 -2.810524294034445e-04  6.119528447249758e-18
6.648487852800214e-03 6.674947737995539e-04 8.274167970196666e-18
 6.590168597612416e-03 -4.645569463551768e-04  9.913436582843165e-18
6.631557232905178e-03 1.103246248434166e-03 1.123865889357087e-17
 6.756377346188590e-03 -5.010971430229026e-04  1.478257572502133e-17
6.700572585174623e-03 5.286328282856167e-04 2.014863898658137e-17
 6.818981437149506e-03 -2.119808980439762e-04  3.300429862885683e-17
6.848537721610226e-03 2.421333712644164e-04 5.108833359013059e-17
 6.884893225695997e-03 -4.062926294221463e-05  7.879980377706943e-17
 6.906513032648089e-03 -4.075684615848563e-05  1.367416621692559e-16
 6.927363630714657e-03 -1.022201432181088e-04 -1.507951214380652e-16
 6.962709748011445e-03  2.140087630262667e-04 -1.644356454810703e-15
 7.026230889717252e-03 -8.671118447168134e-05  6.422745255545566e-15
 7.105079352254436e-03 -1.725132360443314e-05 -1.839662301169721e-15
 7.026991645278969e-03 -8.672057300651218e-05  6.727415302635959e-15
 7.144805289426389e-03 -1.343452961801161e-04  9.638540561133355e-17
 7.015545734620984e-03 -7.058011041579699e-06  1.440674729307355e-16
7.130238396395566e-03 1.317720794922260e-04 1.115125320313424e-16
7.071761640451269e-03 1.306913857896655e-04 7.103032710200042e-17
 6.969185983684386e-03 -3.109072119626670e-05  4.340977194262123e-17
7.043536870619145e-03 2.864669938347985e-04 2.907809328340331e-17
 7.000002053187286e-03 -2.658351074814645e-04  2.429060378716895e-17
7.014842898375786e-03 9.897278830537878e-05 1.579288945798572e-17
 6.781704109540691e-03 -5.288183308681893e-04  1.204381540092268e-17
6.840701954777920e-03 7.700550508082884e-04 8.442974928369170e-18
6.744242363776730e-03 1.582647607039573e-04 6.701447383850990e-18
5.967760933516780e-03 1.247499242379739e-03 4.217942256533711e-18
5.997581999394497e-03 6.143092760165914e-05 4.045131277588212e-18
8.799642473768838e-03 1.277627329235421e-03 3.104616121841986e-18
 3.269969781966377e-03 -3.669319894053214e-03  4.174553731493532e-18
 2.825597417011915e-03  3.355002602686082e-03 -1.532775830077347e-19
 8.004244005414793e-03 -1.368612957919897e-03  2.913006441780594e-18
6.783150816944043e-03 5.029286187743093e-04 2.047312516680184e-18
7.455715480638186e-03 4.895927358664128e-04 1.886713605219368e-18
7.219901450690527e-03 6.057114564508160e-04 1.580925512579066e-18
6.893705090503932e-03 5.783453111139322e-04 1.341682396780843e-18
6.613084851421524e-03 2.708606148750722e-04 1.221179826740978e-18
6.541554797768048e-03 7.932627774010041e-04 1.042876780054644e-18
6.500464229295632e-03 1.025276779921325e-04 1.054123343082237e-18
6.215498706680667e-03 7.911530063775506e-05 9.220236139474588e-19
5.719314910929103e-03 7.279951939074529e-05 7.923149966979247e-19
1.395085902355187e-02 4.315887118865747e-03 7.023419812710660e-19
-8.755410112223626e-04 -6.581744342358161e-03  3.396002439803013e-19
3.696833631171769e-03 2.039576659894142e-03 4.431256440362371e-19
9.088735938313865e-03 1.278497367309581e-03 6.843728644592817e-19
1.164256558953947e-02 4.728334394121532e-03 5.442405763053138e-19
 1.459081925640754e-03 -7.689013944289669e-03  4.714401215401161e-19
3.208146108287120e-03 2.685201685009571e-03 3.103826924811480e-19
 8.601450035194188e-03 -3.994637623024537e-04  7.016561413483074e-19
7.491783616457746e-03 6.383651852522610e-03 2.959905325716469e-19
 8.842587219361717e-03 -1.131106595824891e-03  6.752551593523026e-19
7.980440564753178e-03 1.492781807796239e-03 5.404921909852638e-19
 4.538348738166547e-03 -4.546812143194200e-03  5.652787937563588e-19
6.051979536536569e-03 3.029745794255741e-03 3.917763547276182e-19
 7.267639946969225e-03 -1.674673619827243e-03  5.835971400479613e-19
6.532617466167693e-03 2.297840646016461e-03 4.239548779930666e-19
 7.114508431963885e-03 -1.094917712439526e-03  5.338574734415032e-19
7.116291297148485e-03 9.911788616029133e-04 4.653049570340211e-19
 6.935119231308628e-03 -1.140257220043485e-03  5.014051047459209e-19
2.969103751196815e-03 5.998158875284128e-03 7.440804502841287e-20
 7.570744710819805e-03 -9.904345692596437e-04  4.693376910615579e-19
 6.545108706535062e-03 -2.093237725671028e-03  4.680755287272612e-19
7.587155392263368e-03 5.928516884369714e-04 4.492901087493673e-19
7.413229414013318e-03 5.792613104181244e-04 4.305784643322900e-19
7.056855130306149e-03 4.924084986642383e-04 4.189673281182546e-19
6.720914161744296e-03 5.706563794414137e-04 4.039675126311629e-19
6.243552058258653e-03 5.301247310522378e-04 3.840903466679758e-19
6.850965650546222e-03 3.249744016021313e-05 3.952449209266524e-19
 6.173718445888162e-03 -4.722242872933770e-04  3.902603998085149e-19
 6.568447532652831e-03 -5.024168954119994e-04  3.958429247535770e-19
6.691164720361905e-03 3.708707195195307e-06 3.873356208224937e-19
 6.752618121066808e-03 -4.752303940905677e-04  3.891261625946790e-19
 6.818375093048285e-03 -7.036470496451635e-04  3.919942979627150e-19
6.814424911434968e-03 7.621078903410852e-05 3.781703846816977e-19
 6.914882376526839e-03 -1.472502969122376e-03  3.901059619044686e-19
7.032132492770284e-03 5.713784413656324e-04 3.720954894580317e-19
 7.126852615355186e-03 -3.749855065984039e-04  3.732074326959975e-19
 6.610025593360728e-03 -5.648199442247929e-04  3.670106807952214e-19
 6.827119197528403e-03 -4.561510742715525e-04  3.703307971190364e-19
7.126191219419814e-03 3.590928333947225e-04 3.638004808234201e-19
 6.955859503535358e-03 -1.038386075280626e-03  3.719957691285665e-19
6.320173513897548e-03 3.496541901471700e-04 3.528661056980947e-19
6.762968065592256e-03 1.046324600712712e-03 3.455072483603478e-19
6.937572566938902e-03 2.632208692532895e-04 3.516449734200831e-19
 6.483674893569373e-03 -6.482988316740376e-04  3.518804458732780e-19
6.425198694054899e-03 1.188265413550734e-03 3.350920899618175e-19
 6.665400372453860e-03 -4.485447471703364e-04  3.557157767555783e-19
6.694513275643348e-03 1.065032703954964e-03 3.422920703540973e-19
 6.902199420482970e-03 -3.049176218233995e-04  3.582537182041757e-19
6.881592634122461e-03 6.350654345426884e-04 3.509925522155017e-19
 6.880780079992915e-03 -4.424598065968202e-04  3.592951437477961e-19
6.819466432237388e-03 5.992577514547972e-04 3.512829641890207e-19
 6.957817468452603e-03 -2.569165154816560e-04  3.600284025105589e-19
6.997365261706489e-03 2.752377254382555e-04 3.580381606782718e-19
 6.777543246149357e-03 -1.473922927538140e-03  3.603202380100971e-19
6.892690474859382e-03 2.525395417227074e-04 3.556631138415499e-19
 6.819807311820511e-03 -8.295637361208184e-04  3.606696355088195e-19
7.092434197915267e-03 4.533798774567860e-04 3.586406315968140e-19
 6.873766656892143e-03 -1.361026969277286e-03  3.641936336105980e-19
7.008001414613969e-03 8.705218694624702e-04 3.565168262380514e-19
 7.393111561149473e-03 -8.499788750669880e-04  3.763529859437646e-19
7.435369307878297e-03 1.021967560234485e-03 3.596458369576555e-19
 6.538957799988404e-03 -3.349153089355254e-03  3.534079724957398e-19
7.075360376399858e-03 2.131769975905496e-03 3.491692678887316e-19
 8.958440904625411e-03 -1.796404688546912e-03  4.194559918727011e-19
4.889536510010199e-03 2.955715437275122e-04 3.612037370679491e-19
6.544499390195118e-03 5.499960948130654e-03 2.740287500466433e-19
9.320514332945552e-03 3.014184888983487e-04 3.934301506088270e-19
6.634687556456811e-03 1.626709080844028e-03 3.340838809863225e-19
5.804661561043335e-03 1.423201257365333e-03 3.084286864196364e-19
5.755155939431823e-03 2.669912008178235e-04 3.088746730342210e-19
 5.304695467339094e-03 -1.865055344111696e-03  3.078847578421623e-19
5.858996279236408e-03 1.621194142223576e-03 3.080266429923076e-19
 6.196064291614803e-03 -1.265002244157519e-03  3.232007826373588e-19
6.547758042023962e-03 7.881818919142962e-04 3.208021159465188e-19
 1.759891181669172e-03 -5.693608181547566e-03  1.159307904334501e-19
5.781926758428283e-03 9.996803436943824e-04 3.123252771587109e-19
 6.404417019854874e-03 -2.302509666195076e-03  3.311773826740206e-19
6.587578372230170e-03 1.644514996790338e-03 3.209555864733474e-19
 6.593125847580702e-03 -2.408279507516927e-03  3.369630023556183e-19
7.690170718859705e-03 3.870970092738111e-04 3.665182179791229e-19
7.221524545945508e-03 3.635069566501675e-04 3.526154826250658e-19
6.108885634317223e-03 8.299847973337195e-04 3.206296823045971e-19
1.086951062183096e-02 3.351748630851069e-03 3.656182894677874e-19
 6.523809675687989e-04 -6.684694480374426e-03  5.712249330496995e-20
3.955626018446810e-03 2.980524163403269e-03 2.939609153828334e-19
7.906513632918062e-03 2.260076410122405e-03 3.554353580701094e-19
7.110757063900458e-03 4.139665760686344e-03 2.620234371213202e-19
-1.031108906998213e-03 -6.787542452502918e-03 -1.957985265013342e-20
4.272646875678234e-03 2.620591820110489e-03 2.939946514222855e-19
7.101938994596547e-03 8.798341093042729e-04 3.388354430355735e-19
6.189470401198807e-03 2.883060614494925e-03 2.740493931321466e-19
 3.768473299329699e-03 -4.079819075424498e-03  2.199923254480925e-19
3.706823249114439e-03 1.616403055144310e-03 2.572002410996208e-19
 5.411226790928370e-03 -1.376746775477068e-03  3.062582962955631e-19
 6.904397098977767e-03 -2.178564626578679e-05  3.386619257386806e-19
 6.096603435008029e-03 -5.783051231828071e-03  3.160185512075074e-19
5.481289770789382e-03 1.941682114213924e-03 3.503984643651447e-19
9.405214093008809e-03 2.084936865691675e-03 4.065428697817964e-19
9.226713926010746e-03 3.286546171843497e-04 4.061859023541074e-19
8.348581377271730e-03 1.849724760668786e-03 3.705878616170555e-19
7.846122283846013e-03 4.275923016437378e-04 3.699954702479441e-19
7.437348227135165e-03 3.345059179927840e-04 3.603827984634204e-19
 7.306113604854680e-03 -9.355145344345833e-05  3.593380725844554e-19
7.175284439326050e-03 2.874493204185583e-04 3.532811262515455e-19
7.057464516285381e-03 6.500534563895381e-05 3.499490660076299e-19
6.968086914528077e-03 6.418210070712210e-05 3.468159633306434e-19
 7.181218676832540e-03 -1.541261688695901e-04  3.499959470425249e-19
 6.698726719101709e-03 -1.090812667308937e-03  3.470520362765987e-19
6.843600069659191e-03 1.069036237321215e-03 3.407346134811274e-19
 7.480962540714384e-03 -4.739416318061936e-04  3.572114901521911e-19
 7.041792077512084e-03 -7.310943035278438e-05  3.482361348237935e-19
 6.996827214225689e-03 -6.329340118577782e-04  3.500813643383546e-19
7.144596910787786e-03 2.120241136504803e-04 3.509008378200894e-19
 7.246723158454417e-03 -6.781889363871051e-04  3.579868081911631e-19
 7.417686849706325e-03 -3.017011076130042e-04  3.446158894969566e-19
 7.642581149426208e-03 -1.664960012450773e-03  2.344272348301602e-19
 8.527944575749777e-03 -1.897292916099600e-04  4.082028207306103e-19
 8.234723348903778e-03 -2.368548821729418e-03  8.851115185881071e-19
 4.961842839494736e-03 -2.838093333416951e-03  4.032596859744439e-20
7.594062497380045e-03 2.404003683565906e-03 2.219026560635367e-19
8.583263558396210e-03 1.813976447950581e-03 3.373491467044241e-19
8.065885393320135e-03 1.210794378226704e-03 3.557318118191707e-19
7.298874893732995e-03 1.024617471979491e-03 3.432091559411355e-19
7.023620595240846e-03 6.451577755206972e-04 3.362592523328182e-19
6.645842523651920e-03 1.101130781826135e-03 3.233028695107733e-19
6.333784506026311e-03 1.744252186326282e-03 3.073183085709076e-19
6.297189712073011e-03 9.955729386842611e-04 3.094091364019774e-19
 6.353100819916859e-03 -2.065710046302276e-04  3.171262575441972e-19
6.526636097632217e-03 6.308505913104453e-04 3.174697341720177e-19
 6.638415962517461e-03 -6.997993315216470e-04  3.249590109262832e-19
6.675473814317588e-03 1.043686131690427e-03 3.171636810856500e-19
 6.753363711831051e-03 -1.089694879142020e-04  3.221317957689908e-19
6.135133226562941e-03 8.292397174851976e-04 3.117178301423678e-19
5.519712577071264e-03 1.467364113173356e-03 2.891591392949619e-19
5.843034835947143e-03 1.553316320474037e-03 2.736038618721904e-19
 3.657627300154420e-03 -4.726107375485137e-03  1.897521716647955e-19
5.537634138750223e-03 4.142491617527009e-04 3.056286832036998e-19
6.604858007833201e-03 4.940840844097389e-04 3.133573829872895e-19
 6.280442645550646e-03 -1.471712069110346e-03  3.180981956998417e-19
6.409161592871080e-03 4.827868223589817e-04 3.156223030893258e-19
 6.307868864800475e-03 -1.511632515126715e-03  3.161730184488711e-19
6.523383511361515e-03 1.637577491916844e-03 3.066227699599197e-19
 7.518938535174334e-03 -2.958661280170586e-03  3.322232202827814e-19
 5.995356621879674e-03 -1.039557048350005e-03  3.112494843851214e-19
6.270143402547365e-03 1.073981895058389e-03 3.063902105831813e-19
 6.431838744012167e-03 -7.814476007492335e-04  3.141407600596770e-19
6.625763694573518e-03 3.370556564989712e-04 3.137551359789987e-19
 6.616119235082436e-03 -1.721620119182350e-03  3.241756905577393e-19
4.091836436012982e-03 4.776790246365849e-03 2.016838145620402e-19
 7.609984287760384e-03 -2.794866405043395e-04  3.472894633706391e-19
7.232394578176333e-03 1.218998094702547e-03 3.294093907782362e-19
 6.115115706994428e-03 -2.187730185687820e-03  3.118104922364145e-19
6.592787653355569e-03 2.102357873819872e-03 3.010988360608633e-19
 7.007772053113315e-03 -1.214317809658655e-03  3.307708725532027e-19
6.928787876347492e-03 5.245002877766290e-04 3.293391323291250e-19
 6.814884103085582e-03 -4.705075780559260e-04  3.316903312230819e-19
6.797725211884566e-03 8.693006415610397e-04 3.243038998692316e-19
 6.878562898378729e-03 -3.007180209540943e-04  3.306055223366256e-19
6.763085147766845e-03 6.731674288847672e-04 3.265678546253557e-19
 6.897737017754943e-03 -3.194078047298431e-05  3.322833635095333e-19
6.786628979392853e-03 4.327801806233463e-04 3.306753835909851e-19
6.533272900445137e-03 4.166237810408801e-04 3.237432892181492e-19
7.349585121618951e-03 1.094328363979393e-03 3.295350267970881e-19
 6.729253199181189e-03 -7.278411635611403e-04  3.357330125452674e-19
7.162579405561970e-03 2.121660098620611e-04 3.450675809553448e-19
 7.174041411020178e-03 -9.745242762119517e-04  3.491420955773113e-19
7.109912735511554e-03 2.544062072308975e-05 3.442038821253999e-19
 7.174399645899188e-03 -6.822802577475874e-04  3.458588615015402e-19
 7.036061898198884e-03 -2.636166554015292e-04  3.416634031561321e-19
 6.957835061342907e-03 -2.606857691482555e-04  3.374617444790349e-19
7.126431503713265e-03 3.443278978189076e-05 3.374670571849721e-19
 6.863339644925207e-03 -6.406835148483522e-04  3.369699404797449e-19
7.132261061166259e-03 4.879796846794694e-04 3.337385837762554e-19

VECTORS velocity double
0.000000000000000e+00 0.000000000000000e+00 0.000000000000000e+00
0.000000000000000e+00 0.000000000000000e+00 0.000000000000000e+00
0.000000000000000e+00 0.000000000000000e+00 0.000000000000000e+00
0.000000000000000e+00 0.000000000000000e+00 0.000000000000000e+00
0.000000000000000e+00 0.000000000000000e+00 0.000000000000000e+00
0.000000000000000e+00 0.000000000000000e+00 0.000000000000000e+00
0.000000000000000e+00 0.000000000000000e+00 0.000000000000000e+00
0.000000000000000e+00 0.000000000000000e+00 0.000000000000000e+00
0.000000000000000e+00 0.000000000000000e+00 0.000000000000000e+00
0.000000000000000e+00 0.000000000000000e+00 0.000000000000000e+00
0.000000000000000e+00 0.000000000000000e+00 0.000000000000000e+00
0.000000000000000e+00 0.000000000000000e+00 0.000000000000000e+00
0.000000000000000e+00 0.000000000000000e+00 0.000000000000000e+00
0.000000000000000e+00 0.000000000000000e+00 0.000000000000000e+00
0.000000000000000e+00 0.000000000000000e+00 0.000000000000000e+00
0.000000000000000e+00 0.000000000000000e+00 0.000000000000000e+00
0.000000000000000e+00 0.000000000000000e+00 0.000000000000000e+00
0.000000000000000e+00 0.000000000000000e+00 0.000000000000000e+00
0.000000000000000e+00 0.000000000000000e+00 0.000000000000000e+00
0.000000000000000e+00 0.000000000000000e+00 0.000000000000000e+00
0.000000000000000e+00 0.000000000000000e+00 0.000000000000000e+00
0.000000000000000e+00 0.000000000000000e+00 0.000000000000000e+00
0.000000000000000e+00 0.000000000000000e+00 0.000000000000000e+00
0.000000000000000e+00 0.000000000000000e+00 0.000000000000000e+00
0.000000000000000e+00 0.000000000000000e+00 0.000000000000000e+00
0.000000000000000e+00 0.000000000000000e+00 0.000000000000000e+00
0.000000000000000e+00 0.000000000000000e+00 0.000000000000000e+00
0.000000000000000e+00 0.000000000000000e+00 0.000000000000000e+00
0.000000000000000e+00 0.000000000000000e+00 0.000000000000000e+00
0.000000000000000e+00 0.000000000000000e+00 0.000000000000000e+00
0.000000000000000e+00 0.000000000000000e+00 0.000000000000000e+00
0.000000000000000e+00 0.000000000000000e+00 0.000000000000000e+00
0.000000000000000e+00 0.000000000000000e+00 0.000000000000000e+00
0.000000000000000e+00 0.000000000000000e+00 0.000000000000000e+00
0.000000000000000e+00 0.000000000000000e+00 0.000000000000000e+00
0.000000000000000e+00 0.000000000000000e+00 0.000000000000000e+00
0.000000000000000e+00 0.000000000000000e+00 0.000000000000000e+00
0.000000000000000e+00 0.000000000000000e+00 0.000000000000000e+00
0.000000000000000e+00 0.000000000000000e+00 0.000000000000000e+00
0.000000000000000e+00 0.000000000000000e+00 0.000000000000000e+00
0.000000000000000e+00 0.000000000000000e+00 0.000000000000000e+00
0.000000000000000e+00 0.000000000000000e+00 0.000000000000000e+00
0.000000000000000e+00 0.000000000000000e+00 0.000000000000000e+00
0.000000000000000e+00 0.000000000000000e+00 0.000000000000000e+00
0.000000000000000e+00 0.000000000000000e+00 0.000000000000000e+00
0.000000000000000e+00 0.000000000000000e+00 0.000000000000000e+00
0.000000000000000e+00 0.000000000000000e+00 0.000000000000000e+00
0.000000000000000e+00 0.000000000000000e+00 0.000000000000000e+00
0.000000000000000e+00 0.000000000000000e+00 0.000000000000000e+00
0.000000000000000e+00 0.000000000000000e+00 0.000000000000000e+00
0.000000000000000e+00 0.000000000000000e+00 0.000000000000000e+00
0.000000000000000e+00 0.000000000000000e+00 0.000000000000000e+00
0.000000000000000e+00 0.000000000000000e+00 0.000000000000000e+00
0.000000000000000e+00 0.000000000000000e+00 0.000000000000000e+00
0.000000000000000e+00 0.000000000000000e+00 0.000000000000000e+00
0.000000000000000e+00 0.000000000000000e+00 0.000000000000000e+00
0.000000000000000e+00 0.000000000000000e+00 0.000000000000000e+00
0.000000000000000e+00 0.000000000000000e+00 0.000000000000000e+00
0.000000000000000e+00 0.000000000000000e+00 0.000000000000000e+00
0.000000000000000e+00 0.000000000000000e+00 0.000000000000000e+00
0.000000000000000e+00 0.000000000000000e+00 0.000000000000000e+00
0.000000000000000e+00 0.000000000000000e+00 0.000000000000000e+00
0.000000000000000e+00 0.000000000000000e+00 0.000000000000000e+00
0.000000000000000e+00 0.000000000000000e+00 0.000000000000000e+00
0.000000000000000e+00 0.000000000000000e+00 0.000000000000000e+00
0.000000000000000e+00 0.000000000000000e+00 0.000000000000000e+00
0.000000000000000e+00 0.000000000000000e+00 0.000000000000000e+00
0.000000000000000e+00 0.000000000000000e+00 0.000000000000000e+00
0.000000000000000e+00 0.000000000000000e+00 0.000000000000000e+00
0.000000000000000e+00 0.000000000000000e+00 0.000000000000000e+00
0.000000000000000e+00 0.000000000000000e+00 0.000000000000000e+00
0.000000000000000e+00 0.000000000000000e+00 0.000000000000000e+00
0.000000000000000e+00 0.000000000000000e+00 0.000000000000000e+00
0.000000000000000e+00 0.000000000000000e+00 0.000000000000000e+00
0.000000000000000e+00 0.000000000000000e+00 0.000000000000000e+00
0.000000000000000e+00 0.000000000000000e+00 0.000000000000000e+00
0.000000000000000e+00 0.000000000000000e+00 0.000000000000000e+00
0.000000000000000e+00 0.000000000000000e+00 0.000000000000000e+00
0.000000000000000e+00 0.000000000000000e+00 0.000000000000000e+00
0.000000000000000e+00 0.000000000000000e+00 0.000000000000000e+00
0.000000000000000e+00 0.000000000000000e+00 0.000000000000000e+00
0.000000000000000e+00 0.000000000000000e+00 0.000000000000000e+00
0.000000000000000e+00 0.000000000000000e+00 0.000000000000000e+00
0.000000000000000e+00 0.000000000000000e+00 0.000000000000000e+00
0.000000000000000e+00 0.000000000000000e+00 0.000000000000000e+00
0.000000000000000e+00 0.000000000000000e+00 0.000000000000000e+00
0.000000000000000e+00 0.000000000000000e+00 0.000000000000000e+00
0.000000000000000e+00 0.000000000000000e+00 0.000000000000000e+00
0.000000000000000e+00 0.000000000000000e+00 0.000000000000000e+00
0.000000000000000e+00 0.000000000000000e+00 0.000000000000000e+00
0.000000000000000e+00 0.000000000000000e+00 0.000000000000000e+00
0.000000000000000e+00 0.000000000000000e+00 0.000000000000000e+00
0.000000000000000e+00 0.000000000000000e+00 0.000000000000000e+00
0.000000000000000e+00 0.000000000000000e+00 0.000000000000000e+00
0.000000000000000e+00 0.000000000000000e+00 0.000000000000000e+00
0.000000000000000e+00 0.000000000000000e+00 0.000000000000000e+00
0.000000000000000e+00 0.000000000000000e+00 0.000000000000000e+00
0.000000000000000e+00 0.000000000000000e+00 0.000000000000000e+00
0.000000000000000e+00 0.000000000000000e+00 0.000000000000000e+00
0.000000000000000e+00 0.000000000000000e+00 0.000000000000000e+00
0.000000000000000e+00 0.000000000000000e+00 0.000000000000000e+00
0.000000000000000e+00 0.000000000000000e+00 0.000000000000000e+00
0.000000000000000e+00 0.000000000000000e+00 0.000000000000000e+00
0.000000000000000e+00 0.000000000000000e+00 0.000000000000000e+00
0.000000000000000e+00 0.000000000000000e+00 0.000000000000000e+00
0.000000000000000e+00 0.000000000000000e+00 0.000000000000000e+00
0.000000000000000e+00 0.000000000000000e+00 0.000000000000000e+00
0.000000000000000e+00 0.000000000000000e+00 0.000000000000000e+00
0.000000000000000e+00 0.000000000000000e+00 0.000000000000000e+00
0.000000000000000e+00 0.000000000000000e+00 0.000000000000000e+00
0.000000000000000e+00 0.000000000000000e+00 0.000000000000000e+00
0.000000000000000e+00 0.000000000000000e+00 0.000000000000000e+00
0.000000000000000e+00 0.000000000000000e+00 0.000000000000000e+00
0.000000000000000e+00 0.000000000000000e+00 0.000000000000000e+00
0.000000000000000e+00 0.000000000000000e+00 0.000000000000000e+00
0.000000000000000e+00 0.000000000000000e+00 0.000000000000000e+00
0.000000000000000e+00 0.000000000000000e+00 0.000000000000000e+00
0.000000000000000e+00 0.000000000000000e+00 0.000000000000000e+00
0.000000000000000e+00 0.000000000000000e+00 0.000000000000000e+00
0.000000000000000e+00 0.000000000000000e+00 0.000000000000000e+00
0.000000000000000e+00 0.000000000000000e+00 0.000000000000000e+00
0.000000000000000e+00 0.000000000000000e+00 0.000000000000000e+00
0.000000000000000e+00 0.000000000000000e+00 0.000000000000000e+00
0.000000000000000e+00 0.000000000000000e+00 0.000000000000000e+00
0.000000000000000e+00 0.000000000000000e+00 0.000000000000000e+00
0.000000000000000e+00 0.000000000000000e+00 0.000000000000000e+00
0.000000000000000e+00 0.000000000000000e+00 0.000000000000000e+00
0.000000000000000e+00 0.000000000000000e+00 0.000000000000000e+00
0.000000000000000e+00 0.000000000000000e+00 0.000000000000000e+00
0.000000000000000e+00 0.000000000000000e+00 0.000000000000000e+00
0.000000000000000e+00 0.000000000000000e+00 0.000000000000000e+00
0.000000000000000e+00 0.000000000000000e+00 0.000000000000000e+00
0.000000000000000e+00 0.000000000000000e+00 0.000000000000000e+00
0.000000000000000e+00 0.000000000000000e+00 0.000000000000000e+00
0.000000000000000e+00 0.000000000000000e+00 0.000000000000000e+00
0.000000000000000e+00 0.000000000000000e+00 0.000000000000000e+00
0.000000000000000e+00 0.000000000000000e+00 0.000000000000000e+00
0.000000000000000e+00 0.000000000000000e+00 0.000000000000000e+00
0.000000000000000e+00 0.000000000000000e+00 0.000000000000000e+00
0.000000000000000e+00 0.000000000000000e+00 0.000000000000000e+00
0.000000000000000e+00 0.000000000000000e+00 0.000000000000000e+00
0.000000000000000e+00 0.000000000000000e+00 0.000000000000000e+00
0.000000000000000e+00 0.000000000000000e+00 0.000000000000000e+00
0.000000000000000e+00 0.000000000000000e+00 0.000000000000000e+00
0.000000000000000e+00 0.000000000000000e+00 0.000000000000000e+00
0.000000000000000e+00 0.000000000000000e+00 0.000000000000000e+00
0.000000000000000e+00 0.000000000000000e+00 0.000000000000000e+00
0.000000000000000e+00 0.000000000000000e+00 0.000000000000000e+00
0.000000000000000e+00 0.000000000000000e+00 0.000000000000000e+00
0.000000000000000e+00 0.000000000000000e+00 0.000000000000000e+00
0.000000000000000e+00 0.000000000000000e+00 0.000000000000000e+00
0.000000000000000e+00 0.000000000000000e+00 0.000000000000000e+00
0.000000000000000e+00 0.000000000000000e+00 0.000000000000000e+00
0.000000000000000e+00 0.000000000000000e+00 0.000000000000000e+00
0.000000000000000e+00 0.000000000000000e+00 0.000000000000000e+00
0.000000000000000e+00 0.000000000000000e+00 0.000000000000000e+00
0.000000000000000e+00 0.000000000000000e+00 0.000000000000000e+00
0.000000000000000e+00 0.000000000000000e+00 0.000000000000000e+00
0.000000000000000e+00 0.000000000000000e+00 0.000000000000000e+00
0.000000000000000e+00 0.000000000000000e+00 0.000000000000000e+00
0.000000000000000e+00 0.000000000000000e+00 0.000000000000000e+00
0.000000000000000e+00 0.000000000000000e+00 0.000000000000000e+00
0.000000000000000e+00 0.000000000000000e+00 0.000000000000000e+00
0.000000000000000e+00 0.000000000000000e+00 0.000000000000000e+00
0.000000000000000e+00 0.000000000000000e+00 0.000000000000000e+00
0.000000000000000e+00 0.000000000000000e+00 0.000000000000000e+00
0.000000000000000e+00 0.000000000000000e+00 0.000000000000000e+00
0.000000000000000e+00 0.000000000000000e+00 0.000000000000000e+00
0.000000000000000e+00 0.000000000000000e+00 0.000000000000000e+00
0.000000000000000e+00 0.000000000000000e+00 0.000000000000000e+00
0.000000000000000e+00 0.000000000000000e+00 0.000000000000000e+00
0.000000000000000e+00 0.000000000000000e+00 0.000000000000000e+00
0.000000000000000e+00 0.000000000000000e+00 0.000000000000000e+00
0.000000000000000e+00 0.000000000000000e+00 0.000000000000000e+00
0.000000000000000e+00 0.000000000000000e+00 0.000000000000000e+00
0.000000000000000e+00 0.000000000000000e+00 0.000000000000000e+00
0.000000000000000e+00 0.000000000000000e+00 0.000000000000000e+00
0.000000000000000e+00 0.000000000000000e+00 0.000000000000000e+00
0.000000000000000e+00 0.000000000000000e+00 0.000000000000000e+00
0.000000000000000e+00 0.000000000000000e+00 0.000000000000000e+00
0.000000000000000e+00 0.000000000000000e+00 0.000000000000000e+00
0.000000000000000e+00 0.000000000000000e+00 0.000000000000000e+00
0.000000000000000e+00 0.000000000000000e+00 0.000000000000000e+00
0.000000000000000e+00 0.000000000000000e+00 0.000000000000000e+00
0.000000000000000e+00 0.000000000000000e+00 0.000000000000000e+00
0.000000000000000e+00 0.000000000000000e+00 0.000000000000000e+00
0.000000000000000e+00 0.000000000000000e+00 0.000000000000000e+00
0.000000000000000e+00 0.000000000000000e+00 0.000000000000000e+00
0.000000000000000e+00 0.000000000000000e+00 0.000000000000000e+00
0.000000000000000e+00 0.000000000000000e+00 0.000000000000000e+00
0.000000000000000e+00 0.000000000000000e+00 0.000000000000000e+00
0.000000000000000e+00 0.000000000000000e+00 0.000000000000000e+00
0.000000000000000e+00 0.000000000000000e+00 0.000000000000000e+00
0.000000000000000e+00 0.000000000000000e+00 0.000000000000000e+00
0.000000000000000e+00 0.000000000000000e+00 0.000000000000000e+00
0.000000000000000e+00 0.000000000000000e+00 0.000000000000000e+00
0.000000000000000e+00 0.000000000000000e+00 0.000000000000000e+00
0.000000000000000e+00 0.000000000000000e+00 0.000000000000000e+00
0.000000000000000e+00 0.000000000000000e+00 0.000000000000000e+00
0.000000000000000e+00 0.000000000000000e+00 0.000000000000000e+00
0.000000000000000e+00 0.000000000000000e+00 0.000000000000000e+00
0.000000000000000e+00 0.000000000000000e+00 0.000000000000000e+00
0.000000000000000e+00 0.000000000000000e+00 0.000000000000000e+00
0.000000000000000e+00 0.000000000000000e+00 0.000000000000000e+00
0.000000000000000e+00 0.000000000000000e+00 0.000000000000000e+00
0.000000000000000e+00 0.000000000000000e+00 0.000000000000000e+00
0.000000000000000e+00 0.000000000000000e+00 0.000000000000000e+00
0.000000000000000e+00 0.000000000000000e+00 0.000000000000000e+00
0.000000000000000e+00 0.000000000000000e+00 0.000000000000000e+00
0.000000000000000e+00 0.000000000000000e+00 0.000000000000000e+00
0.000000000000000e+00 0.000000000000000e+00 0.000000000000000e+00
0.000000000000000e+00 0.000000000000000e+00 0.000000000000000e+00
0.000000000000000e+00 0.000000000000000e+00 0.000000000000000e+00
0.000000000000000e+00 0.000000000000000e+00 0.000000000000000e+00
0.000000000000000e+00 0.000000000000000e+00 0.000000000000000e+00
0.000000000000000e+00 0.000000000000000e+00 0.000000000000000e+00
0.000000000000000e+00 0.000000000000000e+00 0.000000000000000e+00
0.000000000000000e+00 0.000000000000000e+00 0.000000000000000e+00
0.000000000000000e+00 0.000000000000000e+00 0.000000000000000e+00
0.000000000000000e+00 0.000000000000000e+00 0.000000000000000e+00
0.000000000000000e+00 0.000000000000000e+00 0.000000000000000e+00
0.000000000000000e+00 0.000000000000000e+00 0.000000000000000e+00
0.000000000000000e+00 0.000000000000000e+00 0.000000000000000e+00
0.000000000000000e+00 0.000000000000000e+00 0.000000000000000e+00
0.000000000000000e+00 0.000000000000000e+00 0.000000000000000e+00
0.000000000000000e+00 0.000000000000000e+00 0.000000000000000e+00
0.000000000000000e+00 0.000000000000000e+00 0.000000000000000e+00
0.000000000000000e+00 0.000000000000000e+00 0.000000000000000e+00
0.000000000000000e+00 0.000000000000000e+00 0.000000000000000e+00
0.000000000000000e+00 0.000000000000000e+00 0.000000000000000e+00
0.000000000000000e+00 0.000000000000000e+00 0.000000000000000e+00
0.000000000000000e+00 0.000000000000000e+00 0.000000000000000e+00
0.000000000000000e+00 0.000000000000000e+00 0.000000000000000e+00
0.000000000000000e+00 0.000000000000000e+00 0.000000000000000e+00
0.000000000000000e+00 0.000000000000000e+00 0.000000000000000e+00
0.000000000000000e+00 0.000000000000000e+00 0.000000000000000e+00
0.000000000000000e+00 0.000000000000000e+00 0.000000000000000e+00
0.000000000000000e+00 0.000000000000000e+00 0.000000000000000e+00
0.000000000000000e+00 0.000000000000000e+00 0.000000000000000e+00
0.000000000000000e+00 0.000000000000000e+00 0.000000000000000e+00
0.000000000000000e+00 0.000000000000000e+00 0.000000000000000e+00
0.000000000000000e+00 0.000000000000000e+00 0.000000000000000e+00
0.000000000000000e+00 0.000000000000000e+00 0.000000000000000e+00
0.000000000000000e+00 0.000000000000000e+00 0.000000000000000e+00
0.000000000000000e+00 0.000000000000000e+00 0.000000000000000e+00
0.000000000000000e+00 0.000000000000000e+00 0.000000000000000e+00
0.000000000000000e+00 0.000000000000000e+00 0.000000000000000e+00
0.000000000000000e+00 0.000000000000000e+00 0.000000000000000e+00
0.000000000000000e+00 0.000000000000000e+00 0.000000000000000e+00
0.000000000000000e+00 0.000000000000000e+00 0.000000000000000e+00
0.000000000000000e+00 0.000000000000000e+00 0.000000000000000e+00
0.000000000000000e+00 0.000000000000000e+00 0.000000000000000e+00
0.000000000000000e+00 0.000000000000000e+00 0.000000000000000e+00
0.000000000000000e+00 0.000000000000000e+00 0.000000000000000e+00
0.000000000000000e+00 0.000000000000000e+00 0.000000000000000e+00
0.000000000000000e+00 0.000000000000000e+00 0.000000000000000e+00
0.000000000000000e+00 0.000000000000000e+00 0.000000000000000e+00
0.000000000000000e+00 0.000000000000000e+00 0.000000000000000e+00
0.000000000000000e+00 0.000000000000000e+00 0.000000000000000e+00
0.000000000000000e+00 0.000000000000000e+00 0.000000000000000e+00
0.000000000000000e+00 0.000000000000000e+00 0.000000000000000e+00
0.000000000000000e+00 0.000000000000000e+00 0.000000000000000e+00
0.000000000000000e+00 0.000000000000000e+00 0.000000000000000e+00
0.000000000000000e+00 0.000000000000000e+00 0.000000000000000e+00
0.000000000000000e+00 0.000000000000000e+00 0.000000000000000e+00
0.000000000000000e+00 0.000000000000000e+00 0.000000000000000e+00
0.000000000000000e+00 0.000000000000000e+00 0.000000000000000e+00
0.000000000000000e+00 0.000000000000000e+00 0.000000000000000e+00
0.000000000000000e+00 0.000000000000000e+00 0.000000000000000e+00
0.000000000000000e+00 0.000000000000000e+00 0.000000000000000e+00
0.000000000000000e+00 0.000000000000000e+00 0.000000000000000e+00
0.000000000000000e+00 0.000000000000000e+00 0.000000000000000e+00
0.000000000000000e+00 0.000000000000000e+00 0.000000000000000e+00
0.000000000000000e+00 0.000000000000000e+00 0.000000000000000e+00
0.000000000000000e+00 0.000000000000000e+00 0.000000000000000e+00
0.000000000000000e+00 0.000000000000000e+00 0.000000000000000e+00
0.000000000000000e+00 0.000000000000000e+00 0.000000000000000e+00
0.000000000000000e+00 0.000000000000000e+00 0.000000000000000e+00
0.000000000000000e+00 0.000000000000000e+00 0.000000000000000e+00
0.000000000000000e+00 0.000000000000000e+00 0.000000000000000e+00
0.000000000000000e+00 0.000000000000000e+00 0.000000000000000e+00
0.000000000000000e+00 0.000000000000000e+00 0.000000000000000e+00
0.000000000000000e+00 0.000000000000000e+00 0.000000000000000e+00
0.000000000000000e+00 0.000000000000000e+00 0.000000000000000e+00
0.000000000000000e+00 0.000000000000000e+00 0.000000000000000e+00
0.000000000000000e+00 0.000000000000000e+00 0.000000000000000e+00
0.000000000000000e+00 0.000000000000000e+00 0.000000000000000e+00
0.000000000000000e+00 0.000000000000000e+00 0.000000000000000e+00
0.000000000000000e+00 0.000000000000000e+00 0.000000000000000e+00
0.000000000000000e+00 0.000000000000000e+00 0.000000000000000e+00
0.000000000000000e+00 0.000000000000000e+00 0.000000000000000e+00
0.000000000000000e+00 0.000000000000000e+00 0.000000000000000e+00
0.000000000000000e+00 0.000000000000000e+00 0.000000000000000e+00
0.000000000000000e+00 0.000000000000000e+00 0.000000000000000e+00
0.000000000000000e+00 0.000000000000000e+00 0.000000000000000e+00
0.000000000000000e+00 0.000000000000000e+00 0.000000000000000e+00
0.000000000000000e+00 0.000000000000000e+00 0.000000000000000e+00
0.000000000000000e+00 0.000000000000000e+00 0.000000000000000e+00
0.000000000000000e+00 0.000000000000000e+00 0.000000000000000e+00
0.000000000000000e+00 0.000000000000000e+00 0.000000000000000e+00
0.000000000000000e+00 0.000000000000000e+00 0.000000000000000e+00
0.000000000000000e+00 0.000000000000000e+00 0.000000000000000e+00
0.000000000000000e+00 0.000000000000000e+00 0.000000000000000e+00
0.000000000000000e+00 0.000000000000000e+00 0.000000000000000e+00
0.000000000000000e+00 0.000000000000000e+00 0.000000000000000e+00
0.000000000000000e+00 0.000000000000000e+00 0.000000000000000e+00
0.000000000000000e+00 0.000000000000000e+00 0.000000000000000e+00
0.000000000000000e+00 0.000000000000000e+00 0.000000000000000e+00
0.000000000000000e+00 0.000000000000000e+00 0.000000000000000e+00
0.000000000000000e+00 0.000000000000000e+00 0.000000000000000e+00
0.000000000000000e+00 0.000000000000000e+00 0.000000000000000e+00
0.000000000000000e+00 0.000000000000000e+00 0.000000000000000e+00
0.000000000000000e+00 0.000000000000000e+00 0.000000000000000e+00
0.000000000000000e+00 0.000000000000000e+00 0.000000000000000e+00
0.000000000000000e+00 0.000000000000000e+00 0.000000000000000e+00
0.000000000000000e+00 0.000000000000000e+00 0.000000000000000e+00
0.000000000000000e+00 0.000000000000000e+00 0.000000000000000e+00
0.000000000000000e+00 0.000000000000000e+00 0.000000000000000e+00
0.000000000000000e+00 0.000000000000000e+00 0.000000000000000e+00
0.000000000000000e+00 0.000000000000000e+00 0.000000000000000e+00
0.000000000000000e+00 0.000000000000000e+00 0.000000000000000e+00
0.000000000000000e+00 0.000000000000000e+00 0.000000000000000e+00
0.000000000000000e+00 0.000000000000000e+00 0.000000000000000e+00
0.000000000000000e+00 0.000000000000000e+00 0.000000000000000e+00
0.000000000000000e+00 0.000000000000000e+00 0.000000000000000e+00
0.000000000000000e+00 0.000000000000000e+00 0.000000000000000e+00
0.000000000000000e+00 0.000000000000000e+00 0.000000000000000e+00
0.000000000000000e+00 0.000000000000000e+00 0.000000000000000e+00
0.000000000000000e+00 0.000000000000000e+00 0.000000000000000e+00
0.000000000000000e+00 0.000000000000000e+00 0.000000000000000e+00
0.000000000000000e+00 0.000000000000000e+00 0.000000000000000e+00
0.000000000000000e+00 0.000000000000000e+00 0.000000000000000e+00
0.000000000000000e+00 0.000000000000000e+00 0.000000000000000e+00
0.000000000000000e+00 0.000000000000000e+00 0.000000000000000e+00
0.000000000000000e+00 0.000000000000000e+00 0.000000000000000e+00
0.000000000000000e+00 0.000000000000000e+00 0.000000000000000e+00
0.000000000000000e+00 0.000000000000000e+00 0.000000000000000e+00
0.000000000000000e+00 0.000000000000000e+00 0.000000000000000e+00
0.000000000000000e+00 0.000000000000000e+00 0.000000000000000e+00
0.000000000000000e+00 0.000000000000000e+00 0.000000000000000e+00
0.000000000000000e+00 0.000000000000000e+00 0.000000000000000e+00
0.000000000000000e+00 0.000000000000000e+00 0.000000000000000e+00
0.000000000000000e+00 0.000000000000000e+00 0.000000000000000e+00
0.000000000000000e+00 0.000000000000000e+00 0.000000000000000e+00
0.000000000000000e+00 0.000000000000000e+00 0.000000000000000e+00
0.000000000000000e+00 0.000000000000000e+00 0.000000000000000e+00
0.000000000000000e+00 0.000000000000000e+00 0.000000000000000e+00
0.000000000000000e+00 0.000000000000000e+00 0.000000000000000e+00
0.000000000000000e+00 0.000000000000000e+00 0.000000000000000e+00
0.000000000000000e+00 0.000000000000000e+00 0.000000000000000e+00
0.000000000000000e+00 0.000000000000000e+00 0.000000000000000e+00
0.000000000000000e+00 0.000000000000000e+00 0.000000000000000e+00
0.000000000000000e+00 0.000000000000000e+00 0.000000000000000e+00
0.000000000000000e+00 0.000000000000000e+00 0.000000000000000e+00
0.000000000000000e+00 0.000000000000000e+00 0.000000000000000e+00
0.000000000000000e+00 0.000000000000000e+00 0.000000000000000e+00
0.000000000000000e+00 0.000000000000000e+00 0.000000000000000e+00
0.000000000000000e+00 0.000000000000000e+00 0.000000000000000e+00
0.000000000000000e+00 0.000000000000000e+00 0.000000000000000e+00
0.000000000000000e+00 0.000000000000000e+00 0.000000000000000e+00
0.000000000000000e+00 0.000000000000000e+00 0.000000000000000e+00
0.000000000000000e+00 0.000000000000000e+00 0.000000000000000e+00
0.000000000000000e+00 0.000000000000000e+00 0.000000000000000e+00
0.000000000000000e+00 0.000000000000000e+00 0.000000000000000e+00
0.000000000000000e+00 0.000000000000000e+00 0.000000000000000e+00
0.000000000000000e+00 0.000000000000000e+00 0.000000000000000e+00
0.000000000000000e+00 0.000000000000000e+00 0.000000000000000e+00
0.000000000000000e+00 0.000000000000000e+00 0.000000000000000e+00
0.000000000000000e+00 0.000000000000000e+00 0.000000000000000e+00
0.000000000000000e+00 0.000000000000000e+00 0.000000000000000e+00
0.000000000000000e+00 0.000000000000000e+00 0.000000000000000e+00
0.000000000000000e+00 0.000000000000000e+00 0.000000000000000e+00
0.000000000000000e+00 0.000000000000000e+00 0.000000000000000e+00
0.000000000000000e+00 0.000000000000000e+00 0.000000000000000e+00
0.000000000000000e+00 0.000000000000000e+00 0.000000000000000e+00
0.000000000000000e+00 0.000000000000000e+00 0.000000000000000e+00
0.000000000000000e+00 0.000000000000000e+00 0.000000000000000e+00
0.000000000000000e+00 0.000000000000000e+00 0.000000000000000e+00
0.000000000000000e+00 0.000000000000000e+00 0.000000000000000e+00
0.000000000000000e+00 0.000000000000000e+00 0.000000000000000e+00
0.000000000000000e+00 0.000000000000000e+00 0.000000000000000e+00
0.000000000000000e+00 0.000000000000000e+00 0.000000000000000e+00
0.000000000000000e+00 0.000000000000000e+00 0.000000000000000e+00
0.000000000000000e+00 0.000000000000000e+00 0.000000000000000e+00
0.000000000000000e+00 0.000000000000000e+00 0.000000000000000e+00
0.000000000000000e+00 0.000000000000000e+00 0.000000000000000e+00
0.000000000000000e+00 0.000000000000000e+00 0.000000000000000e+00
0.000000000000000e+00 0.000000000000000e+00 0.000000000000000e+00
0.000000000000000e+00 0.000000000000000e+00 0.000000000000000e+00
0.000000000000000e+00 0.000000000000000e+00 0.000000000000000e+00
0.000000000000000e+00 0.000000000000000e+00 0.000000000000000e+00
0.000000000000000e+00 0.000000000000000e+00 0.000000000000000e+00
0.000000000000000e+00 0.000000000000000e+00 0.000000000000000e+00
0.000000000000000e+00 0.000000000000000e+00 0.000000000000000e+00
0.000000000000000e+00 0.000000000000000e+00 0.000000000000000e+00
0.000000000000000e+00 0.000000000000000e+00 0.000000000000000e+00
0.000000000000000e+00 0.000000000000000e+00 0.000000000000000e+00
0.000000000000000e+00 0.000000000000000e+00 0.000000000000000e+00
0.000000000000000e+00 0.000000000000000e+00 0.000000000000000e+00
0.000000000000000e+00 0.000000000000000e+00 0.000000000000000e+00
0.000000000000000e+00 0.000000000000000e+00 0.000000000000000e+00
0.000000000000000e+00 0.000000000000000e+00 0.000000000000000e+00
0.000000000000000e+00 0.000000000000000e+00 0.000000000000000e+00
0.000000000000000e+00 0.000000000000000e+00 0.000000000000000e+00
0.000000000000000e+00 0.000000000000000e+00 0.000000000000000e+00
0.000000000000000e+00 0.000000000000000e+00 0.000000000000000e+00
0.000000000000000e+00 0.000000000000000e+00 0.000000000000000e+00
0.000000000000000e+00 0.000000000000000e+00 0.000000000000000e+00
0.000000000000000e+00 0.000000000000000e+00 0.000000000000000e+00
0.000000000000000e+00 0.000000000000000e+00 0.000000000000000e+00
0.000000000000000e+00 0.000000000000000e+00 0.000000000000000e+00
0.000000000000000e+00 0.000000000000000e+00 0.000000000000000e+00
0.000000000000000e+00 0.000000000000000e+00 0.000000000000000e+00
0.000000000000000e+00 0.000000000000000e+00 0.000000000000000e+00
0.000000000000000e+00 0.000000000000000e+00 0.000000000000000e+00
0.000000000000000e+00 0.000000000000000e+00 0.000000000000000e+00
0.000000000000000e+00 0.000000000000000e+00 0.000000000000000e+00
0.000000000000000e+00 0.000000000000000e+00 0.000000000000000e+00
0.000000000000000e+00 0.000000000000000e+00 0.000000000000000e+00
0.000000000000000e+00 0.000000000000000e+00 0.000000000000000e+00
0.000000000000000e+00 0.000000000000000e+00 0.000000000000000e+00
0.000000000000000e+00 0.000000000000000e+00 0.000000000000000e+00
0.000000000000000e+00 0.000000000000000e+00 0.000000000000000e+00
0.000000000000000e+00 0.000000000000000e+00 0.000000000000000e+00
0.000000000000000e+00 0.000000000000000e+00 0.000000000000000e+00
0.000000000000000e+00 0.000000000000000e+00 0.000000000000000e+00
0.000000000000000e+00 0.000000000000000e+00 0.000000000000000e+00
0.000000000000000e+00 0.000000000000000e+00 0.000000000000000e+00
0.000000000000000e+00 0.000000000000000e+00 0.000000000000000e+00
0.000000000000000e+00 0.000000000000000e+00 0.000000000000000e+00
0.000000000000000e+00 0.000000000000000e+00 0.000000000000000e+00
0.000000000000000e+00 0.000000000000000e+00 0.000000000000000e+00
0.000000000000000e+00 0.000000000000000e+00 0.000000000000000e+00
0.000000000000000e+00 0.000000000000000e+00 0.000000000000000e+00
0.000000000000000e+00 0.000000000000000e+00 0.000000000000000e+00
0.000000000000000e+00 0.000000000000000e+00 0.000000000000000e+00
0.000000000000000e+00 0.000000000000000e+00 0.000000000000000e+00
0.000000000000000e+00 0.000000000000000e+00 0.000000000000000e+00
0.000000000000000e+00 0.000000000000000e+00 0.000000000000000e+00
0.000000000000000e+00 0.000000000000000e+00 0.000000000000000e+00
0.000000000000000e+00 0.000000000000000e+00 0.000000000000000e+00
0.000000000000000e+00 0.000000000000000e+00 0.000000000000000e+00
0.000000000000000e+00 0.000000000000000e+00 0.000000000000000e+00
0.000000000000000e+00 0.000000000000000e+00 0.000000000000000e+00
0.000000000000000e+00 0.000000000000000e+00 0.000000000000000e+00
0.000000000000000e+00 0.000000000000000e+00 0.000000000000000e+00
0.000000000000000e+00 0.000000000000000e+00 0.000000000000000e+00
0.000000000000000e+00 0.000000000000000e+00 0.000000000000000e+00
0.000000000000000e+00 0.000000000000000e+00 0.000000000000000e+00
0.000000000000000e+00 0.000000000000000e+00 0.000000000000000e+00
0.000000000000000e+00 0.000000000000000e+00 0.000000000000000e+00
0.000000000000000e+00 0.000000000000000e+00 0.000000000000000e+00
0.000000000000000e+00 0.000000000000000e+00 0.000000000000000e+00
0.000000000000000e+00 0.000000000000000e+00 0.000000000000000e+00
0.000000000000000e+00 0.000000000000000e+00 0.000000000000000e+00
0.000000000000000e+00 0.000000000000000e+00 0.000000000000000e+00
0.000000000000000e+00 0.000000000000000e+00 0.000000000000000e+00
0.000000000000000e+00 0.000000000000000e+00 0.000000000000000e+00
0.000000000000000e+00 0.000000000000000e+00 0.000000000000000e+00
0.000000000000000e+00 0.000000000000000e+00 0.000000000000000e+00
0.000000000000000e+00 0.000000000000000e+00 0.000000000000000e+00
0.000000000000000e+00 0.000000000000000e+00 0.000000000000000e+00
0.000000000000000e+00 0.000000000000000e+00 0.000000000000000e+00
0.000000000000000e+00 0.000000000000000e+00 0.000000000000000e+00
0.000000000000000e+00 0.000000000000000e+00 0.000000000000000e+00
0.000000000000000e+00 0.000000000000000e+00 0.000000000000000e+00
0.000000000000000e+00 0.000000000000000e+00 0.000000000000000e+00
0.000000000000000e+00 0.000000000000000e+00 0.000000000000000e+00
0.000000000000000e+00 0.000000000000000e+00 0.000000000000000e+00
0.000000000000000e+00 0.000000000000000e+00 0.000000000000000e+00
0.000000000000000e+00 0.000000000000000e+00 0.000000000000000e+00
0.000000000000000e+00 0.000000000000000e+00 0.000000000000000e+00
0.000000000000000e+00 0.000000000000000e+00 0.000000000000000e+00
0.000000000000000e+00 0.000000000000000e+00 0.000000000000000e+00
0.000000000000000e+00 0.000000000000000e+00 0.000000000000000e+00
0.000000000000000e+00 0.000000000000000e+00 0.000000000000000e+00
0.000000000000000e+00 0.000000000000000e+00 0.000000000000000e+00
0.000000000000000e+00 0.000000000000000e+00 0.000000000000000e+00
0.000000000000000e+00 0.000000000000000e+00 0.000000000000000e+00
0.000000000000000e+00 0.000000000000000e+00 0.000000000000000e+00
0.000000000000000e+00 0.000000000000000e+00 0.000000000000000e+00
0.000000000000000e+00 0.000000000000000e+00 0.000000000000000e+00
0.000000000000000e+00 0.000000000000000e+00 0.000000000000000e+00
0.000000000000000e+00 0.000000000000000e+00 0.000000000000000e+00
0.000000000000000e+00 0.000000000000000e+00 0.000000000000000e+00
0.000000000000000e+00 0.000000000000000e+00 0.000000000000000e+00
0.000000000000000e+00 0.000000000000000e+00 0.000000000000000e+00
0.000000000000000e+00 0.000000000000000e+00 0.000000000000000e+00
0.000000000000000e+00 0.000000000000000e+00 0.000000000000000e+00
0.000000000000000e+00 0.000000000000000e+00 0.000000000000000e+00
0.000000000000000e+00 0.000000000000000e+00 0.000000000000000e+00
0.000000000000000e+00 0.000000000000000e+00 0.000000000000000e+00
0.000000000000000e+00 0.000000000000000e+00 0.000000000000000e+00
0.000000000000000e+00 0.000000000000000e+00 0.000000000000000e+00
0.000000000000000e+00 0.000000000000000e+00 0.000000000000000e+00
0.000000000000000e+00 0.000000000000000e+00 0.000000000000000e+00
0.000000000000000e+00 0.000000000000000e+00 0.000000000000000e+00
0.000000000000000e+00 0.000000000000000e+00 0.000000000000000e+00
0.000000000000000e+00 0.000000000000000e+00 0.000000000000000e+00
0.000000000000000e+00 0.000000000000000e+00 0.000000000000000e+00
0.000000000000000e+00 0.000000000000000e+00 0.000000000000000e+00
0.000000000000000e+00 0.000000000000000e+00 0.000000000000000e+00
0.000000000000000e+00 0.000000000000000e+00 0.000000000000000e+00
0.000000000000000e+00 0.000000000000000e+00 0.000000000000000e+00
0.000000000000000e+00 0.000000000000000e+00 0.000000000000000e+00
0.000000000000000e+00 0.000000000000000e+00 0.000000000000000e+00
0.000000000000000e+00 0.000000000000000e+00 0.000000000000000e+00
0.000000000000000e+00 0.000000000000000e+00 0.000000000000000e+00
0.000000000000000e+00 0.000000000000000e+00 0.000000000000000e+00
0.000000000000000e+00 0.000000000000000e+00 0.000000000000000e+00
0.000000000000000e+00 0.000000000000000e+00 0.000000000000000e+00
0.000000000000000e+00 0.000000000000000e+00 0.000000000000000e+00
0.000000000000000e+00 0.000000000000000e+00 0.000000000000000e+00
0.000000000000000e+00 0.000000000000000e+00 0.000000000000000e+00
0.000000000000000e+00 0.000000000000000e+00 0.000000000000000e+00
0.000000000000000e+00 0.000000000000000e+00 0.000000000000000e+00
0.000000000000000e+00 0.000000000000000e+00 0.000000000000000e+00
0.000000000000000e+00 0.000000000000000e+00 0.000000000000000e+00
0.000000000000000e+00 0.000000000000000e+00 0.000000000000000e+00
0.000000000000000e+00 0.000000000000000e+00 0.000000000000000e+00
0.000000000000000e+00 0.000000000000000e+00 0.000000000000000e+00
0.000000000000000e+00 0.000000000000000e+00 0.000000000000000e+00
0.000000000000000e+00 0.000000000000000e+00 0.000000000000000e+00
0.000000000000000e+00 0.000000000000000e+00 0.000000000000000e+00
0.000000000000000e+00 0.000000000000000e+00 0.000000000000000e+00
0.000000000000000e+00 0.000000000000000e+00 0.000000000000000e+00
0.000000000000000e+00 0.000000000000000e+00 0.000000000000000e+00
0.000000000000000e+00 0.000000000000000e+00 0.000000000000000e+00
0.000000000000000e+00 0.000000000000000e+00 0.000000000000000e+00
0.000000000000000e+00 0.000000000000000e+00 0.000000000000000e+00
0.000000000000000e+00 0.000000000000000e+00 0.000000000000000e+00
0.000000000000000e+00 0.000000000000000e+00 0.000000000000000e+00
0.000000000000000e+00 0.000000000000000e+00 0.000000000000000e+00
0.000000000000000e+00 0.000000000000000e+00 0.000000000000000e+00
0.000000000000000e+00 0.000000000000000e+00 0.000000000000000e+00
0.000000000000000e+00 0.000000000000000e+00 0.000000000000000e+00
0.000000000000000e+00 0.000000000000000e+00 0.000000000000000e+00
0.000000000000000e+00 0.000000000000000e+00 0.000000000000000e+00
0.000000000000000e+00 0.000000000000000e+00 0.000000000000000e+00
0.000000000000000e+00 0.000000000000000e+00 0.000000000000000e+00
0.000000000000000e+00 0.000000000000000e+00 0.000000000000000e+00
0.000000000000000e+00 0.000000000000000e+00 0.000000000000000e+00
0.000000000000000e+00 0.000000000000000e+00 0.000000000000000e+00
0.000000000000000e+00 0.000000000000000e+00 0.000000000000000e+00
0.000000000000000e+00 0.000000000000000e+00 0.000000000000000e+00
0.000000000000000e+00 0.000000000000000e+00 0.000000000000000e+00
0.000000000000000e+00 0.000000000000000e+00 0.000000000000000e+00
0.000000000000000e+00 0.000000000000000e+00 0.000000000000000e+00
0.000000000000000e+00 0.000000000000000e+00 0.000000000000000e+00
0.000000000000000e+00 0.000000000000000e+00 0.000000000000000e+00
0.000000000000000e+00 0.000000000000000e+00 0.000000000000000e+00
0.000000000000000e+00 0.000000000000000e+00 0.000000000000000e+00
0.000000000000000e+00 0.000000000000000e+00 0.000000000000000e+00
0.000000000000000e+00 0.000000000000000e+00 0.000000000000000e+00
0.000000000000000e+00 0.000000000000000e+00 0.000000000000000e+00
0.000000000000000e+00 0.000000000000000e+00 0.000000000000000e+00
0.000000000000000e+00 0.000000000000000e+00 0.000000000000000e+00
0.000000000000000e+00 0.000000000000000e+00 0.000000000000000e+00
0.000000000000000e+00 0.000000000000000e+00 0.000000000000000e+00
0.000000000000000e+00 0.000000000000000e+00 0.000000000000000e+00
0.000000000000000e+00 0.000000000000000e+00 0.000000000000000e+00
0.000000000000000e+00 0.000000000000000e+00 0.000000000000000e+00
0.000000000000000e+00 0.000000000000000e+00 0.000000000000000e+00
0.000000000000000e+00 0.000000000000000e+00 0.000000000000000e+00
0.000000000000000e+00 0.000000000000000e+00 0.000000000000000e+00
0.000000000000000e+00 0.000000000000000e+00 0.000000000000000e+00
0.000000000000000e+00 0.000000000000000e+00 0.000000000000000e+00
0.000000000000000e+00 0.000000000000000e+00 0.000000000000000e+00
0.000000000000000e+00 0.000000000000000e+00 0.000000000000000e+00
0.000000000000000e+00 0.000000000000000e+00 0.000000000000000e+00
0.000000000000000e+00 0.000000000000000e+00 0.000000000000000e+00
0.000000000000000e+00 0.000000000000000e+00 0.000000000000000e+00
0.000000000000000e+00 0.000000000000000e+00 0.000000000000000e+00
0.000000000000000e+00 0.000000000000000e+00 0.000000000000000e+00
0.000000000000000e+00 0.000000000000000e+00 0.000000000000000e+00
0.000000000000000e+00 0.000000000000000e+00 0.000000000000000e+00
0.000000000000000e+00 0.000000000000000e+00 0.000000000000000e+00
0.000000000000000e+00 0.000000000000000e+00 0.000000000000000e+00
0.000000000000000e+00 0.000000000000000e+00 0.000000000000000e+00
0.000000000000000e+00 0.000000000000000e+00 0.000000000000000e+00
0.000000000000000e+00 0.000000000000000e+00 0.000000000000000e+00
0.000000000000000e+00 0.000000000000000e+00 0.000000000000000e+00
0.000000000000000e+00 0.000000000000000e+00 0.000000000000000e+00
0.000000000000000e+00 0.000000000000000e+00 0.000000000000000e+00
0.000000000000000e+00 0.000000000000000e+00 0.000000000000000e+00
0.000000000000000e+00 0.000000000000000e+00 0.000000000000000e+00
0.000000000000000e+00 0.000000000000000e+00 0.000000000000000e+00
0.000000000000000e+00 0.000000000000000e+00 0.000000000000000e+00
0.000000000000000e+00 0.000000000000000e+00 0.000000000000000e+00
0.000000000000000e+00 0.000000000000000e+00 0.000000000000000e+00
0.000000000000000e+00 0.000000000000000e+00 0.000000000000000e+00
0.000000000000000e+00 0.000000000000000e+00 0.000000000000000e+00
0.000000000000000e+00 0.000000000000000e+00 0.000000000000000e+00
0.000000000000000e+00 0.000000000000000e+00 0.000000000000000e+00
0.000000000000000e+00 0.000000000000000e+00 0.000000000000000e+00
0.000000000000000e+00 0.000000000000000e+00 0.000000000000000e+00
0.000000000000000e+00 0.000000000000000e+00 0.000000000000000e+00
0.000000000000000e+00 0.000000000000000e+00 0.000000000000000e+00
0.000000000000000e+00 0.000000000000000e+00 0.000000000000000e+00
0.000000000000000e+00 0.000000000000000e+00 0.000000000000000e+00
0.000000000000000e+00 0.000000000000000e+00 0.000000000000000e+00
0.000000000000000e+00 0.000000000000000e+00 0.000000000000000e+00
0.000000000000000e+00 0.000000000000000e+00 0.000000000000000e+00
0.000000000000000e+00 0.000000000000000e+00 0.000000000000000e+00
0.000000000000000e+00 0.000000000000000e+00 0.000000000000000e+00
0.000000000000000e+00 0.000000000000000e+00 0.000000000000000e+00
0.000000000000000e+00 0.000000000000000e+00 0.000000000000000e+00
0.000000000000000e+00 0.000000000000000e+00 0.000000000000000e+00
0.000000000000000e+00 0.000000000000000e+00 0.000000000000000e+00
0.000000000000000e+00 0.000000000000000e+00 0.000000000000000e+00
0.000000000000000e+00 0.000000000000000e+00 0.000000000000000e+00
0.000000000000000e+00 0.000000000000000e+00 0.000000000000000e+00
0.000000000000000e+00 0.000000000000000e+00 0.000000000000000e+00
0.000000000000000e+00 0.000000000000000e+00 0.000000000000000e+00
0.000000000000000e+00 0.000000000000000e+00 0.000000000000000e+00
0.000000000000000e+00 0.000000000000000e+00 0.000000000000000e+00
0.000000000000000e+00 0.000000000000000e+00 0.000000000000000e+00
0.000000000000000e+00 0.000000000000000e+00 0.000000000000000e+00
0.000000000000000e+00 0.000000000000000e+00 0.000000000000000e+00
0.000000000000000e+00 0.000000000000000e+00 0.000000000000000e+00
0.000000000000000e+00 0.000000000000000e+00 0.000000000000000e+00
0.000000000000000e+00 0.000000000000000e+00 0.000000000000000e+00
0.000000000000000e+00 0.000000000000000e+00 0.000000000000000e+00
0.000000000000000e+00 0.000000000000000e+00 0.000000000000000e+00
0.000000000000000e+00 0.000000000000000e+00 0.000000000000000e+00
0.000000000000000e+00 0.000000000000000e+00 0.000000000000000e+00
0.000000000000000e+00 0.000000000000000e+00 0.000000000000000e+00
0.000000000000000e+00 0.000000000000000e+00 0.000000000000000e+00
0.000000000000000e+00 0.000000000000000e+00 0.000000000000000e+00
0.000000000000000e+00 0.000000000000000e+00 0.000000000000000e+00
0.000000000000000e+00 0.000000000000000e+00 0.000000000000000e+00
0.000000000000000e+00 0.000000000000000e+00 0.000000000000000e+00
0.000000000000000e+00 0.000000000000000e+00 0.000000000000000e+00
0.000000000000000e+00 0.000000000000000e+00 0.000000000000000e+00
0.000000000000000e+00 0.000000000000000e+00 0.000000000000000e+00
0.000000000000000e+00 0.000000000000000e+00 0.000000000000000e+00
0.000000000000000e+00 0.000000000000000e+00 0.000000000000000e+00
0.000000000000000e+00 0.000000000000000e+00 0.000000000000000e+00
0.000000000000000e+00 0.000000000000000e+00 0.000000000000000e+00
0.000000000000000e+00 0.000000000000000e+00 0.000000000000000e+00
0.000000000000000e+00 0.000000000000000e+00 0.000000000000000e+00
0.000000000000000e+00 0.000000000000000e+00 0.000000000000000e+00
0.000000000000000e+00 0.000000000000000e+00 0.000000000000000e+00
0.000000000000000e+00 0.000000000000000e+00 0.000000000000000e+00
0.000000000000000e+00 0.000000000000000e+00 0.000000000000000e+00
0.000000000000000e+00 0.000000000000000e+00 0.000000000000000e+00
0.000000000000000e+00 0.000000000000000e+00 0.000000000000000e+00
0.000000000000000e+00 0.000000000000000e+00 0.000000000000000e+00
0.000000000000000e+00 0.000000000000000e+00 0.000000000000000e+00
0.000000000000000e+00 0.000000000000000e+00 0.000000000000000e+00
0.000000000000000e+00 0.000000000000000e+00 0.000000000000000e+00
0.000000000000000e+00 0.000000000000000e+00 0.000000000000000e+00
0.000000000000000e+00 0.000000000000000e+00 0.000000000000000e+00
0.000000000000000e+00 0.000000000000000e+00 0.000000000000000e+00
0.000000000000000e+00 0.000000000000000e+00 0.000000000000000e+00
0.000000000000000e+00 0.000000000000000e+00 0.000000000000000e+00
0.000000000000000e+00 0.000000000000000e+00 0.000000000000000e+00
0.000000000000000e+00 0.000000000000000e+00 0.000000000000000e+00
0.000000000000000e+00 0.000000000000000e+00 0.000000000000000e+00
0.000000000000000e+00 0.000000000000000e+00 0.000000000000000e+00
0.000000000000000e+00 0.000000000000000e+00 0.000000000000000e+00
0.000000000000000e+00 0.000000000000000e+00 0.000000000000000e+00
0.000000000000000e+00 0.000000000000000e+00 0.000000000000000e+00
0.000000000000000e+00 0.000000000000000e+00 0.000000000000000e+00
0.000000000000000e+00 0.000000000000000e+00 0.000000000000000e+00
0.000000000000000e+00 0.000000000000000e+00 0.000000000000000e+00
0.000000000000000e+00 0.000000000000000e+00 0.000000000000000e+00
0.000000000000000e+00 0.000000000000000e+00 0.000000000000000e+00
0.000000000000000e+00 0.000000000000000e+00 0.000000000000000e+00
0.000000000000000e+00 0.000000000000000e+00 0.000000000000000e+00
0.000000000000000e+00 0.000000000000000e+00 0.000000000000000e+00
0.000000000000000e+00 0.000000000000000e+00 0.000000000000000e+00
0.000000000000000e+00 0.000000000000000e+00 0.000000000000000e+00
0.000000000000000e+00 0.000000000000000e+00 0.000000000000000e+00
0.000000000000000e+00 0.000000000000000e+00 0.000000000000000e+00
0.000000000000000e+00 0.000000000000000e+00 0.000000000000000e+00
0.000000000000000e+00 0.000000000000000e+00 0.000000000000000e+00
0.000000000000000e+00 0.000000000000000e+00 0.000000000000000e+00
0.000000000000000e+00 0.000000000000000e+00 0.000000000000000e+00
0.000000000000000e+00 0.000000000000000e+00 0.000000000000000e+00
0.000000000000000e+00 0.000000000000000e+00 0.000000000000000e+00
0.000000000000000e+00 0.000000000000000e+00 0.000000000000000e+00
0.000000000000000e+00 0.000000000000000e+00 0.000000000000000e+00
0.000000000000000e+00 0.000000000000000e+00 0.000000000000000e+00
0.000000000000000e+00 0.000000000000000e+00 0.000000000000000e+00
0.000000000000000e+00 0.000000000000000e+00 0.000000000000000e+00
0.000000000000000e+00 0.000000000000000e+00 0.000000000000000e+00
0.000000000000000e+00 0.000000000000000e+00 0.000000000000000e+00
0.000000000000000e+00 0.000000000000000e+00 0.000000000000000e+00
0.000000000000000e+00 0.000000000000000e+00 0.000000000000000e+00
0.000000000000000e+00 0.000000000000000e+00 0.000000000000000e+00
0.000000000000000e+00 0.000000000000000e+00 0.000000000000000e+00
0.000000000000000e+00 0.000000000000000e+00 0.000000000000000e+00
0.000000000000000e+00 0.000000000000000e+00 0.000000000000000e+00
0.000000000000000e+00 0.000000000000000e+00 0.000000000000000e+00
0.000000000000000e+00 0.000000000000000e+00 0.000000000000000e+00
0.000000000000000e+00 0.000000000000000e+00 0.000000000000000e+00
0.000000000000000e+00 0.000000000000000e+00 0.000000000000000e+00
0.000000000000000e+00 0.000000000000000e+00 0.000000000000000e+00
0.000000000000000e+00 0.000000000000000e+00 0.000000000000000e+00
0.000000000000000e+00 0.000000000000000e+00 0.000000000000000e+00
0.000000000000000e+00 0.000000000000000e+00 0.000000000000000e+00
0.000000000000000e+00 0.000000000000000e+00 0.000000000000000e+00
0.000000000000000e+00 0.000000000000000e+00 0.000000000000000e+00
0.000000000000000e+00 0.000000000000000e+00 0.000000000000000e+00
0.000000000000000e+00 0.000000000000000e+00 0.000000000000000e+00
0.000000000000000e+00 0.000000000000000e+00 0.000000000000000e+00
0.000000000000000e+00 0.000000000000000e+00 0.000000000000000e+00
0.000000000000000e+00 0.000000000000000e+00 0.000000000000000e+00
0.000000000000000e+00 0.000000000000000e+00 0.000000000000000e+00
0.000000000000000e+00 0.000000000000000e+00 0.000000000000000e+00
0.000000000000000e+00 0.000000000000000e+00 0.000000000000000e+00
0.000000000000000e+00 0.000000000000000e+00 0.000000000000000e+00
0.000000000000000e+00 0.000000000000000e+00 0.000000000000000e+00
0.000000000000000e+00 0.000000000000000e+00 0.000000000000000e+00
0.000000000000000e+00 0.000000000000000e+00 0.000000000000000e+00
0.000000000000000e+00 0.000000000000000e+00 0.000000000000000e+00
0.000000000000000e+00 0.000000000000000e+00 0.000000000000000e+00
0.000000000000000e+00 0.000000000000000e+00 0.000000000000000e+00
0.000000000000000e+00 0.000000000000000e+00 0.000000000000000e+00
0.000000000000000e+00 0.000000000000000e+00 0.000000000000000e+00
0.000000000000000e+00 0.000000000000000e+00 0.000000000000000e+00
0.000000000000000e+00 0.000000000000000e+00 0.000000000000000e+00
0.000000000000000e+00 0.000000000000000e+00 0.000000000000000e+00
0.000000000000000e+00 0.000000000000000e+00 0.000000000000000e+00
0.000000000000000e+00 0.000000000000000e+00 0.000000000000000e+00
0.000000000000000e+00 0.000000000000000e+00 0.000000000000000e+00
0.000000000000000e+00 0.000000000000000e+00 0.000000000000000e+00
0.000000000000000e+00 0.000000000000000e+00 0.000000000000000e+00
0.000000000000000e+00 0.000000000000000e+00 0.000000000000000e+00
0.000000000000000e+00 0.000000000000000e+00 0.000000000000000e+00
0.000000000000000e+00 0.000000000000000e+00 0.000000000000000e+00
0.000000000000000e+00 0.000000000000000e+00 0.000000000000000e+00
0.000000000000000e+00 0.000000000000000e+00 0.000000000000000e+00
0.000000000000000e+00 0.000000000000000e+00 0.000000000000000e+00
0.000000000000000e+00 0.000000000000000e+00 0.000000000000000e+00
0.000000000000000e+00 0.000000000000000e+00 0.000000000000000e+00
0.000000000000000e+00 0.000000000000000e+00 0.000000000000000e+00
0.000000000000000e+00 0.000000000000000e+00 0.000000000000000e+00
0.000000000000000e+00 0.000000000000000e+00 0.000000000000000e+00
0.000000000000000e+00 0.000000000000000e+00 0.000000000000000e+00
0.000000000000000e+00 0.000000000000000e+00 0.000000000000000e+00
0.000000000000000e+00 0.000000000000000e+00 0.000000000000000e+00
0.000000000000000e+00 0.000000000000000e+00 0.000000000000000e+00
0.000000000000000e+00 0.000000000000000e+00 0.000000000000000e+00
0.000000000000000e+00 0.000000000000000e+00 0.000000000000000e+00
0.000000000000000e+00 0.000000000000000e+00 0.000000000000000e+00
0.000000000000000e+00 0.000000000000000e+00 0.000000000000000e+00
0.000000000000000e+00 0.000000000000000e+00 0.000000000000000e+00
0.000000000000000e+00 0.000000000000000e+00 0.000000000000000e+00
0.000000000000000e+00 0.000000000000000e+00 0.000000000000000e+00
0.000000000000000e+00 0.000000000000000e+00 0.000000000000000e+00
0.000000000000000e+00 0.000000000000000e+00 0.000000000000000e+00
0.000000000000000e+00 0.000000000000000e+00 0.000000000000000e+00
0.000000000000000e+00 0.000000000000000e+00 0.000000000000000e+00
0.000000000000000e+00 0.000000000000000e+00 0.000000000000000e+00
0.000000000000000e+00 0.000000000000000e+00 0.000000000000000e+00
0.000000000000000e+00 0.000000000000000e+00 0.000000000000000e+00
0.000000000000000e+00 0.000000000000000e+00 0.000000000000000e+00
0.000000000000000e+00 0.000000000000000e+00 0.000000000000000e+00
0.000000000000000e+00 0.000000000000000e+00 0.000000000000000e+00
0.000000000000000e+00 0.000000000000000e+00 0.000000000000000e+00
0.000000000000000e+00 0.000000000000000e+00 0.000000000000000e+00
0.000000000000000e+00 0.000000000000000e+00 0.000000000000000e+00
0.000000000000000e+00 0.000000000000000e+00 0.000000000000000e+00
0.000000000000000e+00 0.000000000000000e+00 0.000000000000000e+00
0.000000000000000e+00 0.000000000000000e+00 0.000000000000000e+00
0.000000000000000e+00 0.000000000000000e+00 0.000000000000000e+00
0.000000000000000e+00 0.000000000000000e+00 0.000000000000000e+00
0.000000000000000e+00 0.000000000000000e+00 0.000000000000000e+00
0.000000000000000e+00 0.000000000000000e+00 0.000000000000000e+00
0.000000000000000e+00 0.000000000000000e+00 0.000000000000000e+00
0.000000000000000e+00 0.000000000000000e+00 0.000000000000000e+00
0.000000000000000e+00 0.000000000000000e+00 0.000000000000000e+00
0.000000000000000e+00 0.000000000000000e+00 0.000000000000000e+00
0.000000000000000e+00 0.000000000000000e+00 0.000000000000000e+00
0.000000000000000e+00 0.000000000000000e+00 0.000000000000000e+00
0.000000000000000e+00 0.000000000000000e+00 0.000000000000000e+00
0.000000000000000e+00 0.000000000000000e+00 0.000000000000000e+00
0.000000000000000e+00 0.000000000000000e+00 0.000000000000000e+00
0.000000000000000e+00 0.000000000000000e+00 0.000000000000000e+00
0.000000000000000e+00 0.000000000000000e+00 0.000000000000000e+00
0.000000000000000e+00 0.000000000000000e+00 0.000000000000000e+00
0.000000000000000e+00 0.000000000000000e+00 0.000000000000000e+00
0.000000000000000e+00 0.000000000000000e+00 0.000000000000000e+00
0.000000000000000e+00 0.000000000000000e+00 0.000000000000000e+00
0.000000000000000e+00 0.000000000000000e+00 0.000000000000000e+00
0.000000000000000e+00 0.000000000000000e+00 0.000000000000000e+00
0.000000000000000e+00 0.000000000000000e+00 0.000000000000000e+00
0.000000000000000e+00 0.000000000000000e+00 0.000000000000000e+00
0.000000000000000e+00 0.000000000000000e+00 0.000000000000000e+00
0.000000000000000e+00 0.000000000000000e+00 0.000000000000000e+00
0.000000000000000e+00 0.000000000000000e+00 0.000000000000000e+00
0.000000000000000e+00 0.000000000000000e+00 0.000000000000000e+00
0.000000000000000e+00 0.000000000000000e+00 0.000000000000000e+00
0.000000000000000e+00 0.000000000000000e+00 0.000000000000000e+00
0.000000000000000e+00 0.000000000000000e+00 0.000000000000000e+00
0.000000000000000e+00 0.000000000000000e+00 0.000000000000000e+00
0.000000000000000e+00 0.000000000000000e+00 0.000000000000000e+00
0.000000000000000e+00 0.000000000000000e+00 0.000000000000000e+00
0.000000000000000e+00 0.000000000000000e+00 0.000000000000000e+00
0.000000000000000e+00 0.000000000000000e+00 0.000000000000000e+00
0.000000000000000e+00 0.000000000000000e+00 0.000000000000000e+00
0.000000000000000e+00 0.000000000000000e+00 0.000000000000000e+00
0.000000000000000e+00 0.000000000000000e+00 0.000000000000000e+00
0.000000000000000e+00 0.000000000000000e+00 0.000000000000000e+00
0.000000000000000e+00 0.000000000000000e+00 0.000000000000000e+00
0.000000000000000e+00 0.000000000000000e+00 0.000000000000000e+00
0.000000000000000e+00 0.000000000000000e+00 0.000000000000000e+00
0.000000000000000e+00 0.000000000000000e+00 0.000000000000000e+00
0.000000000000000e+00 0.000000000000000e+00 0.000000000000000e+00
0.000000000000000e+00 0.000000000000000e+00 0.000000000000000e+00
0.000000000000000e+00 0.000000000000000e+00 0.000000000000000e+00
0.000000000000000e+00 0.000000000000000e+00 0.000000000000000e+00
0.000000000000000e+00 0.000000000000000e+00 0.000000000000000e+00
0.000000000000000e+00 0.000000000000000e+00 0.000000000000000e+00
0.000000000000000e+00 0.000000000000000e+00 0.000000000000000e+00
0.000000000000000e+00 0.000000000000000e+00 0.000000000000000e+00
0.000000000000000e+00 0.000000000000000e+00 0.000000000000000e+00
0.000000000000000e+00 0.000000000000000e+00 0.000000000000000e+00
0.000000000000000e+00 0.000000000000000e+00 0.000000000000000e+00
0.000000000000000e+00 0.000000000000000e+00 0.000000000000000e+00
0.000000000000000e+00 0.000000000000000e+00 0.000000000000000e+00
0.000000000000000e+00 0.000000000000000e+00 0.000000000000000e+00
0.000000000000000e+00 0.000000000000000e+00 0.000000000000000e+00
0.000000000000000e+00 0.000000000000000e+00 0.000000000000000e+00
0.000000000000000e+00 0.000000000000000e+00 0.000000000000000e+00
0.000000000000000e+00 0.000000000000000e+00 0.000000000000000e+00
0.000000000000000e+00 0.000000000000000e+00 0.000000000000000e+00
0.000000000000000e+00 0.000000000000000e+00 0.000000000000000e+00
0.000000000000000e+00 0.000000000000000e+00 0.000000000000000e+00
0.000000000000000e+00 0.000000000000000e+00 0.000000000000000e+00
0.000000000000000e+00 0.000000000000000e+00 0.000000000000000e+00
0.000000000000000e+00 0.000000000000000e+00 0.000000000000000e+00
0.000000000000000e+00 0.000000000000000e+00 0.000000000000000e+00
0.000000000000000e+00 0.000000000000000e+00 0.000000000000000e+00
0.000000000000000e+00 0.000000000000000e+00 0.000000000000000e+00
0.000000000000000e+00 0.000000000000000e+00 0.000000000000000e+00
0.000000000000000e+00 0.000000000000000e+00 0.000000000000000e+00
0.000000000000000e+00 0.000000000000000e+00 0.000000000000000e+00
0.000000000000000e+00 0.000000000000000e+00 0.000000000000000e+00
0.000000000000000e+00 0.000000000000000e+00 0.000000000000000e+00
0.000000000000000e+00 0.000000000000000e+00 0.000000000000000e+00
0.000000000000000e+00 0.000000000000000e+00 0.000000000000000e+00
0.000000000000000e+00 0.000000000000000e+00 0.000000000000000e+00
0.000000000000000e+00 0.000000000000000e+00 0.000000000000000e+00
0.000000000000000e+00 0.000000000000000e+00 0.000000000000000e+00
0.000000000000000e+00 0.000000000000000e+00 0.000000000000000e+00
0.000000000000000e+00 0.000000000000000e+00 0.000000000000000e+00
0.000000000000000e+00 0.000000000000000e+00 0.000000000000000e+00
0.000000000000000e+00 0.000000000000000e+00 0.000000000000000e+00
0.000000000000000e+00 0.000000000000000e+00 0.000000000000000e+00
0.000000000000000e+00 0.000000000000000e+00 0.000000000000000e+00
0.000000000000000e+00 0.000000000000000e+00 0.000000000000000e+00
0.000000000000000e+00 0.000000000000000e+00 0.000000000000000e+00
0.000000000000000e+00 0.000000000000000e+00 0.000000000000000e+00
0.000000000000000e+00 0.000000000000000e+00 0.000000000000000e+00
0.000000000000000e+00 0.000000000000000e+00 0.000000000000000e+00
0.000000000000000e+00 0.000000000000000e+00 0.000000000000000e+00
0.000000000000000e+00 0.000000000000000e+00 0.000000000000000e+00
0.000000000000000e+00 0.000000000000000e+00 0.000000000000000e+00
0.000000000000000e+00 0.000000000000000e+00 0.000000000000000e+00
0.000000000000000e+00 0.000000000000000e+00 0.000000000000000e+00
0.000000000000000e+00 0.000000000000000e+00 0.000000000000000e+00
0.000000000000000e+00 0.000000000000000e+00 0.000000000000000e+00
0.000000000000000e+00 0.000000000000000e+00 0.000000000000000e+00
0.000000000000000e+00 0.000000000000000e+00 0.000000000000000e+00
0.000000000000000e+00 0.000000000000000e+00 0.000000000000000e+00
0.000000000000000e+00 0.000000000000000e+00 0.000000000000000e+00
0.000000000000000e+00 0.000000000000000e+00 0.000000000000000e+00
0.000000000000000e+00 0.000000000000000e+00 0.000000000000000e+00
0.000000000000000e+00 0.000000000000000e+00 0.000000000000000e+00
0.000000000000000e+00 0.000000000000000e+00 0.000000000000000e+00
0.000000000000000e+00 0.000000000000000e+00 0.000000000000000e+00
0.000000000000000e+00 0.000000000000000e+00 0.000000000000000e+00
0.000000000000000e+00 0.000000000000000e+00 0.000000000000000e+00
0.000000000000000e+00 0.000000000000000e+00 0.000000000000000e+00
0.000000000000000e+00 0.000000000000000e+00 0.000000000000000e+00
0.000000000000000e+00 0.000000000000000e+00 0.000000000000000e+00
0.000000000000000e+00 0.000000000000000e+00 0.000000000000000e+00
0.000000000000000e+00 0.000000000000000e+00 0.000000000000000e+00
0.000000000000000e+00 0.000000000000000e+00 0.000000000000000e+00
0.000000000000000e+00 0.000000000000000e+00 0.000000000000000e+00
0.000000000000000e+00 0.000000000000000e+00 0.000000000000000e+00
0.000000000000000e+00 0.000000000000000e+00 0.000000000000000e+00
0.000000000000000e+00 0.000000000000000e+00 0.000000000000000e+00
0.000000000000000e+00 0.000000000000000e+00 0.000000000000000e+00
0.000000000000000e+00 0.000000000000000e+00 0.000000000000000e+00
0.000000000000000e+00 0.000000000000000e+00 0.000000000000000e+00
0.000000000000000e+00 0.000000000000000e+00 0.000000000000000e+00
0.000000000000000e+00 0.000000000000000e+00 0.000000000000000e+00
0.000000000000000e+00 0.000000000000000e+00 0.000000000000000e+00
0.000000000000000e+00 0.000000000000000e+00 0.000000000000000e+00
0.000000000000000e+00 0.000000000000000e+00 0.000000000000000e+00
0.000000000000000e+00 0.000000000000000e+00 0.000000000000000e+00
0.000000000000000e+00 0.000000000000000e+00 0.000000000000000e+00
0.000000000000000e+00 0.000000000000000e+00 0.000000000000000e+00
0.000000000000000e+00 0.000000000000000e+00 0.000000000000000e+00
0.000000000000000e+00 0.000000000000000e+00 0.000000000000000e+00
0.000000000000000e+00 0.000000000000000e+00 0.000000000000000e+00
0.000000000000000e+00 0.000000000000000e+00 0.000000000000000e+00
0.000000000000000e+00 0.000000000000000e+00 0.000000000000000e+00
0.000000000000000e+00 0.000000000000000e+00 0.000000000000000e+00
0.000000000000000e+00 0.000000000000000e+00 0.000000000000000e+00
0.000000000000000e+00 0.000000000000000e+00 0.000000000000000e+00
0.000000000000000e+00 0.000000000000000e+00 0.000000000000000e+00
0.000000000000000e+00 0.000000000000000e+00 0.000000000000000e+00
0.000000000000000e+00 0.000000000000000e+00 0.000000000000000e+00
0.000000000000000e+00 0.000000000000000e+00 0.000000000000000e+00
0.000000000000000e+00 0.000000000000000e+00 0.000000000000000e+00
0.000000000000000e+00 0.000000000000000e+00 0.000000000000000e+00
0.000000000000000e+00 0.000000000000000e+00 0.000000000000000e+00
0.000000000000000e+00 0.000000000000000e+00 0.000000000000000e+00
0.000000000000000e+00 0.000000000000000e+00 0.000000000000000e+00
0.000000000000000e+00 0.000000000000000e+00 0.000000000000000e+00
0.000000000000000e+00 0.000000000000000e+00 0.000000000000000e+00
0.000000000000000e+00 0.000000000000000e+00 0.000000000000000e+00
0.000000000000000e+00 0.000000000000000e+00 0.000000000000000e+00
0.000000000000000e+00 0.000000000000000e+00 0.000000000000000e+00
0.000000000000000e+00 0.000000000000000e+00 0.000000000000000e+00
0.000000000000000e+00 0.000000000000000e+00 0.000000000000000e+00
0.000000000000000e+00 0.000000000000000e+00 0.000000000000000e+00
0.000000000000000e+00 0.000000000000000e+00 0.000000000000000e+00
0.000000000000000e+00 0.000000000000000e+00 0.000000000000000e+00
0.000000000000000e+00 0.000000000000000e+00 0.000000000000000e+00
0.000000000000000e+00 0.000000000000000e+00 0.000000000000000e+00
0.000000000000000e+00 0.000000000000000e+00 0.000000000000000e+00
0.000000000000000e+00 0.000000000000000e+00 0.000000000000000e+00
0.000000000000000e+00 0.000000000000000e+00 0.000000000000000e+00
0.000000000000000e+00 0.000000000000000e+00 0.000000000000000e+00
0.000000000000000e+00 0.000000000000000e+00 0.000000000000000e+00
0.000000000000000e+00 0.000000000000000e+00 0.000000000000000e+00
0.000000000000000e+00 0.000000000000000e+00 0.000000000000000e+00
0.000000000000000e+00 0.000000000000000e+00 0.000000000000000e+00
0.000000000000000e+00 0.000000000000000e+00 0.000000000000000e+00
0.000000000000000e+00 0.000000000000000e+00 0.000000000000000e+00
0.000000000000000e+00 0.000000000000000e+00 0.000000000000000e+00
0.000000000000000e+00 0.000000000000000e+00 0.000000000000000e+00
0.000000000000000e+00 0.000000000000000e+00 0.000000000000000e+00
0.000000000000000e+00 0.000000000000000e+00 0.000000000000000e+00
0.000000000000000e+00 0.000000000000000e+00 0.000000000000000e+00
0.000000000000000e+00 0.000000000000000e+00 0.000000000000000e+00
0.000000000000000e+00 0.000000000000000e+00 0.000000000000000e+00
0.000000000000000e+00 0.000000000000000e+00 0.000000000000000e+00
0.000000000000000e+00 0.000000000000000e+00 0.000000000000000e+00
0.000000000000000e+00 0.000000000000000e+00 0.000000000000000e+00
0.000000000000000e+00 0.000000000000000e+00 0.000000000000000e+00
0.000000000000000e+00 0.000000000000000e+00 0.000000000000000e+00
0.000000000000000e+00 0.000000000000000e+00 0.000000000000000e+00
0.000000000000000e+00 0.000000000000000e+00 0.000000000000000e+00
0.000000000000000e+00 0.000000000000000e+00 0.000000000000000e+00
0.000000000000000e+00 0.000000000000000e+00 0.000000000000000e+00
0.000000000000000e+00 0.000000000000000e+00 0.000000000000000e+00
0.000000000000000e+00 0.000000000000000e+00 0.000000000000000e+00
0.000000000000000e+00 0.000000000000000e+00 0.000000000000000e+00
0.000000000000000e+00 0.000000000000000e+00 0.000000000000000e+00
0.000000000000000e+00 0.000000000000000e+00 0.000000000000000e+00
0.000000000000000e+00 0.000000000000000e+00 0.000000000000000e+00
0.000000000000000e+00 0.000000000000000e+00 0.000000000000000e+00
0.000000000000000e+00 0.000000000000000e+00 0.000000000000000e+00
0.000000000000000e+00 0.000000000000000e+00 0.000000000000000e+00
0.000000000000000e+00 0.000000000000000e+00 0.000000000000000e+00
0.000000000000000e+00 0.000000000000000e+00 0.000000000000000e+00
0.000000000000000e+00 0.000000000000000e+00 0.000000000000000e+00
0.000000000000000e+00 0.000000000000000e+00 0.000000000000000e+00
0.000000000000000e+00 0.000000000000000e+00 0.000000000000000e+00
0.000000000000000e+00 0.000000000000000e+00 0.000000000000000e+00
0.000000000000000e+00 0.000000000000000e+00 0.000000000000000e+00
0.000000000000000e+00 0.000000000000000e+00 0.000000000000000e+00
0.000000000000000e+00 0.000000000000000e+00 0.000000000000000e+00
0.000000000000000e+00 0.000000000000000e+00 0.000000000000000e+00
0.000000000000000e+00 0.000000000000000e+00 0.000000000000000e+00
0.000000000000000e+00 0.000000000000000e+00 0.000000000000000e+00
0.000000000000000e+00 0.000000000000000e+00 0.000000000000000e+00
0.000000000000000e+00 0.000000000000000e+00 0.000000000000000e+00
0.000000000000000e+00 0.000000000000000e+00 0.000000000000000e+00
0.000000000000000e+00 0.000000000000000e+00 0.000000000000000e+00
0.000000000000000e+00 0.000000000000000e+00 0.000000000000000e+00
0.000000000000000e+00 0.000000000000000e+00 0.000000000000000e+00
0.000000000000000e+00 0.000000000000000e+00 0.000000000000000e+00
0.000000000000000e+00 0.000000000000000e+00 0.000000000000000e+00
0.000000000000000e+00 0.000000000000000e+00 0.000000000000000e+00
0.000000000000000e+00 0.000000000000000e+00 0.000000000000000e+00
0.000000000000000e+00 0.000000000000000e+00 0.000000000000000e+00
0.000000000000000e+00 0.000000000000000e+00 0.000000000000000e+00
0.000000000000000e+00 0.000000000000000e+00 0.000000000000000e+00
0.000000000000000e+00 0.000000000000000e+00 0.000000000000000e+00
0.000000000000000e+00 0.000000000000000e+00 0.000000000000000e+00
0.000000000000000e+00 0.000000000000000e+00 0.000000000000000e+00
0.000000000000000e+00 0.000000000000000e+00 0.000000000000000e+00
0.000000000000000e+00 0.000000000000000e+00 0.000000000000000e+00
0.000000000000000e+00 0.000000000000000e+00 0.000000000000000e+00
0.000000000000000e+00 0.000000000000000e+00 0.000000000000000e+00
0.000000000000000e+00 0.000000000000000e+00 0.000000000000000e+00
0.000000000000000e+00 0.000000000000000e+00 0.000000000000000e+00
0.000000000000000e+00 0.000000000000000e+00 0.000000000000000e+00
0.000000000000000e+00 0.000000000000000e+00 0.000000000000000e+00
0.000000000000000e+00 0.000000000000000e+00 0.000000000000000e+00
0.000000000000000e+00 0.000000000000000e+00 0.000000000000000e+00
0.000000000000000e+00 0.000000000000000e+00 0.000000000000000e+00
0.000000000000000e+00 0.000000000000000e+00 0.000000000000000e+00
0.000000000000000e+00 0.000000000000000e+00 0.000000000000000e+00
0.000000000000000e+00 0.000000000000000e+00 0.000000000000000e+00
0.000000000000000e+00 0.000000000000000e+00 0.000000000000000e+00
0.000000000000000e+00 0.000000000000000e+00 0.000000000000000e+00
0.000000000000000e+00 0.000000000000000e+00 0.000000000000000e+00
0.000000000000000e+00 0.000000000000000e+00 0.000000000000000e+00
0.000000000000000e+00 0.000000000000000e+00 0.000000000000000e+00
0.000000000000000e+00 0.000000000000000e+00 0.000000000000000e+00
0.000000000000000e+00 0.000000000000000e+00 0.000000000000000e+00
0.000000000000000e+00 0.000000000000000e+00 0.000000000000000e+00
0.000000000000000e+00 0.000000000000000e+00 0.000000000000000e+00
0.000000000000000e+00 0.000000000000000e+00 0.000000000000000e+00
0.000000000000000e+00 0.000000000000000e+00 0.000000000000000e+00
0.000000000000000e+00 0.000000000000000e+00 0.000000000000000e+00
0.000000000000000e+00 0.000000000000000e+00 0.000000000000000e+00
0.000000000000000e+00 0.000000000000000e+00 0.000000000000000e+00
0.000000000000000e+00 0.000000000000000e+00 0.000000000000000e+00
0.000000000000000e+00 0.000000000000000e+00 0.000000000000000e+00
0.000000000000000e+00 0.000000000000000e+00 0.000000000000000e+00
0.000000000000000e+00 0.000000000000000e+00 0.000000000000000e+00
0.000000000000000e+00 0.000000000000000e+00 0.000000000000000e+00
0.000000000000000e+00 0.000000000000000e+00 0.000000000000000e+00
0.000000000000000e+00 0.000000000000000e+00 0.000000000000000e+00
0.000000000000000e+00 0.000000000000000e+00 0.000000000000000e+00
0.000000000000000e+00 0.000000000000000e+00 0.000000000000000e+00
0.000000000000000e+00 0.000000000000000e+00 0.000000000000000e+00
0.000000000000000e+00 0.000000000000000e+00 0.000000000000000e+00
0.000000000000000e+00 0.000000000000000e+00 0.000000000000000e+00
0.000000000000000e+00 0.000000000000000e+00 0.000000000000000e+00
0.000000000000000e+00 0.000000000000000e+00 0.000000000000000e+00
0.000000000000000e+00 0.000000000000000e+00 0.000000000000000e+00
0.000000000000000e+00 0.000000000000000e+00 0.000000000000000e+00
0.000000000000000e+00 0.000000000000000e+00 0.000000000000000e+00
0.000000000000000e+00 0.000000000000000e+00 0.000000000000000e+00
0.000000000000000e+00 0.000000000000000e+00 0.000000000000000e+00
0.000000000000000e+00 0.000000000000000e+00 0.000000000000000e+00
0.000000000000000e+00 0.000000000000000e+00 0.000000000000000e+00
0.000000000000000e+00 0.000000000000000e+00 0.000000000000000e+00
0.000000000000000e+00 0.000000000000000e+00 0.000000000000000e+00
0.000000000000000e+00 0.000000000000000e+00 0.000000000000000e+00
0.000000000000000e+00 0.000000000000000e+00 0.000000000000000e+00
0.000000000000000e+00 0.000000000000000e+00 0.000000000000000e+00
0.000000000000000e+00 0.000000000000000e+00 0.000000000000000e+00
0.000000000000000e+00 0.000000000000000e+00 0.000000000000000e+00
0.000000000000000e+00 0.000000000000000e+00 0.000000000000000e+00
0.000000000000000e+00 0.000000000000000e+00 0.000000000000000e+00
0.000000000000000e+00 0.000000000000000e+00 0.000000000000000e+00
0.000000000000000e+00 0.000000000000000e+00 0.000000000000000e+00
0.000000000000000e+00 0.000000000000000e+00 0.000000000000000e+00
0.000000000000000e+00 0.000000000000000e+00 0.000000000000000e+00
0.000000000000000e+00 0.000000000000000e+00 0.000000000000000e+00
0.000000000000000e+00 0.000000000000000e+00 0.000000000000000e+00
0.000000000000000e+00 0.000000000000000e+00 0.000000000000000e+00
0.000000000000000e+00 0.000000000000000e+00 0.000000000000000e+00
0.000000000000000e+00 0.000000000000000e+00 0.000000000000000e+00
0.000000000000000e+00 0.000000000000000e+00 0.000000000000000e+00
0.000000000000000e+00 0.000000000000000e+00 0.000000000000000e+00
0.000000000000000e+00 0.000000000000000e+00 0.000000000000000e+00
0.000000000000000e+00 0.000000000000000e+00 0.000000000000000e+00
0.000000000000000e+00 0.000000000000000e+00 0.000000000000000e+00
0.000000000000000e+00 0.000000000000000e+00 0.000000000000000e+00
0.000000000000000e+00 0.000000000000000e+00 0.000000000000000e+00
0.000000000000000e+00 0.000000000000000e+00 0.000000000000000e+00
0.000000000000000e+00 0.000000000000000e+00 0.000000000000000e+00
0.000000000000000e+00 0.000000000000000e+00 0.000000000000000e+00
0.000000000000000e+00 0.000000000000000e+00 0.000000000000000e+00
0.000000000000000e+00 0.000000000000000e+00 0.000000000000000e+00
0.000000000000000e+00 0.000000000000000e+00 0.000000000000000e+00
0.000000000000000e+00 0.000000000000000e+00 0.000000000000000e+00
0.000000000000000e+00 0.000000000000000e+00 0.000000000000000e+00
0.000000000000000e+00 0.000000000000000e+00 0.000000000000000e+00
0.000000000000000e+00 0.000000000000000e+00 0.000000000000000e+00
0.000000000000000e+00 0.000000000000000e+00 0.000000000000000e+00
0.000000000000000e+00 0.000000000000000e+00 0.000000000000000e+00
0.000000000000000e+00 0.000000000000000e+00 0.000000000000000e+00
0.000000000000000e+00 0.000000000000000e+00 0.000000000000000e+00
0.000000000000000e+00 0.000000000000000e+00 0.000000000000000e+00
0.000000000000000e+00 0.000000000000000e+00 0.000000000000000e+00
0.000000000000000e+00 0.000000000000000e+00 0.000000000000000e+00
0.000000000000000e+00 0.000000000000000e+00 0.000000000000000e+00
0.000000000000000e+00 0.000000000000000e+00 0.000000000000000e+00
0.000000000000000e+00 0.000000000000000e+00 0.000000000000000e+00
0.000000000000000e+00 0.000000000000000e+00 0.000000000000000e+00
0.000000000000000e+00 0.000000000000000e+00 0.000000000000000e+00
0.000000000000000e+00 0.000000000000000e+00 0.000000000000000e+00
0.000000000000000e+00 0.000000000000000e+00 0.000000000000000e+00
0.000000000000000e+00 0.000000000000000e+00 0.000000000000000e+00
0.000000000000000e+00 0.000000000000000e+00 0.000000000000000e+00
0.000000000000000e+00 0.000000000000000e+00 0.000000000000000e+00
0.000000000000000e+00 0.000000000000000e+00 0.000000000000000e+00
0.000000000000000e+00 0.000000000000000e+00 0.000000000000000e+00
0.000000000000000e+00 0.000000000000000e+00 0.000000000000000e+00
0.000000000000000e+00 0.000000000000000e+00 0.000000000000000e+00
0.000000000000000e+00 0.000000000000000e+00 0.000000000000000e+00
0.000000000000000e+00 0.000000000000000e+00 0.000000000000000e+00
0.000000000000000e+00 0.000000000000000e+00 0.000000000000000e+00
0.000000000000000e+00 0.000000000000000e+00 0.000000000000000e+00
0.000000000000000e+00 0.000000000000000e+00 0.000000000000000e+00
0.000000000000000e+00 0.000000000000000e+00 0.000000000000000e+00
0.000000000000000e+00 0.000000000000000e+00 0.000000000000000e+00
0.000000000000000e+00 0.000000000000000e+00 0.000000000000000e+00
0.000000000000000e+00 0.000000000000000e+00 0.000000000000000e+00
0.000000000000000e+00 0.000000000000000e+00 0.000000000000000e+00
0.000000000000000e+00 0.000000000000000e+00 0.000000000000000e+00
0.000000000000000e+00 0.000000000000000e+00 0.000000000000000e+00
0.000000000000000e+00 0.000000000000000e+00 0.000000000000000e+00
0.000000000000000e+00 0.000000000000000e+00 0.000000000000000e+00
0.000000000000000e+00 0.000000000000000e+00 0.000000000000000e+00
0.000000000000000e+00 0.000000000000000e+00 0.000000000000000e+00
0.000000000000000e+00 0.000000000000000e+00 0.000000000000000e+00
0.000000000000000e+00 0.000000000000000e+00 0.000000000000000e+00
0.000000000000000e+00 0.000000000000000e+00 0.000000000000000e+00
0.000000000000000e+00 0.000000000000000e+00 0.000000000000000e+00
0.000000000000000e+00 0.000000000000000e+00 0.000000000000000e+00
0.000000000000000e+00 0.000000000000000e+00 0.000000000000000e+00
0.000000000000000e+00 0.000000000000000e+00 0.000000000000000e+00
0.000000000000000e+00 0.000000000000000e+00 0.000000000000000e+00
0.000000000000000e+00 0.000000000000000e+00 0.000000000000000e+00
0.000000000000000e+00 0.000000000000000e+00 0.000000000000000e+00
0.000000000000000e+00 0.000000000000000e+00 0.000000000000000e+00
0.000000000000000e+00 0.000000000000000e+00 0.000000000000000e+00
0.000000000000000e+00 0.000000000000000e+00 0.000000000000000e+00
0.000000000000000e+00 0.000000000000000e+00 0.000000000000000e+00
0.000000000000000e+00 0.000000000000000e+00 0.000000000000000e+00
0.000000000000000e+00 0.000000000000000e+00 0.000000000000000e+00
0.000000000000000e+00 0.000000000000000e+00 0.000000000000000e+00
0.000000000000000e+00 0.000000000000000e+00 0.000000000000000e+00
0.000000000000000e+00 0.000000000000000e+00 0.000000000000000e+00
0.000000000000000e+00 0.000000000000000e+00 0.000000000000000e+00
0.000000000000000e+00 0.000000000000000e+00 0.000000000000000e+00
0.000000000000000e+00 0.000000000000000e+00 0.000000000000000e+00
0.000000000000000e+00 0.000000000000000e+00 0.000000000000000e+00
0.000000000000000e+00 0.000000000000000e+00 0.000000000000000e+00
0.000000000000000e+00 0.000000000000000e+00 0.000000000000000e+00
0.000000000000000e+00 0.000000000000000e+00 0.000000000000000e+00
0.000000000000000e+00 0.000000000000000e+00 0.000000000000000e+00
0.000000000000000e+00 0.000000000000000e+00 0.000000000000000e+00
0.000000000000000e+00 0.000000000000000e+00 0.000000000000000e+00
0.000000000000000e+00 0.000000000000000e+00 0.000000000000000e+00
0.000000000000000e+00 0.000000000000000e+00 0.000000000000000e+00
0.000000000000000e+00 0.000000000000000e+00 0.000000000000000e+00
0.000000000000000e+00 0.000000000000000e+00 0.000000000000000e+00
0.000000000000000e+00 0.000000000000000e+00 0.000000000000000e+00
0.000000000000000e+00 0.000000000000000e+00 0.000000000000000e+00
0.000000000000000e+00 0.000000000000000e+00 0.000000000000000e+00
0.000000000000000e+00 0.000000000000000e+00 0.000000000000000e+00
0.000000000000000e+00 0.000000000000000e+00 0.000000000000000e+00
0.000000000000000e+00 0.000000000000000e+00 0.000000000000000e+00
0.000000000000000e+00 0.000000000000000e+00 0.000000000000000e+00
0.000000000000000e+00 0.000000000000000e+00 0.000000000000000e+00
0.000000000000000e+00 0.000000000000000e+00 0.000000000000000e+00
0.000000000000000e+00 0.000000000000000e+00 0.000000000000000e+00
0.000000000000000e+00 0.000000000000000e+00 0.000000000000000e+00
0.000000000000000e+00 0.000000000000000e+00 0.000000000000000e+00
0.000000000000000e+00 0.000000000000000e+00 0.000000000000000e+00
0.000000000000000e+00 0.000000000000000e+00 0.000000000000000e+00
0.000000000000000e+00 0.000000000000000e+00 0.000000000000000e+00
0.000000000000000e+00 0.000000000000000e+00 0.000000000000000e+00
0.000000000000000e+00 0.000000000000000e+00 0.000000000000000e+00
0.000000000000000e+00 0.000000000000000e+00 0.000000000000000e+00
0.000000000000000e+00 0.000000000000000e+00 0.000000000000000e+00
0.000000000000000e+00 0.000000000000000e+00 0.000000000000000e+00
0.000000000000000e+00 0.000000000000000e+00 0.000000000000000e+00
0.000000000000000e+00 0.000000000000000e+00 0.000000000000000e+00
0.000000000000000e+00 0.000000000000000e+00 0.000000000000000e+00
0.000000000000000e+00 0.000000000000000e+00 0.000000000000000e+00
0.000000000000000e+00 0.000000000000000e+00 0.000000000000000e+00
0.000000000000000e+00 0.000000000000000e+00 0.000000000000000e+00
0.000000000000000e+00 0.000000000000000e+00 0.000000000000000e+00
0.000000000000000e+00 0.000000000000000e+00 0.000000000000000e+00
0.000000000000000e+00 0.000000000000000e+00 0.000000000000000e+00
0.000000000000000e+00 0.000000000000000e+00 0.000000000000000e+00
0.000000000000000e+00 0.000000000000000e+00 0.000000000000000e+00
0.000000000000000e+00 0.000000000000000e+00 0.000000000000000e+00
0.000000000000000e+00 0.000000000000000e+00 0.000000000000000e+00
0.000000000000000e+00 0.000000000000000e+00 0.000000000000000e+00
0.000000000000000e+00 0.000000000000000e+00 0.000000000000000e+00
0.000000000000000e+00 0.000000000000000e+00 0.000000000000000e+00
0.000000000000000e+00 0.000000000000000e+00 0.000000000000000e+00
0.000000000000000e+00 0.000000000000000e+00 0.000000000000000e+00
0.000000000000000e+00 0.000000000000000e+00 0.000000000000000e+00
0.000000000000000e+00 0.000000000000000e+00 0.000000000000000e+00
0.000000000000000e+00 0.000000000000000e+00 0.000000000000000e+00
0.000000000000000e+00 0.000000000000000e+00 0.000000000000000e+00
0.000000000000000e+00 0.000000000000000e+00 0.000000000000000e+00
0.000000000000000e+00 0.000000000000000e+00 0.000000000000000e+00
0.000000000000000e+00 0.000000000000000e+00 0.000000000000000e+00
0.000000000000000e+00 0.000000000000000e+00 0.000000000000000e+00
0.000000000000000e+00 0.000000000000000e+00 0.000000000000000e+00
0.000000000000000e+00 0.000000000000000e+00 0.000000000000000e+00
0.000000000000000e+00 0.000000000000000e+00 0.000000000000000e+00
0.000000000000000e+00 0.000000000000000e+00 0.000000000000000e+00
0.000000000000000e+00 0.000000000000000e+00 0.000000000000000e+00
0.000000000000000e+00 0.000000000000000e+00 0.000000000000000e+00
0.000000000000000e+00 0.000000000000000e+00 0.000000000000000e+00
0.000000000000000e+00 0.000000000000000e+00 0.000000000000000e+00
0.000000000000000e+00 0.000000000000000e+00 0.000000000000000e+00
0.000000000000000e+00 0.000000000000000e+00 0.000000000000000e+00
0.000000000000000e+00 0.000000000000000e+00 0.000000000000000e+00
0.000000000000000e+00 0.000000000000000e+00 0.000000000000000e+00
0.000000000000000e+00 0.000000000000000e+00 0.000000000000000e+00
0.000000000000000e+00 0.000000000000000e+00 0.000000000000000e+00
0.000000000000000e+00 0.000000000000000e+00 0.000000000000000e+00
0.000000000000000e+00 0.000000000000000e+00 0.000000000000000e+00
0.000000000000000e+00 0.000000000000000e+00 0.000000000000000e+00
0.000000000000000e+00 0.000000000000000e+00 0.000000000000000e+00
0.000000000000000e+00 0.000000000000000e+00 0.000000000000000e+00
0.000000000000000e+00 0.000000000000000e+00 0.000000000000000e+00
0.000000000000000e+00 0.000000000000000e+00 0.000000000000000e+00
0.000000000000000e+00 0.000000000000000e+00 0.000000000000000e+00
0.000000000000000e+00 0.000000000000000e+00 0.000000000000000e+00
0.000000000000000e+00 0.000000000000000e+00 0.000000000000000e+00
0.000000000000000e+00 0.000000000000000e+00 0.000000000000000e+00
0.000000000000000e+00 0.000000000000000e+00 0.000000000000000e+00
0.000000000000000e+00 0.000000000000000e+00 0.000000000000000e+00
0.000000000000000e+00 0.000000000000000e+00 0.000000000000000e+00
0.000000000000000e+00 0.000000000000000e+00 0.000000000000000e+00
0.000000000000000e+00 0.000000000000000e+00 0.000000000000000e+00
0.000000000000000e+00 0.000000000000000e+00 0.000000000000000e+00
0.000000000000000e+00 0.000000000000000e+00 0.000000000000000e+00
0.000000000000000e+00 0.000000000000000e+00 0.000000000000000e+00
0.000000000000000e+00 0.000000000000000e+00 0.000000000000000e+00
0.000000000000000e+00 0.000000000000000e+00 0.000000000000000e+00
0.000000000000000e+00 0.000000000000000e+00 0.000000000000000e+00
0.000000000000000e+00 0.000000000000000e+00 0.000000000000000e+00
0.000000000000000e+00 0.000000000000000e+00 0.000000000000000e+00
0.000000000000000e+00 0.000000000000000e+00 0.000000000000000e+00
0.000000000000000e+00 0.000000000000000e+00 0.000000000000000e+00
0.000000000000000e+00 0.000000000000000e+00 0.000000000000000e+00
0.000000000000000e+00 0.000000000000000e+00 0.000000000000000e+00
0.000000000000000e+00 0.000000000000000e+00 0.000000000000000e+00
0.000000000000000e+00 0.000000000000000e+00 0.000000000000000e+00
0.000000000000000e+00 0.000000000000000e+00 0.000000000000000e+00
0.000000000000000e+00 0.000000000000000e+00 0.000000000000000e+00
0.000000000000000e+00 0.000000000000000e+00 0.000000000000000e+00
0.000000000000000e+00 0.000000000000000e+00 0.000000000000000e+00
0.000000000000000e+00 0.000000000000000e+00 0.000000000000000e+00
0.000000000000000e+00 0.000000000000000e+00 0.000000000000000e+00
0.000000000000000e+00 0.000000000000000e+00 0.000000000000000e+00
0.000000000000000e+00 0.000000000000000e+00 0.000000000000000e+00
0.000000000000000e+00 0.000000000000000e+00 0.000000000000000e+00
0.000000000000000e+00 0.000000000000000e+00 0.000000000000000e+00
0.000000000000000e+00 0.000000000000000e+00 0.000000000000000e+00
0.000000000000000e+00 0.000000000000000e+00 0.000000000000000e+00
0.000000000000000e+00 0.000000000000000e+00 0.000000000000000e+00
0.000000000000000e+00 0.000000000000000e+00 0.000000000000000e+00
0.000000000000000e+00 0.000000000000000e+00 0.000000000000000e+00
0.000000000000000e+00 0.000000000000000e+00 0.000000000000000e+00
0.000000000000000e+00 0.000000000000000e+00 0.000000000000000e+00
0.000000000000000e+00 0.000000000000000e+00 0.000000000000000e+00
0.000000000000000e+00 0.000000000000000e+00 0.000000000000000e+00
0.000000000000000e+00 0.000000000000000e+00 0.000000000000000e+00
0.000000000000000e+00 0.000000000000000e+00 0.000000000000000e+00
0.000000000000000e+00 0.000000000000000e+00 0.000000000000000e+00
0.000000000000000e+00 0.000000000000000e+00 0.000000000000000e+00
0.000000000000000e+00 0.000000000000000e+00 0.000000000000000e+00
0.000000000000000e+00 0.000000000000000e+00 0.000000000000000e+00
0.000000000000000e+00 0.000000000000000e+00 0.000000000000000e+00
0.000000000000000e+00 0.000000000000000e+00 0.000000000000000e+00
0.000000000000000e+00 0.000000000000000e+00 0.000000000000000e+00
0.000000000000000e+00 0.000000000000000e+00 0.000000000000000e+00
0.000000000000000e+00 0.000000000000000e+00 0.000000000000000e+00
0.000000000000000e+00 0.000000000000000e+00 0.000000000000000e+00
0.000000000000000e+00 0.000000000000000e+00 0.000000000000000e+00
0.000000000000000e+00 0.000000000000000e+00 0.000000000000000e+00
0.000000000000000e+00 0.000000000000000e+00 0.000000000000000e+00
0.000000000000000e+00 0.000000000000000e+00 0.000000000000000e+00
0.000000000000000e+00 0.000000000000000e+00 0.000000000000000e+00
0.000000000000000e+00 0.000000000000000e+00 0.000000000000000e+00
0.000000000000000e+00 0.000000000000000e+00 0.000000000000000e+00
0.000000000000000e+00 0.000000000000000e+00 0.000000000000000e+00
0.000000000000000e+00 0.000000000000000e+00 0.000000000000000e+00
0.000000000000000e+00 0.000000000000000e+00 0.000000000000000e+00
0.000000000000000e+00 0.000000000000000e+00 0.000000000000000e+00
0.000000000000000e+00 0.000000000000000e+00 0.000000000000000e+00
0.000000000000000e+00 0.000000000000000e+00 0.000000000000000e+00
0.000000000000000e+00 0.000000000000000e+00 0.000000000000000e+00
0.000000000000000e+00 0.000000000000000e+00 0.000000000000000e+00
0.000000000000000e+00 0.000000000000000e+00 0.000000000000000e+00
0.000000000000000e+00 0.000000000000000e+00 0.000000000000000e+00
0.000000000000000e+00 0.000000000000000e+00 0.000000000000000e+00
0.000000000000000e+00 0.000000000000000e+00 0.000000000000000e+00
0.000000000000000e+00 0.000000000000000e+00 0.000000000000000e+00
0.000000000000000e+00 0.000000000000000e+00 0.000000000000000e+00
0.000000000000000e+00 0.000000000000000e+00 0.000000000000000e+00
0.000000000000000e+00 0.000000000000000e+00 0.000000000000000e+00
0.000000000000000e+00 0.000000000000000e+00 0.000000000000000e+00
0.000000000000000e+00 0.000000000000000e+00 0.000000000000000e+00
0.000000000000000e+00 0.000000000000000e+00 0.000000000000000e+00
0.000000000000000e+00 0.000000000000000e+00 0.000000000000000e+00
0.000000000000000e+00 0.000000000000000e+00 0.000000000000000e+00
0.000000000000000e+00 0.000000000000000e+00 0.000000000000000e+00
0.000000000000000e+00 0.000000000000000e+00 0.000000000000000e+00
0.000000000000000e+00 0.000000000000000e+00 0.000000000000000e+00
0.000000000000000e+00 0.000000000000000e+00 0.000000000000000e+00
0.000000000000000e+00 0.000000000000000e+00 0.000000000000000e+00
0.000000000000000e+00 0.000000000000000e+00 0.000000000000000e+00
0.000000000000000e+00 0.000000000000000e+00 0.000000000000000e+00
0.000000000000000e+00 0.000000000000000e+00 0.000000000000000e+00
0.000000000000000e+00 0.000000000000000e+00 0.000000000000000e+00
0.000000000000000e+00 0.000000000000000e+00 0.000000000000000e+00
0.000000000000000e+00 0.000000000000000e+00 0.000000000000000e+00
0.000000000000000e+00 0.000000000000000e+00 0.000000000000000e+00
0.000000000000000e+00 0.000000000000000e+00 0.000000000000000e+00
0.000000000000000e+00 0.000000000000000e+00 0.000000000000000e+00
0.000000000000000e+00 0.000000000000000e+00 0.000000000000000e+00
0.000000000000000e+00 0.000000000000000e+00 0.000000000000000e+00
0.000000000000000e+00 0.000000000000000e+00 0.000000000000000e+00
0.000000000000000e+00 0.000000000000000e+00 0.000000000000000e+00
0.000000000000000e+00 0.000000000000000e+00 0.000000000000000e+00
0.000000000000000e+00 0.000000000000000e+00 0.000000000000000e+00
0.000000000000000e+00 0.000000000000000e+00 0.000000000000000e+00
0.000000000000000e+00 0.000000000000000e+00 0.000000000000000e+00
0.000000000000000e+00 0.000000000000000e+00 0.000000000000000e+00
0.000000000000000e+00 0.000000000000000e+00 0.000000000000000e+00
0.000000000000000e+00 0.000000000000000e+00 0.000000000000000e+00
0.000000000000000e+00 0.000000000000000e+00 0.000000000000000e+00
0.000000000000000e+00 0.000000000000000e+00 0.000000000000000e+00
0.000000000000000e+00 0.000000000000000e+00 0.000000000000000e+00
0.000000000000000e+00 0.000000000000000e+00 0.000000000000000e+00
0.000000000000000e+00 0.000000000000000e+00 0.000000000000000e+00
0.000000000000000e+00 0.000000000000000e+00 0.000000000000000e+00
0.000000000000000e+00 0.000000000000000e+00 0.000000000000000e+00
0.000000000000000e+00 0.000000000000000e+00 0.000000000000000e+00
0.000000000000000e+00 0.000000000000000e+00 0.000000000000000e+00
0.000000000000000e+00 0.000000000000000e+00 0.000000000000000e+00
0.000000000000000e+00 0.000000000000000e+00 0.000000000000000e+00
0.000000000000000e+00 0.000000000000000e+00 0.000000000000000e+00
0.000000000000000e+00 0.000000000000000e+00 0.000000000000000e+00
0.000000000000000e+00 0.000000000000000e+00 0.000000000000000e+00
0.000000000000000e+00 0.000000000000000e+00 0.000000000000000e+00
0.000000000000000e+00 0.000000000000000e+00 0.000000000000000e+00
0.000000000000000e+00 0.000000000000000e+00 0.000000000000000e+00
0.000000000000000e+00 0.000000000000000e+00 0.000000000000000e+00
0.000000000000000e+00 0.000000000000000e+00 0.000000000000000e+00
0.000000000000000e+00 0.000000000000000e+00 0.000000000000000e+00
0.000000000000000e+00 0.000000000000000e+00 0.000000000000000e+00
0.000000000000000e+00 0.000000000000000e+00 0.000000000000000e+00
0.000000000000000e+00 0.000000000000000e+00 0.000000000000000e+00
0.000000000000000e+00 0.000000000000000e+00 0.000000000000000e+00
0.000000000000000e+00 0.000000000000000e+00 0.000000000000000e+00
0.000000000000000e+00 0.000000000000000e+00 0.000000000000000e+00
0.000000000000000e+00 0.000000000000000e+00 0.000000000000000e+00
0.000000000000000e+00 0.000000000000000e+00 0.000000000000000e+00
0.000000000000000e+00 0.000000000000000e+00 0.000000000000000e+00
0.000000000000000e+00 0.000000000000000e+00 0.000000000000000e+00
0.000000000000000e+00 0.000000000000000e+00 0.000000000000000e+00
0.000000000000000e+00 0.000000000000000e+00 0.000000000000000e+00
0.000000000000000e+00 0.000000000000000e+00 0.000000000000000e+00
0.000000000000000e+00 0.000000000000000e+00 0.000000000000000e+00
0.000000000000000e+00 0.000000000000000e+00 0.000000000000000e+00
0.000000000000000e+00 0.000000000000000e+00 0.000000000000000e+00
0.000000000000000e+00 0.000000000000000e+00 0.000000000000000e+00
0.000000000000000e+00 0.000000000000000e+00 0.000000000000000e+00
0.000000000000000e+00 0.000000000000000e+00 0.000000000000000e+00
0.000000000000000e+00 0.000000000000000e+00 0.000000000000000e+00
0.000000000000000e+00 0.000000000000000e+00 0.000000000000000e+00
0.000000000000000e+00 0.000000000000000e+00 0.000000000000000e+00
0.000000000000000e+00 0.000000000000000e+00 0.000000000000000e+00
0.000000000000000e+00 0.000000000000000e+00 0.000000000000000e+00
0.000000000000000e+00 0.000000000000000e+00 0.000000000000000e+00
0.000000000000000e+00 0.000000000000000e+00 0.000000000000000e+00
0.000000000000000e+00 0.000000000000000e+00 0.000000000000000e+00
0.000000000000000e+00 0.000000000000000e+00 0.000000000000000e+00
0.000000000000000e+00 0.000000000000000e+00 0.000000000000000e+00
0.000000000000000e+00 0.000000000000000e+00 0.000000000000000e+00
0.000000000000000e+00 0.000000000000000e+00 0.000000000000000e+00
0.000000000000000e+00 0.000000000000000e+00 0.000000000000000e+00
0.000000000000000e+00 0.000000000000000e+00 0.000000000000000e+00
0.000000000000000e+00 0.000000000000000e+00 0.000000000000000e+00
0.000000000000000e+00 0.000000000000000e+00 0.000000000000000e+00
0.000000000000000e+00 0.000000000000000e+00 0.000000000000000e+00
0.000000000000000e+00 0.000000000000000e+00 0.000000000000000e+00
0.000000000000000e+00 0.000000000000000e+00 0.000000000000000e+00
0.000000000000000e+00 0.000000000000000e+00 0.000000000000000e+00
0.000000000000000e+00 0.000000000000000e+00 0.000000000000000e+00
0.000000000000000e+00 0.000000000000000e+00 0.000000000000000e+00
0.000000000000000e+00 0.000000000000000e+00 0.000000000000000e+00
0.000000000000000e+00 0.000000000000000e+00 0.000000000000000e+00
0.000000000000000e+00 0.000000000000000e+00 0.000000000000000e+00
0.000000000000000e+00 0.000000000000000e+00 0.000000000000000e+00
0.000000000000000e+00 0.000000000000000e+00 0.000000000000000e+00
0.000000000000000e+00 0.000000000000000e+00 0.000000000000000e+00
0.000000000000000e+00 0.000000000000000e+00 0.000000000000000e+00
0.000000000000000e+00 0.000000000000000e+00 0.000000000000000e+00
0.000000000000000e+00 0.000000000000000e+00 0.000000000000000e+00
0.000000000000000e+00 0.000000000000000e+00 0.000000000000000e+00
0.000000000000000e+00 0.000000000000000e+00 0.000000000000000e+00
0.000000000000000e+00 0.000000000000000e+00 0.000000000000000e+00
0.000000000000000e+00 0.000000000000000e+00 0.000000000000000e+00
0.000000000000000e+00 0.000000000000000e+00 0.000000000000000e+00
0.000000000000000e+00 0.000000000000000e+00 0.000000000000000e+00
0.000000000000000e+00 0.000000000000000e+00 0.000000000000000e+00
0.000000000000000e+00 0.000000000000000e+00 0.000000000000000e+00
0.000000000000000e+00 0.000000000000000e+00 0.000000000000000e+00
0.000000000000000e+00 0.000000000000000e+00 0.000000000000000e+00
0.000000000000000e+00 0.000000000000000e+00 0.000000000000000e+00
0.000000000000000e+00 0.000000000000000e+00 0.000000000000000e+00
0.000000000000000e+00 0.000000000000000e+00 0.000000000000000e+00
0.000000000000000e+00 0.000000000000000e+00 0.000000000000000e+00
0.000000000000000e+00 0.000000000000000e+00 0.000000000000000e+00
0.000000000000000e+00 0.000000000000000e+00 0.000000000000000e+00
0.000000000000000e+00 0.000000000000000e+00 0.000000000000000e+00
0.000000000000000e+00 0.000000000000000e+00 0.000000000000000e+00
0.000000000000000e+00 0.000000000000000e+00 0.000000000000000e+00
0.000000000000000e+00 0.000000000000000e+00 0.000000000000000e+00
0.000000000000000e+00 0.000000000000000e+00 0.000000000000000e+00
0.000000000000000e+00 0.000000000000000e+00 0.000000000000000e+00
0.000000000000000e+00 0.000000000000000e+00 0.000000000000000e+00
0.000000000000000e+00 0.000000000000000e+00 0.000000000000000e+00
0.000000000000000e+00 0.000000000000000e+00 0.000000000000000e+00
0.000000000000000e+00 0.000000000000000e+00 0.000000000000000e+00
0.000000000000000e+00 0.000000000000000e+00 0.000000000000000e+00
0.000000000000000e+00 0.000000000000000e+00 0.000000000000000e+00
0.000000000000000e+00 0.000000000000000e+00 0.000000000000000e+00
0.000000000000000e+00 0.000000000000000e+00 0.000000000000000e+00
0.000000000000000e+00 0.000000000000000e+00 0.000000000000000e+00
0.000000000000000e+00 0.000000000000000e+00 0.000000000000000e+00
0.000000000000000e+00 0.000000000000000e+00 0.000000000000000e+00
0.000000000000000e+00 0.000000000000000e+00 0.000000000000000e+00
0.000000000000000e+00 0.000000000000000e+00 0.000000000000000e+00
0.000000000000000e+00 0.000000000000000e+00 0.000000000000000e+00
0.000000000000000e+00 0.000000000000000e+00 0.000000000000000e+00
0.000000000000000e+00 0.000000000000000e+00 0.000000000000000e+00
0.000000000000000e+00 0.000000000000000e+00 0.000000000000000e+00
0.000000000000000e+00 0.000000000000000e+00 0.000000000000000e+00
0.000000000000000e+00 0.000000000000000e+00 0.000000000000000e+00
0.000000000000000e+00 0.000000000000000e+00 0.000000000000000e+00
0.000000000000000e+00 0.000000000000000e+00 0.000000000000000e+00
0.000000000000000e+00 0.000000000000000e+00 0.000000000000000e+00
0.000000000000000e+00 0.000000000000000e+00 0.000000000000000e+00
0.000000000000000e+00 0.000000000000000e+00 0.000000000000000e+00
0.000000000000000e+00 0.000000000000000e+00 0.000000000000000e+00
0.000000000000000e+00 0.000000000000000e+00 0.000000000000000e+00
0.000000000000000e+00 0.000000000000000e+00 0.000000000000000e+00
0.000000000000000e+00 0.000000000000000e+00 0.000000000000000e+00
0.000000000000000e+00 0.000000000000000e+00 0.000000000000000e+00
0.000000000000000e+00 0.000000000000000e+00 0.000000000000000e+00
0.000000000000000e+00 0.000000000000000e+00 0.000000000000000e+00
0.000000000000000e+00 0.000000000000000e+00 0.000000000000000e+00
0.000000000000000e+00 0.000000000000000e+00 0.000000000000000e+00
0.000000000000000e+00 0.000000000000000e+00 0.000000000000000e+00
0.000000000000000e+00 0.000000000000000e+00 0.000000000000000e+00
0.000000000000000e+00 0.000000000000000e+00 0.000000000000000e+00
0.000000000000000e+00 0.000000000000000e+00 0.000000000000000e+00
0.000000000000000e+00 0.000000000000000e+00 0.000000000000000e+00
0.000000000000000e+00 0.000000000000000e+00 0.000000000000000e+00
0.000000000000000e+00 0.000000000000000e+00 0.000000000000000e+00
0.000000000000000e+00 0.000000000000000e+00 0.000000000000000e+00
0.000000000000000e+00 0.000000000000000e+00 0.000000000000000e+00
0.000000000000000e+00 0.000000000000000e+00 0.000000000000000e+00
0.000000000000000e+00 0.000000000000000e+00 0.000000000000000e+00
0.000000000000000e+00 0.000000000000000e+00 0.000000000000000e+00
0.000000000000000e+00 0.000000000000000e+00 0.000000000000000e+00
0.000000000000000e+00 0.000000000000000e+00 0.000000000000000e+00
0.000000000000000e+00 0.000000000000000e+00 0.000000000000000e+00
0.000000000000000e+00 0.000000000000000e+00 0.000000000000000e+00
0.000000000000000e+00 0.000000000000000e+00 0.000000000000000e+00
0.000000000000000e+00 0.000000000000000e+00 0.000000000000000e+00
0.000000000000000e+00 0.000000000000000e+00 0.000000000000000e+00
0.000000000000000e+00 0.000000000000000e+00 0.000000000000000e+00
0.000000000000000e+00 0.000000000000000e+00 0.000000000000000e+00
0.000000000000000e+00 0.000000000000000e+00 0.000000000000000e+00
0.000000000000000e+00 0.000000000000000e+00 0.000000000000000e+00
0.000000000000000e+00 0.000000000000000e+00 0.000000000000000e+00
0.000000000000000e+00 0.000000000000000e+00 0.000000000000000e+00
0.000000000000000e+00 0.000000000000000e+00 0.000000000000000e+00
0.000000000000000e+00 0.000000000000000e+00 0.000000000000000e+00
0.000000000000000e+00 0.000000000000000e+00 0.000000000000000e+00
0.000000000000000e+00 0.000000000000000e+00 0.000000000000000e+00
0.000000000000000e+00 0.000000000000000e+00 0.000000000000000e+00
0.000000000000000e+00 0.000000000000000e+00 0.000000000000000e+00
0.000000000000000e+00 0.000000000000000e+00 0.000000000000000e+00
0.000000000000000e+00 0.000000000000000e+00 0.000000000000000e+00
0.000000000000000e+00 0.000000000000000e+00 0.000000000000000e+00
0.000000000000000e+00 0.000000000000000e+00 0.000000000000000e+00
0.000000000000000e+00 0.000000000000000e+00 0.000000000000000e+00
0.000000000000000e+00 0.000000000000000e+00 0.000000000000000e+00
0.000000000000000e+00 0.000000000000000e+00 0.000000000000000e+00
0.000000000000000e+00 0.000000000000000e+00 0.000000000000000e+00
0.000000000000000e+00 0.000000000000000e+00 0.000000000000000e+00
0.000000000000000e+00 0.000000000000000e+00 0.000000000000000e+00
0.000000000000000e+00 0.000000000000000e+00 0.000000000000000e+00
0.000000000000000e+00 0.000000000000000e+00 0.000000000000000e+00
0.000000000000000e+00 0.000000000000000e+00 0.000000000000000e+00
0.000000000000000e+00 0.000000000000000e+00 0.000000000000000e+00
0.000000000000000e+00 0.000000000000000e+00 0.000000000000000e+00
0.000000000000000e+00 0.000000000000000e+00 0.000000000000000e+00
0.000000000000000e+00 0.000000000000000e+00 0.000000000000000e+00
0.000000000000000e+00 0.000000000000000e+00 0.000000000000000e+00
0.000000000000000e+00 0.000000000000000e+00 0.000000000000000e+00
0.000000000000000e+00 0.000000000000000e+00 0.000000000000000e+00
0.000000000000000e+00 0.000000000000000e+00 0.000000000000000e+00
0.000000000000000e+00 0.000000000000000e+00 0.000000000000000e+00
0.000000000000000e+00 0.000000000000000e+00 0.000000000000000e+00
0.000000000000000e+00 0.000000000000000e+00 0.000000000000000e+00
0.000000000000000e+00 0.000000000000000e+00 0.000000000000000e+00
0.000000000000000e+00 0.000000000000000e+00 0.000000000000000e+00
0.000000000000000e+00 0.000000000000000e+00 0.000000000000000e+00
0.000000000000000e+00 0.000000000000000e+00 0.000000000000000e+00
0.000000000000000e+00 0.000000000000000e+00 0.000000000000000e+00
0.000000000000000e+00 0.000000000000000e+00 0.000000000000000e+00
0.000000000000000e+00 0.000000000000000e+00 0.000000000000000e+00
0.000000000000000e+00 0.000000000000000e+00 0.000000000000000e+00
0.000000000000000e+00 0.000000000000000e+00 0.000000000000000e+00
0.000000000000000e+00 0.000000000000000e+00 0.000000000000000e+00
0.000000000000000e+00 0.000000000000000e+00 0.000000000000000e+00
0.000000000000000e+00 0.000000000000000e+00 0.000000000000000e+00
0.000000000000000e+00 0.000000000000000e+00 0.000000000000000e+00
0.000000000000000e+00 0.000000000000000e+00 0.000000000000000e+00
0.000000000000000e+00 0.000000000000000e+00 0.000000000000000e+00
0.000000000000000e+00 0.000000000000000e+00 0.000000000000000e+00
0.000000000000000e+00 0.000000000000000e+00 0.000000000000000e+00
0.000000000000000e+00 0.000000000000000e+00 0.000000000000000e+00
0.000000000000000e+00 0.000000000000000e+00 0.000000000000000e+00
0.000000000000000e+00 0.000000000000000e+00 0.000000000000000e+00
0.000000000000000e+00 0.000000000000000e+00 0.000000000000000e+00
0.000000000000000e+00 0.000000000000000e+00 0.000000000000000e+00
0.000000000000000e+00 0.000000000000000e+00 0.000000000000000e+00
0.000000000000000e+00 0.000000000000000e+00 0.000000000000000e+00
0.000000000000000e+00 0.000000000000000e+00 0.000000000000000e+00
0.000000000000000e+00 0.000000000000000e+00 0.000000000000000e+00
0.000000000000000e+00 0.000000000000000e+00 0.000000000000000e+00
0.000000000000000e+00 0.000000000000000e+00 0.000000000000000e+00
0.000000000000000e+00 0.000000000000000e+00 0.000000000000000e+00
0.000000000000000e+00 0.000000000000000e+00 0.000000000000000e+00
0.000000000000000e+00 0.000000000000000e+00 0.000000000000000e+00
0.000000000000000e+00 0.000000000000000e+00 0.000000000000000e+00
0.000000000000000e+00 0.000000000000000e+00 0.000000000000000e+00
0.000000000000000e+00 0.000000000000000e+00 0.000000000000000e+00
0.000000000000000e+00 0.000000000000000e+00 0.000000000000000e+00
0.000000000000000e+00 0.000000000000000e+00 0.000000000000000e+00
0.000000000000000e+00 0.000000000000000e+00 0.000000000000000e+00
0.000000000000000e+00 0.000000000000000e+00 0.000000000000000e+00
0.000000000000000e+00 0.000000000000000e+00 0.000000000000000e+00
0.000000000000000e+00 0.000000000000000e+00 0.000000000000000e+00
0.000000000000000e+00 0.000000000000000e+00 0.000000000000000e+00
0.000000000000000e+00 0.000000000000000e+00 0.000000000000000e+00
0.000000000000000e+00 0.000000000000000e+00 0.000000000000000e+00
0.000000000000000e+00 0.000000000000000e+00 0.000000000000000e+00
0.000000000000000e+00 0.000000000000000e+00 0.000000000000000e+00
0.000000000000000e+00 0.000000000000000e+00 0.000000000000000e+00
0.000000000000000e+00 0.000000000000000e+00 0.000000000000000e+00
0.000000000000000e+00 0.000000000000000e+00 0.000000000000000e+00
0.000000000000000e+00 0.000000000000000e+00 0.000000000000000e+00
0.000000000000000e+00 0.000000000000000e+00 0.000000000000000e+00
0.000000000000000e+00 0.000000000000000e+00 0.000000000000000e+00
0.000000000000000e+00 0.000000000000000e+00 0.000000000000000e+00
0.000000000000000e+00 0.000000000000000e+00 0.000000000000000e+00
0.000000000000000e+00 0.000000000000000e+00 0.000000000000000e+00
0.000000000000000e+00 0.000000000000000e+00 0.000000000000000e+00
0.000000000000000e+00 0.000000000000000e+00 0.000000000000000e+00
0.000000000000000e+00 0.000000000000000e+00 0.000000000000000e+00
0.000000000000000e+00 0.000000000000000e+00 0.000000000000000e+00
0.000000000000000e+00 0.000000000000000e+00 0.000000000000000e+00
0.000000000000000e+00 0.000000000000000e+00 0.000000000000000e+00
0.000000000000000e+00 0.000000000000000e+00 0.000000000000000e+00
0.000000000000000e+00 0.000000000000000e+00 0.000000000000000e+00
0.000000000000000e+00 0.000000000000000e+00 0.000000000000000e+00
0.000000000000000e+00 0.000000000000000e+00 0.000000000000000e+00
0.000000000000000e+00 0.000000000000000e+00 0.000000000000000e+00
0.000000000000000e+00 0.000000000000000e+00 0.000000000000000e+00
0.000000000000000e+00 0.000000000000000e+00 0.000000000000000e+00
 1.390549196734681e+01  3.014689505799292e-01 -2.505623005715768e-16
 1.194984201769064e+00 -5.868767201301408e-02 -2.066317479137779e-17
 1.167932222261713e+00  2.882406769991458e-02 -2.108090389874905e-17
-1.264019034872143e+00 -1.151800733699026e-02  2.261306982508519e-17
 3.185859589667174e+01 -1.324196751966361e+00 -5.533560757038621e-16
-2.687714352317949e+01 -1.225722330124322e+01  6.042493459306756e-16
-1.357793111346821e+01  4.803889129781008e+00  1.922772648203717e-16
 1.610672092449742e+01 -8.586756149323763e-01 -2.778157316326038e-16
 1.834369124311635e+01  4.543345672480528e-01 -3.311159894498704e-16
 2.358847983188566e+01  8.577173654433796e+00 -5.079124794118490e-16
-1.040170265460733e+01  2.853078248221148e-01  1.821792720831281e-16
 9.180255805213301e-01  7.479911212720333e-03 -1.641421362940687e-17
 6.513897013552377e+00  1.654108093676644e-02 -1.160925209958977e-16
 1.040448719503846e+00  7.585371914043620e-02 -1.929539544740653e-17
-2.417839002128534e+01 -1.187035481014951e+00  4.424796497791281e-16
-7.972519919463291e+00  3.148338907431519e-01  1.386456980772738e-16
 1.504174020273761e+01 -3.697691222411173e-01 -2.638864659460569e-16
 2.213152454933927e+01  3.618920969294223e+00 -4.310399770973685e-16
-2.688632020707942e+01 -3.609484987999470e-01  4.821827539628199e-16
 2.388548393092476e+01 -3.070338221987264e+00 -3.935240683085967e-16
 1.555659090302363e+01  1.107415733594620e+00 -2.882263860774605e-16
-1.607216407141749e+01 -3.379980633581242e+00  3.207514043857578e-16
-1.685935921909429e+01  2.179362118154042e+00  2.776402538060100e-16
 1.655243866008847e+01  5.918140323851122e-01 -3.006510646171188e-16
-5.789805193802505e+00 -8.013162954848697e-01  1.112697235742347e-16
-9.671446286074591e+00 -3.883617351077971e-01  1.761051989235415e-16
 1.042166360396183e-01 -2.745362082825121e-02 -1.572583362495694e-18
 1.670851220725917e+01  1.851694873302199e+00 -3.163733975610537e-16
-6.795171382987159e-01 -1.090280286242851e-01  1.321304142272250e-17
 1.321610851079912e+00  2.117876980515211e-01 -2.569568321952757e-17
-3.178840365155053e+01 -6.970460468096324e+00  6.373315106972892e-16
-1.299676490455962e+01  1.691844379978217e+00  2.139098481923591e-16
-2.587603353792971e+00  1.942205956594469e-01  4.405394222053920e-17
 6.149852854554666e+00 -4.958814764601120e-01 -1.043489653257766e-16
 9.042736951351307e+00  2.390534648705471e-01 -1.633824781344831e-16
-8.378730961623425e+00  1.477743633399001e-01  1.475911840610865e-16
 1.949206129990129e+00 -1.807094748164694e-01 -3.283172388122570e-17
 3.264454674351663e+00 -3.384614810821320e-03 -5.806008922528333e-17
 4.501982551248378e+00 -1.390224228259053e-01 -7.868974478446294e-17
-5.806205679310724e+00 -7.468226892780376e-02  1.040956891395202e-16
 8.931244262345841e+00 -1.659773447517831e+00 -1.418885757844463e-16
 1.800241441424572e+00  1.662138435016601e-01 -3.374523071257219e-17
 3.248838651893763e+00 -2.542278796019811e-01 -5.520486007380857e-17
-6.105878479416031e+00 -9.969560560047874e-01  1.189047522315870e-16
 5.420356205317198e+00 -1.023247643117838e+00 -8.594820648747838e-17
 1.475489749795125e+00  1.657409073033783e-01 -2.796102773927729e-17
 1.022786777823114e-01 -3.114556534226837e-02 -1.500161701862447e-18
 5.757759839750771e+00  8.916070011327797e-01 -1.116271424944025e-16
-2.746338510254179e+00  2.405042804399203e-01  4.640327562788760e-17
-5.019243290819227e-01 -3.819856189628240e-02  9.324818500255455e-18
 1.098508475199325e+00 -5.866668249024576e-02 -1.894648983155649e-17
 1.150083342019435e+01  8.819875568878195e-01 -2.137331511437589e-16
-1.990412289991682e+01 -4.205898785081132e-01  3.585390176761302e-16
-1.818071645579562e+01 -6.456760825704920e-02  3.242109447892659e-16
 1.707398564634413e+01 -2.902886481823979e+00 -2.740258370972669e-16
 2.127430994398271e+01  1.307906781904637e+01 -5.129843929894276e-16
-1.830234688385021e+01  6.939679982854318e-01  3.185818255451359e-16
-9.215079643615963e+00  2.237200636535571e-02  1.637634701684231e-16
 1.943269162879779e+01 -2.307554218684011e+00 -3.221186463840644e-16
 1.292659240147105e+01  1.211345581759187e+00 -2.424902669870092e-16
-1.955590271576878e+01 -9.196816276386524e-01  3.574700106112654e-16
-1.151430929760950e+01 -1.119519982922176e-01  2.060611348257770e-16
 2.046540326567493e+01 -2.976476161194057e+00 -3.336240518381952e-16
 8.754779544824881e+00  8.247487582206614e-01 -1.642757389599137e-16
-1.881044906924092e+01  7.764469928310327e-02  3.339566080221654e-16
-1.117877270479007e+01 -5.644010160189996e-01  2.047386102034533e-16
 1.543252437812883e+01 -1.790729064816526e+00 -2.562410892580240e-16
 2.009492099288078e+01  2.468325250383950e+01 -6.112245418698036e-16
-2.404075826430083e+01  2.772275619787252e+00  3.993498452581350e-16
 1.534837226977535e+00  3.861078635298238e-02 -2.771097108213887e-17
 7.564646587884646e-01 -3.352750638155493e-02 -1.311770799832110e-17
 3.908566474289468e+00  1.856366251242121e-01 -7.146495158666661e-17
-2.275914731724754e+00  3.564347966593723e-02  4.013639363774874e-17
 3.555862317211969e+00  4.780236214644565e-02 -6.377196342207934e-17
-1.193451000625904e+00 -1.015540735316942e-02  2.134322727902482e-17
 2.603889511560503e-02  1.835168847340902e-03 -4.822489106868258e-19
-2.694309678761055e+00 -7.866830706416442e-02  4.875674303592956e-17
-9.617364851307835e-01 -1.421045402856869e-02  1.726125517646864e-17
 3.468375879111186e+00  1.134981099696278e-01 -6.289003781654093e-17
-3.227002253969799e+01 -3.960408045603113e+00  6.149752981310401e-16
-7.153727732491592e-01  1.608903245814709e-02  1.256560293701249e-17
-3.778469039145955e+00  5.950367889827468e-03  6.718122581945178e-17
 3.419636930298950e+00 -4.569785068712636e-01 -5.616123011972626e-17
 1.004181314259553e+01  1.009084554353362e+00 -1.890740204022875e-16
-7.177561125644965e+00  3.458104634351408e-01  1.241801850446098e-16
-1.304548283765078e+01 -1.685375996668737e-01  2.338915909594549e-16
 9.763473401209389e+00 -9.461912608607597e-01 -1.640308839649347e-16
 7.302485133540848e+00  1.169394078363024e+00 -1.419715330194862e-16
-4.572957082812395e+00  3.138190940185246e-01  7.815684891978202e-17
-7.420538964273191e+00 -5.217561773383863e-01  1.374181977270641e-16
 1.656565162061671e+00 -8.892374904044203e-02 -2.856689387473628e-17
 3.882654773393178e+00 -2.916359055588736e-02 -6.879682780354704e-17
 3.035357620828548e+01 -1.173591653443671e+01 -4.195958165565569e-16
 5.999080573704556e+00  9.572069678426320e-02 -1.077442901584309e-16
 5.648770257615341e-01 -3.006838818518327e-03 -1.002176630387987e-17
 3.050424841366244e+00 -5.790754223986255e-02 -5.369096980431465e-17
-4.477087040733318e-01 -4.924566921775012e-03  8.018108537383544e-18
-4.182302547711515e+00  1.055930599669487e-01  7.334413233850493e-17
-1.346979578068007e+00  8.589716725604456e-02  2.308854613604754e-17
 1.980089379578255e+01 -6.703691326990922e-02 -3.516917445230407e-16
 1.734758494569627e+01  8.419421307357654e+00 -3.952274623780805e-16
-1.426251583470511e+01  1.778292543995370e+00  2.355471723239771e-16
 2.231545170482527e+00  4.354049736926609e-02 -4.016037098759804e-17
 5.474064518669155e-01 -3.661942046312983e-02 -9.365499535626756e-18
-6.745141331968019e+00 -3.221995905487618e-01  1.233483196706945e-16
 8.436301970905472e+00 -1.240733867407167e+00 -1.373859670509427e-16
 4.470296595834645e+00  4.995176573717363e-01 -8.468662276042197e-17
-1.191166101636695e+01  3.148764673833956e-01  2.087469751976467e-16
-1.455024800648586e+00 -1.295893258253791e-02  2.602705027171393e-17
-6.786051477659183e-01  3.758547546630794e-03  1.203797034527731e-17
-1.144094489856503e+01 -4.682625667952006e-01  2.084164895383804e-16
-2.292251849372106e+00  4.142015038456840e-02  4.036777896268779e-17
 5.647999404018798e-01  1.633185837339714e-02 -1.021909253766865e-17
 1.013838378908627e+01 -1.179118533026595e-01 -1.792131315368522e-16
-6.544031822577603e+00 -1.572275168763955e-01  1.180743079079430e-16
-2.817203812952936e+00  3.827243051230133e-02  4.974226701676716e-17
 3.949361143752722e+00  5.081007392423154e-02 -7.080564744976560e-17
-8.138526180662143e-01  1.385740400053851e-03  1.446924015784593e-17
-2.833162071750473e+00 -4.589360843437253e-02  5.089103872666653e-17
-2.392989242680905e+00  2.067232458553489e-02  4.237369738909510e-17
 1.761421103510978e+00  1.269872269033771e-02 -3.147706438182618e-17
-1.371796455962520e+00 -1.351318669923555e-03  2.442663857928996e-17
 5.503120984066557e-01  2.275589526772789e-03 -9.816841324116243e-18
-8.763753644981241e-01 -3.578555607736186e-03  1.563291335652124e-17
 5.435239818448921e-03 -1.092587836292175e-03 -8.550063515302507e-20
 3.415988377383457e-01  7.409613608075082e-03 -6.155289880005395e-18
-8.349637060902687e-01 -1.401277750060718e-02  1.500315132857780e-17
 2.199812349305266e+00  3.839881188585972e-02 -3.954281860927228e-17
-1.992671271359123e+00 -5.507645165756603e-02  3.602785273647051e-17
 2.204552621045874e+00  1.594571297451682e-02 -3.939647998608330e-17
-7.224078804128918e-01 -3.539640304450872e-02  1.321979513640682e-17
-9.303235685994024e-01 -2.054399922855399e-02  1.676729978128192e-17
 9.691412766129208e+00  8.885771790417114e-01 -1.816000581655778e-16
-3.235524968701818e+00 -2.037380615927986e-01  5.967336086258332e-17
 1.691622120614258e+00  1.989836609378326e-01 -3.214891827883540e-17
-3.138691204736907e+01 -8.599516152473035e+00  6.469244440919628e-16
 3.509912017172633e+00 -8.785399195886271e-01 -5.343639262075561e-17
 1.136070685031855e+00  1.523984271351762e-01 -2.178357147552591e-17
-2.807978655392848e+00  1.504627146518521e-01  4.842537984529618e-17
-8.207031619955092e+00 -3.013683260810439e-01  1.491503675565668e-16
 1.861227459005980e+00 -2.997972691694666e-01 -3.004245475295983e-17
 2.434390662872398e+00  3.978501888528853e-01 -4.741065182304294e-17
-1.009633500817325e+01  5.389822946881616e-01  1.741384775224165e-16
 3.209274774622435e+01 -5.398654278904673e+00 -5.156595161314579e-16
 7.344051446566860e-01 -1.047729855656919e-02 -1.296196514101200e-17
-1.168812702839442e+01 -6.168712347529166e-01  2.143422904474397e-16
-1.219275329741633e-01 -4.626464206896804e-02  2.645198344239522e-18
-2.959622635744907e+00 -4.186669643624243e-02  5.310018027215435e-17
 3.283780336743882e+00 -3.766154290369714e-01 -5.456920140316025e-17
-2.861691966104294e-02  1.638238785808525e-02  3.409491439498876e-19
-2.855556496473702e+01  5.318389234880201e+00  4.535358234542272e-16
-9.516113589870202e-01 -7.082952912072937e-03  1.700783402466059e-17
-2.756534285828342e+01  3.782204490183227e+00  4.516973801276677e-16
 1.008481788848256e+01 -1.195805663519121e+00 -1.671848951442977e-16
 1.148143572799342e+01 -1.035292222880619e+00 -1.936885928361369e-16
 3.005143565026822e+01 -9.529273493559733e+00 -4.368913206072717e-16
 8.399742812664709e+00  2.876708235854776e+01 -4.450547638986695e-16
 1.107516328651636e+01 -1.309192628452412e+01 -6.258095496459030e-17
-6.444728371682864e+00 -1.958162699858534e+01  3.158857328953004e-16
-1.842878299152033e+01  9.804578640068421e+00  2.272236921784742e-16
-4.953349522728642e-02 -2.053457599639467e-01  2.991360720339413e-18
 2.132601571399200e-01  1.990007030348881e-01 -5.839878819541000e-18
 2.053220718157731e+01  6.141006289603224e+00 -4.284917272704427e-16
-1.500497045501672e+01  2.936517035932145e-01  2.640141832444233e-16
-1.181765848698437e+00  1.449925971068254e-02  2.088195831690990e-17
 1.651559667891822e+00 -5.859162213032789e-02 -2.878946669951670e-17
 3.701948108192740e+00 -1.689162563677482e-02 -6.570702711459265e-17
 1.221405491982821e+00 -2.428862138720828e-02 -2.148681091434223e-17
 1.237023040819542e+00 -2.185023654045664e-02 -2.178979734290063e-17
 5.299209903764044e-01 -7.029347860599276e-03 -9.358352140415924e-18
 2.452467927828321e+00 -7.467370358559645e-02 -4.287734700419436e-17
-6.177472050918645e+00 -1.999835102419064e-01  1.119902418324387e-16
 3.153370659710090e+00 -1.936413814227916e-01 -5.412839751648622e-17
 2.461281741904383e+01  3.036276720355721e+00 -4.692110855722182e-16
 6.767743361653501e+00 -1.834544613008899e-01 -1.185551380307071e-16
-4.824933857980495e-01 -1.175964970649958e-01  9.794806623682543e-18
 8.812772370503776e+00 -6.380150824405302e-01 -1.502784233920408e-16
 4.635001650314154e+00  3.477281393964423e-01 -8.605816351332491e-17
 1.772348574839553e+01 -4.370811719752945e+00 -2.705020675943174e-16
-2.718781806299110e+00  6.550190731522427e+00 -1.891686494481782e-17
-2.848240847451555e+01  7.123915516838584e+00  4.336827898292998e-16
 3.875541123412713e+00 -6.304219856986654e-01 -6.249252030981278e-17
 1.854657948509493e+01 -1.725970036583775e+00 -3.123247899679108e-16
-4.734249367667904e-01  1.365201952268114e-01  7.022466058924180e-18
-2.477958081715692e+01  1.229692926769080e+01  3.146357176862295e-16
 2.386051947275032e+01 -4.782270049397694e+00 -3.754903183764210e-16
-1.964442465332476e+01 -6.015081411821601e+00  4.113987458243158e-16
-2.279992279324337e+00  5.502612902617551e-01  3.492144741887685e-17
-5.770745289687681e+00 -1.420358571924713e+00  1.172909643718062e-16
-3.280296978163584e+00  1.628717782454609e+00  4.164231405786218e-17
 1.889527386715577e+01  2.045360346779810e+01 -5.464172829826373e-16
 1.047632606555041e+01 -2.476437290061626e+01  6.800621640884911e-17
 2.653661230356228e+01  1.056860825778828e+01 -5.808392805276749e-16
 9.370334979454235e+00  7.883581147742253e-01 -1.748563815411206e-16
-2.586819109365501e+01 -1.708196638407420e+01  6.358663164132181e-16
-9.614123875198073e+00  1.420667108823993e+00  1.564979640473849e-16
-8.369070892430504e+00  2.063609079520156e+01 -6.309073689803111e-17
 1.253203315693208e+01 -5.730402739519182e+00 -1.641446723249070e-16
 2.220604095033981e+01  1.266687962728288e+01 -5.253305736919210e-16
-3.855765003681296e+00  7.963972322749017e-01  6.043524531175047e-17
 1.484480269367171e+01 -3.619511839120910e-01 -2.604620545275877e-16
 8.197783276922312e+00  1.055554922329448e-02 -1.459977865157870e-16
 2.990031138547959e+00 -2.353123694932552e-02 -5.296939583801572e-17
 6.814644972778056e+00  1.847811140015884e-01 -1.231732949020280e-16
-6.903349968934240e+00 -1.522662203636573e-01  1.244178274085026e-16
 3.089679641242133e+01 -7.917570058082299e+00 -4.684951910721530e-16
-2.335272636727468e+00 -2.902871534886691e-01  4.454155721837613e-17
 1.299006400959015e+00 -1.545755719594412e-01 -2.152916058920128e-17
 5.912265395578041e-01  7.151392653110870e-02 -1.125636112727011e-17
-2.840969956677197e+01  8.573301682696066e+00  4.174969317530052e-16
 3.868519630878215e+00  1.964519295612228e-01 -7.086339357539492e-17
-2.663214897365796e+00  5.363429358937477e-02  4.684401301186912e-17
 2.106661677861435e+01  2.056749415586593e-03 -3.749267070257506e-16
-3.951302360777147e-01  2.462736564746894e-03  7.006510154993285e-18
 2.068795101541614e-01 -1.384662059562611e-03 -3.667440759134331e-18
-3.167265363970937e-01  9.716531100941916e-04  5.626543141540698e-18
-3.840939021014958e-01  1.525399517662320e-03  6.819736276264137e-18
 7.122148794678067e-02 -7.556502931060294e-04 -1.259707319921419e-18
-2.648851295850880e-01  1.394879521580037e-03  4.699614965679366e-18
-4.685568098757666e-01  4.344176826188308e-03  8.293892507424873e-18
-2.277664143555765e-02  3.974230231798551e-04  4.012541264119514e-19
-4.340064927745713e-01  7.537975971938600e-03  7.646213275917277e-18
 1.462112355852702e+00 -1.979732838754464e-02 -2.581662308662869e-17
 4.435664670922269e+00 -3.739958785913209e-02 -7.855367669784308e-17
-9.769305675567546e-01 -4.439377951195939e-02  1.784177472547546e-17
-3.695361911187749e+00  1.753760485695063e-01  6.396144800691788e-17
 7.052040472504437e+00 -2.127263198482554e-01 -1.233137865178307e-16
 1.395613203510916e+01 -1.326152782826078e-01 -2.470034432192065e-16
-4.491047166595981e+00 -3.523081405894021e-01  8.354337959995336e-17
 9.664835182104682e+00 -8.455873747671143e-01 -1.633091675975553e-16
-8.091532305283215e+00 -2.015666947895666e+00  1.647087149452660e-16
 1.643186673855672e+01 -3.213470894269872e+00 -2.594074231722722e-16
-2.846376618732955e+00 -4.162701314105661e+00  9.342491099684869e-17
-1.401925574172516e+01  5.915417851273036e+00  1.887106091810092e-16
 1.672830308977942e+01 -7.714353216678138e-01 -2.897738900350359e-16
 6.872365398888844e+00  7.063967195381385e-02 -1.230277368956558e-16
 1.082163890347497e+00 -5.839390900982657e-02 -1.865842107803278e-17
 1.870402499984195e+01  2.824052797263045e-01 -3.357620475033753e-16
 6.753280413310391e+00  1.314510892622200e+00 -1.336888024794531e-16
-1.028660558426145e+01 -7.241091206574715e-01  1.905023748667641e-16
-3.252840136758944e+01 -9.965091042893515e-01  5.891204726549000e-16
 1.499044244170815e+01 -3.246311323466912e+00 -2.334181349396483e-16
 8.579704522785473e+00  4.465279720707545e+00 -1.985652032421367e-16
-8.200677451922428e-01  2.351504910636800e-01  1.217799785783712e-17
-7.955734344910596e-01 -1.625479781502981e-01  1.582829968760109e-17
 8.020470573269073e+00 -3.105036390859932e+00 -1.108307200435534e-16
-6.133257844063738e+00 -1.606125052437514e+00  1.256509908071678e-16
 1.428182845048365e+00 -3.181081981855677e-01 -2.214777114625179e-17
 9.021211147065475e+00  2.567895793823199e+00 -1.869274096905984e-16
-1.892761698789536e+01  4.978376092911140e+00  2.856885161180287e-16
-1.725107905384395e+00  3.051559677623627e-02  3.038681629339389e-17
-1.360266365725521e+01 -1.417808089527877e-02  2.422213002561308e-16
-2.029710762453371e+01  1.042061798256119e+00  3.505044350212627e-16
-2.679998750139982e+01  1.618076960980540e+01  3.106862159516332e-16
 1.642998990682154e+01  1.644994198881391e-01 -2.940814405757945e-16
 2.035003955228298e+00 -1.242266976827440e-02 -3.608768440487638e-17
 3.683020180704044e+00 -4.759756550476974e-03 -6.549483261312190e-17
-1.065891878330657e+01 -5.753969790696730e-01  1.956001692911675e-16
-1.485472217529688e+00  4.572942922933308e-02  2.596589678011241e-17
 9.061557845367491e-01 -4.479606569398722e-03 -1.608009675537689e-17
 1.981568364266649e+00 -3.809320811425519e-02 -3.487297886723163e-17
-2.675380857020171e-01 -1.501387577363900e-03  4.776585574163718e-18
 1.632793175486154e+00 -3.202560079267360e-02 -2.872845080982701e-17
-1.460140591204706e+00 -3.187420950163621e-02  2.631243946158433e-17
 6.314389742242509e+00 -5.256734063551497e-01 -1.069709943642121e-16
-2.616067950849845e-01 -6.340622704233851e-03  4.720752584389941e-18
 1.730919327543906e+00 -5.379390102885252e-02 -3.025106135778840e-17
-2.945275331683820e+00 -2.958056390909592e-01  5.545398336045269e-17
 1.542451918977025e+00 -7.448861478189885e-02 -2.668442833715722e-17
-6.258175522722852e-01 -3.483779396597782e-02  1.149511551519362e-17
-5.299562744771230e-01  4.899185339984759e-02  8.927830562704756e-18
 1.244575409153737e+00  6.355499319845802e-02 -2.280170845643213e-17
 8.987628046623496e-01 -5.299360948319709e-02 -1.545006611459152e-17
-1.864547027077118e+00 -1.741007916080068e-01  3.497066077480958e-17
-4.658224907510563e+00  2.077407380758472e-01  8.076420812800903e-17
 7.188132248871004e+00  2.255508403338130e-01 -1.302388406314294e-16
-1.862788262383290e+00 -5.351826453560111e-03  3.320552721636146e-17
 3.804411319720231e+00  3.237768172743879e-02 -6.803670641083392e-17
-8.784082162472975e+00 -7.809735040987213e-01  1.643474391808823e-16
 6.499365381819437e+00 -8.556698980845232e-01 -1.068722623138068e-16
-3.786256665035921e+00 -2.253986939271045e-01  6.969684346366992e-17
 6.653505929673448e+00 -9.387720372497649e-01 -1.087615329707431e-16
-1.537370829462176e+00 -1.804023049090580e-01  2.921291591866795e-17
 3.919862549211444e+00 -1.492607871605466e+00 -5.442262637405497e-17
-1.468728358514888e+00 -1.071021484607767e-01  2.723820876842373e-17
 3.093116315389859e+00 -1.298493398230640e+00 -4.170414654375159e-17
-7.115614158613580e-01  2.031411547182068e-02  1.245436402714011e-17
 1.771993097148253e+00 -2.239797180915012e-01 -2.923342062855506e-17
 5.314024528597989e+00  1.480006305457691e+00 -1.097759323632977e-16
 3.969874435618763e+00 -6.259019659180372e-01 -6.421773563774037e-17
-6.674439607561294e+00 -1.275294405023909e+00  1.318828011204951e-16
 2.009369788276750e+00 -7.308174584128073e-01 -2.825024834534907e-17
 1.197189940804755e+01  4.604496959369848e+00 -2.603637641607494e-16
-1.272694701453998e+01  8.554790569640335e-01  2.177014668364972e-16
-5.304892349805796e+00 -7.433391611572430e-01  1.020444271304315e-16
 7.042173364328421e+00 -6.929816236627503e-01 -1.182037407756202e-16
-5.444591341307056e+00 -1.296166909264274e+00  1.102106415423407e-16
 5.260292523225058e+00 -3.733387640956362e-01 -8.977725997272351e-17
 1.027242530271662e+01  8.540793581600017e-01 -1.915854167966441e-16
 2.568877761705665e+01  6.207712220595463e+00 -5.209444283625028e-16
-1.124352221667565e+01 -2.050198226651667e+01  4.107423095965940e-16
-1.529759959271850e+01  7.084287791265075e+00  1.994505488672472e-16
 1.057519044083626e+01  3.815347838878766e+00 -2.273994414760331e-16
-1.966192113337228e+01  6.582036218707797e+00  2.822793090646954e-16
-8.038667248047183e+00 -1.191447807602587e-01  1.442818418688063e-16
 6.095475330990670e+00 -2.681846705713212e+00 -8.092125381652960e-17
 5.981172217448453e+00  6.761910802406179e-01 -1.133897119186834e-16
-6.421410956448652e+00  1.364730174894371e+00  1.002545609268516e-16
 5.651561826532648e+00  3.009915135790671e-01 -1.036688626031119e-16
 2.928787928484912e+01 -6.324379342504667e+00 -4.562320473905724e-16
-1.939447824106185e+01 -5.461991078196321e+00  4.012678490261020e-16
-1.241358163128983e+01  1.736241095992288e+01  4.252202720939757e-17
 2.880460304573557e+01  5.658335880869100e+00 -5.707496162466512e-16
-7.367287547648165e+00 -3.482210262571795e-02  1.314674543839184e-16
-6.810210684339886e+00 -1.973943901772390e-01  1.232239782959110e-16
-1.025888827822073e+01  9.400694401260321e-01  1.729102821744559e-16
 1.509906978877163e+01  3.619141240036363e-01 -2.724244938524796e-16
 1.449461354786217e+01 -4.430592599362435e-01 -2.533966649367049e-16
-9.570984941026014e+00 -2.418942174909886e+00  1.951808458242564e-16
-5.877997569200518e+00  3.755549330076769e-01  1.007472877649295e-16
 6.600112143936956e-01  2.886866910103768e-01 -1.471183771168999e-17
 6.074702415082984e+00 -3.741607005959364e-01 -1.042622103755116e-16
-1.137026050982439e+01 -3.593761383924591e+00  2.392719413951314e-16
 1.173867631983729e+01 -7.058144301194882e+00 -1.363838787639572e-16
-1.285981471412285e+01 -4.377561626059544e+00  2.738335980483966e-16
-2.679126607111441e+01  1.826310294006762e+01  2.891357892454994e-16
 1.223063464082513e+01 -1.207583254848444e+00 -2.052512533962797e-16
-9.962828436379698e-01  2.328636384086382e-01  1.533745235307148e-17
-2.197685456655194e+01  2.720249778460225e+00  3.631547636682215e-16
 1.500099925647471e+01 -2.334078997121213e+00 -2.429788618134990e-16
 1.667523364794257e+01 -6.395535579023683e-01 -2.901844932151544e-16
 2.447026693509694e+01  2.315977853552622e+00 -4.592734204086061e-16
-2.243732480124716e+01 -2.911934627904389e+00  4.292180295339877e-16
-1.690910150407986e+01  7.127723194082630e+00  2.276828646559869e-16
 2.332664325378514e+01 -1.662092608254194e-01 -4.134177019505517e-16
 8.573718275606835e+00  4.691909070305146e+00 -2.007872050915911e-16
-9.966293696036100e+00  3.532504850236470e-01  1.737325641305907e-16
 3.172629820352538e+00  7.262564158957908e-01 -6.392275292167873e-17
-3.227796366653911e+01  4.150058728744973e+00  5.317845201519062e-16
 3.713082643728534e-01 -1.425180692038038e-01 -5.143552089703697e-18
-1.884182644087334e+01 -2.898550231688650e+00  3.650943275333935e-16
-2.159790587231076e+01  4.975650564078858e+00  3.332374958791703e-16
 3.030232440739662e+01 -2.558539054775070e+00 -5.129779494590614e-16
 1.654165759325554e+01 -3.854361195365565e-01 -2.904183123632659e-16
-1.861827155661075e+01 -3.055720245775096e+00  3.627307665437234e-16
 3.113047483350001e+00 -5.849934422518305e-01 -4.938979823656137e-17
-3.543853471023419e+00 -5.718121021483943e-01  6.894226127302162e-17
-3.884807904331135e+00  2.370804410586790e-01  6.669887521727365e-17
 2.557236738067486e+01  1.839642456855165e+01 -6.441073609585406e-16
 1.926920636827857e-01 -2.437470832242584e-01 -9.247723927507456e-19
-9.813449857756521e-01  1.623883405617897e-01  1.579572340373395e-17
-3.125574098576219e+01  9.058528914575273e+00  4.631601001592777e-16
 2.877373788124026e+00 -4.254232147963836e-01 -4.683522982736542e-17
-3.905861892462870e+00  1.585801595928818e-01  6.788011792464245e-17
-1.280177634447069e+01  1.373316648336279e+00  2.137125508593187e-16
 2.128687528791089e+01 -4.782798354832264e+00 -3.296838220098363e-16
 1.669390301111064e+01  1.161022332962099e+00 -3.090170000106012e-16
-1.609375249705654e+01 -3.667584176815518e-01  2.901758324905137e-16
-6.956517945878474e+00  2.224700123262519e-01  1.215137363233048e-16
-3.884003759119266e+00  1.586382815687896e-01  6.749052918745429e-17
-4.247565627154627e+00  3.110194009033421e-01  7.239488561738859e-17
 7.109878530810711e+00 -2.721806747624853e-01 -1.237322118549244e-16
-8.282156292988683e-01 -1.355553173902899e-02  1.487836321851492e-17
 8.101027694281066e-01 -5.985532561826921e-02 -1.380175340099135e-17
 3.322835839977125e+00  2.512457539697750e-01 -6.171528626547034e-17
 5.121234437324529e+00 -3.920933925136618e-01 -8.710985847627429e-17
-3.615520013542294e+00 -4.440853260369806e-01  6.890530675949239e-17
-1.195716667998328e+00  1.070980333833355e-01  2.017881101094914e-17
 6.691203912959777e+00  4.322405238712279e-01 -1.235190694986931e-16
 1.278169355683211e+01 -9.561586873931337e-01 -2.176413002059908e-16
-1.207388948790127e+01 -2.292058486320464e+00  2.384193340064580e-16
-2.849516172957847e-01  5.880169855469847e-02  4.466887845170434e-18
 1.148967640322524e+01  2.136868470025715e+00 -2.264280442437399e-16
 9.010804985412030e+00 -1.082567321634764e+00 -1.492350372480690e-16
-6.440561330277964e+00 -1.350977725975244e+00  1.284982767856061e-16
-1.797139838410604e+00  2.851418344450269e-01  2.905251836398941e-17
 2.424042451356328e+00  2.254040337550620e-01 -4.545467149560497e-17
 1.051417826331953e+01 -7.049112456592566e-01 -1.798696370007093e-16
-1.527659655538115e+01 -3.589815259831853e+00  3.087493060029619e-16
-1.836070673820528e+01  1.811296759859506e+01  1.406465156988704e-16
-1.627158926362224e+01 -2.151849545616982e+01  5.106670641515384e-16
-1.076364886390344e+01  1.754695467372025e+01  1.126338592105979e-17
-1.278498027059541e+01 -2.566403694966285e+01  4.912126310369340e-16
-2.703872727200374e+01  6.370825167474924e+00  4.157284905079543e-16
 4.223055183270297e+00  5.703945948699871e-01 -8.101490167704551e-17
-2.861082817345810e-01 -8.996627559206090e-02  6.016008949073241e-18
-1.415942640763835e+01 -1.749576526022940e+00  2.699601461312227e-16
-2.246160450062624e+01  4.413101694001933e+00  3.543880285180078e-16
 2.837280400941523e+01 -5.912411941701866e+00 -4.441800067517514e-16
 2.030358762216711e+01 -1.975719756455523e-01 -3.592965804479866e-16
 2.009966193699975e+01  8.295724035973949e+00 -4.429330107675859e-16
-1.732186341853797e+01  7.189617484704782e-01  3.008761510136512e-16
-5.190644401986595e+00 -9.775663942695623e-02  9.337812271576161e-17
-4.709014408113635e+00  1.864853252731163e-01  8.188645953555279e-17
-5.197766820229334e-01  3.743270850145412e-02  8.865438588294583e-18
-1.850644209412119e+00  1.492489497557615e-01  3.140094249336576e-17
 1.023150388594717e+01 -6.198959262534622e-01 -1.757126107626323e-16
-1.402819098953211e+01 -4.336689685100057e-01  2.541041832037685e-16
 4.127736534482763e+00 -7.314776336815849e-01 -6.594232839882429e-17
-2.769694584764704e+01 -5.416761766841565e+00  5.485554488425757e-16
-5.488352116229842e-01  1.721990568665984e+01 -1.671610981159808e-16
 9.798418146992562e+00  7.292448687462633e+00 -2.493018000303227e-16
-3.204403489566130e+00  1.657169337967732e+00  3.999936951248588e-17
 3.320641184589326e+00  3.908599864672669e-01 -6.311071525663282e-17
-2.605246927491498e+01  7.594712519683839e+00  3.856018550651346e-16
 1.960124840462909e+01 -1.662832149881027e+00 -3.317426002951095e-16
 2.530500270846033e+01  1.584893424503531e+00 -4.666169122871685e-16
-1.774421723622279e+01 -4.211942217695797e+00  3.590556879952372e-16
-5.447050852881380e+00  1.340075167526892e+00  8.316798186439613e-17
 2.087194060084449e+01  2.929092354458297e+00 -4.015364398296140e-16
-2.846011686460935e+01 -3.250770207864901e+00  5.398822110351669e-16
-1.906355995706658e+01  2.461752334114846e+01  8.632267978579017e-17
 2.956041976433333e+01  9.804414908217083e+00 -6.267997321732945e-16
-3.023828737539416e+01 -1.086296376349403e+01  6.497393998523540e-16
-2.839846503353088e+01  6.081068297392411e-01  4.991364834251628e-16
-1.450275384619333e+01  3.895360892948297e+00  2.180703861033632e-16
 1.340783099276591e+01 -9.977869901293122e-01 -2.283564470997816e-16
 5.287277098419036e+00 -1.268141100070323e-01 -9.279043394640351e-17
-3.176800508323307e-01  4.959773715698593e-03  5.602535572888068e-18
 1.013047922109161e+01 -2.129146964027416e-01 -1.780963406389035e-16
-2.085978313760428e+01 -1.631558721696735e+00  3.879883965677134e-16
-1.363233457465838e+01  2.014832921551076e+00  2.219019786289047e-16
 9.163667909456304e+00  1.154639243612263e+00 -1.749419000476136e-16
 4.408410402339912e+00  4.349032519571899e-01 -8.292139455807585e-17
-1.653613343462717e+01  1.964215944393423e+00  2.740986141013739e-16
 6.149142672778021e+00 -4.982412189182211e-02 -1.089194040646432e-16
-3.074197537579489e+00  3.767999574287296e-03  5.467029738292376e-17
-6.489425398368487e+00  2.693987147288789e-01  1.127190917886732e-16
-3.008512713779220e+00  2.051701065606434e-02  5.332926760445976e-17
 1.958509391597268e+00 -1.161090556439106e-01 -3.366103246318155e-17
 8.168425743498323e+00 -2.376949669338216e-01 -1.429246503130445e-16
 9.343778384051001e+00  3.951302536043808e-01 -1.703435018226721e-16
-1.974434281150857e+01 -3.668562050793028e-01  3.551434464725470e-16
-1.768112665764721e+01  3.155836716074611e+00  2.822316638465513e-16
 1.821645165741767e+01 -2.458543271559015e+00 -2.989228476181705e-16
 1.696175689222465e+01  1.836465161453529e+00 -3.207237090387869e-16
-2.049497859749015e+01 -2.779403294342119e-01  3.675883273547090e-16
-2.419682252596121e+01  1.332906918224664e+01  2.936599760877419e-16
 2.470143968206092e+01 -6.199953848287885e-01 -4.332213567234853e-16
-4.465823108642496e+00 -2.136058451379445e-01  8.166937171095743e-17
-6.766058635754970e+00  2.445793089306751e-01  1.178971207157914e-16
 4.592175924095085e+00 -1.761973867830221e-01 -7.991288417156230e-17
-1.205981149692083e+01 -7.290357641657389e-01  2.221093086905141e-16
 4.361049603549097e+00 -4.751719296078006e-01 -7.272786078678012e-17
-4.306943254309531e+00 -3.057310856798277e-01  7.978846856310038e-17
-7.971301587814722e+00  3.223348886512782e+00  1.087400814095593e-16
 7.939423239329633e-01  3.501588894836544e-01 -1.772690608831187e-17
-3.133035517750939e+00  3.122233493272482e-01  5.254812275126987e-17
 3.176250276379004e+00  8.986033892295542e-01 -6.575798582206115e-17
 7.172971253608657e+00 -7.085246849907785e-01 -1.203717459367603e-16
-1.307952811790153e+01 -6.511760231706476e+00  2.996717755784701e-16
-1.458833594034276e+01  6.645934852985741e+00  1.913322733319941e-16
 1.239613042908752e+01  1.777437183310268e+00 -2.388664490026459e-16
 1.263209419866967e+01 -2.060536742660366e+00 -2.036319178760359e-16
-8.553097885215195e+00 -2.171656381925089e+00  1.745255598171208e-16
-1.198524734792272e+01  3.295379905386675e+00  1.794329416474785e-16
 2.317871829287980e+00  1.103598450303614e+00 -5.258836724274576e-17
-2.715969495931844e+01  1.470777395823027e+01  3.322221345306502e-16
 8.859488347058829e+00  1.307353264695396e+00 -1.710977429302527e-16
-8.409882483435831e+00  1.091734641632073e+00  1.384467136221838e-16
 1.098014792273572e+01  4.874900041091053e-01 -2.004136125869632e-16
-4.793718838584042e+00  5.000807248882969e-02  8.479613010923163e-17
 4.378432771895448e+00 -3.014359134087831e-02 -7.760971950160885e-17
-1.831394628981528e+00 -5.846176996578986e-02  3.319252543820859e-17
 2.464438690767794e+00 -1.867980409215692e-01 -4.193834416290310e-17
-4.636352612855267e+00 -4.943812085010318e-01  8.758901250529802e-17
-2.082125563825469e+00  3.040078170328234e-02  3.674155106162804e-17
 2.142278967103412e+01  3.488331909371989e+00 -4.170854393799705e-16
-3.250103968016716e+01  1.665026983475447e+00  5.612872223526784e-16
-2.151084921414387e+01 -1.240468136304546e+00  3.955565803103511e-16
 2.471311705263058e+00 -5.930665514964550e-01 -3.788639630890171e-17
 3.808039056229024e+00  3.841977123065974e-01 -7.171608930226339e-17
-8.672781940489209e+00  5.645774855029798e-01  1.485416713611612e-16
 2.607831889886341e+00 -5.862338471611567e-02 -4.580714523309082e-17
 1.523667420234050e+00  2.404962575172216e-03 -2.714018935700708e-17
-2.604801658629742e-01  2.439091473063009e-03  4.610494478654626e-18
-5.520648891609528e-01 -1.306233601493292e-02  9.958863999817466e-18
 8.966469519261344e-01  2.719045933227629e-02 -1.623627416842078e-17
 6.657727205930930e+00  3.257419570354703e-01 -1.218290775261935e-16
-2.801999752383945e+01 -2.867683214679561e+00  5.281136826781808e-16
-1.590978932289446e+01  2.734874389028265e+01  2.135270404383044e-18
 2.968364409542729e+01 -5.217695395162707e-01 -5.228948621359214e-16
 5.330010867043032e+00  1.409289536488171e+00 -1.093338392789107e-16
-2.993068244731890e+01  2.225802320808766e+00  5.097828864337127e-16
 6.460183523622321e+00 -9.561562333641176e-01 -1.051425138316302e-16
 6.253928472247102e+00  4.792026076579375e-02 -1.117884803972728e-16
-4.454652949723481e+00  4.374564989592635e-01  7.478115632758554e-17
 1.759096424662838e+01 -1.098702663791987e+00 -3.017634212892452e-16
 2.585730911053145e+01 -2.767128199081131e-02 -4.598773469659668e-16
 4.500564835615180e+00  3.028142215960933e+01 -3.912235320242089e-16
 1.435834118846459e+01 -1.891553869822005e+01 -6.117352004909919e-17
 2.165034678900050e+01  1.087290484893930e+01 -4.970088940858750e-16
-1.878896827731875e+01  4.705695129706339e+00  2.860227947690880e-16
-4.700945772480700e-01  2.095109786777395e-01  6.213244541458455e-18
-2.312086396825176e+01  3.208437685713506e+00  3.784978222015769e-16
 2.477768791531321e+01 -3.031638684376501e+00 -4.097995261731755e-16
 1.577292196913122e+01  6.391315310017979e-01 -2.872648053638365e-16
-6.224436309860313e+00 -3.602654633494695e-01  1.144728656893995e-16
-4.283187622112876e+00 -1.042851388253306e-02  7.633158209865767e-17
-1.173946275155901e+01 -3.267127034613490e-01  2.122745973572242e-16
 8.352984226925436e-01 -5.629012589155344e-02 -1.428677121353828e-17
-1.066303107561609e+01 -9.997838962348706e-01  2.000337736527010e-16
-3.068104904664901e+00  4.238675142776457e-01  5.024550181627803e-17
 1.800273229780122e+01  1.137323989608078e+00 -3.320656865245425e-16
-1.195304200352916e+01 -6.424541338772650e-01  2.193196233375001e-16
-7.943929810152093e+00 -2.077912528032330e-02  1.415852047979663e-16
-3.210838028775211e+00  2.115008374346079e-03  5.711896180679121e-17
-2.571390537150395e+00  1.904155469606753e-02  4.556531681755167e-17
 1.889859057296158e+00 -2.537856926211365e-04 -3.362968869147554e-17
-1.668162174457088e+01 -5.573141005484713e-01  3.025955574336178e-16
 1.352638492018566e+01 -2.228524936038550e+00 -2.178208703281616e-16
 3.069211756527574e+01  6.825412434553840e+00 -6.163314762440788e-16
-2.916506160701476e+01 -1.443702537812244e+01  6.673622518338123e-16
-2.405282215568056e+01  9.458857975348245e-01  4.183300285512253e-16
 5.507365671518047e+00 -8.660671840348104e-01 -8.911161584985932e-17
 9.920635738015880e+00  7.142251636482380e-01 -1.838879508124986e-16
-5.849424183337175e+00  1.775629264743072e-02  1.039150413348888e-16
-3.349023945851326e+00  4.909165312518454e-02  5.909547707458767e-17
-5.388714254303411e+00  1.650505322094820e-01  9.420276378546755e-17
 2.041695272385221e+01 -3.163081553111025e+00 -3.308445140546747e-16
 2.975556443477276e+01  1.217092427588485e+01 -6.545875884239010e-16
-3.124459468413829e+01 -9.004484540047521e+00  6.485526398829480e-16
-1.663378023637332e+01  4.154908856739225e+00  2.533277816538862e-16
 1.892562531365667e+01 -3.297524811328868e-01 -3.334159908027598e-16
 4.337271355652879e+00  8.658277963720111e-01 -8.608298347793083e-17
-1.323617527206516e+01  1.036812183259403e+00  2.249006591090452e-16
-6.622523935480903e+00 -6.392838874137642e-01  1.244241228434761e-16
-1.037741609232813e+01  3.291633315758377e-02  1.843402946311676e-16
-4.922727687983816e+00  1.502077812523374e-01  8.606248086403226e-17
 2.018439388656491e+00 -1.152884292305616e-01 -3.473598987223249e-17
-1.765018079299970e+01 -8.357214843576086e-01  3.226927557664408e-16
 1.134017651674851e+01 -2.269890164168923e+01  3.141100037102982e-17
 1.647358241358338e+01  6.278217574112293e+00 -3.576734543062234e-16
-3.195103683286989e+01  9.361496894542328e-01  5.589882150421075e-16
 9.652160229508612e+00 -2.449623003640691e+01  7.991816011169226e-17
 2.349345811225266e+01  9.564410344211304e+00 -5.163649529252020e-16
-2.774735695680488e+01 -1.880147840368292e+00  5.131151513475776e-16
-1.461528004837816e+01  2.041087238077520e-03  2.600753707943453e-16
-3.501849271029143e+00  3.923271237025569e-02  6.191648306357701e-17
-7.829861143581427e+00  1.965040072254448e-01  1.373227115501610e-16
 3.448696739199132e+00 -3.447216097121805e-01 -5.783178291422225e-17
 2.070666274142744e+01  1.167242344538741e+00 -3.804927543083910e-16
 8.688559709031608e+00  1.723245774668094e-01 -1.563938565442712e-16
-1.847909883859693e+01 -3.755561892221008e+00  3.674446406473625e-16
-2.626847635342700e+01  4.143793895401322e+00  4.249028939404331e-16
 2.287548167415152e+01 -3.341715783842137e+00 -3.727615674851982e-16
 1.539832188664294e-01  2.484913752632810e-02 -2.995630913999616e-18
 8.448147855997492e+00 -1.050450938433777e+00 -1.395518666321197e-16
-7.461005015628253e+00 -4.349186620312419e-01  1.372461153130422e-16
 5.468468802780859e+00 -1.651836310401597e+00 -8.034590734668048e-17
-4.393364163811640e+00 -3.624581566436176e-01  8.190928177133337e-17
 2.580807061169072e+00 -6.652741619204775e-01 -3.909308981300533e-17
 1.947119053088585e+00  3.557848990338768e-01 -3.830686675065665e-17
 5.345359104933638e+00 -6.869374969214327e-01 -8.806900821415897e-17
-9.784569964552265e+00 -2.456327269294781e+00  1.993659643586085e-16
 2.367991372198765e+00 -8.337187599886311e-01 -3.357507370943850e-17
 1.718991591453856e+01  2.058748019877567e+00 -3.270679465937871e-16
 2.011231772861105e+01 -1.758409051577032e-01 -3.561159833931249e-16
-1.306744819674255e+01 -6.591240275756360e+00  3.002734275155658e-16
-2.526893156926489e+01  1.960323085670196e+01  2.482747033591234e-16
 1.163033779072161e+01  2.317996261387997e+00 -2.307923036721422e-16
-3.166672348118171e+00  3.590543792703145e-01  5.266555846526868e-17
 1.383806964550737e+01 -1.811685735792141e-01 -2.444035147070601e-16
 5.084632808957490e+00  7.521877268128944e-02 -9.125995156924250e-17
 2.041085349474809e+00  9.613100716024414e-02 -3.731125964772475e-17
-2.476096434137084e+00  1.359797126474894e-01  4.266794743827450e-17
 4.965764184381967e+00  2.344870691221262e-01 -9.078096646757158e-17
 1.622941045860100e+00  1.180107219829193e-01 -3.009468926757926e-17
-6.941705823987594e+00 -3.333528930063263e-01  1.269610153841754e-16
-1.800634991340424e+00 -8.434252530059054e-03  3.213110642883933e-17
 3.631851918098848e+00  1.576322790199780e-01 -6.625275152060746e-17
-9.068736293601065e+00 -3.312047388515152e-01  1.647919883044200e-16
-3.370715838854399e+00  5.699984669631745e-02  5.940025636933331e-17
-1.460315960624684e+00 -6.581273958681617e-02  2.666426638566189e-17
 3.521597281845259e+00 -1.809955922619828e-01 -6.081136037204523e-17
-7.606799102310216e+00 -7.619540480635536e-01  1.432008647916988e-16
-7.994419891647663e+00  8.622328558358767e-01  1.334111086945543e-16
 3.894146666391504e-01  2.878705865914189e-02 -7.225875070616145e-18
-3.017516311196513e+01  4.581464146281705e+00  4.899301420650919e-16
-7.265806525864370e-01  2.283104035640131e-02  1.269578876187995e-17
-1.394167910365549e+01  6.180829387442919e-01  2.417582322104996e-16
-1.513771295017934e+00  8.021844197497364e-02  2.611515053533216e-17
 4.270518593155280e+00 -2.098483940739574e-01 -7.384285640279619e-17
 6.277065480256240e+00 -8.634417031627789e-02 -1.108207127653920e-16
 4.464357166273493e+00 -1.477841003079015e-01 -7.793013312015959e-17
-2.476619967779872e+01 -1.669578699099162e+00  4.578983800884991e-16
 1.347035198231202e+01 -3.678701368961761e+00 -2.019236613401740e-16
 1.867069068111268e+01  5.125186178516254e-01 -3.375331544925302e-16
-3.774691887338371e+00 -5.368833567357238e-01  7.269142620721629e-17
-1.670895997890041e+01  1.345539126585501e-01  2.959733814209856e-16
 1.930775540327836e+01 -4.359477955784310e+00 -2.988124862038323e-16
 5.724368223284738e-03 -2.212158444698123e-02  1.254192830916719e-19
-1.933635478295105e+01  1.897016532916813e+01  1.492019413410018e-16
 8.767203330581646e+00  9.893009623819607e-01 -1.661875491684378e-16
-2.683316168214349e+00  2.204855925196093e-01  4.548740262174384e-17
-6.410142591677739e-01 -1.347587851582145e-02  1.154607311854989e-17
-3.521960286637007e+00  2.225877269276954e-01  6.039047641998878e-17
 8.043709614656368e+00  3.282740609452875e-01 -1.465203041906444e-16
 1.386197450672309e+01 -1.130626572014765e+00 -2.350735942206535e-16
-1.475587702031764e+01 -2.036095301955539e+00  2.835185725960988e-16
-1.299475067635880e+01  3.524460910559696e+00  1.950445334663124e-16
-4.761455365554853e+00 -1.399194600041880e-01  8.617339952233732e-17
 1.607147508335478e+01 -4.904610695231276e+00 -2.356179766676800e-16
 2.610568301989990e+01  6.090809433426146e+00 -5.271626236362438e-16
 2.875536169771182e+01 -1.400805616801816e+01 -3.678082736481818e-16
-3.708403539066091e+00 -4.093567040520340e+00  1.080553788104621e-16
 1.358776805999889e+01 -1.038306309721086e+01 -1.351283392706579e-16
-1.251783417229852e+01 -6.217554464824239e+00  2.866529043716251e-16
-1.167669299796466e+00  1.701387396061087e+00  3.298930608622009e-18
 2.290508111682019e+01  1.191915996709369e+01 -5.300882794139328e-16
-1.639318438483781e+01  4.491207349424813e-01  2.871217182254064e-16
-1.253843384745703e+01 -2.402099885001282e+00  2.478170903946983e-16
-1.045530074876857e+01  4.237333105666310e-01  1.817108425155114e-16
 2.261874707303556e+01  4.488826531094734e+00 -4.486486468935192e-16
-3.983599936633753e+00  1.392879330586107e-02  7.074979938917711e-17
-2.663014499308451e-01 -4.120190485696821e-04  4.743385303477061e-18
-1.855965608618042e+00 -1.863533924017119e-02  3.322059321862210e-17
-4.658015539594343e+00 -3.451983680904008e-02  8.324962157482132e-17
 7.923935270105446e+00 -4.221928871714229e-01 -1.366780015757261e-16
 6.469024404982403e-01  2.046148031751287e-02 -1.172263486606489e-17
 1.080960696351773e+00 -1.450944893209480e-02 -1.908790567450930e-17
-3.058254579015136e+00 -5.948956879650554e-02  5.503652195154189e-17
-1.586313407239152e+01 -1.672445750150226e+00  2.994871655695392e-16
-6.236875861418327e+00  1.256424732684009e+00  9.808333787599955e-17
-1.089223140566668e+00  3.960418787427609e-01  1.531483862607278e-17
-2.349772414058026e+01  1.451817733336944e+00  4.032531303965344e-16
-8.346530511245305e+00  3.436781225222589e+00  1.132247878990823e-16
 2.430315060179380e+01  3.769184472920753e-01 -4.363762549294159e-16
-1.801659570135503e+01 -1.500577676045802e+00  3.360447019801643e-16
 1.424393898778361e+01  2.822834226437656e+01 -5.435238472966516e-16
 4.468890521195028e+00  5.268249521062472e+00 -1.336585875451395e-16
-1.531996180305138e+01 -1.294504574437472e-01  2.739670510122710e-16
 1.022751639036549e+01  7.553351716416028e-01 -1.897716484841446e-16
 4.589201848755795e+00  3.674004478222835e-01 -8.544522723943970e-17
-4.428006092624443e+00 -2.785636797802176e-01  8.166379102139693e-17
 1.973892214953689e+00  7.034143099342002e-02 -3.585049909074912e-17
 1.908288476185880e+01  8.147459668394650e-01 -3.479739160573460e-16
-1.547740503044557e+01 -3.912430622157152e+00  3.156376880250237e-16
-1.420472921350495e+01  1.404144158658191e+00  2.383630292238917e-16
 7.780836900914005e+00  1.001711030900090e+00 -1.487614909324366e-16
 1.436822752303681e+01 -7.221650524241635e-01 -2.482797642304035e-16
-2.190356215602655e+01 -1.278793685892254e+01  5.211914218630488e-16
 1.213083617314071e+00 -5.330546610751477e-01 -1.611132698388666e-17
 1.460776045097150e-01  2.955326395385379e-01 -5.636115719623978e-18
-1.851668293045611e+01  5.003410078857972e+00  2.781182392820101e-16
 2.626141767498737e+01  1.898083391510269e+00 -4.868553705987949e-16
 3.465896644543927e+00  5.808995361319900e-01 -6.764829677466476e-17
-1.539131595093627e+01 -1.504670074302849e+00  2.893667651837242e-16
-1.408266591785454e+01  2.955683307070091e-01  2.475809811979120e-16
 2.008236943521131e+01 -8.779406211058775e-01 -3.483691982612901e-16
 2.206046192256637e+00  2.606343560558861e+01 -3.070515562022851e-16
-1.411388254716529e+01  3.762820821609937e+00  2.125117585531302e-16
-1.866330608837485e+00  1.266540771527783e+00  2.020033307518402e-17
-8.288899578339706e+00  7.251508033475753e+00  7.300424457211265e-17
-3.154309784102866e+00  1.162995564775156e+00  4.418534825650031e-17
 1.100994091637633e+01 -5.114819346020591e+00 -1.433821210232098e-16
 2.166005870481728e+01  4.882107404963906e+00 -4.356284617754636e-16
-3.053136841720994e+01  1.051654456386145e+00  5.325367526154568e-16
-1.475698476010911e+01  9.420917239826865e-02  2.616501815498072e-16
 4.413757655196669e+00 -8.862683229637017e-01 -6.944199733353490e-17
 9.096989843383758e+00  1.604434169138250e+00 -1.783767637847832e-16
-2.395907206091755e+01  8.815261570788019e+00  3.358066563647997e-16
 8.692603171594456e+00  8.323892683115215e-01 -1.632477397007980e-16
-8.347577147161346e+00  3.456163449761223e-01  1.450040103050566e-16
 9.892542275625802e+00  1.910445180406504e-01 -1.780125030706334e-16
-2.166472279013743e+00 -3.710352397971219e-02  3.893618369720562e-17
-7.819978926319956e+00 -1.402344449641245e-01  1.406067109647157e-16
-1.645968893830559e+01  6.112923660844483e-01  2.866389915221903e-16
-5.805080813620241e+00 -9.024483880553104e-03  1.034010609282893e-16
 3.298146395849768e+00 -2.568473092297662e-01 -5.605543652101641e-17
 2.272056306960568e+00  1.214912377686733e-01 -4.168223052656749e-17
-7.978698838603805e+00 -3.266180085260367e-02  1.423260512932289e-16
-7.103972026385524e+00 -2.565924778668905e-02  1.266872955841193e-16
-5.224174413612239e+00  8.001918883538413e-02  9.214824721613802e-17
-4.780933852806079e+00  8.777894409795169e-02  8.418052405191288e-17
-1.842340931945480e+00  5.505880513358702e-02  3.222094528612046e-17
-9.784696331191654e+00 -1.072660593465714e-01  1.752324625644295e-16
-1.202060045609578e+01  1.272380002394459e+00  2.008476815021921e-16
 8.489206368504732e+00 -8.342279367781370e-01 -1.425041646202377e-16
 1.037214219090655e+01  7.771796478796952e-01 -1.925698811831722e-16
-7.102645781631344e+00  2.508152502087529e-01  1.238230184432273e-16
-4.577531682156154e+00  2.346655422615803e-01  7.905153336120172e-17
 2.182777291399475e-01 -1.572924991514407e-02 -3.722900229854418e-18
-4.226433184620495e+00  1.609784195907630e-01  7.356042519007621e-17
-1.410276139559286e+00  9.904395362760970e-02  2.407990550656795e-17
 1.060073702890776e+01 -8.549380679164873e-01 -1.798685823684326e-16
-2.637238659825101e+01 -6.482618234263677e+00  5.359346250443244e-16
-1.859873980482058e+01  2.161797880855970e+00  3.087750723007753e-16
-5.798044087151268e+00  1.260501473733277e+00  9.023191594963141e-17
 2.758029088264109e+01 -1.136510526779847e+01 -3.740518472099687e-16
-1.201133766109660e+01 -7.436780650718630e+00  2.901663009373844e-16
 1.237637469211534e+01 -1.250500466851971e+01 -9.176797045878747e-17
 2.354345825200833e+01 -9.453968980413145e-01 -4.092703135523732e-16
-1.280180831323868e+01  1.564282267492739e+01  6.709912909356568e-17
 2.458755208072257e+00  1.134617443671836e+01 -1.603343024359743e-16
-2.881389508885228e+01  1.509844076501716e+01  3.576466395263853e-16
 1.031342143902942e+01  1.932425511903845e+00 -2.033946069311239e-16
-1.791209409583909e+01  1.499934056050128e+00  3.033558032118399e-16
-1.994314591592300e+00  4.967551423290232e-01  3.038722850843652e-17
-1.353853948852572e+01  6.432642593897795e-01  2.343251529669211e-16
-4.602315953787919e-01 -1.795343653568093e-02  8.374835261605925e-18
-2.460258864984313e+00 -8.573516157238002e-03  4.387133096195112e-17
 3.336728456382614e+00  1.394055442034914e-02 -5.952429715433520e-17
 2.484378925436007e+00  5.296922528949336e-02 -4.475672600005380e-17
 1.370739905562271e+01  2.092785629453772e-01 -2.460897781795451e-16
-2.039187686238464e+01 -6.479016062801357e+00  4.294673094667410e-16
-2.618132548663462e+01  8.495636503541551e+00  3.786383384033278e-16
 3.172398609441464e+01  4.775918665260441e-01 -5.694732572310925e-16
-1.670275491996109e+01 -2.780668916638280e+01  5.829490773794908e-16
-2.844016085411368e+01  4.550649809459576e+00  4.593703133581895e-16
 6.846267879935453e+00 -6.318128013015495e-01 -1.153458564006590e-16
 1.341544337534333e+01  2.170994552816485e-03 -2.387661235652119e-16
-2.049137382744200e-01 -1.644810881430527e-02  3.815682743882281e-18
 1.077135502668704e+00  3.244401736856587e-02 -1.950226162005376e-17
-1.035691098319057e+00 -2.976955791186861e-02  1.873722989731652e-17
-6.315612909115423e-01 -4.139211137649126e-02  1.166467544156131e-17
-6.195355262454572e-01 -3.046243932814279e-02  1.133836419596682e-17
-4.586431874766039e+00 -3.326896463972239e-01  8.503929136552121e-17
-4.613875197875950e+00 -2.453245687908388e-01  8.463003360163851e-17
-3.016230670084396e+01 -3.173099035151981e+00  5.693766669833569e-16
-1.241142117213198e+01 -5.015684313030456e-01  2.260294780621916e-16
 5.621206304476824e+00 -3.949203459897289e-01 -9.597840831748200e-17
-7.080939777660817e+00 -4.945433845095819e-01  1.310950234355056e-16
-2.559496443269905e+00  3.408990773908267e-02  4.519903087241037e-17
-1.019705024869348e+01 -9.519853243028696e-01  1.912499760354614e-16
-9.721935787304247e+00 -1.929438063470035e-01  1.749958715978396e-16
-2.057387712143214e+01  6.151693081872166e-01  3.598160436180588e-16
 1.228064701004024e+01 -3.788153386217946e+00 -1.796268625116603e-16
 9.845352290590480e+00  1.629124647296439e+00 -1.919484519147972e-16
-8.591437066368837e+00  5.584698592742757e+00  9.551412154361728e-17
 1.394613616538912e+01  1.308869460366354e+01 -3.826697109362411e-16
-2.054577890922391e+01  1.103449294204552e+01  2.522612370992430e-16
 1.274591651853989e+01  5.466524707163276e+00 -2.829953438626805e-16
-9.475444486204212e+00 -3.110848206362697e+01  4.882551896728687e-16
 2.616315047707342e+01  1.755856391671230e+00 -4.836452578348749e-16
-3.582097420642602e+00  3.513505664187339e-01  6.013769704623174e-17
 1.551344446189903e+01  1.108554434940819e-01 -2.772192487298200e-16
 4.211195730454027e-01 -2.529285900078781e-03 -7.468337639944542e-18
 1.895825431718376e+00  1.683849525258187e-02 -3.391148440729013e-17
-8.583002640225560e-01 -1.741004770270618e-02  1.545335893261590e-17
 6.986643976330498e-03 -1.278995172775129e-02  7.076448220738452e-21
 1.272253344780319e+00  4.828833787475154e-02 -2.313741098060708e-17
-2.571091487551254e+01 -3.088363305364248e+00  4.892882103359820e-16
 9.047414643173960e+00 -6.283683239055721e-01 -1.545532794663977e-16
 1.713169422492828e+01  3.693346030647397e+00 -3.428267229405406e-16
-3.086974021213651e+01 -3.140592962382367e+00  5.816323016331762e-16
 1.129938514164387e+01 -7.345345754844423e+00 -1.256152777338938e-16
-1.330204581465898e+01 -1.614098579819243e+00  2.533100490852732e-16
 6.307859051950124e+00 -3.162408853380084e+00 -7.976327401285904e-17
-1.130166061731519e+01 -3.024045733831600e+00  2.321975031595660e-16
-6.651121040257977e-01  1.395107006801824e-01  1.040304149297787e-17
 7.420051667888390e+00  1.194825753261093e+00 -1.443250709377075e-16
 4.138147115873850e+00 -7.386505633786956e-01 -6.605389787297516e-17
-5.003048301759521e+00 -4.453763585830881e-01  9.361129267348839e-17
-3.125573687801282e+01  5.524454663002245e+00  4.994713561510147e-16
 2.658643656102694e+01 -6.783311318970021e+00 -4.034412925309179e-16
 3.028981071662073e+01  1.174296513803303e+01 -6.596980136796688e-16
-2.771719536152612e+01  6.486492181043163e-01  4.865959186404070e-16
-5.951228424323638e+00  6.031237122324317e-01  9.971233165539340e-17
 7.804965140750842e+00  1.996979564982877e-01 -1.409504887388870e-16
-7.549056092205764e+00  3.055863438144840e-01  1.312046693276481e-16
 4.168329472659200e+00 -1.499609708928837e-01 -7.263960062306344e-17
-6.804193262321983e-01  1.302760086986219e-02  1.197501968124969e-17
 1.095193239016291e+00 -1.257726545083959e-01 -1.819800173951730e-17
-6.585114167043042e+00 -3.115595259195603e-01  1.203911225859920e-16
-1.547331213629960e+01  1.896667531079614e+00  2.558784767770041e-16
 2.689048165850665e+01 -4.797594223098167e-01 -4.736188434388752e-16
 2.238789085812983e+01  2.348757728716196e+01 -6.397455474817387e-16
-3.165156408124648e+01 -3.511467063973069e+00  5.993563866381257e-16
-6.272267351566669e+00  1.982706747698408e+01 -9.209343666722011e-17
 2.875881686262837e+01  2.170501435757791e+00 -5.340985646009781e-16
-1.170183162089010e+01  3.893246700428925e-01  2.042478826130266e-16
-9.122617374025136e+00  4.089344322610112e-01  1.581462053002118e-16
-6.067179906532232e+00  3.422990821365577e-01  1.044557049113414e-16
 6.079258214939550e+00 -2.702978557593900e-01 -1.054104392610542e-16
-9.905831039743022e+00 -3.969406544446048e-01  1.803645004668925e-16
 8.718579855736960e+00 -3.404451319813757e+00 -1.201780278601942e-16
-1.584766265008225e+01 -3.643702606915076e+00  3.194657812723956e-16
-1.352631808737230e+00 -3.794771957843552e-01  2.797068684475636e-17
-3.145719252980169e+00 -2.583902402739986e+00  8.253048502030828e-17
-1.702710946269882e+01  1.319676456091115e+01  1.674257617024325e-16
 3.250037740901215e+01  1.565236920296840e+00 -5.944652245933668e-16
 4.292733413635956e+00  8.691074140310734e-01 -8.532407473096284e-17
-5.133464115659040e+00  4.257773204616579e-03  9.131237029164739e-17
 2.038222579254479e+01  1.758221703966073e+00 -3.807911100738527e-16
 7.116874110291487e+00  8.749159938603611e-01 -1.356427081112566e-16
-1.096688076693244e+01 -1.201509286124731e+00  2.075137964598641e-16
-1.062960933394483e+01  4.068268129913497e-01  1.849865798720000e-16
 2.436385205956767e+00  2.759433742410844e-01 -4.619359889421946e-17
 3.164671331942208e+01  3.726598699484151e+00 -6.014804609645018e-16
 7.498350281980747e-01 -1.250980156856393e+00 -4.908420960472325e-19
-3.165105753638863e+01 -6.032830642399012e-01  5.694668379379576e-16
 3.733094151311968e-01 -2.431395765712127e-01 -4.145315518201922e-18
 1.878409848058661e+01 -2.241888279710080e+00 -3.112508512903388e-16
 2.005572773502455e+01  1.449255046979785e+01 -5.058212897343628e-16
 3.932669533730868e+00  1.513751338664460e-01 -7.154186991855116e-17
 2.021438591175823e+01  7.556762939653241e+00 -4.373821039374645e-16
-2.960351830367199e+01 -3.755608064988349e+00  5.654174291326039e-16
-2.001168065993652e+01  1.188376260381002e+01  2.340303844218667e-16
 3.230046996681064e+01 -3.968329536409774e+00 -5.340522480406914e-16
-7.162750846784597e+00 -4.585956811317653e+00  1.745887356356849e-16
 1.417900786523548e+01 -5.268800776163098e+00 -1.981973443243401e-16
 1.632892298251419e+00  1.256002171670928e+01 -1.581089266667375e-16
 6.633321896818289e+00 -9.655748081261445e+00 -1.883857179233646e-17
 1.746146338949777e+01 -7.620454956194888e-03 -3.106692723971422e-16
 3.827057897932496e+00 -9.946395729108841e-01 -5.788750009475146e-17
 1.910998456016772e+01 -7.675840564999217e-01 -3.321983231365109e-16
 1.585181530136790e+01 -2.694138532981401e+00 -2.544206672971131e-16
 2.606656910895989e+01  2.698913637727627e-01 -4.666587263560788e-16
 2.236397223249253e-03 -1.796043223640240e-02  1.447375608543330e-19
 1.838806811898018e+01 -3.256218415390839e+00 -2.937811449830083e-16
 3.389306869447539e+00  3.031590001329629e-01 -6.343160731911516e-17
 2.412019821100031e+00  1.689132762244217e-01 -4.466029238657888e-17
 6.535736136674371e+00  7.033178058632337e-01 -1.235375556203709e-16
 3.742908805266014e+00 -3.408517186546965e-01 -6.310739929753328e-17
 1.428118353813299e+01  4.385890120924381e+00 -2.992141239397449e-16
-9.298780841596067e-01  2.645512345806130e-01  1.383012187282724e-17
 2.750552795322496e+00  3.275756706537095e-01 -5.231508899744296e-17
-2.658776289091406e+00  1.748926758457494e-01  4.551913686112106e-17
 8.135867763466955e+00  6.762454054714222e-01 -1.517356475403132e-16
-3.173147045207418e+00 -1.006729625878544e-01  5.750431485717917e-17
 7.414157158781685e+00  2.838428364387035e-01 -1.348601525974018e-16
-5.022984116645350e+00 -6.011426084722848e-01  9.556651588399924e-17
 7.679117598293462e+00 -1.224605420612853e-01 -1.354008200545737e-16
-5.236956285796449e+00 -1.303186401184923e+00  1.065876508265016e-16
 1.296554163110116e+01 -3.835071104735212e+00 -1.913333167559051e-16
-1.261956956563178e+01 -6.398261004000885e+00  2.903201010985066e-16
-2.935864250890075e+01 -1.340253317930501e+00  5.362426796678840e-16
 1.639174475161828e+01  5.053321519037881e-01 -2.969027549290914e-16
-1.438214781957105e+01 -1.492897079496993e+01  4.093372277299493e-16
-3.391174876127665e+00  1.086524106467856e+01 -5.128640284236999e-17
-6.895817523216238e-01  1.495130344870617e+00 -3.089991310328629e-18
-8.750930032019239e+00  3.650670083237992e+00  1.182239294857579e-16
 6.292234923805921e+00  4.334086408670462e-01 -1.164309424550456e-16
 5.530924113956595e+00 -1.125227822299446e+00 -8.686808501956414e-17
-2.033123061536939e+01 -1.215235379267235e+00  3.743046028319107e-16
-4.505411794870827e+00 -1.772254327545550e-01  8.200010408080546e-17
 2.659043148264997e+00  1.042465381361534e-01 -4.839193995487511e-17
 1.319887352819745e+01 -1.307264513911997e+01 -1.005730187167170e-16
 6.516971595628640e+00  1.058381440835907e+00 -1.268517680900230e-16
-1.936010911821837e+01  2.939045102368486e+00  3.143386145745900e-16
 2.817652882508529e+01 -3.627936190788628e+00 -4.641592141866189e-16
 2.759809332383238e+01  1.687391802111710e+01 -6.645143687385594e-16
-1.556411528364523e+01 -1.450521635297791e+00  2.918855798876051e-16
-3.230506721122469e+01 -1.941239977403842e+00  5.948527414736024e-16
 1.941141275443492e+01 -4.136956856274953e+00 -3.029435158784664e-16
-1.462219522719082e+01 -3.200596893289450e+00  2.931043764480458e-16
 8.741443645933208e+00 -5.458380945720982e+00 -9.948153549217669e-17
 1.589128917082479e+01  5.436949728292794e+00 -3.386671299808579e-16
-1.747835678586537e+01  7.322363573048563e+00  2.358135822332012e-16
-2.868592341295034e-02 -2.161015776202564e+00  2.271415228989454e-17
 9.039072080679997e+00  1.722947200557103e+00 -1.785637264548586e-16
 1.749543779176775e+00  8.466448749976954e-01 -3.983418701050947e-17
 1.614561436835471e+01 -5.138285949736932e+00 -2.345364453277779e-16
 1.185568586865363e+01  4.291464901229858e+00 -2.550793149201614e-16
-9.765284802996050e+00  2.640714194022318e+00  1.466525124731583e-16
 1.274640087683503e+00  1.172256599783539e-01 -2.388819187550543e-17
-1.013714234023660e+01  3.174789201123474e+00  1.477827342184552e-16
 4.794311621318273e+00  5.390200732181269e-01 -9.085872963669682e-17
 1.111223486889015e+01 -1.592117142003571e+00 -1.813970493226022e-16
 7.688142507740919e+00  3.580966207034712e+00 -1.736127936163986e-16
-1.102898203389826e+01  1.632755049754820e+00  1.794979261372990e-16
 6.586598715796419e+00  5.017316534890133e-01 -1.223714914123527e-16
-2.640221534991615e+00  3.300384198379838e-01  4.359486673057075e-17
-1.080366367996377e+00 -1.262211369403133e-01  2.052328455456523e-17
 2.834398257523656e-02  2.081183949740296e-02 -7.182490621755550e-19
 6.796711887817138e+00  4.580174249401378e-01 -1.256615581350626e-16
-4.627961269572383e-01  3.379306119331541e-02  7.888797687645490e-18
 5.310338121787245e+00  7.355268529767220e-02 -9.525952841193681e-17
-7.160756578412089e+00 -4.938875607544120e-02  1.279416564997460e-16
-5.161555432128608e-01  6.700264465047412e-03  9.116760801236373e-18
 5.306737438400736e+00 -1.313821125961267e-01 -9.308981936682832e-17
 9.980864281257062e+00  1.418329568986659e-01 -1.790786676129062e-16
-9.107519138191232e-01 -1.757011011495500e-02  1.638844319921602e-17
 1.622937428952332e+00 -4.993421822886733e-04 -2.887697689852179e-17
-2.233223637453250e+01 -8.305360517436233e-01  4.059622413432404e-16
 1.118850238025631e+01 -6.971418949271079e-01 -1.919498662665963e-16
 1.579747981362243e+00  1.195948133697294e-01 -2.934229299454981e-17
 1.663168966427535e+00 -6.343115213896146e-02 -2.894634359626382e-17
-8.622863867682421e-01 -1.992339753504436e-01  1.739247145849314e-17
 3.648750673815147e+00 -4.981875098915798e-01 -5.981517491490478e-17
 1.057993628818480e+00  7.037581280145960e-02 -1.955134455556870e-17
 1.052539565532823e-01 -3.579619815040467e-03 -1.836340417242991e-18
 4.913305222112831e+00  6.202422503937597e-01 -9.381089100476258e-17
-7.616119021159194e-01  6.365501640455565e-02  1.289976011400475e-17
 8.611325238004136e+00  5.148520771429592e-01 -1.585387226330106e-16
-7.623037814650209e+00  1.379866875621226e-01  1.342432878803006e-16
 4.044737768212760e+00  6.432779507326190e-02 -7.264187805238833e-17
-2.160487212357536e+00 -3.705625962416275e-02  3.882918667514035e-17
 1.156850377191535e+01 -5.465046167300739e-01 -2.002601876113201e-16
 6.372769844789523e-01  3.765004048315847e-02 -1.172794461364016e-17
 4.390776693069714e+00 -5.141968097951850e-02 -7.761079021390071e-17
-1.289299191828056e+01 -2.406621916004989e+00  2.541733364348155e-16
-4.663139113195071e+00  4.499247893880810e-01  7.836330914856798e-17
 1.254944658291190e+01  6.827938854122401e-01 -2.303478305982974e-16
 3.164943882251700e+01  3.816038357387586e+00 -6.024479245849936e-16
-1.689318108453445e+01 -1.956397390440487e+00  3.207355808012389e-16
 1.166166203406477e+00 -4.227197754223978e-01 -1.641002653252842e-17
 8.941382914445047e+00  2.164717466952428e+00 -1.813642602230681e-16
-2.299958131321366e+01  8.408251028951069e+00  3.229132596442222e-16
-3.093954198244777e+00 -2.242275615844061e-01  5.736446229109566e-17
-1.782470966934803e+01  2.632273628368015e+00  2.901663153477359e-16
 1.168840534718503e+01  2.255694915878760e-01 -2.103267601563109e-16
-2.406366566816793e+01 -2.074177327077596e+00  4.495530532990833e-16
-8.453167430472334e+00  1.260735512050530e-01  1.491388377882674e-16
-1.169515444992787e+00  2.095280881547754e-02  2.059763989776492e-17
 5.653118346040194e+00 -1.961273252883567e-01 -9.858884726010751e-17
-8.069806183508943e+00 -8.033307680744325e-01  1.518657589969555e-16
-1.389422906769899e+01  5.054071395777243e-01  2.420715051603699e-16
 1.718511004066172e+01 -3.116545148306461e+00 -2.738081630449579e-16
 1.969138603246803e+01  2.760220229960745e+00 -3.787919633327932e-16
-1.037632032591944e+01  2.923407137495750e-01  1.816553028789617e-16
-2.165201386874159e+00 -6.152715174993173e-02  3.916451055647966e-17
-2.006092774887101e+01  6.494488873252570e-01  3.503352874628665e-16
 2.093377918186111e+01 -4.400818529281791e+00 -3.273247595606548e-16
 2.803838333632599e+01  5.200775160262932e+00 -5.524125523479067e-16
-1.919088974857602e+01 -1.143651827647433e+00  3.532753818690153e-16
 1.121601919490932e+01 -2.114671691162050e+00 -1.778749569898935e-16
 1.371450976207681e+01  1.042678440587643e+00 -2.547792026773340e-16
-9.086996796397788e+00 -4.044466874668848e-01  1.658694901610759e-16
-1.312232632093611e+01  8.536651416160299e-01  2.247563504923651e-16
 1.093873879360142e+01 -1.257567964698051e-01 -1.933757996350883e-16
 1.967869740582238e+01  1.687537272757809e+00 -3.675447263813240e-16
-2.243552206119360e+01 -3.747131379606839e+00  4.377672908651944e-16
-5.284489826398207e+00  1.834137928086224e-01  9.215928994222059e-17
-1.336804234537195e+01 -1.010843533448321e+00  2.482863096170551e-16
-2.045050233307019e+01  7.274037516596008e+00  2.892029902414042e-16
 1.280496311516770e+01  1.413393143782248e+00 -2.424016940524866e-16
-1.927695591837653e+01  1.653146266663193e+00  3.260709476039564e-16
-8.926739921692214e+00  1.605964019110115e-01  1.572119154086304e-16
 1.285315324338430e+00 -2.666711478017003e-01 -2.013377019137027e-17
 1.007028615387452e+01  1.495829364800319e+00 -1.945818576969274e-16
 2.582924698724028e+00 -2.775422799885274e-01 -4.311457994302578e-17
 1.172091477335744e+01  9.718151452795253e-01 -2.185727071644955e-16
 6.978942343538533e+00 -6.674953726807712e-01 -1.173403312874029e-16
-8.288072281054438e+00 -9.637744472289731e-01  1.573985649512242e-16
-3.495917954156173e-02 -3.995750599360625e-02  1.032689162964816e-18
-1.334446639472148e+01 -1.719734366835777e+00  2.551503432367210e-16
-2.463384069431887e+01  6.790490379487340e+00  3.686187575990595e-16
 2.372129449542551e+01 -3.535473459662382e+00 -3.858230258619125e-16
 2.879617928223165e+01  1.059618277470200e+01 -6.213342883642466e-16
-3.098423863693563e+01 -1.295467018540450e-01  5.527325311926007e-16
 1.073600219160666e+00 -1.574231283098936e+00 -2.931341984476847e-18
 4.318740750943449e+00 -2.059884339519419e+01  1.347884896673679e-16
-1.097300681901619e+00  2.526813060369361e+00 -6.434311736309721e-18
 1.002404680545794e+01  1.685677939193068e+00 -1.957095984707945e-16
 1.589615946850224e+00 -1.634166183204190e-01 -2.661006556108069e-17
 1.357365525373894e+01  3.135551333009372e+00 -2.737760373746800e-16
 5.307676035980303e+00 -1.725029743596722e-01 -9.268402088175379e-17
 1.225114202709313e+01  2.935407736232898e+00 -2.481839342008384e-16
-2.819093915561417e+01 -2.237837670305372e+00  5.246843587472298e-16
-2.034509908699457e+01  8.445660814879446e+00  2.752892098924895e-16
 2.724438631801948e+01  5.007053900247487e-01 -4.899909187833996e-16
-8.374171350472306e+00 -8.676736727145540e-01  1.579434000408235e-16
-2.166813424544359e+01  3.498830768486099e+00  3.496610803824940e-16
 1.353118441093307e+01 -1.980155431596962e-01 -2.387690293944864e-16
-2.406301058699975e+01 -1.381906536512696e+00  4.424285644491809e-16
 7.445584564575374e+00 -6.168365264050313e-01 -1.261652875035799e-16
 1.477607391774483e+01  1.219906180248990e+00 -2.754919537515760e-16
-4.081037425338867e+00  3.375244760351562e-01  6.915898762957095e-17
 6.578315609965296e+00  2.061156452420689e-01 -1.191867365298362e-16
 1.369787062278093e+00  6.735830379621076e-03 -2.444620292201164e-17
 7.036863719952010e+00  8.782961179345471e-02 -1.261318011099776e-16
-6.206044074318802e+00 -1.884233486650594e-01  1.123799385982307e-16
 6.310324838857529e+00 -1.961798259310800e-01 -1.102840812879244e-16
 2.498258353061919e+01  4.814018610932576e+00 -4.940571665976125e-16
-2.803296096799905e+00  1.228693206801951e-02  4.976175416786610e-17
-1.595715013203176e+01 -1.074015716803542e+00  2.950116422996039e-16
 1.862957024037790e+01 -2.313406132865378e+01 -9.384134896760319e-17
 1.277324410572911e+01  1.520072284608739e+00 -2.429333058673091e-16
 2.056414771121676e+00 -1.271868711579617e-01 -3.528955490467260e-17
 9.362932974294935e+00  1.534613941771947e+00 -1.823921615364006e-16
-1.158710350224512e+01  6.289530617835957e-01  1.997440641937557e-16
-7.716415668775613e+00 -3.608359432198577e-01  1.410302795314828e-16
 1.615650599641910e+01 -3.412670747665520e+00 -2.524603441748690e-16
 4.588257894624649e+00  2.252914978803706e+00 -1.048014052315392e-16
-7.369280463044014e+00  4.323747777747506e-01  1.267026424573163e-16
-2.982803538819949e+01 -1.301453920837148e+01  6.645451320998996e-16
-2.099301199799316e+00  1.163723465121362e-01  3.616388539379501e-17
 2.851766702516690e+01 -5.462461011823033e+00 -4.513810992910543e-16
 1.012844977995082e+01  1.125991426623610e+00 -1.918169983550711e-16
-1.419619859853874e+01 -7.226860788327437e-02  2.533808215988209e-16
-2.837928645912972e+01 -4.127111508231209e-01  5.092837117241629e-16
 1.082910707365983e+01  1.917139558201383e+01 -3.896960029810485e-16
 1.887167125089961e+01  7.779022985903175e+00 -4.157705361417258e-16
 1.155066392139083e+00 -5.555933213700527e-02 -1.998493230374175e-17
 1.734641621659120e+01 -1.312904063584862e+00 -2.952105558634615e-16
-2.346166453145770e-01 -4.483726102673428e-01  8.782148748949962e-18
 2.780272484171296e+00  1.455100474444949e-01 -5.097332816477072e-17
 6.677510393945575e-01  1.088195584272783e-01 -1.300150769484224e-17
 2.256277996582328e+00 -6.785487522159389e-02 -3.945597414080842e-17
-1.818655892027014e+00 -1.422968300702056e+00  4.698563333586521e-17
 6.040675464616976e+00 -1.210259024588361e+00 -9.506605366013011e-17
 3.551654092739304e+00  2.768165618267459e+00 -9.164781727263245e-17
 7.292092732259972e+00 -4.585801037548671e+00 -8.265404866941093e-17
 1.372968646609192e+00  2.282891713507658e+01 -2.589924452876897e-16
-2.426811440385838e+01 -1.591270152474804e+01  5.953772714094870e-16
-1.735111652678473e+01 -2.732341571744158e+01  5.895219864330465e-16
-1.097945300840271e+01  1.294468812569490e+01  6.239049499387671e-17
 3.139645066250414e+00  4.709604657242362e+00 -1.042632060514370e-16
-1.980793912718642e+00  6.454192895659191e-01  2.861914171596206e-17
 9.598700702552548e-01  2.442021736998969e+00 -4.217291910531718e-17
 1.957026976836052e+00 -6.355090279773525e-01 -2.829800508083056e-17
-4.365420212204790e-01 -4.045629169722647e-01  1.192552299952644e-17
-1.124060136024102e+01  1.028717101937607e+01  9.434296429379019e-17
 3.955909117308550e+00  2.532181851848743e+00 -9.641737018307426e-17
-1.655394624487393e+01  4.641148540674713e+00  2.469111044186753e-16
 1.855196592389432e+00  2.168755274811072e-01 -3.524375358614104e-17
-3.697684522935879e+00  1.576526598017748e-01  6.418488304212110e-17
-2.686530893675298e+01 -6.161746873113190e+00  5.414099293809595e-16
-4.157744172496128e+00  5.266291223167855e-01  6.858109415599714e-17
 4.234281124475781e+00  5.341947560965108e-01 -8.084274049208699e-17
 5.896299444567638e-01 -5.351567958403549e-02 -9.943314031070107e-18
 2.008314634586626e+01  3.741233610278103e+00 -3.958433615546962e-16
-1.807109746511627e+00  4.578067134406665e-01  2.745587585633976e-17
 3.147817205068000e+01  3.483212129817359e+00 -5.959803594130592e-16
-3.859237764135057e+00  4.637910814902166e-02  6.820321098916188e-17
 9.211645240416347e+00 -5.014914819971703e-01 -1.587795722623702e-16
-2.818445379933442e+00 -2.380919177840185e-01  5.260390546082131e-17
 7.904337153282751e+00 -6.417848419287666e+00 -7.472604718998474e-17
-2.605800745858123e+00  5.426745452597832e+00 -9.384505562950178e-18
-1.869460281414053e-01  1.370092712964449e+00 -1.075027734210916e-17
 2.664469849012173e+00 -8.459706658754432e-01 -3.872537798256444e-17
 2.269945403055937e+01 -4.682848083552352e-01 -3.991524050709881e-16
-1.354062646898372e+01 -5.737568493220643e+00  2.999230318340715e-16
-1.835799359297044e+01  1.285393245186167e+01  1.946329077203590e-16
 2.484588115897699e+01  4.237827585525492e+00 -4.857042314311837e-16
 2.251508444293370e+01 -5.608115287927286e+00 -3.430614373098047e-16
 2.818963179529642e+00 -1.070982895412044e-01 -4.906641634306042e-17
-1.012720363976185e+01  7.429681378429739e+00  1.038883918058870e-16
 1.786237328183411e+01  3.647080792202213e+00 -3.553546698159520e-16
-3.031409180701387e+01  1.095769192292844e+01  4.268891196633154e-16
 2.567122104753523e+01 -5.959361341934893e-02 -4.562376975564401e-16
 1.309456117891989e+01  2.162890056285564e+00 -2.552562456162209e-16
 5.799720644487426e+00  1.081263220474030e-01 -1.043239056855803e-16
 6.057567042763780e+00  5.506195044279839e-01 -1.134590466424925e-16
-3.192483378560303e+01 -6.069838381089943e+00  6.305058828916526e-16
 1.957420384783622e+01 -4.981382133844386e+00 -2.971644146229600e-16
 5.957783752574664e-01  2.291704591228089e-01 -1.295723007871714e-17
 3.924113048183233e-01 -9.108233379083620e-02 -6.047589365562158e-18
 3.483859139917271e+00  6.953559272989074e-01 -6.914395863565808e-17
-7.109118402879452e+00  1.427732458819549e+00  1.118458096871648e-16
-3.839162605386315e-01  2.669551278245241e-02  6.557961111291917e-18
-2.214442404101602e+01  5.200285378507318e+00  3.406553974847333e-16
 1.082249073433204e+01 -9.318260359720476e-02 -1.916417147504835e-16
-3.666814063127648e+00 -1.930556777163139e-02  6.545368788309790e-17
-1.803738140549203e+00  1.290872235267781e-02  3.196703935788555e-17
-3.259586192399400e+00  3.477489933920220e-02  5.765092501298988e-17
 2.132229474820021e+00 -8.542823878565030e-02 -3.706782279992280e-17
 2.135139338435961e+00 -4.080155416970160e-03 -3.795542929879111e-17
-1.598867317209935e+01 -9.263589552616044e-01  2.940555127729096e-16
 2.306695158105547e+00 -1.315760411077585e-01 -3.969849580777104e-17
-2.751524075882589e+00 -8.160767387638407e-02  4.980514226944472e-17
-6.822542982882754e-01  1.234225518629093e-02  1.201471687511517e-17
 2.377774783602934e+00  1.887090393489164e-01 -4.425425544871784e-17
-4.564142484157361e+00  2.926019656219615e-01  7.821798084510148e-17
 1.024920602042273e+00  2.663422903868779e-02 -1.851334170959810e-17
-5.409378527457858e+00  2.955956085555828e-01  9.322920589205027e-17
 7.245180930117107e-01  1.003643643589313e-02 -1.299678443711413e-17
-3.790729423099652e+00  1.841102131670453e-01  6.556888635478616e-17
 7.796132783584279e-01  5.839097210601801e-03 -1.393414284884727e-17
-8.403502308265672e-01  5.083972482433904e-03  1.490279879462833e-17
-3.907943598967862e+00  2.688878526055308e-02  6.927024622015126e-17
 9.965191270656751e-01  6.055736787555581e-04 -1.774046863624223e-17
 1.384542912417841e-02 -2.011286074930161e-04 -2.443294014190349e-19
-5.794598810344691e-01  2.326679599307222e-03  1.028827399488772e-17
-1.719639982750415e+00  1.157085119862184e-02  3.048415848978184e-17
-3.530750209983894e-01  2.511746792792870e-03  6.257583871558993e-18
-6.106453460163810e-01  3.841607065660369e-03  1.082769120189993e-17
-7.415809883768454e-01  6.177423614002309e-03  1.313384749507220e-17
-9.876562215048565e-01  1.410759960804928e-02  1.743157012123069e-17
 3.306705786331717e+00 -3.286206343489922e-02 -5.850912808532579e-17
 6.629296886960626e-01  1.213478690593725e-02 -1.192230510957581e-17
-7.500296998366450e+00 -6.165251138276113e-02  1.341101889149697e-16
-1.298955312710182e+01  2.036004051972582e+00  2.102453904334202e-16
 1.217664445145371e+01  2.377851550556247e-02 -2.169422284532882e-16
 1.877969815900915e+00 -9.955902098461495e-04 -3.341048366963622e-17
 1.352131206161120e-01 -3.713894065798621e-04 -2.402462878267171e-18
 1.382062658373946e+00 -6.148573330917786e-03 -2.453227923076339e-17
 2.364695476685299e+00  9.774509596180385e-03 -4.218300625493606e-17
 1.340590518571202e+00  5.769871266756108e-03 -2.391669072172096e-17
 3.984403668359480e+00  1.153284820777411e-02 -7.102571187399107e-17
 3.016744403462191e+00  5.583525845627342e-02 -5.426025216071087e-17
 3.491484310814796e-01  6.037722488571008e-03 -6.275548216124603e-18
-3.146023161242673e+00 -5.035220382272024e-02  5.650458545194738e-17
-7.349192848324501e+00  1.422266757974993e-01  1.293263257408805e-16
 3.210968247207245e+00  2.810527939715652e-02 -5.743178167742414e-17
-2.348718374276273e+00 -5.174588638085886e-02  4.232991530781514e-17
 2.530729615044970e+00 -9.270053058726382e-02 -4.408488801660165e-17
 3.911962895898152e+00  1.017019301772295e-01 -7.066299647664490e-17
-1.761937272590896e-01 -2.667873597139410e-03  3.162988979679917e-18
 1.742776401015783e+00  1.324075918142614e-02 -3.115082890676679e-17
 9.825384280851206e-01  6.864222917901971e-03 -1.755597073722082e-17
 8.813442709653801e+00 -4.850286326193819e-02 -1.563473767751242e-16
 8.769399444511501e+00  5.021498728052272e-01 -1.612213311596112e-16
-2.890110068069785e+00 -1.918180838067388e-01  5.340381723750089e-17
-3.182614260434739e+00 -1.113948308632490e-01  5.778295852471129e-17
-1.133087131488629e+01 -7.653122304212778e-01  2.095096761524577e-16
-9.048271685552327e-01 -1.007069411754629e-01  1.713720603142395e-17
-6.938785036624745e+00 -1.102535494216111e+00  1.348121082633117e-16
-1.452581643347040e+01  1.654721160350355e+00  2.415025716481155e-16
 2.367795101990580e-01  2.209383039241059e-02 -4.440779908110092e-18
-1.304703962594756e+00  1.525299531442983e-01  2.165157344093093e-17
 2.380735145129987e+01  5.300174496988199e-01 -4.291259542273787e-16
-4.485225322705800e+00  2.428038567249972e-01  7.732521327324327e-17
 1.530780427948770e+01 -3.335388459134066e-01 -2.689936464865180e-16
-3.635537862804548e+00 -1.779269926319981e-01  6.652686813039448e-17
-7.087856923545596e-01  6.241619107335027e-02  1.197238318342469e-17
 2.175415073555975e+00  1.287860038849752e-02 -3.884642911658259e-17
 2.396446506680158e+01 -3.229469019490572e+00 -3.932946205428538e-16
-3.287164334010916e+00 -1.668026466921790e-01  6.021284700315100e-17
-5.808225127467214e+00  6.252620963781655e-01  9.693995354964712e-17
 5.376189269209449e+00  1.048299746610975e-01 -9.675279090441110e-17
 3.747628457609459e+00 -1.820174647148042e-01 -6.482335545698340e-17
-6.003716212491267e-01 -2.730636582352157e-02  1.096489213246073e-17
 6.872544437836533e+00 -2.100543978429828e-01 -1.201468935117935e-16
-9.096561993545501e+00 -1.995903604502985e+00  1.823913559896782e-16
-1.050713438574086e+01  1.326783037922241e+00  1.733547760209397e-16
 6.401096778747188e+00  9.821185965505383e-02 -1.149242438768882e-16
 3.080406133294170e+01 -4.125188392496860e+00 -5.058102036527600e-16
-1.501351002427427e+01 -3.705036733104809e+00  3.052512261357017e-16
-1.970378061849979e+01  1.297522456129581e+01  2.173365607955048e-16
 1.372564824877680e+01  3.173808957451933e+00 -2.768740172126581e-16
 2.574467942641894e+00 -5.517188515023986e-01 -4.014701718266924e-17
-1.681678356629798e+00 -3.846748855381524e-01  3.387986704598998e-17
 6.786665454468666e+00 -2.522358847127338e+00 -9.486048633655938e-17
 1.411555431958896e+01  1.271999897427234e+01 -3.818964954044597e-16
-3.616655381247528e+00  5.765166015837132e-01  5.843919795750595e-17
-8.137060688559093e-03 -8.854680765354249e-02  1.054594997850568e-18
-2.161651799407370e+01  2.938683997227824e+00  3.544978122889938e-16
 2.374424156506393e+01 -1.644319834820577e+00 -4.056623128588675e-16
 2.002498429027027e+01  1.053065850343907e-01 -3.574504690085493e-16
 1.330805239140072e+01  5.044630797990510e+00 -2.886644156199259e-16
-2.522704867035456e+01  6.531293228378546e-01  4.422347564808709e-16
 5.905293934312335e+00 -1.397727569635051e-01 -1.036556353503164e-16
 4.549070090187605e+00  5.796998481289430e-01 -8.691233387877652e-17
-2.448281323166090e+00  1.216678151459582e-01  4.231999396766168e-17
 1.352881843448477e+01  5.449148223778559e-01 -2.463602636491730e-16
-1.233206176654705e+01 -1.638275578171024e+00  2.362964357317238e-16
-1.267767215556393e+01 -3.517247104945423e-01  2.292281421099983e-16
 8.915045700190753e+00 -1.321443971110723e+00 -1.450765157260355e-16
 1.638397483437793e+01  3.080904266122503e+00 -3.232275478210817e-16
-4.099300010086635e+00  3.651429383026579e-01  6.920022245497021e-17
 1.362804865019239e+00 -4.469461441984873e-03 -2.420681608681438e-17
 2.715735190618640e+01 -4.395278265529068e+00 -4.381375841447286e-16
-1.483097812037844e+01 -4.252809641866265e+00  3.076310208260780e-16
-1.067811565126181e+01  1.119742982749837e+00  1.785248529491871e-16
 2.560678378118034e+01 -1.108998871145401e+00 -4.443087017300572e-16
 4.587667856444083e+00  2.628642076631804e-01 -8.434385611625718e-17
-1.109469263744947e+01  2.697429963335752e-01  1.946717783965006e-16
 1.147428764586345e+01 -8.274925868590279e-01 -1.956964499578207e-16
 6.103844915559806e+00  3.505336881801146e-02 -1.089853618397076e-16
-2.193171863940414e+01 -3.860863526464761e-01  3.942679913125892e-16
 2.583234621664025e+01 -1.004931508263279e+01 -3.564643530163263e-16
 2.133776586267942e+01  6.623504205879130e+00 -4.477850957146695e-16
-1.244417258920465e+01  8.181506954683455e-02  2.206182750503731e-16
-2.170412354839627e+01  6.736959928234240e-01  3.793287865638914e-16
 1.286124177056397e+01 -8.344478832897793e-01 -2.203074898922009e-16
 5.310294990298737e+00  8.409921566366603e-02 -9.536712258594177e-17
-4.616379500023296e+00  2.025986431981963e-01  8.007235235914947e-17
 3.994716558826847e+00 -1.345157385157661e-02 -7.095253619831419e-17
 4.414635654209454e+00 -7.501186375243642e-02 -7.779298778534123e-17
 1.309414642038852e+01  1.110600836374924e-01 -2.341670568289882e-16
 4.467778474233618e+00  3.874814531196525e-02 -7.990757043334387e-17
-1.593854030417372e+00 -3.768712866083967e-02  2.875175525076726e-17
 9.016875169898015e+00 -2.656415623815028e-01 -1.577366787321256e-16
 6.762630521093817e+00  2.271943005566806e-01 -1.226834157785829e-16
 2.647690346138215e+00  5.592620924116041e-03 -4.717627016317029e-17
 2.296145141901108e+01 -8.135785050228962e-02 -4.077904950352302e-16
 4.002911352762435e+00  1.656982511454937e-01 -7.293907170352712e-17
-1.122656460309609e+00 -3.841280560301743e-02  2.037368847825232e-17
-1.993259976363990e+01  1.189277977374973e+00  3.425049900540129e-16
 9.902969232935879e+00 -4.843106387491185e-01 -1.712590342932824e-16
 1.089667994905344e+01  2.936990223296542e-01 -1.969370684933178e-16
 1.235503699147110e-01  4.739411250554176e-02 -2.685683710336181e-18
 7.948005879250598e+00  4.827054275666685e-02 -1.419402076385085e-16
-1.499530950874557e+01 -8.346366063283414e-01  2.754350076822978e-16
 1.017017091421918e+01 -1.486131455022013e+00 -1.657208620116482e-16
 1.198226426257863e+01  8.454914054778955e-01 -2.219258025628230e-16
 1.712664723621010e+01 -1.289240812578613e+00 -2.915426359626917e-16
-5.369783176200420e+00 -3.772027887425725e+00  1.343179132575105e-16
-7.686193550581605e+00  2.804590637811320e+00  1.079688326855682e-16
 1.321564509463194e+01  9.796574601040028e-01 -2.452537931650588e-16
-5.823602599914676e+00  2.365324382856001e-01  1.012076700326074e-16
 1.579640592060989e+00  2.081437318868734e-02 -2.832544873295009e-17
-2.942823135196123e+00  1.403554882206112e-01  5.092894636714879e-17
 1.993389084686897e+01 -7.583989005510596e-03 -3.546694428937642e-16
-8.667790406775865e-01 -5.844605089310242e-02  1.602587892493860e-17
-1.916652842190435e+01  6.998387679594410e-01  3.339006468201721e-16
 2.594009999341342e+01 -5.061453424900382e+00 -4.096304265940567e-16
 1.868818454363462e+01  2.183884019024263e+00 -3.550171509696879e-16
-6.547357296502659e+00 -2.160249605475366e-01  1.187376110486737e-16
-2.069384041552338e+01  1.771711117451377e+00  3.500678865027246e-16
 1.791133509442484e+01 -6.746575070079953e-01 -3.118217126162128e-16
-2.299957106290281e-01 -7.234626366240930e-02  4.836379600135731e-18
-7.885329815631293e-01  2.186624648277786e-01  1.178620760824768e-17
-7.454150505516869e-01 -1.161602760304369e-01  1.445905461744481e-17
-5.660168866818212e+00  8.745965426636190e-01  9.174329492199200e-17
 1.655042717268736e+01  1.258311203941698e+00 -3.074632841621024e-16
 2.063740853016315e+01 -2.244436225584734e+00 -3.442065351091737e-16
-1.107259950631758e+01 -6.108981995429063e+00  2.598176868681708e-16
-2.669719526724781e+01  1.427078158042250e+01  3.284813387775762e-16
 3.098936783835983e+01 -2.666275656710111e+00 -5.240977523487005e-16
 1.588890980087981e+01  1.028692109294922e+00 -2.933315406108221e-16
-2.455916547077373e+00 -3.331453503328082e-01  4.712891193961945e-17
-1.953390606516156e+01 -7.249203121288830e-01  3.550774521728840e-16
-3.558420343710033e+00  1.695054824291581e-01  6.158472740499588e-17
 9.390397614214276e+00 -1.636053810453099e-01 -1.654323409601922e-16
 5.313847946844527e+00 -9.862497165140771e-02 -9.355292704162118e-17
 5.753545173785571e+00  1.115041649969852e-01 -1.035368642336917e-16
-1.056992132717553e+01 -6.775917178483274e-03  1.881739783631516e-16
 2.445699494800793e+00 -4.636940582289092e-02 -4.304771104845045e-17
 9.261711720436383e+00  6.652472434515037e-02 -1.655067251781936e-16
-8.907148210062369e-01 -2.693647383833922e-02  1.612809520838094e-17
-7.037051926795416e+00  3.831025737734919e-02  1.248391091325104e-16
 6.536750404275614e+00 -2.178436331573720e-01 -1.140910065689555e-16
 5.173037722890180e+00  4.249238407412635e-01 -9.642631497274230e-17
 6.816926855501443e+00 -2.468182208036664e-01 -1.187793773615013e-16
-5.064206885824230e+00 -8.068306101673456e-01  9.841349373078669e-17
 5.690675693016908e+00 -4.419097259193726e-01 -9.673190014478055e-17
-5.992284177833345e-01 -1.172304153211938e-01  1.186848441129382e-17
 2.976090877676132e+00 -6.036013885147568e-01 -4.676130218210542e-17
 3.962260249947466e+00  4.790398561460815e-01 -7.543510802124596e-17
 5.768563293209049e+00 -1.076481334201645e+00 -9.159801014174949e-17
 2.676672947274922e+01  1.685968331687194e+01 -6.495730009585797e-16
-1.445850059669060e+01  1.122644651705434e+00  2.457714988605882e-16
 2.759638559481874e+00  2.743282493246805e-01 -5.192968308106025e-17
-3.732249583881202e+00 -4.270624255759827e-02  6.685862446241936e-17
 4.019083881912967e+00  2.347249205908549e-01 -7.393610510471141e-17
-1.787085822036471e+01 -3.286631792561100e-01  3.214101339353031e-16
 1.942620166428501e+01 -8.168985397896916e+00 -2.617790736131421e-16
 3.050882049781131e+00  1.661444166423764e+00 -7.136482055610270e-17
-8.721037378007470e+00  3.013160215739372e-01  1.521053503022682e-16
-1.220986971703479e+01 -3.104820181738083e+00  2.491900955546825e-16
-2.288824709894932e+01  2.491289918386704e+00  3.817265603140304e-16
-6.380829332174691e+00  2.431331865824572e-01  1.110563641246357e-16
-1.974974140420250e+00  3.013128571490618e-02  3.483743264871681e-17
-1.914832155571560e+01 -5.493718961019169e-01  3.464118196992781e-16
-8.147756516179241e+00  1.431528614979676e+00  1.302906097214973e-16
 2.516354399966424e+01  4.836743307373109e+00 -4.975110621460701e-16
-2.483254856366872e+01  4.525118584613717e+00  3.954308733951765e-16
-3.177023467789924e+01  3.026152336873120e+00  5.342966070871070e-16
-7.110250674089652e+00 -3.102955999541931e+01  4.453528488868026e-16
 2.685109417985452e+01  7.664242478388064e-02 -4.786347231492016e-16
-1.828923387156136e+00 -2.520053935266861e-01  3.513713716535447e-17
-1.413340318537635e+00  1.149773358487171e-01  2.397072646775658e-17
-6.692322351445616e+00 -2.640434690441821e-01  1.218108097927091e-16
 4.371277955485394e-01 -2.196476199488076e-02 -7.553530592328153e-18
-2.421517609970848e+00  9.853297770708130e-03  4.299255530424200e-17
 2.936656345121418e+00 -3.066137969541072e-01 -4.911095722001419e-17
-3.019437399531394e+00 -1.092867313526121e-01  5.485737173459499e-17
 2.069489147178582e+00 -1.627823928733426e-01 -3.515649799793725e-17
-1.078692776691430e-02 -3.919878858987124e-02  5.947195532083137e-19
-2.851196464861571e+00  7.781965803389622e-02  4.994087340775793e-17
 1.012843798181637e+00  5.928423033303699e-02 -1.863388748409496e-17
-1.375752082369229e+00  5.032889103481463e-01  1.931203867684068e-17
 3.254363823194964e+01  3.919890191431333e-02 -5.795556162600211e-16
 7.874449965220552e+00  9.957357838451316e-01 -1.503660535502145e-16
-4.176442302419864e+00  1.264023442073644e-02  7.419489880282662e-17
 5.663285049576197e+00  3.229898141909905e-01 -1.041035158968480e-16
-3.558336900112001e+00 -1.412958623343206e-01  6.477661333949789e-17
 2.284304665581340e+00  5.617500686541431e-02 -4.122910412999365e-17
 1.512260049762265e+00  4.168291489902727e-02 -2.734074831329271e-17
 8.703741542863292e-01  2.344683494274211e-02 -1.573025400615656e-17
 4.744597349863640e+00  1.004308700300905e-01 -8.546766010924410e-17
-1.592723555310512e+01 -4.974572248841503e+00  3.345560781263679e-16
 6.935736506456599e+00 -1.114785805032159e+00 -1.119756851999092e-16
 6.421069836563219e+00 -9.131913115536848e-01 -1.048878880745910e-16
-1.386015649929521e+01  5.830613257816647e-01  2.406672745836882e-16
-3.521759113370422e-01 -8.208305762034227e+00  9.060475028672328e-17
 2.313059395065398e+00 -5.737082753454993e+00  1.778279012221095e-17
-3.705415465703771e+00  4.121527677962193e+00  2.359508853562670e-17
 4.102442612923737e+00 -1.162811727976578e+00 -6.106039177555733e-17
-2.371556313661830e+00  4.120749923688741e-01  3.797075264456420e-17
 8.825835056568611e+00 -7.152025795315639e-01 -1.497178159768644e-16
-3.678834796032818e-01  1.102655105006588e-02  6.433631541650123e-18
-5.984084163323891e-01  1.340246031585130e-01  9.272337464737508e-18
 2.398304857364815e+01 -1.009309715625802e+00 -4.164366667072777e-16
 2.576909299532276e+01  1.856117021112228e+01 -6.493010295282452e-16
-2.514592562187314e+01 -3.009622650925655e-01  4.505940195248424e-16
-2.851088322058499e-01  6.718996224188570e-02  4.383499302397681e-18
 1.063075016465968e+01  3.717242265189136e-01 -1.930062113902659e-16
 1.728298342842065e+01 -4.280190482211323e+00 -2.635939036645763e-16
 2.263630916101618e+01  1.230902577037702e+01 -5.293108913671514e-16
-1.521184770714979e+01  3.814868200283223e+00  2.315165903320133e-16
 1.344208582764889e+01  9.826744729807473e-01 -2.493145748382589e-16
 9.073742809092179e+00 -2.213291276000676e-01 -1.592040004556342e-16
 8.648802280501101e+00  1.057422728029806e+00 -1.647803876456337e-16
-2.335479642240694e+00  2.760869704223560e-01  3.872595276598099e-17
-2.851721390276531e+00 -3.576835493465542e-01  5.442485232918612e-17
 9.145856408082668e+00 -9.066482949592707e-01 -1.534459424993107e-16
 1.239241632795674e+01  1.439882673347403e+00 -2.353321021642263e-16
-8.907014854541885e+00 -4.407084371210633e-02  1.589637659300532e-16
-7.143138649163423e+00 -2.831790890013076e-01  1.300302351597753e-16
-1.992606739924969e+00  5.204347490185041e-02  3.492608600532734e-17
 9.138695349651098e+00 -4.942810134047156e-02 -1.621261289926955e-16
 1.732878129363636e+00  7.807901257275272e-02 -3.164086686855179e-17
-9.580374290403549e-01  8.731255699086950e-03  1.695970836861581e-17
-3.462003570292421e+00 -3.698737098577647e-02  6.199051496045462e-17
 1.665805761226547e+01 -1.115372741360277e+00 -2.849899559262318e-16
 1.544529370654951e+00  6.458660465711043e-02 -2.815034643230683e-17
-4.121029807011653e-01  3.062617697723230e-02  7.019191274941354e-18
 6.835664751889814e+00  7.988320733557976e-02 -1.224695790745185e-16
-2.344456371991216e+00 -1.065217780706683e-01  4.281687014903253e-17
 4.647325341756795e+00 -2.590823580282465e-02 -8.243850026728384e-17
-4.010754273857422e+00 -4.114561340146961e-01  7.560371879469684e-17
 3.909973610486909e+00 -1.075202041791223e-01 -6.847791334500920e-17
 3.520843673850063e-02 -4.817208284345641e-02 -1.316254714280109e-19
 4.449211497834630e+00 -3.530910576969457e-01 -7.555114345597393e-17
 3.084873985444748e+00  2.595151258025610e-01 -5.756543598507530e-17
-6.483718391494009e+00  2.234202239429339e-01  1.130899412019874e-16
 9.731135562494707e+00 -5.616680303022812e-02 -1.726000716100964e-16
 6.398291482062149e+00 -1.182743563705124e-01 -1.126500030430398e-16
 1.802404665019825e+00  5.135042935804682e-02 -3.260354800410762e-17
-4.168365124148730e+00  1.700076483164333e-01  7.243426276260244e-17
 6.728105301845621e+00  2.975501243855194e-01 -1.227918788352086e-16
-3.235813848176277e+00  3.942540790063098e-03  5.754465906132645e-17
 2.801447454486368e+00 -9.172449147990949e-02 -4.891266330779062e-17
-3.722906052250832e+00 -1.470836229429140e-01  6.776478483756584e-17
 7.575453034755671e-01 -3.313461093473512e-02 -1.314097621067799e-17
-3.428020938204223e-01 -1.662986186810513e-02  6.271437947805183e-18
 6.112574891216711e+00 -2.826080393650280e-01 -1.058768665866840e-16
 2.634653648801031e+00  1.192389333996457e-01 -4.811194113648765e-17
 1.974066446361840e+01 -2.932160187659956e+00 -3.211817908881834e-16
-8.160062992312274e-01  2.158053838453049e+01 -2.072103868349543e-16
 5.469021614889510e+00 -8.797638060039787e-01 -8.828850979699707e-17
-5.339004472902582e+00 -3.242050377399194e+00  1.283248430738330e-16
 1.409241435869400e+01 -1.093191434643842e+01 -1.384698748935599e-16
 1.741454371593596e+01  4.834882009319081e+00 -3.595892345153630e-16
-1.021915423587168e+01  3.089753942351518e+01 -1.355989539481068e-16
-2.986319259066280e+01  4.147451016214627e+00  4.888375817143952e-16
-6.120191631469072e+00  1.003975609477889e+00  9.860062583965334e-17
 1.937605581871963e+01 -4.439925541551280e+00 -2.992014038483529e-16
 1.700139829537530e+01  1.798361715369414e+00 -3.210376759868823e-16
 7.615089465238401e+00 -5.385837849995668e-01 -1.299858478963575e-16
 1.436145932502306e+01  1.862244858009439e+00 -2.747131890627658e-16
-5.509667893674267e+00  5.731510754699789e-01  9.216219325194397e-17
 4.672526518490725e+00  2.306174629232334e-01 -8.552269364159470e-17
 1.131125081960326e+00  9.307475774845406e-03 -2.022535101880177e-17
 2.398715999149211e+00  2.029014170396217e-02 -4.289648633782766e-17
 2.071500940945469e+01 -1.306920323556268e+00 -3.552201706225843e-16
 1.053120568074748e+01  2.198176472889440e+00 -2.100008318484793e-16
-2.044983044845010e+01  6.250585600720834e-01  3.575068766321023e-16
-1.137776042644655e+01 -6.126456872887179e-01  2.087755305532147e-16
 1.055924606319698e+01 -1.901634658935944e+00 -1.683757738611417e-16
 1.532411101789350e+01  7.584015231556351e-01 -2.805031349587147e-16
-5.361236220795604e+00 -5.275302403231239e-01  1.008297752496005e-16
-5.956876006113808e+00  2.754849488981567e-01  1.031792063393735e-16
 7.155970451994476e+00  2.476255204502302e-01 -1.298932924142991e-16
-4.446896197510109e+00 -2.062767113968605e-01  8.125724056166973e-17
 4.278771194299438e+00 -2.262511038582093e-01 -7.382118939650864e-17
-4.550565081281355e+00 -4.859447653076333e-01  8.597563966730998e-17
 1.593904551638792e+01 -2.967499738356636e+00 -2.531643459580166e-16
-9.462518799796069e+00 -3.471122066765146e+00  2.040613276246693e-16
-6.509065505373886e+00  1.044931026058703e+00  1.051002982660889e-16
 5.543803073087666e+00  1.663866230315966e+00 -1.157542096533534e-16
-1.076547210672888e+01  4.464346754751907e-01  1.869974635438848e-16
-2.166114190342558e+00 -3.171379520082796e-02  3.887443357247257e-17
-3.187687466264369e+01 -2.499253838211674e+00  5.929659340135576e-16
 4.580236831163880e+00 -2.829551737291616e+00 -5.243816170948497e-17
 3.058772913938817e+01  9.949072296702056e+00 -6.465682300306696e-16
-2.907116558536153e+01 -1.241344649005163e+01  6.448997221652173e-16
-2.135919159444531e+01  7.443160171171627e+00  3.036365257106599e-16
 2.428061375398418e+01 -1.220307914342211e+00 -4.195642641805960e-16
 1.725727050694494e+01 -2.317240772708916e+00 -2.833049067337943e-16
 2.300561355241124e+00  6.731700878645711e-02 -4.163289133657930e-17
 4.391808958477944e+00 -4.010237619457543e-01 -7.403710568864723e-17
 2.253853426837595e-01 -4.368087866965018e-03 -3.966120500051484e-18
 3.115344836674608e-02 -2.678659981137763e-02 -2.791901963214557e-19
-3.497097395550947e+00 -1.336780047558692e+00  7.596994901119945e-17
 2.512797610175459e+00 -3.557802051028024e-01 -4.106271848641739e-17
 4.627744832322029e+00  2.021555937115391e-01 -8.443331476089113e-17
-1.012159405429161e+01  1.517499619237557e+00  1.645340823504235e-16
-6.499451102334568e+00 -2.456673467417933e-01  1.181896279416177e-16
 5.752042316606524e+00 -7.415555552759898e-01 -9.474524037065153e-17
 4.848699268373712e+00 -4.501178596515659e-01 -8.166358973279356e-17
 2.436757201320339e+01  2.157079249117455e+01 -6.552820674916572e-16
 1.009338212376317e+01  1.693654109355661e+00 -1.970254554285898e-16
-8.174017257516965e+00  1.608256718318545e-01  1.438139620707871e-16
 6.367094989565345e+00  2.947970610249674e-01 -1.163389829895314e-16
-2.065117251944351e+00 -1.300480295719915e-01  3.808742111929383e-17
-4.402042497726896e+00 -7.181873147381536e-02  7.907750856938640e-17
 5.090406122833941e+00  7.682445384972517e-02 -9.137919236154630e-17
-1.596419981342119e+00 -1.122589839627660e-01  2.956361812530297e-17
 1.206854112336073e+01 -7.703396587058413e-01 -2.068591250255577e-16
-1.201443995278698e+00 -1.567723175191665e-01  2.299190763931967e-17
-2.842165317430275e+01  5.932455469634631e+00  4.448433960257593e-16
 1.184169415527677e+01 -6.039620139297822e-02 -2.101165237501514e-16
 4.406428232630036e-01  2.989363736048183e-03 -7.872479284051703e-18
 3.246239693236751e+00  6.120809751809236e-02 -5.839959856286660e-17
 1.966467078318445e+00  4.682064935020799e-02 -3.547669249987758e-17
-3.247860902280081e+00 -1.256589112284060e-01  5.909065860937408e-17
 3.328624117935802e+00  3.395170821407646e-02 -5.958567816541320e-17
-1.843190205388008e-01 -9.563652987352600e-03  3.378439895480594e-18
-2.167599517825397e+00 -1.051408630724196e-02  3.868304747035396e-17
-2.042210963777864e+01 -1.341786630028164e+00  3.772221716022285e-16
 4.965035676965342e+00 -1.506548684904058e-01 -8.681080833409243e-17
 8.105449831570477e+00  5.945578312639284e-01 -1.503550140056444e-16
-2.753463944774738e+00 -1.155668844765523e-01  5.018858310300995e-17
-2.176664603202501e+00 -8.743936408565972e-02  3.963475073551385e-17
-1.093250476540737e+01 -5.080521219076074e-01  1.997770140559314e-16
-1.889385001953642e+01  3.005051151005519e+00  3.053627895618501e-16
 1.789834740594316e+01  1.139221259525460e+00 -3.302275266006050e-16
 4.955179854917587e+00 -5.002490230662694e-01 -8.304345928492391e-17
-1.315407095163406e+01 -1.167371754292203e+00  2.460867040312377e-16
-8.196210804315980e+00  1.029734676716460e-01  1.448033330832396e-16
-5.217164954527040e+00  1.171256481650935e-01  9.164225013851375e-17
-3.328720270612532e+00  1.932492045036736e-01  5.725298234139510e-17
-4.272772069594416e+00  5.688767666524510e-02  7.545457551165792e-17
 5.209929082149411e+00 -5.469637078197801e-01 -8.709704924031605e-17
-2.078206872013604e+01 -4.270912502290720e+00  4.137237770857657e-16
-3.771764560286533e+00  8.949320659180751e-01  5.792794754944141e-17
 9.880332802295706e+00  2.459541193051822e+00 -2.011032002310426e-16
 3.977064943679727e+00 -6.316028660038953e-01 -6.428712468303022e-17
 5.577892114216660e+00  1.052889848128233e+00 -1.100833044333377e-16
-5.822919023285368e+00  4.133707309945885e-01  9.937855575727538e-17
 2.512259502113340e+00 -2.023977183548847e-02 -4.450069826949463e-17
-1.348942947393392e+00  3.073983729956082e-02  2.369020816287628e-17
 3.385738192594739e+00 -6.799655816937723e-02 -5.955460984866842e-17
 1.387603039259368e-01 -2.889044578847796e-03 -2.439721241543448e-18
 3.592466466228581e+00 -1.322372458624865e-01 -6.257353635302980e-17
-5.089127934872692e+00 -6.326727843487260e-01  9.706758515965577e-17
 1.251065659994447e+00 -4.776553054093528e-02 -2.177343225555202e-17
 8.361587287219463e+00  1.402099445647386e-01 -1.502450260844976e-16
-2.116141299620005e+01 -3.757990271692459e+00  4.152045713858778e-16
-1.730126865759438e+01  4.220685717452217e-01  3.035601122113260e-16
-6.587819272712201e+00  3.695182375539801e-01  1.134414365359395e-16
 1.474439939834191e+01 -1.891781949660812e+00 -2.429568027420636e-16
 5.102008321299490e+00  6.301116012816926e-01 -9.727049177315467e-17
-1.188466014978582e+01  4.554500067383749e-01  2.068221205324193e-16
-9.407546654618329e+00 -6.629999362242804e-01  1.742305979425464e-16
 1.561641820416076e+00 -2.700014648868317e-01 -2.501711201510387e-17
-3.197216762000296e+00 -2.449023563078492e-01  5.941456879603885e-17
-4.386520824559063e+00  2.178300883244579e-01  7.582524548605174e-17
 3.103950421552777e+00  5.285983166972735e-01 -6.066965595761314e-17
 5.413685601988836e-03 -3.430126012403073e-02  2.560899937073352e-19
-1.838355751078189e+01 -4.405586381325098e+00  3.724231342736562e-16
-2.611064840971057e+00  2.537036122415846e-01  4.386030098868281e-17
 2.193230173311498e+00  3.154089761579660e-01 -4.227185976334327e-17
-3.506363894867615e+00  1.618444395537217e-01  6.073703522848167e-17
 3.977561738695395e+00  2.149648777451319e-01 -7.299414176236295e-17
-3.845764245200369e+00  7.565981912620507e-03  6.836222442208428e-17
-2.931423618946432e-02  2.842496065424947e-03  4.924761849621946e-19
 2.816135186749992e+00 -5.225217562799933e-02 -4.957961277467687e-17
-8.065360707790806e+00 -4.272773491111341e-01  1.479228339710751e-16
-3.177554639187092e-01  1.004773985055931e-02  5.551600636560212e-18
 9.598826324914009e-01 -1.071039950524913e-02 -1.697221101980140e-17
 4.366700694957196e+00 -5.721094443455886e-02 -7.712282596468163e-17
 2.818927015055561e+00 -5.197602904356244e-02 -4.963213395380502e-17
 2.830471494958439e+01 -4.999009026166681e-02 -5.032025356571458e-16
 4.935147145319469e+00  9.633900424417925e-02 -8.881667857934032e-17
-5.712166981502587e-01 -9.252200145557787e-03  1.026054551095673e-17
 1.465795357905961e+00 -8.304931230961751e-03 -2.600024670308628e-17
-4.885882115205514e+00 -3.342528384623606e-01  9.038442688118405e-17
 1.623034192284069e+00 -6.162930156766606e-02 -2.825061079390861e-17
-1.238211411187582e-01 -2.491450587662673e-02  2.459532393806978e-18
 1.826468612361709e+01 -2.265107950198693e+00 -3.017687151545425e-16
 9.520967718718227e+00  1.383810083549662e+00 -1.836551235118079e-16
 1.217281625304584e+01 -1.665542689397027e-01 -2.149185008747545e-16
-8.072703848342533e+00 -1.699375991585113e+00  1.611238654306445e-16
-2.005255628302753e+01  2.859031444419088e-01  3.539216076654146e-16
-3.094992805519619e+01 -1.005702047420037e+01  6.541231200837234e-16
-2.418909758472285e+00 -1.598585763526860e-01  4.468987333489876e-17
-1.425451363009956e+01 -1.997302627939310e+01  4.588916628396943e-16
-2.172066575828248e+01  6.711167577340794e+00  3.175903476204619e-16
 3.190527579193255e+01  3.788662912291508e+00 -6.067195758142865e-16
 9.107047963076262e+00  5.869517369341460e-01 -1.681014976525041e-16
 6.327128167776747e+00  5.396059630991783e-01 -1.181430482611718e-16
-4.096410334778803e+00 -3.390414136775056e-01  7.638403564100322e-17
-2.443724807165408e+00 -1.060439067929693e-01  4.457856054816589e-17
-1.110187157000935e+01 -1.599924225340882e+00  2.140096875589505e-16
-1.274975171738172e+01 -1.033507337257346e-01  2.279589315100049e-16
-8.010820248784368e+00 -7.772180911776418e-02  1.433606653336905e-16
 3.939853701522806e+00  2.664756407801299e-01 -7.285233665326141e-17
-7.768983114834217e-01 -8.015028049482304e+00  9.617733369145538e-17
-1.050851571209245e+00 -2.792150910084069e+00  4.738949349586246e-17
-6.183802314613456e+00 -5.276352333357464e-01  1.154693988423627e-16
 3.100514281636180e+00  1.959898277770401e+00 -7.531459289427241e-17
-4.045568947110119e+00 -9.385375608030303e+00  1.684270500767815e-16
 1.612587921204083e+00 -2.275401771721959e+00 -5.318999007024588e-18
-7.020380997710256e+00 -2.028685190389087e+00  1.457800574246871e-16
-4.555762071120879e+00  4.007593024709322e+00  3.989865788936600e-17
-3.449023055313337e+00 -1.074331608718489e+01  1.717631494734133e-16
-7.888290913638667e+00  4.175745210030991e+00  9.747728119428522e-17
-5.498227446981599e+00 -2.949932486804702e+00  1.281570006123880e-16
-5.396993758064505e+00  6.955981873062667e+00  2.457575489326804e-17
-9.473461954090432e-01 -4.575765706869815e-01  2.156058861042869e-17
-6.675847287169480e+00  3.387096256582059e+00  8.400348209758796e-17
 1.514105671672571e+00  6.689962652773846e-01 -3.381901010628940e-17
-7.624120354684879e+00  2.143718723321235e+00  1.136543849543303e-16
-9.617253825389803e-01 -4.864473448592776e-01  2.211312010070851e-17
 1.728809457027871e+01 -4.614136778633452e+00 -2.602536856450217e-16
 1.678866976815400e+00  1.031581273354822e+01 -1.358686688801657e-16
-2.918841342805054e+01  6.047562083806265e+00  4.573061306517064e-16
 2.569318738184191e+01 -1.082282668569997e+01 -3.460403048317282e-16
 2.453397457949078e+01  1.447001050269771e+00 -4.514787529637388e-16
 3.942854687245476e+00  2.023418161274029e-01 -7.224679102127592e-17
 7.297568569633155e+00  4.817847332964946e-01 -1.348191005996276e-16
-2.857482298458194e-01 -2.051285118863043e-02  5.295992692821159e-18
-9.630571567687774e+00 -8.129177512627868e-01  1.797399433928372e-16
-3.254321464024800e+01 -1.706048795270816e-01  5.808982266360608e-16
-1.031454207711891e+01  8.119552772800526e-01  1.752170343782685e-16
 2.826059441006645e+00 -2.117670500913247e-01 -4.811726928135932e-17
 3.540423187958564e+00  1.352876739755939e-01 -6.439608549982537e-17
-9.305479137815537e+00  6.891576495895697e-01  1.585212567348761e-16
 1.457510151928221e+01 -1.842734607204840e+00 -2.404478886695587e-16
-6.370212535642509e+00 -2.625909835949314e-01  1.160635576997330e-16
 1.004915959769140e+01 -2.778963700055570e+00 -1.502839396124509e-16
 1.127001299898491e+01  1.272402830507544e+00 -2.136368015311034e-16
-3.189714213029319e+01  2.373824288129399e+00  5.432575102793898e-16
-2.804549015079492e+00  2.404279658583965e-01  4.743998509426632e-17
 1.117776853535770e+01 -8.615285591238635e-01 -1.900698314354589e-16
-9.828105157667910e+00 -1.054165934049622e+00  1.857340267071122e-16
 6.486093741292744e-01 -3.748532356472293e-02 -1.115762940790075e-17
 2.873709848889168e+01  2.110996072389559e+00 -5.331006642561826e-16
-1.189081281134280e+01 -2.237024158703985e+00  2.345958084379092e-16
-2.060880216113953e+01 -8.881029860149302e-01  3.758831530854584e-16
-6.133007887940545e-01 -6.996880853570543e-02  1.163332319352249e-17
 1.963167889890630e+01  6.000129936091793e+00 -4.110182986630078e-16
 2.641482584148395e+00 -3.694163808203975e-01 -4.321271433466463e-17
 1.394288407342889e+00  3.901065477398460e-01 -2.882122847339290e-17
-2.220303828715441e+00  1.895621674822562e-01  3.756527269510456e-17
-5.302267979877313e-01 -8.950509792867260e-02  1.035565071659922e-17
-8.564775970323316e-01  1.013822678164195e-01  1.420037453372806e-17
 1.114898296254912e+00  1.484156756346076e-01 -2.136586223106831e-17
-2.226902203334840e+00  1.596036541818958e-01  3.799051147984772e-17
-1.367500804254333e+00 -1.211857592008152e-01  2.558144768574616e-17
 3.319064937359177e+00 -1.053117701037142e+00 -4.824631738642673e-17
-8.515298213905726e-01 -6.391080362448738e-02  1.581064920743840e-17
-9.527878348859851e-02  1.943732083771240e-02  1.495888189268227e-18
-6.574953568860154e+00 -8.621436228999666e-01  1.258673541739957e-16
 5.723088754409345e+00 -1.463517940598964e+00 -8.681207593317758e-17
 9.377017472931384e-01  7.644389483440994e-03 -1.676606445950327e-17
 1.182367453090472e+01 -1.685616556862125e+00 -1.930972942817675e-16
-8.013444953061576e+00 -2.399120412024948e+00  1.672589024243897e-16
-8.719356897011995e+00  7.220344961044887e+00  8.098493530812331e-17
 1.274526034506689e+01  5.472361712626252e+00 -2.830436395818379e-16
 9.940459163105556e+00 -1.356401515255040e+00 -1.629657953890335e-16
 3.254357699280902e+01 -7.431311483954475e-02 -5.783882317142464e-16
-2.121618743614353e+00 -4.823523146884184e+00  8.731668439349960e-17
-2.400747513426909e+01  4.121962388667709e+00  3.848899910172315e-16
 1.479902099642074e+01  3.818836403505371e+00 -3.026033883142524e-16
-1.953457830165929e+01 -4.873941530421073e+00  3.977191012280142e-16
-2.969695424922686e+01 -1.714826792815106e+00  5.461119470228638e-16
 1.110999480973979e+01 -7.165791287757856e+00 -1.240897077692342e-16
-1.876368769072916e-02  1.657359887069689e-01 -1.368954871821997e-18
-1.700884687880046e+01  4.853439473545063e+00  2.528253916172978e-16
-1.610723152885038e+01 -3.339706830730102e+00  3.209616729245143e-16
-2.612569827715376e+00  1.134371858357800e+01 -7.005879111586083e-17
-8.180321183360540e+00 -1.157172597250834e+00  1.574681013750560e-16
 6.969451421469509e+00 -3.678221314386135e+00 -8.623731368329663e-17
-1.889698213826658e+00 -6.175580756256185e-01  3.997461871294823e-17
-4.063875936264630e+00  2.373281864973429e+00  4.793691083842201e-17
 2.558812765736232e+01  4.912844676634675e-01 -4.604190237216422e-16
 7.207366154253012e+00  5.448248924720608e-01 -1.338615558152012e-16
 1.649241072279712e+01  2.124728159627539e+00 -3.153329316583590e-16
-2.145329382194036e+01 -1.448021931800010e+01  5.305659472171728e-16
-9.130226111282923e-02  2.991046878951337e+00 -2.910708746692407e-17
 3.575761179589787e+00  6.038540881679213e+00 -1.256787494448225e-16
-2.735948677000083e+01 -3.205324386225711e+00  5.198282462989886e-16
-2.087662167120451e+00 -2.901423000758510e+00  6.696350584589518e-17
 5.037590937266241e-01  1.693848539658424e+00 -2.636867239600844e-17
-8.670756737501289e+00 -4.082244178178557e+00  1.962500349627475e-16
-1.460095936865204e+01 -2.249129686504590e-01  2.621523876753781e-16
-1.833600434755525e+01 -1.143896241068585e+01  4.438422526630874e-16
-1.453357690176783e+01  2.216603401641974e+01  3.089439007682153e-17
-2.370824772088455e+01 -1.274462657345551e+01  5.528629566936372e-16
-1.784918338421967e+01  5.129748200801745e+00  2.649412103276451e-16
-2.592966129997626e+01 -3.245476019927859e+00  4.947953399755952e-16
 1.162536459645120e+00  3.351760864007690e-01 -2.413253555038223e-17
 2.803173677279043e+01  1.653213638150351e+01 -6.687198890208588e-16
-1.233152033394047e+00 -5.796909547802009e-01  2.790152536417304e-17
 1.425184834253726e+01  8.461372006717599e-01 -2.623223938145612e-16
 5.748891437459758e+00  5.921393500489860e-01 -1.083923973774665e-16
 1.808699713098804e+00  2.202692947383063e-01 -3.445115587560041e-17
 1.654078477882485e+00  5.983688506984867e-02 -3.005110185320093e-17
 5.864414716555768e-01  1.036761315270136e-01 -1.150165961459102e-17
 1.828839986277971e+00  5.852418872374892e-02 -3.314770386242900e-17
-4.997261796704378e-01 -2.026672942440623e-02  9.101456744327416e-18
-1.508828946266333e+00  1.947731305449118e-03  2.683139866021832e-17
-1.537304166246794e+01  1.331200404497136e-01  2.722138539535597e-16
 2.013235201088191e+01 -4.529032889178333e+00 -3.117450511305700e-16
 1.846987225449727e+01  4.124065169121563e+00 -3.710666798636347e-16
-2.223848646279042e+01  2.427069963399017e+00  3.708231314447183e-16
-7.284916091341280e-01 -2.743962587865633e-02  1.324630934874986e-17
 2.504031736368629e+00 -2.433434827015323e-01 -4.206196578083473e-17
-1.638174383909199e+00 -2.318682994151902e-01  3.153562974204907e-17
 3.537183930680110e-01  5.253671456816600e-02 -6.834636418281894e-18
-6.029988178003861e-01 -1.280137908669505e-01  1.204637844502554e-17
 8.227084265839411e-01  2.877947772677388e-01 -1.759806459090598e-17
-4.442444500224266e-02 -2.177194412580331e-01  3.027574159912214e-18
-1.489784392608428e+01  4.858118912429252e+00  2.152094964627704e-16
 2.250291941724588e+01 -2.350975422302123e+01 -1.589121092645498e-16
 1.461397098944175e+01  4.808201829311706e+00 -3.094755730274450e-16
-1.038431573340562e+01 -2.014537790848018e+00  2.054999292913244e-16
-8.296479494572928e+00 -1.093330737336773e+00  1.588793250632218e-16
 1.740095802037324e+00  2.270920710122400e-01 -3.330036898817477e-17
 5.530475913469593e+00  4.484130263034098e-01 -1.030286968202796e-16
 6.357781837474847e+00  1.078784472103162e+00 -1.242284301955545e-16
-2.762364973864468e+01 -9.491985360726636e+00  5.891224995398563e-16
-1.604049257779477e+01 -2.712757006035161e+00  3.133322919814984e-16
-1.131604818757523e+01  6.555121138037997e-01  1.946474269426626e-16
-6.060086377176528e+00 -6.738205794034299e-01  1.147697274892483e-16
 8.368756414995735e+00 -1.647986584865338e+00 -1.319995395258194e-16
 2.562606358786007e+00  5.728383498487063e-01 -5.149034288782895e-17
-7.671048497731213e+00  3.846513218601378e-01  1.325633057738554e-16
 2.632319298699113e+01  3.578038143781039e+00 -5.052156607653357e-16
 3.269033865419550e+00  2.175642704757811e+00 -8.053029552292000e-17
-3.088665001371355e+01 -6.871372086750856e+00  6.202656319406702e-16
-7.634806764483608e+00  1.334292276574332e+01 -1.223190808448891e-18
 2.984190081586818e+01  1.541682160301566e+00 -5.469124458725011e-16
-2.221252841350044e+01 -2.952920707638861e+00  4.256386267483091e-16
-1.230116986074129e+01  3.849475786764941e+00  1.793620257239805e-16
-8.543368193382829e+00 -8.925529243836587e-01  1.612100849561740e-16
 3.234610948075555e+00 -1.499842231503123e+00 -4.215342612364450e-17
 1.197504881740220e+01  4.550349608140074e+00 -2.598634672550816e-16
-2.822135749073828e+01  1.619345779219072e+01  3.358508239847671e-16
 2.544377346600061e+01 -4.990313259837639e+00 -4.015286433543145e-16
 6.555871407275760e+00  2.148525629220466e+00 -1.387448721665210e-16
-1.808256665598945e+01  2.994132629747163e+00  2.910372182311441e-16
-2.700239057667679e+01 -3.290603285847098e+00  5.143495033095331e-16
 5.898036365269454e+00 -1.960454559153722e+00 -8.481963413734676e-17
 4.548299714763470e+00  1.655904900591042e+01 -2.510806321427853e-16
 2.960773840042115e+00  1.690403346370430e-01 -5.442733026361472e-17
 1.165385167177875e+00 -9.173516870809714e-02 -1.979687365684654e-17
 2.047337873006746e+01 -1.255639872384645e+01 -2.353357604669414e-16
-1.324652624351973e+01 -5.981588215552570e+00  2.971963815553025e-16
-1.140475397990675e+01  3.225389490720727e+00  1.698214958288176e-16
 7.860208159111917e+00  8.602250963133515e-01 -1.487202805588761e-16
 5.337667744919992e+00 -6.635902404534955e-01 -8.817201590677864e-17
-1.299638748988904e-01 -1.578852894552115e-02  2.475083557840891e-18
-4.289421935652038e+00  3.584880800146548e-01  7.265204515549403e-17
 3.745927938043853e+00  5.269901003715505e-01 -7.207788779881099e-17
 5.685155540263960e-01 -6.809510202902182e-03 -1.004744718539848e-17
 3.961206004785838e+00  2.218834761251205e-01 -7.277415806963957e-17
 1.052109773228733e-01  4.803028385665950e-02 -2.365848533139379e-18
-3.140762746886037e+01 -8.523547542145442e+00  6.465125498751029e-16
 2.717803331246553e+00 -3.640381264331354e-01 -4.462619267022126e-17
 9.987703933265935e+00  5.709990526422273e-01 -1.836099130967559e-16
-3.796957828308745e+00  8.809795321894791e-01  5.851964910203575e-17
 6.056445001419414e+00  1.084238239985683e-01 -1.088956785923448e-16
-7.481210259152815e-01  1.872057591602962e-01  1.139023487760305e-17
 7.210224392002271e+00 -3.089573766250079e-01 -1.251401189132809e-16
 4.864709412936982e+00 -1.499117920785877e-01 -8.503301763374069e-17
-1.546444996984961e+01 -5.366269967623994e-01  2.807219813588788e-16
 8.716208373314354e+00 -1.031419377890374e+00 -1.445178656438536e-16
-1.210922935719181e+01 -1.665936252549492e+00  2.326150706820502e-16
VECTORS SF_force double
0.000000000000000e+00 0.000000000000000e+00 0.000000000000000e+00
0.000000000000000e+00 0.000000000000000e+00 0.000000000000000e+00
0.000000000000000e+00 0.000000000000000e+00 0.000000000000000e+00
0.000000000000000e+00 0.000000000000000e+00 0.000000000000000e+00
0.000000000000000e+00 0.000000000000000e+00 0.000000000000000e+00
0.000000000000000e+00 0.000000000000000e+00 0.000000000000000e+00
0.000000000000000e+00 0.000000000000000e+00 0.000000000000000e+00
0.000000000000000e+00 0.000000000000000e+00 0.000000000000000e+00
0.000000000000000e+00 0.000000000000000e+00 0.000000000000000e+00
0.000000000000000e+00 0.000000000000000e+00 0.000000000000000e+00
0.000000000000000e+00 0.000000000000000e+00 0.000000000000000e+00
0.000000000000000e+00 0.000000000000000e+00 0.000000000000000e+00
0.000000000000000e+00 0.000000000000000e+00 0.000000000000000e+00
0.000000000000000e+00 0.000000000000000e+00 0.000000000000000e+00
0.000000000000000e+00 0.000000000000000e+00 0.000000000000000e+00
0.000000000000000e+00 0.000000000000000e+00 0.000000000000000e+00
0.000000000000000e+00 0.000000000000000e+00 0.000000000000000e+00
0.000000000000000e+00 0.000000000000000e+00 0.000000000000000e+00
0.000000000000000e+00 0.000000000000000e+00 0.000000000000000e+00
0.000000000000000e+00 0.000000000000000e+00 0.000000000000000e+00
0.000000000000000e+00 0.000000000000000e+00 0.000000000000000e+00
0.000000000000000e+00 0.000000000000000e+00 0.000000000000000e+00
0.000000000000000e+00 0.000000000000000e+00 0.000000000000000e+00
0.000000000000000e+00 0.000000000000000e+00 0.000000000000000e+00
0.000000000000000e+00 0.000000000000000e+00 0.000000000000000e+00
0.000000000000000e+00 0.000000000000000e+00 0.000000000000000e+00
0.000000000000000e+00 0.000000000000000e+00 0.000000000000000e+00
0.000000000000000e+00 0.000000000000000e+00 0.000000000000000e+00
0.000000000000000e+00 0.000000000000000e+00 0.000000000000000e+00
0.000000000000000e+00 0.000000000000000e+00 0.000000000000000e+00
0.000000000000000e+00 0.000000000000000e+00 0.000000000000000e+00
0.000000000000000e+00 0.000000000000000e+00 0.000000000000000e+00
0.000000000000000e+00 0.000000000000000e+00 0.000000000000000e+00
0.000000000000000e+00 0.000000000000000e+00 0.000000000000000e+00
0.000000000000000e+00 0.000000000000000e+00 0.000000000000000e+00
0.000000000000000e+00 0.000000000000000e+00 0.000000000000000e+00
0.000000000000000e+00 0.000000000000000e+00 0.000000000000000e+00
0.000000000000000e+00 0.000000000000000e+00 0.000000000000000e+00
0.000000000000000e+00 0.000000000000000e+00 0.000000000000000e+00
0.000000000000000e+00 0.000000000000000e+00 0.000000000000000e+00
0.000000000000000e+00 0.000000000000000e+00 0.000000000000000e+00
0.000000000000000e+00 0.000000000000000e+00 0.000000000000000e+00
0.000000000000000e+00 0.000000000000000e+00 0.000000000000000e+00
0.000000000000000e+00 0.000000000000000e+00 0.000000000000000e+00
0.000000000000000e+00 0.000000000000000e+00 0.000000000000000e+00
0.000000000000000e+00 0.000000000000000e+00 0.000000000000000e+00
0.000000000000000e+00 0.000000000000000e+00 0.000000000000000e+00
0.000000000000000e+00 0.000000000000000e+00 0.000000000000000e+00
0.000000000000000e+00 0.000000000000000e+00 0.000000000000000e+00
0.000000000000000e+00 0.000000000000000e+00 0.000000000000000e+00
0.000000000000000e+00 0.000000000000000e+00 0.000000000000000e+00
0.000000000000000e+00 0.000000000000000e+00 0.000000000000000e+00
0.000000000000000e+00 0.000000000000000e+00 0.000000000000000e+00
0.000000000000000e+00 0.000000000000000e+00 0.000000000000000e+00
0.000000000000000e+00 0.000000000000000e+00 0.000000000000000e+00
0.000000000000000e+00 0.000000000000000e+00 0.000000000000000e+00
0.000000000000000e+00 0.000000000000000e+00 0.000000000000000e+00
0.000000000000000e+00 0.000000000000000e+00 0.000000000000000e+00
0.000000000000000e+00 0.000000000000000e+00 0.000000000000000e+00
0.000000000000000e+00 0.000000000000000e+00 0.000000000000000e+00
0.000000000000000e+00 0.000000000000000e+00 0.000000000000000e+00
0.000000000000000e+00 0.000000000000000e+00 0.000000000000000e+00
0.000000000000000e+00 0.000000000000000e+00 0.000000000000000e+00
0.000000000000000e+00 0.000000000000000e+00 0.000000000000000e+00
0.000000000000000e+00 0.000000000000000e+00 0.000000000000000e+00
0.000000000000000e+00 0.000000000000000e+00 0.000000000000000e+00
0.000000000000000e+00 0.000000000000000e+00 0.000000000000000e+00
0.000000000000000e+00 0.000000000000000e+00 0.000000000000000e+00
0.000000000000000e+00 0.000000000000000e+00 0.000000000000000e+00
0.000000000000000e+00 0.000000000000000e+00 0.000000000000000e+00
0.000000000000000e+00 0.000000000000000e+00 0.000000000000000e+00
0.000000000000000e+00 0.000000000000000e+00 0.000000000000000e+00
0.000000000000000e+00 0.000000000000000e+00 0.000000000000000e+00
0.000000000000000e+00 0.000000000000000e+00 0.000000000000000e+00
0.000000000000000e+00 0.000000000000000e+00 0.000000000000000e+00
0.000000000000000e+00 0.000000000000000e+00 0.000000000000000e+00
0.000000000000000e+00 0.000000000000000e+00 0.000000000000000e+00
0.000000000000000e+00 0.000000000000000e+00 0.000000000000000e+00
0.000000000000000e+00 0.000000000000000e+00 0.000000000000000e+00
0.000000000000000e+00 0.000000000000000e+00 0.000000000000000e+00
0.000000000000000e+00 0.000000000000000e+00 0.000000000000000e+00
0.000000000000000e+00 0.000000000000000e+00 0.000000000000000e+00
0.000000000000000e+00 0.000000000000000e+00 0.000000000000000e+00
0.000000000000000e+00 0.000000000000000e+00 0.000000000000000e+00
0.000000000000000e+00 0.000000000000000e+00 0.000000000000000e+00
0.000000000000000e+00 0.000000000000000e+00 0.000000000000000e+00
0.000000000000000e+00 0.000000000000000e+00 0.000000000000000e+00
0.000000000000000e+00 0.000000000000000e+00 0.000000000000000e+00
0.000000000000000e+00 0.000000000000000e+00 0.000000000000000e+00
0.000000000000000e+00 0.000000000000000e+00 0.000000000000000e+00
0.000000000000000e+00 0.000000000000000e+00 0.000000000000000e+00
0.000000000000000e+00 0.000000000000000e+00 0.000000000000000e+00
0.000000000000000e+00 0.000000000000000e+00 0.000000000000000e+00
0.000000000000000e+00 0.000000000000000e+00 0.000000000000000e+00
0.000000000000000e+00 0.000000000000000e+00 0.000000000000000e+00
0.000000000000000e+00 0.000000000000000e+00 0.000000000000000e+00
0.000000000000000e+00 0.000000000000000e+00 0.000000000000000e+00
0.000000000000000e+00 0.000000000000000e+00 0.000000000000000e+00
0.000000000000000e+00 0.000000000000000e+00 0.000000000000000e+00
0.000000000000000e+00 0.000000000000000e+00 0.000000000000000e+00
0.000000000000000e+00 0.000000000000000e+00 0.000000000000000e+00
0.000000000000000e+00 0.000000000000000e+00 0.000000000000000e+00
0.000000000000000e+00 0.000000000000000e+00 0.000000000000000e+00
0.000000000000000e+00 0.000000000000000e+00 0.000000000000000e+00
0.000000000000000e+00 0.000000000000000e+00 0.000000000000000e+00
0.000000000000000e+00 0.000000000000000e+00 0.000000000000000e+00
0.000000000000000e+00 0.000000000000000e+00 0.000000000000000e+00
0.000000000000000e+00 0.000000000000000e+00 0.000000000000000e+00
0.000000000000000e+00 0.000000000000000e+00 0.000000000000000e+00
0.000000000000000e+00 0.000000000000000e+00 0.000000000000000e+00
0.000000000000000e+00 0.000000000000000e+00 0.000000000000000e+00
0.000000000000000e+00 0.000000000000000e+00 0.000000000000000e+00
0.000000000000000e+00 0.000000000000000e+00 0.000000000000000e+00
0.000000000000000e+00 0.000000000000000e+00 0.000000000000000e+00
0.000000000000000e+00 0.000000000000000e+00 0.000000000000000e+00
0.000000000000000e+00 0.000000000000000e+00 0.000000000000000e+00
0.000000000000000e+00 0.000000000000000e+00 0.000000000000000e+00
0.000000000000000e+00 0.000000000000000e+00 0.000000000000000e+00
0.000000000000000e+00 0.000000000000000e+00 0.000000000000000e+00
0.000000000000000e+00 0.000000000000000e+00 0.000000000000000e+00
0.000000000000000e+00 0.000000000000000e+00 0.000000000000000e+00
0.000000000000000e+00 0.000000000000000e+00 0.000000000000000e+00
0.000000000000000e+00 0.000000000000000e+00 0.000000000000000e+00
0.000000000000000e+00 0.000000000000000e+00 0.000000000000000e+00
0.000000000000000e+00 0.000000000000000e+00 0.000000000000000e+00
0.000000000000000e+00 0.000000000000000e+00 0.000000000000000e+00
0.000000000000000e+00 0.000000000000000e+00 0.000000000000000e+00
0.000000000000000e+00 0.000000000000000e+00 0.000000000000000e+00
0.000000000000000e+00 0.000000000000000e+00 0.000000000000000e+00
0.000000000000000e+00 0.000000000000000e+00 0.000000000000000e+00
0.000000000000000e+00 0.000000000000000e+00 0.000000000000000e+00
0.000000000000000e+00 0.000000000000000e+00 0.000000000000000e+00
0.000000000000000e+00 0.000000000000000e+00 0.000000000000000e+00
0.000000000000000e+00 0.000000000000000e+00 0.000000000000000e+00
0.000000000000000e+00 0.000000000000000e+00 0.000000000000000e+00
0.000000000000000e+00 0.000000000000000e+00 0.000000000000000e+00
0.000000000000000e+00 0.000000000000000e+00 0.000000000000000e+00
0.000000000000000e+00 0.000000000000000e+00 0.000000000000000e+00
0.000000000000000e+00 0.000000000000000e+00 0.000000000000000e+00
0.000000000000000e+00 0.000000000000000e+00 0.000000000000000e+00
0.000000000000000e+00 0.000000000000000e+00 0.000000000000000e+00
0.000000000000000e+00 0.000000000000000e+00 0.000000000000000e+00
0.000000000000000e+00 0.000000000000000e+00 0.000000000000000e+00
0.000000000000000e+00 0.000000000000000e+00 0.000000000000000e+00
0.000000000000000e+00 0.000000000000000e+00 0.000000000000000e+00
0.000000000000000e+00 0.000000000000000e+00 0.000000000000000e+00
0.000000000000000e+00 0.000000000000000e+00 0.000000000000000e+00
0.000000000000000e+00 0.000000000000000e+00 0.000000000000000e+00
0.000000000000000e+00 0.000000000000000e+00 0.000000000000000e+00
0.000000000000000e+00 0.000000000000000e+00 0.000000000000000e+00
0.000000000000000e+00 0.000000000000000e+00 0.000000000000000e+00
0.000000000000000e+00 0.000000000000000e+00 0.000000000000000e+00
0.000000000000000e+00 0.000000000000000e+00 0.000000000000000e+00
0.000000000000000e+00 0.000000000000000e+00 0.000000000000000e+00
0.000000000000000e+00 0.000000000000000e+00 0.000000000000000e+00
0.000000000000000e+00 0.000000000000000e+00 0.000000000000000e+00
0.000000000000000e+00 0.000000000000000e+00 0.000000000000000e+00
0.000000000000000e+00 0.000000000000000e+00 0.000000000000000e+00
0.000000000000000e+00 0.000000000000000e+00 0.000000000000000e+00
0.000000000000000e+00 0.000000000000000e+00 0.000000000000000e+00
0.000000000000000e+00 0.000000000000000e+00 0.000000000000000e+00
0.000000000000000e+00 0.000000000000000e+00 0.000000000000000e+00
0.000000000000000e+00 0.000000000000000e+00 0.000000000000000e+00
0.000000000000000e+00 0.000000000000000e+00 0.000000000000000e+00
0.000000000000000e+00 0.000000000000000e+00 0.000000000000000e+00
0.000000000000000e+00 0.000000000000000e+00 0.000000000000000e+00
0.000000000000000e+00 0.000000000000000e+00 0.000000000000000e+00
0.000000000000000e+00 0.000000000000000e+00 0.000000000000000e+00
0.000000000000000e+00 0.000000000000000e+00 0.000000000000000e+00
0.000000000000000e+00 0.000000000000000e+00 0.000000000000000e+00
0.000000000000000e+00 0.000000000000000e+00 0.000000000000000e+00
0.000000000000000e+00 0.000000000000000e+00 0.000000000000000e+00
0.000000000000000e+00 0.000000000000000e+00 0.000000000000000e+00
0.000000000000000e+00 0.000000000000000e+00 0.000000000000000e+00
0.000000000000000e+00 0.000000000000000e+00 0.000000000000000e+00
0.000000000000000e+00 0.000000000000000e+00 0.000000000000000e+00
0.000000000000000e+00 0.000000000000000e+00 0.000000000000000e+00
0.000000000000000e+00 0.000000000000000e+00 0.000000000000000e+00
0.000000000000000e+00 0.000000000000000e+00 0.000000000000000e+00
0.000000000000000e+00 0.000000000000000e+00 0.000000000000000e+00
0.000000000000000e+00 0.000000000000000e+00 0.000000000000000e+00
0.000000000000000e+00 0.000000000000000e+00 0.000000000000000e+00
0.000000000000000e+00 0.000000000000000e+00 0.000000000000000e+00
0.000000000000000e+00 0.000000000000000e+00 0.000000000000000e+00
0.000000000000000e+00 0.000000000000000e+00 0.000000000000000e+00
0.000000000000000e+00 0.000000000000000e+00 0.000000000000000e+00
0.000000000000000e+00 0.000000000000000e+00 0.000000000000000e+00
0.000000000000000e+00 0.000000000000000e+00 0.000000000000000e+00
0.000000000000000e+00 0.000000000000000e+00 0.000000000000000e+00
0.000000000000000e+00 0.000000000000000e+00 0.000000000000000e+00
0.000000000000000e+00 0.000000000000000e+00 0.000000000000000e+00
0.000000000000000e+00 0.000000000000000e+00 0.000000000000000e+00
0.000000000000000e+00 0.000000000000000e+00 0.000000000000000e+00
0.000000000000000e+00 0.000000000000000e+00 0.000000000000000e+00
0.000000000000000e+00 0.000000000000000e+00 0.000000000000000e+00
0.000000000000000e+00 0.000000000000000e+00 0.000000000000000e+00
0.000000000000000e+00 0.000000000000000e+00 0.000000000000000e+00
0.000000000000000e+00 0.000000000000000e+00 0.000000000000000e+00
0.000000000000000e+00 0.000000000000000e+00 0.000000000000000e+00
0.000000000000000e+00 0.000000000000000e+00 0.000000000000000e+00
0.000000000000000e+00 0.000000000000000e+00 0.000000000000000e+00
0.000000000000000e+00 0.000000000000000e+00 0.000000000000000e+00
0.000000000000000e+00 0.000000000000000e+00 0.000000000000000e+00
0.000000000000000e+00 0.000000000000000e+00 0.000000000000000e+00
0.000000000000000e+00 0.000000000000000e+00 0.000000000000000e+00
0.000000000000000e+00 0.000000000000000e+00 0.000000000000000e+00
0.000000000000000e+00 0.000000000000000e+00 0.000000000000000e+00
0.000000000000000e+00 0.000000000000000e+00 0.000000000000000e+00
0.000000000000000e+00 0.000000000000000e+00 0.000000000000000e+00
0.000000000000000e+00 0.000000000000000e+00 0.000000000000000e+00
0.000000000000000e+00 0.000000000000000e+00 0.000000000000000e+00
0.000000000000000e+00 0.000000000000000e+00 0.000000000000000e+00
0.000000000000000e+00 0.000000000000000e+00 0.000000000000000e+00
0.000000000000000e+00 0.000000000000000e+00 0.000000000000000e+00
0.000000000000000e+00 0.000000000000000e+00 0.000000000000000e+00
0.000000000000000e+00 0.000000000000000e+00 0.000000000000000e+00
0.000000000000000e+00 0.000000000000000e+00 0.000000000000000e+00
0.000000000000000e+00 0.000000000000000e+00 0.000000000000000e+00
0.000000000000000e+00 0.000000000000000e+00 0.000000000000000e+00
0.000000000000000e+00 0.000000000000000e+00 0.000000000000000e+00
0.000000000000000e+00 0.000000000000000e+00 0.000000000000000e+00
0.000000000000000e+00 0.000000000000000e+00 0.000000000000000e+00
0.000000000000000e+00 0.000000000000000e+00 0.000000000000000e+00
0.000000000000000e+00 0.000000000000000e+00 0.000000000000000e+00
0.000000000000000e+00 0.000000000000000e+00 0.000000000000000e+00
0.000000000000000e+00 0.000000000000000e+00 0.000000000000000e+00
0.000000000000000e+00 0.000000000000000e+00 0.000000000000000e+00
0.000000000000000e+00 0.000000000000000e+00 0.000000000000000e+00
0.000000000000000e+00 0.000000000000000e+00 0.000000000000000e+00
0.000000000000000e+00 0.000000000000000e+00 0.000000000000000e+00
0.000000000000000e+00 0.000000000000000e+00 0.000000000000000e+00
0.000000000000000e+00 0.000000000000000e+00 0.000000000000000e+00
0.000000000000000e+00 0.000000000000000e+00 0.000000000000000e+00
0.000000000000000e+00 0.000000000000000e+00 0.000000000000000e+00
0.000000000000000e+00 0.000000000000000e+00 0.000000000000000e+00
0.000000000000000e+00 0.000000000000000e+00 0.000000000000000e+00
0.000000000000000e+00 0.000000000000000e+00 0.000000000000000e+00
0.000000000000000e+00 0.000000000000000e+00 0.000000000000000e+00
0.000000000000000e+00 0.000000000000000e+00 0.000000000000000e+00
0.000000000000000e+00 0.000000000000000e+00 0.000000000000000e+00
0.000000000000000e+00 0.000000000000000e+00 0.000000000000000e+00
0.000000000000000e+00 0.000000000000000e+00 0.000000000000000e+00
0.000000000000000e+00 0.000000000000000e+00 0.000000000000000e+00
0.000000000000000e+00 0.000000000000000e+00 0.000000000000000e+00
0.000000000000000e+00 0.000000000000000e+00 0.000000000000000e+00
0.000000000000000e+00 0.000000000000000e+00 0.000000000000000e+00
0.000000000000000e+00 0.000000000000000e+00 0.000000000000000e+00
0.000000000000000e+00 0.000000000000000e+00 0.000000000000000e+00
0.000000000000000e+00 0.000000000000000e+00 0.000000000000000e+00
0.000000000000000e+00 0.000000000000000e+00 0.000000000000000e+00
0.000000000000000e+00 0.000000000000000e+00 0.000000000000000e+00
0.000000000000000e+00 0.000000000000000e+00 0.000000000000000e+00
0.000000000000000e+00 0.000000000000000e+00 0.000000000000000e+00
0.000000000000000e+00 0.000000000000000e+00 0.000000000000000e+00
0.000000000000000e+00 0.000000000000000e+00 0.000000000000000e+00
0.000000000000000e+00 0.000000000000000e+00 0.000000000000000e+00
0.000000000000000e+00 0.000000000000000e+00 0.000000000000000e+00
0.000000000000000e+00 0.000000000000000e+00 0.000000000000000e+00
0.000000000000000e+00 0.000000000000000e+00 0.000000000000000e+00
0.000000000000000e+00 0.000000000000000e+00 0.000000000000000e+00
0.000000000000000e+00 0.000000000000000e+00 0.000000000000000e+00
0.000000000000000e+00 0.000000000000000e+00 0.000000000000000e+00
0.000000000000000e+00 0.000000000000000e+00 0.000000000000000e+00
0.000000000000000e+00 0.000000000000000e+00 0.000000000000000e+00
0.000000000000000e+00 0.000000000000000e+00 0.000000000000000e+00
0.000000000000000e+00 0.000000000000000e+00 0.000000000000000e+00
0.000000000000000e+00 0.000000000000000e+00 0.000000000000000e+00
0.000000000000000e+00 0.000000000000000e+00 0.000000000000000e+00
0.000000000000000e+00 0.000000000000000e+00 0.000000000000000e+00
0.000000000000000e+00 0.000000000000000e+00 0.000000000000000e+00
0.000000000000000e+00 0.000000000000000e+00 0.000000000000000e+00
0.000000000000000e+00 0.000000000000000e+00 0.000000000000000e+00
0.000000000000000e+00 0.000000000000000e+00 0.000000000000000e+00
0.000000000000000e+00 0.000000000000000e+00 0.000000000000000e+00
0.000000000000000e+00 0.000000000000000e+00 0.000000000000000e+00
0.000000000000000e+00 0.000000000000000e+00 0.000000000000000e+00
0.000000000000000e+00 0.000000000000000e+00 0.000000000000000e+00
0.000000000000000e+00 0.000000000000000e+00 0.000000000000000e+00
0.000000000000000e+00 0.000000000000000e+00 0.000000000000000e+00
0.000000000000000e+00 0.000000000000000e+00 0.000000000000000e+00
0.000000000000000e+00 0.000000000000000e+00 0.000000000000000e+00
0.000000000000000e+00 0.000000000000000e+00 0.000000000000000e+00
0.000000000000000e+00 0.000000000000000e+00 0.000000000000000e+00
0.000000000000000e+00 0.000000000000000e+00 0.000000000000000e+00
0.000000000000000e+00 0.000000000000000e+00 0.000000000000000e+00
0.000000000000000e+00 0.000000000000000e+00 0.000000000000000e+00
0.000000000000000e+00 0.000000000000000e+00 0.000000000000000e+00
0.000000000000000e+00 0.000000000000000e+00 0.000000000000000e+00
0.000000000000000e+00 0.000000000000000e+00 0.000000000000000e+00
0.000000000000000e+00 0.000000000000000e+00 0.000000000000000e+00
0.000000000000000e+00 0.000000000000000e+00 0.000000000000000e+00
0.000000000000000e+00 0.000000000000000e+00 0.000000000000000e+00
0.000000000000000e+00 0.000000000000000e+00 0.000000000000000e+00
0.000000000000000e+00 0.000000000000000e+00 0.000000000000000e+00
0.000000000000000e+00 0.000000000000000e+00 0.000000000000000e+00
0.000000000000000e+00 0.000000000000000e+00 0.000000000000000e+00
0.000000000000000e+00 0.000000000000000e+00 0.000000000000000e+00
0.000000000000000e+00 0.000000000000000e+00 0.000000000000000e+00
0.000000000000000e+00 0.000000000000000e+00 0.000000000000000e+00
0.000000000000000e+00 0.000000000000000e+00 0.000000000000000e+00
0.000000000000000e+00 0.000000000000000e+00 0.000000000000000e+00
0.000000000000000e+00 0.000000000000000e+00 0.000000000000000e+00
0.000000000000000e+00 0.000000000000000e+00 0.000000000000000e+00
0.000000000000000e+00 0.000000000000000e+00 0.000000000000000e+00
0.000000000000000e+00 0.000000000000000e+00 0.000000000000000e+00
0.000000000000000e+00 0.000000000000000e+00 0.000000000000000e+00
0.000000000000000e+00 0.000000000000000e+00 0.000000000000000e+00
0.000000000000000e+00 0.000000000000000e+00 0.000000000000000e+00
0.000000000000000e+00 0.000000000000000e+00 0.000000000000000e+00
0.000000000000000e+00 0.000000000000000e+00 0.000000000000000e+00
0.000000000000000e+00 0.000000000000000e+00 0.000000000000000e+00
0.000000000000000e+00 0.000000000000000e+00 0.000000000000000e+00
0.000000000000000e+00 0.000000000000000e+00 0.000000000000000e+00
0.000000000000000e+00 0.000000000000000e+00 0.000000000000000e+00
0.000000000000000e+00 0.000000000000000e+00 0.000000000000000e+00
0.000000000000000e+00 0.000000000000000e+00 0.000000000000000e+00
0.000000000000000e+00 0.000000000000000e+00 0.000000000000000e+00
0.000000000000000e+00 0.000000000000000e+00 0.000000000000000e+00
0.000000000000000e+00 0.000000000000000e+00 0.000000000000000e+00
0.000000000000000e+00 0.000000000000000e+00 0.000000000000000e+00
0.000000000000000e+00 0.000000000000000e+00 0.000000000000000e+00
0.000000000000000e+00 0.000000000000000e+00 0.000000000000000e+00
0.000000000000000e+00 0.000000000000000e+00 0.000000000000000e+00
0.000000000000000e+00 0.000000000000000e+00 0.000000000000000e+00
0.000000000000000e+00 0.000000000000000e+00 0.000000000000000e+00
0.000000000000000e+00 0.000000000000000e+00 0.000000000000000e+00
0.000000000000000e+00 0.000000000000000e+00 0.000000000000000e+00
0.000000000000000e+00 0.000000000000000e+00 0.000000000000000e+00
0.000000000000000e+00 0.000000000000000e+00 0.000000000000000e+00
0.000000000000000e+00 0.000000000000000e+00 0.000000000000000e+00
0.000000000000000e+00 0.000000000000000e+00 0.000000000000000e+00
0.000000000000000e+00 0.000000000000000e+00 0.000000000000000e+00
0.000000000000000e+00 0.000000000000000e+00 0.000000000000000e+00
0.000000000000000e+00 0.000000000000000e+00 0.000000000000000e+00
0.000000000000000e+00 0.000000000000000e+00 0.000000000000000e+00
0.000000000000000e+00 0.000000000000000e+00 0.000000000000000e+00
0.000000000000000e+00 0.000000000000000e+00 0.000000000000000e+00
0.000000000000000e+00 0.000000000000000e+00 0.000000000000000e+00
0.000000000000000e+00 0.000000000000000e+00 0.000000000000000e+00
0.000000000000000e+00 0.000000000000000e+00 0.000000000000000e+00
0.000000000000000e+00 0.000000000000000e+00 0.000000000000000e+00
0.000000000000000e+00 0.000000000000000e+00 0.000000000000000e+00
0.000000000000000e+00 0.000000000000000e+00 0.000000000000000e+00
0.000000000000000e+00 0.000000000000000e+00 0.000000000000000e+00
0.000000000000000e+00 0.000000000000000e+00 0.000000000000000e+00
0.000000000000000e+00 0.000000000000000e+00 0.000000000000000e+00
0.000000000000000e+00 0.000000000000000e+00 0.000000000000000e+00
0.000000000000000e+00 0.000000000000000e+00 0.000000000000000e+00
0.000000000000000e+00 0.000000000000000e+00 0.000000000000000e+00
0.000000000000000e+00 0.000000000000000e+00 0.000000000000000e+00
0.000000000000000e+00 0.000000000000000e+00 0.000000000000000e+00
0.000000000000000e+00 0.000000000000000e+00 0.000000000000000e+00
0.000000000000000e+00 0.000000000000000e+00 0.000000000000000e+00
0.000000000000000e+00 0.000000000000000e+00 0.000000000000000e+00
0.000000000000000e+00 0.000000000000000e+00 0.000000000000000e+00
0.000000000000000e+00 0.000000000000000e+00 0.000000000000000e+00
0.000000000000000e+00 0.000000000000000e+00 0.000000000000000e+00
0.000000000000000e+00 0.000000000000000e+00 0.000000000000000e+00
0.000000000000000e+00 0.000000000000000e+00 0.000000000000000e+00
0.000000000000000e+00 0.000000000000000e+00 0.000000000000000e+00
0.000000000000000e+00 0.000000000000000e+00 0.000000000000000e+00
0.000000000000000e+00 0.000000000000000e+00 0.000000000000000e+00
0.000000000000000e+00 0.000000000000000e+00 0.000000000000000e+00
0.000000000000000e+00 0.000000000000000e+00 0.000000000000000e+00
0.000000000000000e+00 0.000000000000000e+00 0.000000000000000e+00
0.000000000000000e+00 0.000000000000000e+00 0.000000000000000e+00
0.000000000000000e+00 0.000000000000000e+00 0.000000000000000e+00
0.000000000000000e+00 0.000000000000000e+00 0.000000000000000e+00
0.000000000000000e+00 0.000000000000000e+00 0.000000000000000e+00
0.000000000000000e+00 0.000000000000000e+00 0.000000000000000e+00
0.000000000000000e+00 0.000000000000000e+00 0.000000000000000e+00
0.000000000000000e+00 0.000000000000000e+00 0.000000000000000e+00
0.000000000000000e+00 0.000000000000000e+00 0.000000000000000e+00
0.000000000000000e+00 0.000000000000000e+00 0.000000000000000e+00
0.000000000000000e+00 0.000000000000000e+00 0.000000000000000e+00
0.000000000000000e+00 0.000000000000000e+00 0.000000000000000e+00
0.000000000000000e+00 0.000000000000000e+00 0.000000000000000e+00
0.000000000000000e+00 0.000000000000000e+00 0.000000000000000e+00
0.000000000000000e+00 0.000000000000000e+00 0.000000000000000e+00
0.000000000000000e+00 0.000000000000000e+00 0.000000000000000e+00
0.000000000000000e+00 0.000000000000000e+00 0.000000000000000e+00
0.000000000000000e+00 0.000000000000000e+00 0.000000000000000e+00
0.000000000000000e+00 0.000000000000000e+00 0.000000000000000e+00
0.000000000000000e+00 0.000000000000000e+00 0.000000000000000e+00
0.000000000000000e+00 0.000000000000000e+00 0.000000000000000e+00
0.000000000000000e+00 0.000000000000000e+00 0.000000000000000e+00
0.000000000000000e+00 0.000000000000000e+00 0.000000000000000e+00
0.000000000000000e+00 0.000000000000000e+00 0.000000000000000e+00
0.000000000000000e+00 0.000000000000000e+00 0.000000000000000e+00
0.000000000000000e+00 0.000000000000000e+00 0.000000000000000e+00
0.000000000000000e+00 0.000000000000000e+00 0.000000000000000e+00
0.000000000000000e+00 0.000000000000000e+00 0.000000000000000e+00
0.000000000000000e+00 0.000000000000000e+00 0.000000000000000e+00
0.000000000000000e+00 0.000000000000000e+00 0.000000000000000e+00
0.000000000000000e+00 0.000000000000000e+00 0.000000000000000e+00
0.000000000000000e+00 0.000000000000000e+00 0.000000000000000e+00
0.000000000000000e+00 0.000000000000000e+00 0.000000000000000e+00
0.000000000000000e+00 0.000000000000000e+00 0.000000000000000e+00
0.000000000000000e+00 0.000000000000000e+00 0.000000000000000e+00
0.000000000000000e+00 0.000000000000000e+00 0.000000000000000e+00
0.000000000000000e+00 0.000000000000000e+00 0.000000000000000e+00
0.000000000000000e+00 0.000000000000000e+00 0.000000000000000e+00
0.000000000000000e+00 0.000000000000000e+00 0.000000000000000e+00
0.000000000000000e+00 0.000000000000000e+00 0.000000000000000e+00
0.000000000000000e+00 0.000000000000000e+00 0.000000000000000e+00
0.000000000000000e+00 0.000000000000000e+00 0.000000000000000e+00
0.000000000000000e+00 0.000000000000000e+00 0.000000000000000e+00
0.000000000000000e+00 0.000000000000000e+00 0.000000000000000e+00
0.000000000000000e+00 0.000000000000000e+00 0.000000000000000e+00
0.000000000000000e+00 0.000000000000000e+00 0.000000000000000e+00
0.000000000000000e+00 0.000000000000000e+00 0.000000000000000e+00
0.000000000000000e+00 0.000000000000000e+00 0.000000000000000e+00
0.000000000000000e+00 0.000000000000000e+00 0.000000000000000e+00
0.000000000000000e+00 0.000000000000000e+00 0.000000000000000e+00
0.000000000000000e+00 0.000000000000000e+00 0.000000000000000e+00
0.000000000000000e+00 0.000000000000000e+00 0.000000000000000e+00
0.000000000000000e+00 0.000000000000000e+00 0.000000000000000e+00
0.000000000000000e+00 0.000000000000000e+00 0.000000000000000e+00
0.000000000000000e+00 0.000000000000000e+00 0.000000000000000e+00
0.000000000000000e+00 0.000000000000000e+00 0.000000000000000e+00
0.000000000000000e+00 0.000000000000000e+00 0.000000000000000e+00
0.000000000000000e+00 0.000000000000000e+00 0.000000000000000e+00
0.000000000000000e+00 0.000000000000000e+00 0.000000000000000e+00
0.000000000000000e+00 0.000000000000000e+00 0.000000000000000e+00
0.000000000000000e+00 0.000000000000000e+00 0.000000000000000e+00
0.000000000000000e+00 0.000000000000000e+00 0.000000000000000e+00
0.000000000000000e+00 0.000000000000000e+00 0.000000000000000e+00
0.000000000000000e+00 0.000000000000000e+00 0.000000000000000e+00
0.000000000000000e+00 0.000000000000000e+00 0.000000000000000e+00
0.000000000000000e+00 0.000000000000000e+00 0.000000000000000e+00
0.000000000000000e+00 0.000000000000000e+00 0.000000000000000e+00
0.000000000000000e+00 0.000000000000000e+00 0.000000000000000e+00
0.000000000000000e+00 0.000000000000000e+00 0.000000000000000e+00
0.000000000000000e+00 0.000000000000000e+00 0.000000000000000e+00
0.000000000000000e+00 0.000000000000000e+00 0.000000000000000e+00
0.000000000000000e+00 0.000000000000000e+00 0.000000000000000e+00
0.000000000000000e+00 0.000000000000000e+00 0.000000000000000e+00
0.000000000000000e+00 0.000000000000000e+00 0.000000000000000e+00
0.000000000000000e+00 0.000000000000000e+00 0.000000000000000e+00
0.000000000000000e+00 0.000000000000000e+00 0.000000000000000e+00
0.000000000000000e+00 0.000000000000000e+00 0.000000000000000e+00
0.000000000000000e+00 0.000000000000000e+00 0.000000000000000e+00
0.000000000000000e+00 0.000000000000000e+00 0.000000000000000e+00
0.000000000000000e+00 0.000000000000000e+00 0.000000000000000e+00
0.000000000000000e+00 0.000000000000000e+00 0.000000000000000e+00
0.000000000000000e+00 0.000000000000000e+00 0.000000000000000e+00
0.000000000000000e+00 0.000000000000000e+00 0.000000000000000e+00
0.000000000000000e+00 0.000000000000000e+00 0.000000000000000e+00
0.000000000000000e+00 0.000000000000000e+00 0.000000000000000e+00
0.000000000000000e+00 0.000000000000000e+00 0.000000000000000e+00
0.000000000000000e+00 0.000000000000000e+00 0.000000000000000e+00
0.000000000000000e+00 0.000000000000000e+00 0.000000000000000e+00
0.000000000000000e+00 0.000000000000000e+00 0.000000000000000e+00
0.000000000000000e+00 0.000000000000000e+00 0.000000000000000e+00
0.000000000000000e+00 0.000000000000000e+00 0.000000000000000e+00
0.000000000000000e+00 0.000000000000000e+00 0.000000000000000e+00
0.000000000000000e+00 0.000000000000000e+00 0.000000000000000e+00
0.000000000000000e+00 0.000000000000000e+00 0.000000000000000e+00
0.000000000000000e+00 0.000000000000000e+00 0.000000000000000e+00
0.000000000000000e+00 0.000000000000000e+00 0.000000000000000e+00
0.000000000000000e+00 0.000000000000000e+00 0.000000000000000e+00
0.000000000000000e+00 0.000000000000000e+00 0.000000000000000e+00
0.000000000000000e+00 0.000000000000000e+00 0.000000000000000e+00
0.000000000000000e+00 0.000000000000000e+00 0.000000000000000e+00
0.000000000000000e+00 0.000000000000000e+00 0.000000000000000e+00
0.000000000000000e+00 0.000000000000000e+00 0.000000000000000e+00
0.000000000000000e+00 0.000000000000000e+00 0.000000000000000e+00
0.000000000000000e+00 0.000000000000000e+00 0.000000000000000e+00
0.000000000000000e+00 0.000000000000000e+00 0.000000000000000e+00
0.000000000000000e+00 0.000000000000000e+00 0.000000000000000e+00
0.000000000000000e+00 0.000000000000000e+00 0.000000000000000e+00
0.000000000000000e+00 0.000000000000000e+00 0.000000000000000e+00
0.000000000000000e+00 0.000000000000000e+00 0.000000000000000e+00
0.000000000000000e+00 0.000000000000000e+00 0.000000000000000e+00
0.000000000000000e+00 0.000000000000000e+00 0.000000000000000e+00
0.000000000000000e+00 0.000000000000000e+00 0.000000000000000e+00
0.000000000000000e+00 0.000000000000000e+00 0.000000000000000e+00
0.000000000000000e+00 0.000000000000000e+00 0.000000000000000e+00
0.000000000000000e+00 0.000000000000000e+00 0.000000000000000e+00
0.000000000000000e+00 0.000000000000000e+00 0.000000000000000e+00
0.000000000000000e+00 0.000000000000000e+00 0.000000000000000e+00
0.000000000000000e+00 0.000000000000000e+00 0.000000000000000e+00
0.000000000000000e+00 0.000000000000000e+00 0.000000000000000e+00
0.000000000000000e+00 0.000000000000000e+00 0.000000000000000e+00
0.000000000000000e+00 0.000000000000000e+00 0.000000000000000e+00
0.000000000000000e+00 0.000000000000000e+00 0.000000000000000e+00
0.000000000000000e+00 0.000000000000000e+00 0.000000000000000e+00
0.000000000000000e+00 0.000000000000000e+00 0.000000000000000e+00
0.000000000000000e+00 0.000000000000000e+00 0.000000000000000e+00
0.000000000000000e+00 0.000000000000000e+00 0.000000000000000e+00
0.000000000000000e+00 0.000000000000000e+00 0.000000000000000e+00
0.000000000000000e+00 0.000000000000000e+00 0.000000000000000e+00
0.000000000000000e+00 0.000000000000000e+00 0.000000000000000e+00
0.000000000000000e+00 0.000000000000000e+00 0.000000000000000e+00
0.000000000000000e+00 0.000000000000000e+00 0.000000000000000e+00
0.000000000000000e+00 0.000000000000000e+00 0.000000000000000e+00
0.000000000000000e+00 0.000000000000000e+00 0.000000000000000e+00
0.000000000000000e+00 0.000000000000000e+00 0.000000000000000e+00
0.000000000000000e+00 0.000000000000000e+00 0.000000000000000e+00
0.000000000000000e+00 0.000000000000000e+00 0.000000000000000e+00
0.000000000000000e+00 0.000000000000000e+00 0.000000000000000e+00
0.000000000000000e+00 0.000000000000000e+00 0.000000000000000e+00
0.000000000000000e+00 0.000000000000000e+00 0.000000000000000e+00
0.000000000000000e+00 0.000000000000000e+00 0.000000000000000e+00
0.000000000000000e+00 0.000000000000000e+00 0.000000000000000e+00
0.000000000000000e+00 0.000000000000000e+00 0.000000000000000e+00
0.000000000000000e+00 0.000000000000000e+00 0.000000000000000e+00
0.000000000000000e+00 0.000000000000000e+00 0.000000000000000e+00
0.000000000000000e+00 0.000000000000000e+00 0.000000000000000e+00
0.000000000000000e+00 0.000000000000000e+00 0.000000000000000e+00
0.000000000000000e+00 0.000000000000000e+00 0.000000000000000e+00
0.000000000000000e+00 0.000000000000000e+00 0.000000000000000e+00
0.000000000000000e+00 0.000000000000000e+00 0.000000000000000e+00
0.000000000000000e+00 0.000000000000000e+00 0.000000000000000e+00
0.000000000000000e+00 0.000000000000000e+00 0.000000000000000e+00
0.000000000000000e+00 0.000000000000000e+00 0.000000000000000e+00
0.000000000000000e+00 0.000000000000000e+00 0.000000000000000e+00
0.000000000000000e+00 0.000000000000000e+00 0.000000000000000e+00
0.000000000000000e+00 0.000000000000000e+00 0.000000000000000e+00
0.000000000000000e+00 0.000000000000000e+00 0.000000000000000e+00
0.000000000000000e+00 0.000000000000000e+00 0.000000000000000e+00
0.000000000000000e+00 0.000000000000000e+00 0.000000000000000e+00
0.000000000000000e+00 0.000000000000000e+00 0.000000000000000e+00
0.000000000000000e+00 0.000000000000000e+00 0.000000000000000e+00
0.000000000000000e+00 0.000000000000000e+00 0.000000000000000e+00
0.000000000000000e+00 0.000000000000000e+00 0.000000000000000e+00
0.000000000000000e+00 0.000000000000000e+00 0.000000000000000e+00
0.000000000000000e+00 0.000000000000000e+00 0.000000000000000e+00
0.000000000000000e+00 0.000000000000000e+00 0.000000000000000e+00
0.000000000000000e+00 0.000000000000000e+00 0.000000000000000e+00
0.000000000000000e+00 0.000000000000000e+00 0.000000000000000e+00
0.000000000000000e+00 0.000000000000000e+00 0.000000000000000e+00
0.000000000000000e+00 0.000000000000000e+00 0.000000000000000e+00
0.000000000000000e+00 0.000000000000000e+00 0.000000000000000e+00
0.000000000000000e+00 0.000000000000000e+00 0.000000000000000e+00
0.000000000000000e+00 0.000000000000000e+00 0.000000000000000e+00
0.000000000000000e+00 0.000000000000000e+00 0.000000000000000e+00
0.000000000000000e+00 0.000000000000000e+00 0.000000000000000e+00
0.000000000000000e+00 0.000000000000000e+00 0.000000000000000e+00
0.000000000000000e+00 0.000000000000000e+00 0.000000000000000e+00
0.000000000000000e+00 0.000000000000000e+00 0.000000000000000e+00
0.000000000000000e+00 0.000000000000000e+00 0.000000000000000e+00
0.000000000000000e+00 0.000000000000000e+00 0.000000000000000e+00
0.000000000000000e+00 0.000000000000000e+00 0.000000000000000e+00
0.000000000000000e+00 0.000000000000000e+00 0.000000000000000e+00
0.000000000000000e+00 0.000000000000000e+00 0.000000000000000e+00
0.000000000000000e+00 0.000000000000000e+00 0.000000000000000e+00
0.000000000000000e+00 0.000000000000000e+00 0.000000000000000e+00
0.000000000000000e+00 0.000000000000000e+00 0.000000000000000e+00
0.000000000000000e+00 0.000000000000000e+00 0.000000000000000e+00
0.000000000000000e+00 0.000000000000000e+00 0.000000000000000e+00
0.000000000000000e+00 0.000000000000000e+00 0.000000000000000e+00
0.000000000000000e+00 0.000000000000000e+00 0.000000000000000e+00
0.000000000000000e+00 0.000000000000000e+00 0.000000000000000e+00
0.000000000000000e+00 0.000000000000000e+00 0.000000000000000e+00
0.000000000000000e+00 0.000000000000000e+00 0.000000000000000e+00
0.000000000000000e+00 0.000000000000000e+00 0.000000000000000e+00
0.000000000000000e+00 0.000000000000000e+00 0.000000000000000e+00
0.000000000000000e+00 0.000000000000000e+00 0.000000000000000e+00
0.000000000000000e+00 0.000000000000000e+00 0.000000000000000e+00
0.000000000000000e+00 0.000000000000000e+00 0.000000000000000e+00
0.000000000000000e+00 0.000000000000000e+00 0.000000000000000e+00
0.000000000000000e+00 0.000000000000000e+00 0.000000000000000e+00
0.000000000000000e+00 0.000000000000000e+00 0.000000000000000e+00
0.000000000000000e+00 0.000000000000000e+00 0.000000000000000e+00
0.000000000000000e+00 0.000000000000000e+00 0.000000000000000e+00
0.000000000000000e+00 0.000000000000000e+00 0.000000000000000e+00
0.000000000000000e+00 0.000000000000000e+00 0.000000000000000e+00
0.000000000000000e+00 0.000000000000000e+00 0.000000000000000e+00
0.000000000000000e+00 0.000000000000000e+00 0.000000000000000e+00
0.000000000000000e+00 0.000000000000000e+00 0.000000000000000e+00
0.000000000000000e+00 0.000000000000000e+00 0.000000000000000e+00
0.000000000000000e+00 0.000000000000000e+00 0.000000000000000e+00
0.000000000000000e+00 0.000000000000000e+00 0.000000000000000e+00
0.000000000000000e+00 0.000000000000000e+00 0.000000000000000e+00
0.000000000000000e+00 0.000000000000000e+00 0.000000000000000e+00
0.000000000000000e+00 0.000000000000000e+00 0.000000000000000e+00
0.000000000000000e+00 0.000000000000000e+00 0.000000000000000e+00
0.000000000000000e+00 0.000000000000000e+00 0.000000000000000e+00
0.000000000000000e+00 0.000000000000000e+00 0.000000000000000e+00
0.000000000000000e+00 0.000000000000000e+00 0.000000000000000e+00
0.000000000000000e+00 0.000000000000000e+00 0.000000000000000e+00
0.000000000000000e+00 0.000000000000000e+00 0.000000000000000e+00
0.000000000000000e+00 0.000000000000000e+00 0.000000000000000e+00
0.000000000000000e+00 0.000000000000000e+00 0.000000000000000e+00
0.000000000000000e+00 0.000000000000000e+00 0.000000000000000e+00
0.000000000000000e+00 0.000000000000000e+00 0.000000000000000e+00
0.000000000000000e+00 0.000000000000000e+00 0.000000000000000e+00
0.000000000000000e+00 0.000000000000000e+00 0.000000000000000e+00
0.000000000000000e+00 0.000000000000000e+00 0.000000000000000e+00
0.000000000000000e+00 0.000000000000000e+00 0.000000000000000e+00
0.000000000000000e+00 0.000000000000000e+00 0.000000000000000e+00
0.000000000000000e+00 0.000000000000000e+00 0.000000000000000e+00
0.000000000000000e+00 0.000000000000000e+00 0.000000000000000e+00
0.000000000000000e+00 0.000000000000000e+00 0.000000000000000e+00
0.000000000000000e+00 0.000000000000000e+00 0.000000000000000e+00
0.000000000000000e+00 0.000000000000000e+00 0.000000000000000e+00
0.000000000000000e+00 0.000000000000000e+00 0.000000000000000e+00
0.000000000000000e+00 0.000000000000000e+00 0.000000000000000e+00
0.000000000000000e+00 0.000000000000000e+00 0.000000000000000e+00
0.000000000000000e+00 0.000000000000000e+00 0.000000000000000e+00
0.000000000000000e+00 0.000000000000000e+00 0.000000000000000e+00
0.000000000000000e+00 0.000000000000000e+00 0.000000000000000e+00
0.000000000000000e+00 0.000000000000000e+00 0.000000000000000e+00
0.000000000000000e+00 0.000000000000000e+00 0.000000000000000e+00
0.000000000000000e+00 0.000000000000000e+00 0.000000000000000e+00
0.000000000000000e+00 0.000000000000000e+00 0.000000000000000e+00
0.000000000000000e+00 0.000000000000000e+00 0.000000000000000e+00
0.000000000000000e+00 0.000000000000000e+00 0.000000000000000e+00
0.000000000000000e+00 0.000000000000000e+00 0.000000000000000e+00
0.000000000000000e+00 0.000000000000000e+00 0.000000000000000e+00
0.000000000000000e+00 0.000000000000000e+00 0.000000000000000e+00
0.000000000000000e+00 0.000000000000000e+00 0.000000000000000e+00
0.000000000000000e+00 0.000000000000000e+00 0.000000000000000e+00
0.000000000000000e+00 0.000000000000000e+00 0.000000000000000e+00
0.000000000000000e+00 0.000000000000000e+00 0.000000000000000e+00
0.000000000000000e+00 0.000000000000000e+00 0.000000000000000e+00
0.000000000000000e+00 0.000000000000000e+00 0.000000000000000e+00
0.000000000000000e+00 0.000000000000000e+00 0.000000000000000e+00
0.000000000000000e+00 0.000000000000000e+00 0.000000000000000e+00
0.000000000000000e+00 0.000000000000000e+00 0.000000000000000e+00
0.000000000000000e+00 0.000000000000000e+00 0.000000000000000e+00
0.000000000000000e+00 0.000000000000000e+00 0.000000000000000e+00
0.000000000000000e+00 0.000000000000000e+00 0.000000000000000e+00
0.000000000000000e+00 0.000000000000000e+00 0.000000000000000e+00
0.000000000000000e+00 0.000000000000000e+00 0.000000000000000e+00
0.000000000000000e+00 0.000000000000000e+00 0.000000000000000e+00
0.000000000000000e+00 0.000000000000000e+00 0.000000000000000e+00
0.000000000000000e+00 0.000000000000000e+00 0.000000000000000e+00
0.000000000000000e+00 0.000000000000000e+00 0.000000000000000e+00
0.000000000000000e+00 0.000000000000000e+00 0.000000000000000e+00
0.000000000000000e+00 0.000000000000000e+00 0.000000000000000e+00
0.000000000000000e+00 0.000000000000000e+00 0.000000000000000e+00
0.000000000000000e+00 0.000000000000000e+00 0.000000000000000e+00
0.000000000000000e+00 0.000000000000000e+00 0.000000000000000e+00
0.000000000000000e+00 0.000000000000000e+00 0.000000000000000e+00
0.000000000000000e+00 0.000000000000000e+00 0.000000000000000e+00
0.000000000000000e+00 0.000000000000000e+00 0.000000000000000e+00
0.000000000000000e+00 0.000000000000000e+00 0.000000000000000e+00
0.000000000000000e+00 0.000000000000000e+00 0.000000000000000e+00
0.000000000000000e+00 0.000000000000000e+00 0.000000000000000e+00
0.000000000000000e+00 0.000000000000000e+00 0.000000000000000e+00
0.000000000000000e+00 0.000000000000000e+00 0.000000000000000e+00
0.000000000000000e+00 0.000000000000000e+00 0.000000000000000e+00
0.000000000000000e+00 0.000000000000000e+00 0.000000000000000e+00
0.000000000000000e+00 0.000000000000000e+00 0.000000000000000e+00
0.000000000000000e+00 0.000000000000000e+00 0.000000000000000e+00
0.000000000000000e+00 0.000000000000000e+00 0.000000000000000e+00
0.000000000000000e+00 0.000000000000000e+00 0.000000000000000e+00
0.000000000000000e+00 0.000000000000000e+00 0.000000000000000e+00
0.000000000000000e+00 0.000000000000000e+00 0.000000000000000e+00
0.000000000000000e+00 0.000000000000000e+00 0.000000000000000e+00
0.000000000000000e+00 0.000000000000000e+00 0.000000000000000e+00
0.000000000000000e+00 0.000000000000000e+00 0.000000000000000e+00
0.000000000000000e+00 0.000000000000000e+00 0.000000000000000e+00
0.000000000000000e+00 0.000000000000000e+00 0.000000000000000e+00
0.000000000000000e+00 0.000000000000000e+00 0.000000000000000e+00
0.000000000000000e+00 0.000000000000000e+00 0.000000000000000e+00
0.000000000000000e+00 0.000000000000000e+00 0.000000000000000e+00
0.000000000000000e+00 0.000000000000000e+00 0.000000000000000e+00
0.000000000000000e+00 0.000000000000000e+00 0.000000000000000e+00
0.000000000000000e+00 0.000000000000000e+00 0.000000000000000e+00
0.000000000000000e+00 0.000000000000000e+00 0.000000000000000e+00
0.000000000000000e+00 0.000000000000000e+00 0.000000000000000e+00
0.000000000000000e+00 0.000000000000000e+00 0.000000000000000e+00
0.000000000000000e+00 0.000000000000000e+00 0.000000000000000e+00
0.000000000000000e+00 0.000000000000000e+00 0.000000000000000e+00
0.000000000000000e+00 0.000000000000000e+00 0.000000000000000e+00
0.000000000000000e+00 0.000000000000000e+00 0.000000000000000e+00
0.000000000000000e+00 0.000000000000000e+00 0.000000000000000e+00
0.000000000000000e+00 0.000000000000000e+00 0.000000000000000e+00
0.000000000000000e+00 0.000000000000000e+00 0.000000000000000e+00
0.000000000000000e+00 0.000000000000000e+00 0.000000000000000e+00
0.000000000000000e+00 0.000000000000000e+00 0.000000000000000e+00
0.000000000000000e+00 0.000000000000000e+00 0.000000000000000e+00
0.000000000000000e+00 0.000000000000000e+00 0.000000000000000e+00
0.000000000000000e+00 0.000000000000000e+00 0.000000000000000e+00
0.000000000000000e+00 0.000000000000000e+00 0.000000000000000e+00
0.000000000000000e+00 0.000000000000000e+00 0.000000000000000e+00
0.000000000000000e+00 0.000000000000000e+00 0.000000000000000e+00
0.000000000000000e+00 0.000000000000000e+00 0.000000000000000e+00
0.000000000000000e+00 0.000000000000000e+00 0.000000000000000e+00
0.000000000000000e+00 0.000000000000000e+00 0.000000000000000e+00
0.000000000000000e+00 0.000000000000000e+00 0.000000000000000e+00
0.000000000000000e+00 0.000000000000000e+00 0.000000000000000e+00
0.000000000000000e+00 0.000000000000000e+00 0.000000000000000e+00
0.000000000000000e+00 0.000000000000000e+00 0.000000000000000e+00
0.000000000000000e+00 0.000000000000000e+00 0.000000000000000e+00
0.000000000000000e+00 0.000000000000000e+00 0.000000000000000e+00
0.000000000000000e+00 0.000000000000000e+00 0.000000000000000e+00
0.000000000000000e+00 0.000000000000000e+00 0.000000000000000e+00
0.000000000000000e+00 0.000000000000000e+00 0.000000000000000e+00
0.000000000000000e+00 0.000000000000000e+00 0.000000000000000e+00
0.000000000000000e+00 0.000000000000000e+00 0.000000000000000e+00
0.000000000000000e+00 0.000000000000000e+00 0.000000000000000e+00
0.000000000000000e+00 0.000000000000000e+00 0.000000000000000e+00
0.000000000000000e+00 0.000000000000000e+00 0.000000000000000e+00
0.000000000000000e+00 0.000000000000000e+00 0.000000000000000e+00
0.000000000000000e+00 0.000000000000000e+00 0.000000000000000e+00
0.000000000000000e+00 0.000000000000000e+00 0.000000000000000e+00
0.000000000000000e+00 0.000000000000000e+00 0.000000000000000e+00
0.000000000000000e+00 0.000000000000000e+00 0.000000000000000e+00
0.000000000000000e+00 0.000000000000000e+00 0.000000000000000e+00
0.000000000000000e+00 0.000000000000000e+00 0.000000000000000e+00
0.000000000000000e+00 0.000000000000000e+00 0.000000000000000e+00
0.000000000000000e+00 0.000000000000000e+00 0.000000000000000e+00
0.000000000000000e+00 0.000000000000000e+00 0.000000000000000e+00
0.000000000000000e+00 0.000000000000000e+00 0.000000000000000e+00
0.000000000000000e+00 0.000000000000000e+00 0.000000000000000e+00
0.000000000000000e+00 0.000000000000000e+00 0.000000000000000e+00
0.000000000000000e+00 0.000000000000000e+00 0.000000000000000e+00
0.000000000000000e+00 0.000000000000000e+00 0.000000000000000e+00
0.000000000000000e+00 0.000000000000000e+00 0.000000000000000e+00
0.000000000000000e+00 0.000000000000000e+00 0.000000000000000e+00
0.000000000000000e+00 0.000000000000000e+00 0.000000000000000e+00
0.000000000000000e+00 0.000000000000000e+00 0.000000000000000e+00
0.000000000000000e+00 0.000000000000000e+00 0.000000000000000e+00
0.000000000000000e+00 0.000000000000000e+00 0.000000000000000e+00
0.000000000000000e+00 0.000000000000000e+00 0.000000000000000e+00
0.000000000000000e+00 0.000000000000000e+00 0.000000000000000e+00
0.000000000000000e+00 0.000000000000000e+00 0.000000000000000e+00
0.000000000000000e+00 0.000000000000000e+00 0.000000000000000e+00
0.000000000000000e+00 0.000000000000000e+00 0.000000000000000e+00
0.000000000000000e+00 0.000000000000000e+00 0.000000000000000e+00
0.000000000000000e+00 0.000000000000000e+00 0.000000000000000e+00
0.000000000000000e+00 0.000000000000000e+00 0.000000000000000e+00
0.000000000000000e+00 0.000000000000000e+00 0.000000000000000e+00
0.000000000000000e+00 0.000000000000000e+00 0.000000000000000e+00
0.000000000000000e+00 0.000000000000000e+00 0.000000000000000e+00
0.000000000000000e+00 0.000000000000000e+00 0.000000000000000e+00
0.000000000000000e+00 0.000000000000000e+00 0.000000000000000e+00
0.000000000000000e+00 0.000000000000000e+00 0.000000000000000e+00
0.000000000000000e+00 0.000000000000000e+00 0.000000000000000e+00
0.000000000000000e+00 0.000000000000000e+00 0.000000000000000e+00
0.000000000000000e+00 0.000000000000000e+00 0.000000000000000e+00
0.000000000000000e+00 0.000000000000000e+00 0.000000000000000e+00
0.000000000000000e+00 0.000000000000000e+00 0.000000000000000e+00
0.000000000000000e+00 0.000000000000000e+00 0.000000000000000e+00
0.000000000000000e+00 0.000000000000000e+00 0.000000000000000e+00
0.000000000000000e+00 0.000000000000000e+00 0.000000000000000e+00
0.000000000000000e+00 0.000000000000000e+00 0.000000000000000e+00
0.000000000000000e+00 0.000000000000000e+00 0.000000000000000e+00
0.000000000000000e+00 0.000000000000000e+00 0.000000000000000e+00
0.000000000000000e+00 0.000000000000000e+00 0.000000000000000e+00
0.000000000000000e+00 0.000000000000000e+00 0.000000000000000e+00
0.000000000000000e+00 0.000000000000000e+00 0.000000000000000e+00
0.000000000000000e+00 0.000000000000000e+00 0.000000000000000e+00
0.000000000000000e+00 0.000000000000000e+00 0.000000000000000e+00
0.000000000000000e+00 0.000000000000000e+00 0.000000000000000e+00
0.000000000000000e+00 0.000000000000000e+00 0.000000000000000e+00
0.000000000000000e+00 0.000000000000000e+00 0.000000000000000e+00
0.000000000000000e+00 0.000000000000000e+00 0.000000000000000e+00
0.000000000000000e+00 0.000000000000000e+00 0.000000000000000e+00
0.000000000000000e+00 0.000000000000000e+00 0.000000000000000e+00
0.000000000000000e+00 0.000000000000000e+00 0.000000000000000e+00
0.000000000000000e+00 0.000000000000000e+00 0.000000000000000e+00
0.000000000000000e+00 0.000000000000000e+00 0.000000000000000e+00
0.000000000000000e+00 0.000000000000000e+00 0.000000000000000e+00
0.000000000000000e+00 0.000000000000000e+00 0.000000000000000e+00
0.000000000000000e+00 0.000000000000000e+00 0.000000000000000e+00
0.000000000000000e+00 0.000000000000000e+00 0.000000000000000e+00
0.000000000000000e+00 0.000000000000000e+00 0.000000000000000e+00
0.000000000000000e+00 0.000000000000000e+00 0.000000000000000e+00
0.000000000000000e+00 0.000000000000000e+00 0.000000000000000e+00
0.000000000000000e+00 0.000000000000000e+00 0.000000000000000e+00
0.000000000000000e+00 0.000000000000000e+00 0.000000000000000e+00
0.000000000000000e+00 0.000000000000000e+00 0.000000000000000e+00
0.000000000000000e+00 0.000000000000000e+00 0.000000000000000e+00
0.000000000000000e+00 0.000000000000000e+00 0.000000000000000e+00
0.000000000000000e+00 0.000000000000000e+00 0.000000000000000e+00
0.000000000000000e+00 0.000000000000000e+00 0.000000000000000e+00
0.000000000000000e+00 0.000000000000000e+00 0.000000000000000e+00
0.000000000000000e+00 0.000000000000000e+00 0.000000000000000e+00
0.000000000000000e+00 0.000000000000000e+00 0.000000000000000e+00
0.000000000000000e+00 0.000000000000000e+00 0.000000000000000e+00
0.000000000000000e+00 0.000000000000000e+00 0.000000000000000e+00
0.000000000000000e+00 0.000000000000000e+00 0.000000000000000e+00
0.000000000000000e+00 0.000000000000000e+00 0.000000000000000e+00
0.000000000000000e+00 0.000000000000000e+00 0.000000000000000e+00
0.000000000000000e+00 0.000000000000000e+00 0.000000000000000e+00
0.000000000000000e+00 0.000000000000000e+00 0.000000000000000e+00
0.000000000000000e+00 0.000000000000000e+00 0.000000000000000e+00
0.000000000000000e+00 0.000000000000000e+00 0.000000000000000e+00
0.000000000000000e+00 0.000000000000000e+00 0.000000000000000e+00
0.000000000000000e+00 0.000000000000000e+00 0.000000000000000e+00
0.000000000000000e+00 0.000000000000000e+00 0.000000000000000e+00
0.000000000000000e+00 0.000000000000000e+00 0.000000000000000e+00
0.000000000000000e+00 0.000000000000000e+00 0.000000000000000e+00
0.000000000000000e+00 0.000000000000000e+00 0.000000000000000e+00
0.000000000000000e+00 0.000000000000000e+00 0.000000000000000e+00
0.000000000000000e+00 0.000000000000000e+00 0.000000000000000e+00
0.000000000000000e+00 0.000000000000000e+00 0.000000000000000e+00
0.000000000000000e+00 0.000000000000000e+00 0.000000000000000e+00
0.000000000000000e+00 0.000000000000000e+00 0.000000000000000e+00
0.000000000000000e+00 0.000000000000000e+00 0.000000000000000e+00
0.000000000000000e+00 0.000000000000000e+00 0.000000000000000e+00
0.000000000000000e+00 0.000000000000000e+00 0.000000000000000e+00
0.000000000000000e+00 0.000000000000000e+00 0.000000000000000e+00
0.000000000000000e+00 0.000000000000000e+00 0.000000000000000e+00
0.000000000000000e+00 0.000000000000000e+00 0.000000000000000e+00
0.000000000000000e+00 0.000000000000000e+00 0.000000000000000e+00
0.000000000000000e+00 0.000000000000000e+00 0.000000000000000e+00
0.000000000000000e+00 0.000000000000000e+00 0.000000000000000e+00
0.000000000000000e+00 0.000000000000000e+00 0.000000000000000e+00
0.000000000000000e+00 0.000000000000000e+00 0.000000000000000e+00
0.000000000000000e+00 0.000000000000000e+00 0.000000000000000e+00
0.000000000000000e+00 0.000000000000000e+00 0.000000000000000e+00
0.000000000000000e+00 0.000000000000000e+00 0.000000000000000e+00
0.000000000000000e+00 0.000000000000000e+00 0.000000000000000e+00
0.000000000000000e+00 0.000000000000000e+00 0.000000000000000e+00
0.000000000000000e+00 0.000000000000000e+00 0.000000000000000e+00
0.000000000000000e+00 0.000000000000000e+00 0.000000000000000e+00
0.000000000000000e+00 0.000000000000000e+00 0.000000000000000e+00
0.000000000000000e+00 0.000000000000000e+00 0.000000000000000e+00
0.000000000000000e+00 0.000000000000000e+00 0.000000000000000e+00
0.000000000000000e+00 0.000000000000000e+00 0.000000000000000e+00
0.000000000000000e+00 0.000000000000000e+00 0.000000000000000e+00
0.000000000000000e+00 0.000000000000000e+00 0.000000000000000e+00
0.000000000000000e+00 0.000000000000000e+00 0.000000000000000e+00
0.000000000000000e+00 0.000000000000000e+00 0.000000000000000e+00
0.000000000000000e+00 0.000000000000000e+00 0.000000000000000e+00
0.000000000000000e+00 0.000000000000000e+00 0.000000000000000e+00
0.000000000000000e+00 0.000000000000000e+00 0.000000000000000e+00
0.000000000000000e+00 0.000000000000000e+00 0.000000000000000e+00
0.000000000000000e+00 0.000000000000000e+00 0.000000000000000e+00
0.000000000000000e+00 0.000000000000000e+00 0.000000000000000e+00
0.000000000000000e+00 0.000000000000000e+00 0.000000000000000e+00
0.000000000000000e+00 0.000000000000000e+00 0.000000000000000e+00
0.000000000000000e+00 0.000000000000000e+00 0.000000000000000e+00
0.000000000000000e+00 0.000000000000000e+00 0.000000000000000e+00
0.000000000000000e+00 0.000000000000000e+00 0.000000000000000e+00
0.000000000000000e+00 0.000000000000000e+00 0.000000000000000e+00
0.000000000000000e+00 0.000000000000000e+00 0.000000000000000e+00
0.000000000000000e+00 0.000000000000000e+00 0.000000000000000e+00
0.000000000000000e+00 0.000000000000000e+00 0.000000000000000e+00
0.000000000000000e+00 0.000000000000000e+00 0.000000000000000e+00
0.000000000000000e+00 0.000000000000000e+00 0.000000000000000e+00
0.000000000000000e+00 0.000000000000000e+00 0.000000000000000e+00
0.000000000000000e+00 0.000000000000000e+00 0.000000000000000e+00
0.000000000000000e+00 0.000000000000000e+00 0.000000000000000e+00
0.000000000000000e+00 0.000000000000000e+00 0.000000000000000e+00
0.000000000000000e+00 0.000000000000000e+00 0.000000000000000e+00
0.000000000000000e+00 0.000000000000000e+00 0.000000000000000e+00
0.000000000000000e+00 0.000000000000000e+00 0.000000000000000e+00
0.000000000000000e+00 0.000000000000000e+00 0.000000000000000e+00
0.000000000000000e+00 0.000000000000000e+00 0.000000000000000e+00
0.000000000000000e+00 0.000000000000000e+00 0.000000000000000e+00
0.000000000000000e+00 0.000000000000000e+00 0.000000000000000e+00
0.000000000000000e+00 0.000000000000000e+00 0.000000000000000e+00
0.000000000000000e+00 0.000000000000000e+00 0.000000000000000e+00
0.000000000000000e+00 0.000000000000000e+00 0.000000000000000e+00
0.000000000000000e+00 0.000000000000000e+00 0.000000000000000e+00
0.000000000000000e+00 0.000000000000000e+00 0.000000000000000e+00
0.000000000000000e+00 0.000000000000000e+00 0.000000000000000e+00
0.000000000000000e+00 0.000000000000000e+00 0.000000000000000e+00
0.000000000000000e+00 0.000000000000000e+00 0.000000000000000e+00
0.000000000000000e+00 0.000000000000000e+00 0.000000000000000e+00
0.000000000000000e+00 0.000000000000000e+00 0.000000000000000e+00
0.000000000000000e+00 0.000000000000000e+00 0.000000000000000e+00
0.000000000000000e+00 0.000000000000000e+00 0.000000000000000e+00
0.000000000000000e+00 0.000000000000000e+00 0.000000000000000e+00
0.000000000000000e+00 0.000000000000000e+00 0.000000000000000e+00
0.000000000000000e+00 0.000000000000000e+00 0.000000000000000e+00
0.000000000000000e+00 0.000000000000000e+00 0.000000000000000e+00
0.000000000000000e+00 0.000000000000000e+00 0.000000000000000e+00
0.000000000000000e+00 0.000000000000000e+00 0.000000000000000e+00
0.000000000000000e+00 0.000000000000000e+00 0.000000000000000e+00
0.000000000000000e+00 0.000000000000000e+00 0.000000000000000e+00
0.000000000000000e+00 0.000000000000000e+00 0.000000000000000e+00
0.000000000000000e+00 0.000000000000000e+00 0.000000000000000e+00
0.000000000000000e+00 0.000000000000000e+00 0.000000000000000e+00
0.000000000000000e+00 0.000000000000000e+00 0.000000000000000e+00
0.000000000000000e+00 0.000000000000000e+00 0.000000000000000e+00
0.000000000000000e+00 0.000000000000000e+00 0.000000000000000e+00
0.000000000000000e+00 0.000000000000000e+00 0.000000000000000e+00
0.000000000000000e+00 0.000000000000000e+00 0.000000000000000e+00
0.000000000000000e+00 0.000000000000000e+00 0.000000000000000e+00
0.000000000000000e+00 0.000000000000000e+00 0.000000000000000e+00
0.000000000000000e+00 0.000000000000000e+00 0.000000000000000e+00
0.000000000000000e+00 0.000000000000000e+00 0.000000000000000e+00
0.000000000000000e+00 0.000000000000000e+00 0.000000000000000e+00
0.000000000000000e+00 0.000000000000000e+00 0.000000000000000e+00
0.000000000000000e+00 0.000000000000000e+00 0.000000000000000e+00
0.000000000000000e+00 0.000000000000000e+00 0.000000000000000e+00
0.000000000000000e+00 0.000000000000000e+00 0.000000000000000e+00
0.000000000000000e+00 0.000000000000000e+00 0.000000000000000e+00
0.000000000000000e+00 0.000000000000000e+00 0.000000000000000e+00
0.000000000000000e+00 0.000000000000000e+00 0.000000000000000e+00
0.000000000000000e+00 0.000000000000000e+00 0.000000000000000e+00
0.000000000000000e+00 0.000000000000000e+00 0.000000000000000e+00
0.000000000000000e+00 0.000000000000000e+00 0.000000000000000e+00
0.000000000000000e+00 0.000000000000000e+00 0.000000000000000e+00
0.000000000000000e+00 0.000000000000000e+00 0.000000000000000e+00
0.000000000000000e+00 0.000000000000000e+00 0.000000000000000e+00
0.000000000000000e+00 0.000000000000000e+00 0.000000000000000e+00
0.000000000000000e+00 0.000000000000000e+00 0.000000000000000e+00
0.000000000000000e+00 0.000000000000000e+00 0.000000000000000e+00
0.000000000000000e+00 0.000000000000000e+00 0.000000000000000e+00
0.000000000000000e+00 0.000000000000000e+00 0.000000000000000e+00
0.000000000000000e+00 0.000000000000000e+00 0.000000000000000e+00
0.000000000000000e+00 0.000000000000000e+00 0.000000000000000e+00
0.000000000000000e+00 0.000000000000000e+00 0.000000000000000e+00
0.000000000000000e+00 0.000000000000000e+00 0.000000000000000e+00
0.000000000000000e+00 0.000000000000000e+00 0.000000000000000e+00
0.000000000000000e+00 0.000000000000000e+00 0.000000000000000e+00
0.000000000000000e+00 0.000000000000000e+00 0.000000000000000e+00
0.000000000000000e+00 0.000000000000000e+00 0.000000000000000e+00
0.000000000000000e+00 0.000000000000000e+00 0.000000000000000e+00
0.000000000000000e+00 0.000000000000000e+00 0.000000000000000e+00
0.000000000000000e+00 0.000000000000000e+00 0.000000000000000e+00
0.000000000000000e+00 0.000000000000000e+00 0.000000000000000e+00
0.000000000000000e+00 0.000000000000000e+00 0.000000000000000e+00
0.000000000000000e+00 0.000000000000000e+00 0.000000000000000e+00
0.000000000000000e+00 0.000000000000000e+00 0.000000000000000e+00
0.000000000000000e+00 0.000000000000000e+00 0.000000000000000e+00
0.000000000000000e+00 0.000000000000000e+00 0.000000000000000e+00
0.000000000000000e+00 0.000000000000000e+00 0.000000000000000e+00
0.000000000000000e+00 0.000000000000000e+00 0.000000000000000e+00
0.000000000000000e+00 0.000000000000000e+00 0.000000000000000e+00
0.000000000000000e+00 0.000000000000000e+00 0.000000000000000e+00
0.000000000000000e+00 0.000000000000000e+00 0.000000000000000e+00
0.000000000000000e+00 0.000000000000000e+00 0.000000000000000e+00
0.000000000000000e+00 0.000000000000000e+00 0.000000000000000e+00
0.000000000000000e+00 0.000000000000000e+00 0.000000000000000e+00
0.000000000000000e+00 0.000000000000000e+00 0.000000000000000e+00
0.000000000000000e+00 0.000000000000000e+00 0.000000000000000e+00
0.000000000000000e+00 0.000000000000000e+00 0.000000000000000e+00
0.000000000000000e+00 0.000000000000000e+00 0.000000000000000e+00
0.000000000000000e+00 0.000000000000000e+00 0.000000000000000e+00
0.000000000000000e+00 0.000000000000000e+00 0.000000000000000e+00
0.000000000000000e+00 0.000000000000000e+00 0.000000000000000e+00
0.000000000000000e+00 0.000000000000000e+00 0.000000000000000e+00
0.000000000000000e+00 0.000000000000000e+00 0.000000000000000e+00
0.000000000000000e+00 0.000000000000000e+00 0.000000000000000e+00
0.000000000000000e+00 0.000000000000000e+00 0.000000000000000e+00
0.000000000000000e+00 0.000000000000000e+00 0.000000000000000e+00
0.000000000000000e+00 0.000000000000000e+00 0.000000000000000e+00
0.000000000000000e+00 0.000000000000000e+00 0.000000000000000e+00
0.000000000000000e+00 0.000000000000000e+00 0.000000000000000e+00
0.000000000000000e+00 0.000000000000000e+00 0.000000000000000e+00
0.000000000000000e+00 0.000000000000000e+00 0.000000000000000e+00
0.000000000000000e+00 0.000000000000000e+00 0.000000000000000e+00
0.000000000000000e+00 0.000000000000000e+00 0.000000000000000e+00
0.000000000000000e+00 0.000000000000000e+00 0.000000000000000e+00
0.000000000000000e+00 0.000000000000000e+00 0.000000000000000e+00
0.000000000000000e+00 0.000000000000000e+00 0.000000000000000e+00
0.000000000000000e+00 0.000000000000000e+00 0.000000000000000e+00
0.000000000000000e+00 0.000000000000000e+00 0.000000000000000e+00
0.000000000000000e+00 0.000000000000000e+00 0.000000000000000e+00
0.000000000000000e+00 0.000000000000000e+00 0.000000000000000e+00
0.000000000000000e+00 0.000000000000000e+00 0.000000000000000e+00
0.000000000000000e+00 0.000000000000000e+00 0.000000000000000e+00
0.000000000000000e+00 0.000000000000000e+00 0.000000000000000e+00
0.000000000000000e+00 0.000000000000000e+00 0.000000000000000e+00
0.000000000000000e+00 0.000000000000000e+00 0.000000000000000e+00
0.000000000000000e+00 0.000000000000000e+00 0.000000000000000e+00
0.000000000000000e+00 0.000000000000000e+00 0.000000000000000e+00
0.000000000000000e+00 0.000000000000000e+00 0.000000000000000e+00
0.000000000000000e+00 0.000000000000000e+00 0.000000000000000e+00
0.000000000000000e+00 0.000000000000000e+00 0.000000000000000e+00
0.000000000000000e+00 0.000000000000000e+00 0.000000000000000e+00
0.000000000000000e+00 0.000000000000000e+00 0.000000000000000e+00
0.000000000000000e+00 0.000000000000000e+00 0.000000000000000e+00
0.000000000000000e+00 0.000000000000000e+00 0.000000000000000e+00
0.000000000000000e+00 0.000000000000000e+00 0.000000000000000e+00
0.000000000000000e+00 0.000000000000000e+00 0.000000000000000e+00
0.000000000000000e+00 0.000000000000000e+00 0.000000000000000e+00
0.000000000000000e+00 0.000000000000000e+00 0.000000000000000e+00
0.000000000000000e+00 0.000000000000000e+00 0.000000000000000e+00
0.000000000000000e+00 0.000000000000000e+00 0.000000000000000e+00
0.000000000000000e+00 0.000000000000000e+00 0.000000000000000e+00
0.000000000000000e+00 0.000000000000000e+00 0.000000000000000e+00
0.000000000000000e+00 0.000000000000000e+00 0.000000000000000e+00
0.000000000000000e+00 0.000000000000000e+00 0.000000000000000e+00
0.000000000000000e+00 0.000000000000000e+00 0.000000000000000e+00
0.000000000000000e+00 0.000000000000000e+00 0.000000000000000e+00
0.000000000000000e+00 0.000000000000000e+00 0.000000000000000e+00
0.000000000000000e+00 0.000000000000000e+00 0.000000000000000e+00
0.000000000000000e+00 0.000000000000000e+00 0.000000000000000e+00
0.000000000000000e+00 0.000000000000000e+00 0.000000000000000e+00
0.000000000000000e+00 0.000000000000000e+00 0.000000000000000e+00
0.000000000000000e+00 0.000000000000000e+00 0.000000000000000e+00
0.000000000000000e+00 0.000000000000000e+00 0.000000000000000e+00
0.000000000000000e+00 0.000000000000000e+00 0.000000000000000e+00
0.000000000000000e+00 0.000000000000000e+00 0.000000000000000e+00
0.000000000000000e+00 0.000000000000000e+00 0.000000000000000e+00
0.000000000000000e+00 0.000000000000000e+00 0.000000000000000e+00
0.000000000000000e+00 0.000000000000000e+00 0.000000000000000e+00
0.000000000000000e+00 0.000000000000000e+00 0.000000000000000e+00
0.000000000000000e+00 0.000000000000000e+00 0.000000000000000e+00
0.000000000000000e+00 0.000000000000000e+00 0.000000000000000e+00
0.000000000000000e+00 0.000000000000000e+00 0.000000000000000e+00
0.000000000000000e+00 0.000000000000000e+00 0.000000000000000e+00
0.000000000000000e+00 0.000000000000000e+00 0.000000000000000e+00
0.000000000000000e+00 0.000000000000000e+00 0.000000000000000e+00
0.000000000000000e+00 0.000000000000000e+00 0.000000000000000e+00
0.000000000000000e+00 0.000000000000000e+00 0.000000000000000e+00
0.000000000000000e+00 0.000000000000000e+00 0.000000000000000e+00
0.000000000000000e+00 0.000000000000000e+00 0.000000000000000e+00
0.000000000000000e+00 0.000000000000000e+00 0.000000000000000e+00
0.000000000000000e+00 0.000000000000000e+00 0.000000000000000e+00
0.000000000000000e+00 0.000000000000000e+00 0.000000000000000e+00
0.000000000000000e+00 0.000000000000000e+00 0.000000000000000e+00
0.000000000000000e+00 0.000000000000000e+00 0.000000000000000e+00
0.000000000000000e+00 0.000000000000000e+00 0.000000000000000e+00
0.000000000000000e+00 0.000000000000000e+00 0.000000000000000e+00
0.000000000000000e+00 0.000000000000000e+00 0.000000000000000e+00
0.000000000000000e+00 0.000000000000000e+00 0.000000000000000e+00
0.000000000000000e+00 0.000000000000000e+00 0.000000000000000e+00
0.000000000000000e+00 0.000000000000000e+00 0.000000000000000e+00
0.000000000000000e+00 0.000000000000000e+00 0.000000000000000e+00
0.000000000000000e+00 0.000000000000000e+00 0.000000000000000e+00
0.000000000000000e+00 0.000000000000000e+00 0.000000000000000e+00
0.000000000000000e+00 0.000000000000000e+00 0.000000000000000e+00
0.000000000000000e+00 0.000000000000000e+00 0.000000000000000e+00
0.000000000000000e+00 0.000000000000000e+00 0.000000000000000e+00
0.000000000000000e+00 0.000000000000000e+00 0.000000000000000e+00
0.000000000000000e+00 0.000000000000000e+00 0.000000000000000e+00
0.000000000000000e+00 0.000000000000000e+00 0.000000000000000e+00
0.000000000000000e+00 0.000000000000000e+00 0.000000000000000e+00
0.000000000000000e+00 0.000000000000000e+00 0.000000000000000e+00
0.000000000000000e+00 0.000000000000000e+00 0.000000000000000e+00
0.000000000000000e+00 0.000000000000000e+00 0.000000000000000e+00
0.000000000000000e+00 0.000000000000000e+00 0.000000000000000e+00
0.000000000000000e+00 0.000000000000000e+00 0.000000000000000e+00
0.000000000000000e+00 0.000000000000000e+00 0.000000000000000e+00
0.000000000000000e+00 0.000000000000000e+00 0.000000000000000e+00
0.000000000000000e+00 0.000000000000000e+00 0.000000000000000e+00
0.000000000000000e+00 0.000000000000000e+00 0.000000000000000e+00
0.000000000000000e+00 0.000000000000000e+00 0.000000000000000e+00
0.000000000000000e+00 0.000000000000000e+00 0.000000000000000e+00
0.000000000000000e+00 0.000000000000000e+00 0.000000000000000e+00
0.000000000000000e+00 0.000000000000000e+00 0.000000000000000e+00
0.000000000000000e+00 0.000000000000000e+00 0.000000000000000e+00
0.000000000000000e+00 0.000000000000000e+00 0.000000000000000e+00
0.000000000000000e+00 0.000000000000000e+00 0.000000000000000e+00
0.000000000000000e+00 0.000000000000000e+00 0.000000000000000e+00
0.000000000000000e+00 0.000000000000000e+00 0.000000000000000e+00
0.000000000000000e+00 0.000000000000000e+00 0.000000000000000e+00
0.000000000000000e+00 0.000000000000000e+00 0.000000000000000e+00
0.000000000000000e+00 0.000000000000000e+00 0.000000000000000e+00
0.000000000000000e+00 0.000000000000000e+00 0.000000000000000e+00
0.000000000000000e+00 0.000000000000000e+00 0.000000000000000e+00
0.000000000000000e+00 0.000000000000000e+00 0.000000000000000e+00
0.000000000000000e+00 0.000000000000000e+00 0.000000000000000e+00
0.000000000000000e+00 0.000000000000000e+00 0.000000000000000e+00
0.000000000000000e+00 0.000000000000000e+00 0.000000000000000e+00
0.000000000000000e+00 0.000000000000000e+00 0.000000000000000e+00
0.000000000000000e+00 0.000000000000000e+00 0.000000000000000e+00
0.000000000000000e+00 0.000000000000000e+00 0.000000000000000e+00
0.000000000000000e+00 0.000000000000000e+00 0.000000000000000e+00
0.000000000000000e+00 0.000000000000000e+00 0.000000000000000e+00
0.000000000000000e+00 0.000000000000000e+00 0.000000000000000e+00
0.000000000000000e+00 0.000000000000000e+00 0.000000000000000e+00
0.000000000000000e+00 0.000000000000000e+00 0.000000000000000e+00
0.000000000000000e+00 0.000000000000000e+00 0.000000000000000e+00
0.000000000000000e+00 0.000000000000000e+00 0.000000000000000e+00
0.000000000000000e+00 0.000000000000000e+00 0.000000000000000e+00
0.000000000000000e+00 0.000000000000000e+00 0.000000000000000e+00
0.000000000000000e+00 0.000000000000000e+00 0.000000000000000e+00
0.000000000000000e+00 0.000000000000000e+00 0.000000000000000e+00
0.000000000000000e+00 0.000000000000000e+00 0.000000000000000e+00
0.000000000000000e+00 0.000000000000000e+00 0.000000000000000e+00
0.000000000000000e+00 0.000000000000000e+00 0.000000000000000e+00
0.000000000000000e+00 0.000000000000000e+00 0.000000000000000e+00
0.000000000000000e+00 0.000000000000000e+00 0.000000000000000e+00
0.000000000000000e+00 0.000000000000000e+00 0.000000000000000e+00
0.000000000000000e+00 0.000000000000000e+00 0.000000000000000e+00
0.000000000000000e+00 0.000000000000000e+00 0.000000000000000e+00
0.000000000000000e+00 0.000000000000000e+00 0.000000000000000e+00
0.000000000000000e+00 0.000000000000000e+00 0.000000000000000e+00
0.000000000000000e+00 0.000000000000000e+00 0.000000000000000e+00
0.000000000000000e+00 0.000000000000000e+00 0.000000000000000e+00
0.000000000000000e+00 0.000000000000000e+00 0.000000000000000e+00
0.000000000000000e+00 0.000000000000000e+00 0.000000000000000e+00
0.000000000000000e+00 0.000000000000000e+00 0.000000000000000e+00
0.000000000000000e+00 0.000000000000000e+00 0.000000000000000e+00
0.000000000000000e+00 0.000000000000000e+00 0.000000000000000e+00
0.000000000000000e+00 0.000000000000000e+00 0.000000000000000e+00
0.000000000000000e+00 0.000000000000000e+00 0.000000000000000e+00
0.000000000000000e+00 0.000000000000000e+00 0.000000000000000e+00
0.000000000000000e+00 0.000000000000000e+00 0.000000000000000e+00
0.000000000000000e+00 0.000000000000000e+00 0.000000000000000e+00
0.000000000000000e+00 0.000000000000000e+00 0.000000000000000e+00
0.000000000000000e+00 0.000000000000000e+00 0.000000000000000e+00
0.000000000000000e+00 0.000000000000000e+00 0.000000000000000e+00
0.000000000000000e+00 0.000000000000000e+00 0.000000000000000e+00
0.000000000000000e+00 0.000000000000000e+00 0.000000000000000e+00
0.000000000000000e+00 0.000000000000000e+00 0.000000000000000e+00
0.000000000000000e+00 0.000000000000000e+00 0.000000000000000e+00
0.000000000000000e+00 0.000000000000000e+00 0.000000000000000e+00
0.000000000000000e+00 0.000000000000000e+00 0.000000000000000e+00
0.000000000000000e+00 0.000000000000000e+00 0.000000000000000e+00
0.000000000000000e+00 0.000000000000000e+00 0.000000000000000e+00
0.000000000000000e+00 0.000000000000000e+00 0.000000000000000e+00
0.000000000000000e+00 0.000000000000000e+00 0.000000000000000e+00
0.000000000000000e+00 0.000000000000000e+00 0.000000000000000e+00
0.000000000000000e+00 0.000000000000000e+00 0.000000000000000e+00
0.000000000000000e+00 0.000000000000000e+00 0.000000000000000e+00
0.000000000000000e+00 0.000000000000000e+00 0.000000000000000e+00
0.000000000000000e+00 0.000000000000000e+00 0.000000000000000e+00
0.000000000000000e+00 0.000000000000000e+00 0.000000000000000e+00
0.000000000000000e+00 0.000000000000000e+00 0.000000000000000e+00
0.000000000000000e+00 0.000000000000000e+00 0.000000000000000e+00
0.000000000000000e+00 0.000000000000000e+00 0.000000000000000e+00
0.000000000000000e+00 0.000000000000000e+00 0.000000000000000e+00
0.000000000000000e+00 0.000000000000000e+00 0.000000000000000e+00
0.000000000000000e+00 0.000000000000000e+00 0.000000000000000e+00
0.000000000000000e+00 0.000000000000000e+00 0.000000000000000e+00
0.000000000000000e+00 0.000000000000000e+00 0.000000000000000e+00
0.000000000000000e+00 0.000000000000000e+00 0.000000000000000e+00
0.000000000000000e+00 0.000000000000000e+00 0.000000000000000e+00
0.000000000000000e+00 0.000000000000000e+00 0.000000000000000e+00
0.000000000000000e+00 0.000000000000000e+00 0.000000000000000e+00
0.000000000000000e+00 0.000000000000000e+00 0.000000000000000e+00
0.000000000000000e+00 0.000000000000000e+00 0.000000000000000e+00
0.000000000000000e+00 0.000000000000000e+00 0.000000000000000e+00
0.000000000000000e+00 0.000000000000000e+00 0.000000000000000e+00
0.000000000000000e+00 0.000000000000000e+00 0.000000000000000e+00
0.000000000000000e+00 0.000000000000000e+00 0.000000000000000e+00
0.000000000000000e+00 0.000000000000000e+00 0.000000000000000e+00
0.000000000000000e+00 0.000000000000000e+00 0.000000000000000e+00
0.000000000000000e+00 0.000000000000000e+00 0.000000000000000e+00
0.000000000000000e+00 0.000000000000000e+00 0.000000000000000e+00
0.000000000000000e+00 0.000000000000000e+00 0.000000000000000e+00
0.000000000000000e+00 0.000000000000000e+00 0.000000000000000e+00
0.000000000000000e+00 0.000000000000000e+00 0.000000000000000e+00
0.000000000000000e+00 0.000000000000000e+00 0.000000000000000e+00
0.000000000000000e+00 0.000000000000000e+00 0.000000000000000e+00
0.000000000000000e+00 0.000000000000000e+00 0.000000000000000e+00
0.000000000000000e+00 0.000000000000000e+00 0.000000000000000e+00
0.000000000000000e+00 0.000000000000000e+00 0.000000000000000e+00
0.000000000000000e+00 0.000000000000000e+00 0.000000000000000e+00
0.000000000000000e+00 0.000000000000000e+00 0.000000000000000e+00
0.000000000000000e+00 0.000000000000000e+00 0.000000000000000e+00
0.000000000000000e+00 0.000000000000000e+00 0.000000000000000e+00
0.000000000000000e+00 0.000000000000000e+00 0.000000000000000e+00
0.000000000000000e+00 0.000000000000000e+00 0.000000000000000e+00
0.000000000000000e+00 0.000000000000000e+00 0.000000000000000e+00
0.000000000000000e+00 0.000000000000000e+00 0.000000000000000e+00
0.000000000000000e+00 0.000000000000000e+00 0.000000000000000e+00
0.000000000000000e+00 0.000000000000000e+00 0.000000000000000e+00
0.000000000000000e+00 0.000000000000000e+00 0.000000000000000e+00
0.000000000000000e+00 0.000000000000000e+00 0.000000000000000e+00
0.000000000000000e+00 0.000000000000000e+00 0.000000000000000e+00
0.000000000000000e+00 0.000000000000000e+00 0.000000000000000e+00
0.000000000000000e+00 0.000000000000000e+00 0.000000000000000e+00
0.000000000000000e+00 0.000000000000000e+00 0.000000000000000e+00
0.000000000000000e+00 0.000000000000000e+00 0.000000000000000e+00
0.000000000000000e+00 0.000000000000000e+00 0.000000000000000e+00
0.000000000000000e+00 0.000000000000000e+00 0.000000000000000e+00
0.000000000000000e+00 0.000000000000000e+00 0.000000000000000e+00
0.000000000000000e+00 0.000000000000000e+00 0.000000000000000e+00
0.000000000000000e+00 0.000000000000000e+00 0.000000000000000e+00
0.000000000000000e+00 0.000000000000000e+00 0.000000000000000e+00
0.000000000000000e+00 0.000000000000000e+00 0.000000000000000e+00
0.000000000000000e+00 0.000000000000000e+00 0.000000000000000e+00
0.000000000000000e+00 0.000000000000000e+00 0.000000000000000e+00
0.000000000000000e+00 0.000000000000000e+00 0.000000000000000e+00
0.000000000000000e+00 0.000000000000000e+00 0.000000000000000e+00
0.000000000000000e+00 0.000000000000000e+00 0.000000000000000e+00
0.000000000000000e+00 0.000000000000000e+00 0.000000000000000e+00
0.000000000000000e+00 0.000000000000000e+00 0.000000000000000e+00
0.000000000000000e+00 0.000000000000000e+00 0.000000000000000e+00
0.000000000000000e+00 0.000000000000000e+00 0.000000000000000e+00
0.000000000000000e+00 0.000000000000000e+00 0.000000000000000e+00
0.000000000000000e+00 0.000000000000000e+00 0.000000000000000e+00
0.000000000000000e+00 0.000000000000000e+00 0.000000000000000e+00
0.000000000000000e+00 0.000000000000000e+00 0.000000000000000e+00
0.000000000000000e+00 0.000000000000000e+00 0.000000000000000e+00
0.000000000000000e+00 0.000000000000000e+00 0.000000000000000e+00
0.000000000000000e+00 0.000000000000000e+00 0.000000000000000e+00
0.000000000000000e+00 0.000000000000000e+00 0.000000000000000e+00
0.000000000000000e+00 0.000000000000000e+00 0.000000000000000e+00
0.000000000000000e+00 0.000000000000000e+00 0.000000000000000e+00
0.000000000000000e+00 0.000000000000000e+00 0.000000000000000e+00
0.000000000000000e+00 0.000000000000000e+00 0.000000000000000e+00
0.000000000000000e+00 0.000000000000000e+00 0.000000000000000e+00
0.000000000000000e+00 0.000000000000000e+00 0.000000000000000e+00
0.000000000000000e+00 0.000000000000000e+00 0.000000000000000e+00
0.000000000000000e+00 0.000000000000000e+00 0.000000000000000e+00
0.000000000000000e+00 0.000000000000000e+00 0.000000000000000e+00
0.000000000000000e+00 0.000000000000000e+00 0.000000000000000e+00
0.000000000000000e+00 0.000000000000000e+00 0.000000000000000e+00
0.000000000000000e+00 0.000000000000000e+00 0.000000000000000e+00
0.000000000000000e+00 0.000000000000000e+00 0.000000000000000e+00
0.000000000000000e+00 0.000000000000000e+00 0.000000000000000e+00
0.000000000000000e+00 0.000000000000000e+00 0.000000000000000e+00
0.000000000000000e+00 0.000000000000000e+00 0.000000000000000e+00
0.000000000000000e+00 0.000000000000000e+00 0.000000000000000e+00
0.000000000000000e+00 0.000000000000000e+00 0.000000000000000e+00
0.000000000000000e+00 0.000000000000000e+00 0.000000000000000e+00
0.000000000000000e+00 0.000000000000000e+00 0.000000000000000e+00
0.000000000000000e+00 0.000000000000000e+00 0.000000000000000e+00
0.000000000000000e+00 0.000000000000000e+00 0.000000000000000e+00
0.000000000000000e+00 0.000000000000000e+00 0.000000000000000e+00
0.000000000000000e+00 0.000000000000000e+00 0.000000000000000e+00
0.000000000000000e+00 0.000000000000000e+00 0.000000000000000e+00
0.000000000000000e+00 0.000000000000000e+00 0.000000000000000e+00
0.000000000000000e+00 0.000000000000000e+00 0.000000000000000e+00
0.000000000000000e+00 0.000000000000000e+00 0.000000000000000e+00
0.000000000000000e+00 0.000000000000000e+00 0.000000000000000e+00
0.000000000000000e+00 0.000000000000000e+00 0.000000000000000e+00
0.000000000000000e+00 0.000000000000000e+00 0.000000000000000e+00
0.000000000000000e+00 0.000000000000000e+00 0.000000000000000e+00
0.000000000000000e+00 0.000000000000000e+00 0.000000000000000e+00
0.000000000000000e+00 0.000000000000000e+00 0.000000000000000e+00
0.000000000000000e+00 0.000000000000000e+00 0.000000000000000e+00
0.000000000000000e+00 0.000000000000000e+00 0.000000000000000e+00
0.000000000000000e+00 0.000000000000000e+00 0.000000000000000e+00
0.000000000000000e+00 0.000000000000000e+00 0.000000000000000e+00
0.000000000000000e+00 0.000000000000000e+00 0.000000000000000e+00
0.000000000000000e+00 0.000000000000000e+00 0.000000000000000e+00
0.000000000000000e+00 0.000000000000000e+00 0.000000000000000e+00
0.000000000000000e+00 0.000000000000000e+00 0.000000000000000e+00
0.000000000000000e+00 0.000000000000000e+00 0.000000000000000e+00
0.000000000000000e+00 0.000000000000000e+00 0.000000000000000e+00
0.000000000000000e+00 0.000000000000000e+00 0.000000000000000e+00
0.000000000000000e+00 0.000000000000000e+00 0.000000000000000e+00
0.000000000000000e+00 0.000000000000000e+00 0.000000000000000e+00
0.000000000000000e+00 0.000000000000000e+00 0.000000000000000e+00
0.000000000000000e+00 0.000000000000000e+00 0.000000000000000e+00
0.000000000000000e+00 0.000000000000000e+00 0.000000000000000e+00
0.000000000000000e+00 0.000000000000000e+00 0.000000000000000e+00
0.000000000000000e+00 0.000000000000000e+00 0.000000000000000e+00
0.000000000000000e+00 0.000000000000000e+00 0.000000000000000e+00
0.000000000000000e+00 0.000000000000000e+00 0.000000000000000e+00
0.000000000000000e+00 0.000000000000000e+00 0.000000000000000e+00
0.000000000000000e+00 0.000000000000000e+00 0.000000000000000e+00
0.000000000000000e+00 0.000000000000000e+00 0.000000000000000e+00
0.000000000000000e+00 0.000000000000000e+00 0.000000000000000e+00
0.000000000000000e+00 0.000000000000000e+00 0.000000000000000e+00
0.000000000000000e+00 0.000000000000000e+00 0.000000000000000e+00
0.000000000000000e+00 0.000000000000000e+00 0.000000000000000e+00
0.000000000000000e+00 0.000000000000000e+00 0.000000000000000e+00
0.000000000000000e+00 0.000000000000000e+00 0.000000000000000e+00
0.000000000000000e+00 0.000000000000000e+00 0.000000000000000e+00
0.000000000000000e+00 0.000000000000000e+00 0.000000000000000e+00
0.000000000000000e+00 0.000000000000000e+00 0.000000000000000e+00
0.000000000000000e+00 0.000000000000000e+00 0.000000000000000e+00
0.000000000000000e+00 0.000000000000000e+00 0.000000000000000e+00
0.000000000000000e+00 0.000000000000000e+00 0.000000000000000e+00
0.000000000000000e+00 0.000000000000000e+00 0.000000000000000e+00
0.000000000000000e+00 0.000000000000000e+00 0.000000000000000e+00
0.000000000000000e+00 0.000000000000000e+00 0.000000000000000e+00
0.000000000000000e+00 0.000000000000000e+00 0.000000000000000e+00
0.000000000000000e+00 0.000000000000000e+00 0.000000000000000e+00
0.000000000000000e+00 0.000000000000000e+00 0.000000000000000e+00
0.000000000000000e+00 0.000000000000000e+00 0.000000000000000e+00
0.000000000000000e+00 0.000000000000000e+00 0.000000000000000e+00
0.000000000000000e+00 0.000000000000000e+00 0.000000000000000e+00
0.000000000000000e+00 0.000000000000000e+00 0.000000000000000e+00
0.000000000000000e+00 0.000000000000000e+00 0.000000000000000e+00
0.000000000000000e+00 0.000000000000000e+00 0.000000000000000e+00
0.000000000000000e+00 0.000000000000000e+00 0.000000000000000e+00
0.000000000000000e+00 0.000000000000000e+00 0.000000000000000e+00
0.000000000000000e+00 0.000000000000000e+00 0.000000000000000e+00
0.000000000000000e+00 0.000000000000000e+00 0.000000000000000e+00
0.000000000000000e+00 0.000000000000000e+00 0.000000000000000e+00
0.000000000000000e+00 0.000000000000000e+00 0.000000000000000e+00
0.000000000000000e+00 0.000000000000000e+00 0.000000000000000e+00
0.000000000000000e+00 0.000000000000000e+00 0.000000000000000e+00
0.000000000000000e+00 0.000000000000000e+00 0.000000000000000e+00
0.000000000000000e+00 0.000000000000000e+00 0.000000000000000e+00
0.000000000000000e+00 0.000000000000000e+00 0.000000000000000e+00
0.000000000000000e+00 0.000000000000000e+00 0.000000000000000e+00
0.000000000000000e+00 0.000000000000000e+00 0.000000000000000e+00
0.000000000000000e+00 0.000000000000000e+00 0.000000000000000e+00
0.000000000000000e+00 0.000000000000000e+00 0.000000000000000e+00
0.000000000000000e+00 0.000000000000000e+00 0.000000000000000e+00
0.000000000000000e+00 0.000000000000000e+00 0.000000000000000e+00
0.000000000000000e+00 0.000000000000000e+00 0.000000000000000e+00
0.000000000000000e+00 0.000000000000000e+00 0.000000000000000e+00
0.000000000000000e+00 0.000000000000000e+00 0.000000000000000e+00
0.000000000000000e+00 0.000000000000000e+00 0.000000000000000e+00
0.000000000000000e+00 0.000000000000000e+00 0.000000000000000e+00
0.000000000000000e+00 0.000000000000000e+00 0.000000000000000e+00
0.000000000000000e+00 0.000000000000000e+00 0.000000000000000e+00
0.000000000000000e+00 0.000000000000000e+00 0.000000000000000e+00
0.000000000000000e+00 0.000000000000000e+00 0.000000000000000e+00
0.000000000000000e+00 0.000000000000000e+00 0.000000000000000e+00
0.000000000000000e+00 0.000000000000000e+00 0.000000000000000e+00
0.000000000000000e+00 0.000000000000000e+00 0.000000000000000e+00
0.000000000000000e+00 0.000000000000000e+00 0.000000000000000e+00
0.000000000000000e+00 0.000000000000000e+00 0.000000000000000e+00
0.000000000000000e+00 0.000000000000000e+00 0.000000000000000e+00
0.000000000000000e+00 0.000000000000000e+00 0.000000000000000e+00
0.000000000000000e+00 0.000000000000000e+00 0.000000000000000e+00
0.000000000000000e+00 0.000000000000000e+00 0.000000000000000e+00
0.000000000000000e+00 0.000000000000000e+00 0.000000000000000e+00
0.000000000000000e+00 0.000000000000000e+00 0.000000000000000e+00
0.000000000000000e+00 0.000000000000000e+00 0.000000000000000e+00
0.000000000000000e+00 0.000000000000000e+00 0.000000000000000e+00
0.000000000000000e+00 0.000000000000000e+00 0.000000000000000e+00
0.000000000000000e+00 0.000000000000000e+00 0.000000000000000e+00
0.000000000000000e+00 0.000000000000000e+00 0.000000000000000e+00
0.000000000000000e+00 0.000000000000000e+00 0.000000000000000e+00
0.000000000000000e+00 0.000000000000000e+00 0.000000000000000e+00
0.000000000000000e+00 0.000000000000000e+00 0.000000000000000e+00
0.000000000000000e+00 0.000000000000000e+00 0.000000000000000e+00
0.000000000000000e+00 0.000000000000000e+00 0.000000000000000e+00
0.000000000000000e+00 0.000000000000000e+00 0.000000000000000e+00
0.000000000000000e+00 0.000000000000000e+00 0.000000000000000e+00
0.000000000000000e+00 0.000000000000000e+00 0.000000000000000e+00
0.000000000000000e+00 0.000000000000000e+00 0.000000000000000e+00
0.000000000000000e+00 0.000000000000000e+00 0.000000000000000e+00
0.000000000000000e+00 0.000000000000000e+00 0.000000000000000e+00
0.000000000000000e+00 0.000000000000000e+00 0.000000000000000e+00
0.000000000000000e+00 0.000000000000000e+00 0.000000000000000e+00
0.000000000000000e+00 0.000000000000000e+00 0.000000000000000e+00
0.000000000000000e+00 0.000000000000000e+00 0.000000000000000e+00
0.000000000000000e+00 0.000000000000000e+00 0.000000000000000e+00
0.000000000000000e+00 0.000000000000000e+00 0.000000000000000e+00
0.000000000000000e+00 0.000000000000000e+00 0.000000000000000e+00
0.000000000000000e+00 0.000000000000000e+00 0.000000000000000e+00
0.000000000000000e+00 0.000000000000000e+00 0.000000000000000e+00
0.000000000000000e+00 0.000000000000000e+00 0.000000000000000e+00
0.000000000000000e+00 0.000000000000000e+00 0.000000000000000e+00
0.000000000000000e+00 0.000000000000000e+00 0.000000000000000e+00
0.000000000000000e+00 0.000000000000000e+00 0.000000000000000e+00
0.000000000000000e+00 0.000000000000000e+00 0.000000000000000e+00
0.000000000000000e+00 0.000000000000000e+00 0.000000000000000e+00
0.000000000000000e+00 0.000000000000000e+00 0.000000000000000e+00
0.000000000000000e+00 0.000000000000000e+00 0.000000000000000e+00
0.000000000000000e+00 0.000000000000000e+00 0.000000000000000e+00
0.000000000000000e+00 0.000000000000000e+00 0.000000000000000e+00
0.000000000000000e+00 0.000000000000000e+00 0.000000000000000e+00
0.000000000000000e+00 0.000000000000000e+00 0.000000000000000e+00
0.000000000000000e+00 0.000000000000000e+00 0.000000000000000e+00
0.000000000000000e+00 0.000000000000000e+00 0.000000000000000e+00
0.000000000000000e+00 0.000000000000000e+00 0.000000000000000e+00
0.000000000000000e+00 0.000000000000000e+00 0.000000000000000e+00
0.000000000000000e+00 0.000000000000000e+00 0.000000000000000e+00
0.000000000000000e+00 0.000000000000000e+00 0.000000000000000e+00
0.000000000000000e+00 0.000000000000000e+00 0.000000000000000e+00
0.000000000000000e+00 0.000000000000000e+00 0.000000000000000e+00
0.000000000000000e+00 0.000000000000000e+00 0.000000000000000e+00
0.000000000000000e+00 0.000000000000000e+00 0.000000000000000e+00
0.000000000000000e+00 0.000000000000000e+00 0.000000000000000e+00
0.000000000000000e+00 0.000000000000000e+00 0.000000000000000e+00
0.000000000000000e+00 0.000000000000000e+00 0.000000000000000e+00
0.000000000000000e+00 0.000000000000000e+00 0.000000000000000e+00
0.000000000000000e+00 0.000000000000000e+00 0.000000000000000e+00
0.000000000000000e+00 0.000000000000000e+00 0.000000000000000e+00
0.000000000000000e+00 0.000000000000000e+00 0.000000000000000e+00
0.000000000000000e+00 0.000000000000000e+00 0.000000000000000e+00
0.000000000000000e+00 0.000000000000000e+00 0.000000000000000e+00
0.000000000000000e+00 0.000000000000000e+00 0.000000000000000e+00
0.000000000000000e+00 0.000000000000000e+00 0.000000000000000e+00
0.000000000000000e+00 0.000000000000000e+00 0.000000000000000e+00
0.000000000000000e+00 0.000000000000000e+00 0.000000000000000e+00
0.000000000000000e+00 0.000000000000000e+00 0.000000000000000e+00
0.000000000000000e+00 0.000000000000000e+00 0.000000000000000e+00
0.000000000000000e+00 0.000000000000000e+00 0.000000000000000e+00
0.000000000000000e+00 0.000000000000000e+00 0.000000000000000e+00
0.000000000000000e+00 0.000000000000000e+00 0.000000000000000e+00
0.000000000000000e+00 0.000000000000000e+00 0.000000000000000e+00
0.000000000000000e+00 0.000000000000000e+00 0.000000000000000e+00
0.000000000000000e+00 0.000000000000000e+00 0.000000000000000e+00
0.000000000000000e+00 0.000000000000000e+00 0.000000000000000e+00
0.000000000000000e+00 0.000000000000000e+00 0.000000000000000e+00
0.000000000000000e+00 0.000000000000000e+00 0.000000000000000e+00
0.000000000000000e+00 0.000000000000000e+00 0.000000000000000e+00
0.000000000000000e+00 0.000000000000000e+00 0.000000000000000e+00
0.000000000000000e+00 0.000000000000000e+00 0.000000000000000e+00
0.000000000000000e+00 0.000000000000000e+00 0.000000000000000e+00
0.000000000000000e+00 0.000000000000000e+00 0.000000000000000e+00
0.000000000000000e+00 0.000000000000000e+00 0.000000000000000e+00
0.000000000000000e+00 0.000000000000000e+00 0.000000000000000e+00
0.000000000000000e+00 0.000000000000000e+00 0.000000000000000e+00
0.000000000000000e+00 0.000000000000000e+00 0.000000000000000e+00
0.000000000000000e+00 0.000000000000000e+00 0.000000000000000e+00
0.000000000000000e+00 0.000000000000000e+00 0.000000000000000e+00
0.000000000000000e+00 0.000000000000000e+00 0.000000000000000e+00
0.000000000000000e+00 0.000000000000000e+00 0.000000000000000e+00
0.000000000000000e+00 0.000000000000000e+00 0.000000000000000e+00
0.000000000000000e+00 0.000000000000000e+00 0.000000000000000e+00
0.000000000000000e+00 0.000000000000000e+00 0.000000000000000e+00
0.000000000000000e+00 0.000000000000000e+00 0.000000000000000e+00
0.000000000000000e+00 0.000000000000000e+00 0.000000000000000e+00
0.000000000000000e+00 0.000000000000000e+00 0.000000000000000e+00
0.000000000000000e+00 0.000000000000000e+00 0.000000000000000e+00
0.000000000000000e+00 0.000000000000000e+00 0.000000000000000e+00
0.000000000000000e+00 0.000000000000000e+00 0.000000000000000e+00
0.000000000000000e+00 0.000000000000000e+00 0.000000000000000e+00
0.000000000000000e+00 0.000000000000000e+00 0.000000000000000e+00
0.000000000000000e+00 0.000000000000000e+00 0.000000000000000e+00
0.000000000000000e+00 0.000000000000000e+00 0.000000000000000e+00
0.000000000000000e+00 0.000000000000000e+00 0.000000000000000e+00
0.000000000000000e+00 0.000000000000000e+00 0.000000000000000e+00
0.000000000000000e+00 0.000000000000000e+00 0.000000000000000e+00
0.000000000000000e+00 0.000000000000000e+00 0.000000000000000e+00
0.000000000000000e+00 0.000000000000000e+00 0.000000000000000e+00
0.000000000000000e+00 0.000000000000000e+00 0.000000000000000e+00
0.000000000000000e+00 0.000000000000000e+00 0.000000000000000e+00
0.000000000000000e+00 0.000000000000000e+00 0.000000000000000e+00
0.000000000000000e+00 0.000000000000000e+00 0.000000000000000e+00
0.000000000000000e+00 0.000000000000000e+00 0.000000000000000e+00
0.000000000000000e+00 0.000000000000000e+00 0.000000000000000e+00
0.000000000000000e+00 0.000000000000000e+00 0.000000000000000e+00
0.000000000000000e+00 0.000000000000000e+00 0.000000000000000e+00
0.000000000000000e+00 0.000000000000000e+00 0.000000000000000e+00
0.000000000000000e+00 0.000000000000000e+00 0.000000000000000e+00
0.000000000000000e+00 0.000000000000000e+00 0.000000000000000e+00
0.000000000000000e+00 0.000000000000000e+00 0.000000000000000e+00
0.000000000000000e+00 0.000000000000000e+00 0.000000000000000e+00
0.000000000000000e+00 0.000000000000000e+00 0.000000000000000e+00
0.000000000000000e+00 0.000000000000000e+00 0.000000000000000e+00
0.000000000000000e+00 0.000000000000000e+00 0.000000000000000e+00
0.000000000000000e+00 0.000000000000000e+00 0.000000000000000e+00
0.000000000000000e+00 0.000000000000000e+00 0.000000000000000e+00
0.000000000000000e+00 0.000000000000000e+00 0.000000000000000e+00
0.000000000000000e+00 0.000000000000000e+00 0.000000000000000e+00
0.000000000000000e+00 0.000000000000000e+00 0.000000000000000e+00
0.000000000000000e+00 0.000000000000000e+00 0.000000000000000e+00
0.000000000000000e+00 0.000000000000000e+00 0.000000000000000e+00
0.000000000000000e+00 0.000000000000000e+00 0.000000000000000e+00
0.000000000000000e+00 0.000000000000000e+00 0.000000000000000e+00
0.000000000000000e+00 0.000000000000000e+00 0.000000000000000e+00
0.000000000000000e+00 0.000000000000000e+00 0.000000000000000e+00
0.000000000000000e+00 0.000000000000000e+00 0.000000000000000e+00
0.000000000000000e+00 0.000000000000000e+00 0.000000000000000e+00
0.000000000000000e+00 0.000000000000000e+00 0.000000000000000e+00
0.000000000000000e+00 0.000000000000000e+00 0.000000000000000e+00
0.000000000000000e+00 0.000000000000000e+00 0.000000000000000e+00
0.000000000000000e+00 0.000000000000000e+00 0.000000000000000e+00
0.000000000000000e+00 0.000000000000000e+00 0.000000000000000e+00
0.000000000000000e+00 0.000000000000000e+00 0.000000000000000e+00
0.000000000000000e+00 0.000000000000000e+00 0.000000000000000e+00
0.000000000000000e+00 0.000000000000000e+00 0.000000000000000e+00
0.000000000000000e+00 0.000000000000000e+00 0.000000000000000e+00
0.000000000000000e+00 0.000000000000000e+00 0.000000000000000e+00
0.000000000000000e+00 0.000000000000000e+00 0.000000000000000e+00
0.000000000000000e+00 0.000000000000000e+00 0.000000000000000e+00
0.000000000000000e+00 0.000000000000000e+00 0.000000000000000e+00
0.000000000000000e+00 0.000000000000000e+00 0.000000000000000e+00
0.000000000000000e+00 0.000000000000000e+00 0.000000000000000e+00
0.000000000000000e+00 0.000000000000000e+00 0.000000000000000e+00
0.000000000000000e+00 0.000000000000000e+00 0.000000000000000e+00
0.000000000000000e+00 0.000000000000000e+00 0.000000000000000e+00
0.000000000000000e+00 0.000000000000000e+00 0.000000000000000e+00
0.000000000000000e+00 0.000000000000000e+00 0.000000000000000e+00
0.000000000000000e+00 0.000000000000000e+00 0.000000000000000e+00
0.000000000000000e+00 0.000000000000000e+00 0.000000000000000e+00
0.000000000000000e+00 0.000000000000000e+00 0.000000000000000e+00
0.000000000000000e+00 0.000000000000000e+00 0.000000000000000e+00
0.000000000000000e+00 0.000000000000000e+00 0.000000000000000e+00
0.000000000000000e+00 0.000000000000000e+00 0.000000000000000e+00
0.000000000000000e+00 0.000000000000000e+00 0.000000000000000e+00
0.000000000000000e+00 0.000000000000000e+00 0.000000000000000e+00
0.000000000000000e+00 0.000000000000000e+00 0.000000000000000e+00
0.000000000000000e+00 0.000000000000000e+00 0.000000000000000e+00
0.000000000000000e+00 0.000000000000000e+00 0.000000000000000e+00
0.000000000000000e+00 0.000000000000000e+00 0.000000000000000e+00
0.000000000000000e+00 0.000000000000000e+00 0.000000000000000e+00
0.000000000000000e+00 0.000000000000000e+00 0.000000000000000e+00
0.000000000000000e+00 0.000000000000000e+00 0.000000000000000e+00
0.000000000000000e+00 0.000000000000000e+00 0.000000000000000e+00
0.000000000000000e+00 0.000000000000000e+00 0.000000000000000e+00
0.000000000000000e+00 0.000000000000000e+00 0.000000000000000e+00
0.000000000000000e+00 0.000000000000000e+00 0.000000000000000e+00
0.000000000000000e+00 0.000000000000000e+00 0.000000000000000e+00
0.000000000000000e+00 0.000000000000000e+00 0.000000000000000e+00
0.000000000000000e+00 0.000000000000000e+00 0.000000000000000e+00
0.000000000000000e+00 0.000000000000000e+00 0.000000000000000e+00
0.000000000000000e+00 0.000000000000000e+00 0.000000000000000e+00
0.000000000000000e+00 0.000000000000000e+00 0.000000000000000e+00
0.000000000000000e+00 0.000000000000000e+00 0.000000000000000e+00
0.000000000000000e+00 0.000000000000000e+00 0.000000000000000e+00
0.000000000000000e+00 0.000000000000000e+00 0.000000000000000e+00
0.000000000000000e+00 0.000000000000000e+00 0.000000000000000e+00
0.000000000000000e+00 0.000000000000000e+00 0.000000000000000e+00
0.000000000000000e+00 0.000000000000000e+00 0.000000000000000e+00
0.000000000000000e+00 0.000000000000000e+00 0.000000000000000e+00
0.000000000000000e+00 0.000000000000000e+00 0.000000000000000e+00
0.000000000000000e+00 0.000000000000000e+00 0.000000000000000e+00
0.000000000000000e+00 0.000000000000000e+00 0.000000000000000e+00
0.000000000000000e+00 0.000000000000000e+00 0.000000000000000e+00
0.000000000000000e+00 0.000000000000000e+00 0.000000000000000e+00
0.000000000000000e+00 0.000000000000000e+00 0.000000000000000e+00
0.000000000000000e+00 0.000000000000000e+00 0.000000000000000e+00
0.000000000000000e+00 0.000000000000000e+00 0.000000000000000e+00
0.000000000000000e+00 0.000000000000000e+00 0.000000000000000e+00
0.000000000000000e+00 0.000000000000000e+00 0.000000000000000e+00
0.000000000000000e+00 0.000000000000000e+00 0.000000000000000e+00
0.000000000000000e+00 0.000000000000000e+00 0.000000000000000e+00
0.000000000000000e+00 0.000000000000000e+00 0.000000000000000e+00
0.000000000000000e+00 0.000000000000000e+00 0.000000000000000e+00
0.000000000000000e+00 0.000000000000000e+00 0.000000000000000e+00
0.000000000000000e+00 0.000000000000000e+00 0.000000000000000e+00
0.000000000000000e+00 0.000000000000000e+00 0.000000000000000e+00
0.000000000000000e+00 0.000000000000000e+00 0.000000000000000e+00
0.000000000000000e+00 0.000000000000000e+00 0.000000000000000e+00
0.000000000000000e+00 0.000000000000000e+00 0.000000000000000e+00
0.000000000000000e+00 0.000000000000000e+00 0.000000000000000e+00
0.000000000000000e+00 0.000000000000000e+00 0.000000000000000e+00
0.000000000000000e+00 0.000000000000000e+00 0.000000000000000e+00
0.000000000000000e+00 0.000000000000000e+00 0.000000000000000e+00
0.000000000000000e+00 0.000000000000000e+00 0.000000000000000e+00
0.000000000000000e+00 0.000000000000000e+00 0.000000000000000e+00
0.000000000000000e+00 0.000000000000000e+00 0.000000000000000e+00
0.000000000000000e+00 0.000000000000000e+00 0.000000000000000e+00
0.000000000000000e+00 0.000000000000000e+00 0.000000000000000e+00
0.000000000000000e+00 0.000000000000000e+00 0.000000000000000e+00
0.000000000000000e+00 0.000000000000000e+00 0.000000000000000e+00
0.000000000000000e+00 0.000000000000000e+00 0.000000000000000e+00
0.000000000000000e+00 0.000000000000000e+00 0.000000000000000e+00
0.000000000000000e+00 0.000000000000000e+00 0.000000000000000e+00
0.000000000000000e+00 0.000000000000000e+00 0.000000000000000e+00
0.000000000000000e+00 0.000000000000000e+00 0.000000000000000e+00
0.000000000000000e+00 0.000000000000000e+00 0.000000000000000e+00
0.000000000000000e+00 0.000000000000000e+00 0.000000000000000e+00
0.000000000000000e+00 0.000000000000000e+00 0.000000000000000e+00
0.000000000000000e+00 0.000000000000000e+00 0.000000000000000e+00
0.000000000000000e+00 0.000000000000000e+00 0.000000000000000e+00
0.000000000000000e+00 0.000000000000000e+00 0.000000000000000e+00
0.000000000000000e+00 0.000000000000000e+00 0.000000000000000e+00
0.000000000000000e+00 0.000000000000000e+00 0.000000000000000e+00
0.000000000000000e+00 0.000000000000000e+00 0.000000000000000e+00
0.000000000000000e+00 0.000000000000000e+00 0.000000000000000e+00
0.000000000000000e+00 0.000000000000000e+00 0.000000000000000e+00
0.000000000000000e+00 0.000000000000000e+00 0.000000000000000e+00
0.000000000000000e+00 0.000000000000000e+00 0.000000000000000e+00
0.000000000000000e+00 0.000000000000000e+00 0.000000000000000e+00
0.000000000000000e+00 0.000000000000000e+00 0.000000000000000e+00
0.000000000000000e+00 0.000000000000000e+00 0.000000000000000e+00
0.000000000000000e+00 0.000000000000000e+00 0.000000000000000e+00
0.000000000000000e+00 0.000000000000000e+00 0.000000000000000e+00
0.000000000000000e+00 0.000000000000000e+00 0.000000000000000e+00
0.000000000000000e+00 0.000000000000000e+00 0.000000000000000e+00
0.000000000000000e+00 0.000000000000000e+00 0.000000000000000e+00
0.000000000000000e+00 0.000000000000000e+00 0.000000000000000e+00
0.000000000000000e+00 0.000000000000000e+00 0.000000000000000e+00
0.000000000000000e+00 0.000000000000000e+00 0.000000000000000e+00
0.000000000000000e+00 0.000000000000000e+00 0.000000000000000e+00
0.000000000000000e+00 0.000000000000000e+00 0.000000000000000e+00
0.000000000000000e+00 0.000000000000000e+00 0.000000000000000e+00
0.000000000000000e+00 0.000000000000000e+00 0.000000000000000e+00
0.000000000000000e+00 0.000000000000000e+00 0.000000000000000e+00
0.000000000000000e+00 0.000000000000000e+00 0.000000000000000e+00
0.000000000000000e+00 0.000000000000000e+00 0.000000000000000e+00
0.000000000000000e+00 0.000000000000000e+00 0.000000000000000e+00
0.000000000000000e+00 0.000000000000000e+00 0.000000000000000e+00
0.000000000000000e+00 0.000000000000000e+00 0.000000000000000e+00
0.000000000000000e+00 0.000000000000000e+00 0.000000000000000e+00
0.000000000000000e+00 0.000000000000000e+00 0.000000000000000e+00
0.000000000000000e+00 0.000000000000000e+00 0.000000000000000e+00
0.000000000000000e+00 0.000000000000000e+00 0.000000000000000e+00
0.000000000000000e+00 0.000000000000000e+00 0.000000000000000e+00
0.000000000000000e+00 0.000000000000000e+00 0.000000000000000e+00
0.000000000000000e+00 0.000000000000000e+00 0.000000000000000e+00
0.000000000000000e+00 0.000000000000000e+00 0.000000000000000e+00
0.000000000000000e+00 0.000000000000000e+00 0.000000000000000e+00
0.000000000000000e+00 0.000000000000000e+00 0.000000000000000e+00
0.000000000000000e+00 0.000000000000000e+00 0.000000000000000e+00
0.000000000000000e+00 0.000000000000000e+00 0.000000000000000e+00
0.000000000000000e+00 0.000000000000000e+00 0.000000000000000e+00
0.000000000000000e+00 0.000000000000000e+00 0.000000000000000e+00
0.000000000000000e+00 0.000000000000000e+00 0.000000000000000e+00
0.000000000000000e+00 0.000000000000000e+00 0.000000000000000e+00
0.000000000000000e+00 0.000000000000000e+00 0.000000000000000e+00
0.000000000000000e+00 0.000000000000000e+00 0.000000000000000e+00
0.000000000000000e+00 0.000000000000000e+00 0.000000000000000e+00
0.000000000000000e+00 0.000000000000000e+00 0.000000000000000e+00
-1.099863786112381e-01 -1.731045922357239e-03  1.975124671901102e-18
-1.098519228757478e-01  5.705702454621905e-03  1.896321983688281e-18
-1.098874447299386e-01 -4.974886001166306e-03  2.006693303886079e-18
-1.099895386259830e-01 -1.517034226151692e-03  1.972982015698715e-18
-1.099936942526163e-01 -1.177805018621524e-03  1.969570513156576e-18
-1.043186752961102e-01 -3.489432596375307e-02  2.215001785879997e-18
-1.067122034687993e-01  2.669280110504539e-02  1.624812117029211e-18
-1.099862276580745e-01  1.740610681951439e-03  1.939451975053917e-18
-1.099862276580745e-01  1.740610681951439e-03  1.939451975053917e-18
-1.067312371169703e-01 -2.661659301039456e-02  2.172885502258327e-18
-1.099984693224050e-01  5.802988263466053e-04  1.951591612881244e-18
-1.099975148212965e-01 -7.394140508419943e-04  1.965134196794563e-18
-1.099955750706464e-01 -9.866432373075425e-04  1.967639866697557e-18
-1.098131979606236e-01 -6.407928968147531e-03  2.020095989963514e-18
-1.099140854549360e-01 -4.346702037748777e-03  2.000713045342790e-18
-1.099592399433937e-01  2.994253007195922e-03  1.926090976999626e-18
-1.099592399433937e-01  2.994253007195922e-03  1.926090976999626e-18
-1.091389813750030e-01 -1.373618376503003e-02  2.083392657480032e-18
-1.099865089914860e-01 -1.722741961436504e-03  1.975041671991268e-18
-1.095656014368635e-01  9.766216349145164e-03  1.849506246949263e-18
-1.097523031246592e-01 -7.377801761559127e-03  2.028977384344754e-18
-1.086170238822669e-01 -1.738798789276649e-02  2.111624762099705e-18
-1.096745104210373e-01  8.455871563932313e-03  1.864907728891199e-18
-1.099390567586441e-01 -3.661119913299972e-03  1.994113332202820e-18
-1.092390524379438e-01 -1.291624645398525e-02  2.076748983402972e-18
-1.099163661665258e-01 -4.288641830013805e-03  2.000157085783202e-18
-1.099163661665258e-01 -4.288641830013805e-03  2.000157085783202e-18
-1.095833273532657e-01 -9.565268746194965e-03  2.048445687554062e-18
-1.098609020061532e-01 -5.530118479231115e-03  2.011925756467023e-18
-1.092699624572861e-01 -1.265208696552567e-02  2.074584921285648e-18
-1.088126187914245e-01 -1.611874659370450e-02  2.102064613553470e-18
-1.092596692852553e-01  1.274066982841010e-02  1.813500390416869e-18
-1.097707223221118e-01  7.098487224878713e-03  1.880566565421340e-18
-1.097611773238084e-01  7.244580905159342e-03  1.878895641297626e-18
-1.099969899667647e-01 -8.137556459974294e-04  1.965888689266144e-18
-1.099797105020963e-01  2.112647125056105e-03  1.935513455186654e-18
-1.097713392095228e-01  7.088941257183521e-03  1.880675625018962e-18
-1.099939848706369e-01  1.150344417136419e-03  1.945654795348700e-18
-1.099701087163566e-01  2.564213117633420e-03  1.930702903423287e-18
-1.099998786233328e-01 -1.634100730768456e-04  1.959258031845702e-18
-1.091835090846559e-01  1.337764343824342e-02  1.805600356353311e-18
-1.098936154028145e-01 -4.836661420673154e-03  2.005382911019023e-18
-1.098602105646836e-01  5.543837541208509e-03  1.898132576183228e-18
-1.094853558517136e-01 -1.062811620295690e-02  2.057622539335409e-18
-1.090175628337430e-01  1.466870797960161e-02  1.789381925714880e-18
-1.097940002939950e-01 -6.728855730520652e-03  2.023051750485908e-18
-1.097562942036724e-01  7.318188483281377e-03  1.878052449224336e-18
-1.094304354518180e-01 -1.117943633755406e-02  2.062309779411967e-18
-1.098502731432615e-01  5.737376608761818e-03  1.895967184303341e-18
-1.098298634543724e-01 -6.115643350772316e-03  2.017389443764581e-18
-1.099047494248410e-01  4.576685903885549e-03  1.908862330062531e-18
-1.098123713674080e-01 -6.422078687341511e-03  2.020226662975775e-18
-1.099733348430811e-01 -2.421904930318870e-03  1.981990867825036e-18
-1.099947523903297e-01  1.074451762523837e-03  1.946448223733675e-18
-1.092295958122597e-01  1.299597624999035e-02  1.810342016355768e-18
-1.013002462594024e-01 -4.287493565924443e-02  2.243283106152889e-18
-1.099998904803805e-01  1.552234009848106e-04  1.955984399660467e-18
-1.099945986890045e-01  1.090073045617134e-03  1.946284985426233e-18
-1.096281534222093e-01  9.037033652502798e-03  1.858111521459953e-18
-1.096941592746444e-01 -8.197037332406013e-03  2.036359993062814e-18
-1.098897828885452e-01 -4.922968282279293e-03  2.006201478506199e-18
-1.099996060813483e-01 -2.943840147617047e-04  1.960598891307706e-18
-1.094644989776035e-01  1.084082393465396e-02  1.836665805520495e-18
-1.096932448086631e-01 -8.209265700818324e-03  2.036469361093080e-18
-1.099917778014441e-01 -1.344922331465402e-03  1.971253477302465e-18
-1.099274306313498e-01 -3.994996218985633e-03  1.997336889152665e-18
-1.098130642707030e-01  6.410219612335438e-03  1.888391790594742e-18
-8.885051889981192e-02 -6.485048412490141e-02  2.247516134612101e-18
-1.098242490575098e-01  6.215651128722215e-03  1.890589957705618e-18
-1.099965697028107e-01 -8.687080145933560e-04  1.966445825792472e-18
-1.099691354631910e-01  2.605618060704983e-03  1.930260162473440e-18
-1.099482229501566e-01 -3.374651108274979e-03  1.991333092608919e-18
-1.099949056386884e-01  1.058647030863208e-03  1.946613338847425e-18
-1.099948157809896e-01 -1.067942557484831e-03  1.968461675213501e-18
-1.099957476631681e-01 -9.672104324143946e-04  1.967443273176463e-18
-1.099957476631681e-01 -9.672104324143946e-04  1.967443273176463e-18
-1.099602954359163e-01 -2.955237324808097e-03  1.987238612629521e-18
-1.099998141288855e-01 -2.022167415861149e-04  1.959655608511658e-18
-1.099438664665058e-01 -3.513719737694951e-03  1.992684443433380e-18
-1.096611625163805e-01 -8.627249593926169e-03  2.040193051092842e-18
-1.096392926600952e-01  8.900871024451544e-03  1.859708779024729e-18
-1.099982850551586e-01  6.142352350539423e-04  1.951239649354454e-18
-1.096034807189599e-01  9.331506539059861e-03  1.854646839339180e-18
-1.098046218891806e-01 -6.553244370081936e-03  2.021436431508218e-18
-1.099338187961344e-01  3.815165120753560e-03  1.917204003607826e-18
-1.099989351930302e-01  4.840004126814053e-04  1.952589334822676e-18
-1.097133712320459e-01  7.935752824981697e-03  1.870943334476386e-18
-1.093697372874044e-01 -1.175842530630920e-02  2.067178484496640e-18
-1.098989953597727e-01  4.712835549071027e-03  1.907361041465939e-18
-1.099521716850258e-01 -3.243445967874898e-03  1.990055279901608e-18
-1.097455726008813e-01  7.477251801605745e-03  1.876227327700855e-18
-1.099930618319579e-01  1.235454908521961e-03  1.944763889393593e-18
-1.072367689261860e-01  2.450051816333091e-02  1.656672295900070e-18
-1.099939896025279e-01 -1.149891872701820e-03  1.969288971826283e-18
-1.099970544448885e-01  8.049928249158424e-04  1.949257784237724e-18
-1.099864009839923e-01  1.729623828579114e-03  1.939567945522565e-18
-1.099999717230230e-01 -7.887289815050366e-05  1.958391099903316e-18
-1.099748686651421e-01  2.351225655837199e-03  1.932975981187493e-18
-1.099748643230141e-01  2.351428743245928e-03  1.932973817264796e-18
-1.099748643230141e-01  2.351428743245928e-03  1.932973817264796e-18
-1.046077169715719e-01 -3.401801801980004e-02  2.211141881489759e-18
-1.096531655660231e-01  8.728303463460405e-03  1.861728732934234e-18
-1.099998336571041e-01  1.912992664719053e-04  1.955612722009934e-18
-1.099731026371861e-01  2.432426021660443e-03  1.932110248352361e-18
-1.099481453927302e-01 -3.377177031039439e-03  1.991357665320812e-18
-1.095549286265203e-01  9.885221982229544e-03  1.848093571909625e-18
-1.097539132296664e-01 -7.353810629514953e-03  2.028759537917502e-18
-1.099899691530087e-01  1.485491743543092e-03  1.942139813834007e-18
-1.099985059815740e-01 -5.733077895514383e-04  1.963445154180900e-18
-1.099985059815740e-01 -5.733077895514383e-04  1.963445154180900e-18
-1.099551022609281e-01 -3.142528725213548e-03  1.989070544987510e-18
-1.099845138716427e-01  1.845727070389637e-03  1.938341443474663e-18
-1.099946588849125e-01 -1.083981914830290e-03  1.968623681630740e-18
-1.099995621517390e-01  3.103649877724642e-04  1.954384533214912e-18
-1.099793607967480e-01 -2.130774211092258e-03  1.979106844477980e-18
-1.099915895784769e-01  1.360228657184385e-03  1.943455683945963e-18
-1.099982077251199e-01 -6.279309367249303e-04  1.964001079345704e-18
-1.099991268304356e-01  4.382881947715084e-04  1.953062421671979e-18
-1.099907366601605e-01 -1.427532470784821e-03  1.972083738123007e-18
-1.099969981756886e-01  8.126452716252292e-04  1.949178156750167e-18
-1.099994335159450e-01 -3.530243208813294e-04  1.961198328143542e-18
-1.099999461100007e-01 -1.088843279250823e-04  1.958699000627669e-18
-1.099994353421849e-01 -3.524548203859070e-04  1.961192509232952e-18
-1.099991041412956e-01 -4.439460691800651e-04  1.962126654463259e-18
-1.099983367062384e-01 -6.049147550947639e-04  1.963766891813434e-18
-1.099856872882138e-01 -1.774427158035484e-03  1.975558095420675e-18
-1.099846710043175e-01 -1.836339857426035e-03  1.976176139931594e-18
-1.099801489047079e-01 -2.089700193379345e-03  1.978698849188232e-18
-1.099594525793227e-01 -2.986434070192995e-03  1.987544148216985e-18
-1.099843053102405e-01 -1.858113404430442e-03  1.976393347255042e-18
-1.099222485204882e-01 -4.135127591736513e-03  1.998684466257729e-18
-1.099222485204882e-01 -4.135127591736513e-03  1.998684466257729e-18
-1.097079879356285e-01 -8.009830404940781e-03  2.034682607407674e-18
-1.098617130546956e-01 -5.513982652100436e-03  2.011774400281205e-18
-1.094625324762639e-01 -1.086066222119108e-02  2.059605696004600e-18
-1.086734318947011e-01 -1.703188774703746e-02  2.108969810330532e-18
-1.086057770707337e-01  1.745809803105764e-02  1.753393737393324e-18
-1.099745057481792e-01  2.368139658810017e-03  1.932795737411062e-18
-1.097583653256572e-01  7.287059835043858e-03  1.878409142863070e-18
-1.099805196575642e-01 -2.070095614234072e-03  1.978504017248627e-18
-1.096393353245474e-01  8.900345475955900e-03  1.859714938109425e-18
-1.098013164370882e-01 -6.608396831482463e-03  2.021944278550925e-18
-1.098755621826442e-01  5.230758553766103e-03  1.901622549400227e-18
-1.093471103960696e-01  1.196701500081378e-02  1.823005531594190e-18
-1.099955524596317e-01  9.891608061103167e-04  1.947338795514641e-18
-1.099374226010615e-01 -3.709866821805574e-03  1.994585107195881e-18
-1.096611853052136e-01  8.626959919665229e-03  1.862912721856703e-18
-1.099944466267056e-01 -1.105310492455738e-03  1.968839047629797e-18
-1.097252830448624e-01  7.769315331787856e-03  1.872865404174959e-18
-1.099516499993811e-01 -3.261083012363404e-03  1.990227210108355e-18
-1.091553877924361e-01  1.360519444487375e-02  1.802761900483622e-18
-1.099880716486237e-01  1.619905866754307e-03  1.940724989192870e-18
-1.092650573002794e-01  1.269437880191795e-02  1.814071900052278e-18
-1.092515357971179e-01  1.281022739731767e-02  1.812640966541241e-18
-1.096005506011478e-01  9.365858632564245e-03  1.854241739115919e-18
-1.081474677135372e-01  2.010286614265126e-02  1.718063544112920e-18
-3.669646571878744e-02 -1.036984542013515e-01  1.718521326826683e-18
-7.201959041011216e-02  8.314552662145820e-02  4.273844377848189e-19
-4.328974778599523e-02 -1.011236754505336e-01  1.809401729643115e-18
-1.081836777740602e-01  1.990708073219813e-02  1.720719569302005e-18
-1.083720989934106e-01 -1.885439364610632e-02  2.122332817957761e-18
-1.077148496561051e-01  2.230495827305201e-02  1.687738893052729e-18
-1.075444912377513e-01 -2.311238638507853e-02  2.151353879325321e-18
-1.099991212422510e-01 -4.396884493525653e-04  1.962083213298103e-18
-1.099908645134426e-01  1.417647200630096e-03  1.942852825873400e-18
-1.099247089178508e-01  4.069197626770239e-03  1.914431790740545e-18
-1.099972018635455e-01  7.845904602674966e-04  1.949470034613739e-18
-1.099829156703056e-01  1.938623392607304e-03  1.937358525611261e-18
-1.099829156703056e-01  1.938623392607304e-03  1.937358525611261e-18
-1.099829156703056e-01  1.938623392607304e-03  1.937358525611261e-18
-1.099588346126466e-01  3.009101299152324e-03  1.925931202849593e-18
-1.099930882105744e-01 -1.233104172693184e-03  1.970127906635011e-18
-1.098270330811038e-01  6.166263423017915e-03  1.891146943461346e-18
-1.096803957532711e-01 -8.379187753341686e-03  2.037986584187321e-18
-1.099759314312183e-01  2.300979321051913e-03  1.933511157214391e-18
-1.098237625319764e-01 -6.224241585928239e-03  2.018396677988689e-18
-1.098190255900925e-01  6.307267113618881e-03  1.889555678908807e-18
-1.094591092910062e-01 -1.089510868323384e-02  2.059898701223692e-18
-1.093763854748225e-01  1.169642254977892e-02  1.826306755677049e-18
 4.883278970036556e-03 -1.098915537541476e-01  1.042192020103033e-18
-1.092956088063251e-01  1.242859186129629e-02  1.817346464807600e-18
-1.094384902581655e-01  1.110030855487094e-02  1.833536839124395e-18
-1.099817893670932e-01  2.001501339564012e-03  1.936692433638875e-18
-7.964401987945166e-02 -7.587377740327310e-02  2.196935836622879e-18
-1.036085258512789e-01  3.694960582908548e-02  1.464193529089477e-18
-1.085161163125681e-01  1.800701253504060e-02  1.746158220127081e-18
-1.075070435702442e-01 -2.328595247752482e-02  2.152470781961119e-18
-1.055678869218928e-01  3.090988920792799e-02  1.561118590777373e-18
-1.090393154521072e-01 -1.450612580035662e-02  2.089529858211314e-18
-9.525296140503695e-02  5.501702776023500e-02  1.129860095926378e-18
-8.220556843562962e-02 -7.309065958229506e-02  2.213926124122457e-18
-5.024681931044945e-02  9.785324291602696e-02 -1.112044374685704e-19
-1.063915323456914e-01 -2.794354746870243e-02  2.180474025653356e-18
-1.093817893090550e-01 -1.164577895846504e-02  2.066235564295185e-18
-1.003175992036781e-01 -4.512625942852042e-02  2.248927263540120e-18
-1.075577630094774e-01  2.305054481779163e-02  1.677282717899352e-18
 2.676121241454020e-02 -1.066950678808715e-01  6.200053663585395e-19
-9.992606359934321e-02  4.598675693653493e-02  1.305806276026160e-18
-1.055042030410840e-01 -3.112656647729807e-02  2.197387306246578e-18
-1.088674669204918e-01  1.574403526150621e-02  1.775662192711811e-18
-1.099992349905833e-01  4.102456414760506e-04  1.953352473558879e-18
-1.099992349905833e-01  4.102456414760506e-04  1.953352473558879e-18
-1.099992349905833e-01  4.102456414760506e-04  1.953352473558879e-18
-1.099705779973262e-01 -2.544007652095318e-03  1.983196367576166e-18
-1.099942847499441e-01 -1.121303860752613e-03  1.969000492889049e-18
-1.086404403740902e-01  1.724107639689853e-02  1.756240430677660e-18
-1.096765330048152e-01 -8.429597145985774e-03  2.038435780168019e-18
-1.095581836923911e-01  9.849080465922278e-03  1.848522840640453e-18
-1.096865138012180e-01 -8.298716173910353e-03  2.037268645902779e-18
-1.080969982148693e-01  2.037250541623358e-02  1.714394933598115e-18
-1.099714173305204e-01 -2.507462924240339e-03  1.982835820708496e-18
-1.099847470989438e-01  1.831776618830836e-03  1.938488929854656e-18
-1.099993499665499e-01  3.781625793377803e-04  1.953684161501962e-18
-1.099977902090655e-01  6.972439475092360e-04  1.950377958612169e-18
-1.099977902090655e-01  6.972439475092360e-04  1.950377958612169e-18
-1.099993499665495e-01  3.781625794464763e-04  1.953684161500839e-18
-1.099985987617920e-01  5.552210750839393e-04  1.951851581193729e-18
-1.099943961716543e-01  1.110320148915811e-03  1.946073349757216e-18
-1.099979053272252e-01  6.788399094901656e-04  1.950569102082123e-18
-1.099943329296709e-01  1.116567667739133e-03  1.946008033304319e-18
-1.099943329296709e-01  1.116567667739133e-03  1.946008033304319e-18
-1.099915327557218e-01  1.364815755665427e-03  1.943407541946722e-18
-1.099915327557218e-01  1.364815755665427e-03  1.943407541946722e-18
-1.099915327557218e-01  1.364815755665427e-03  1.943407541946722e-18
-1.099754532752607e-01 -2.323720486821949e-03  1.981019758363303e-18
-1.099220160415681e-01  4.141302857455583e-03  1.913643012743396e-18
-1.099538819850973e-01  3.184938995840512e-03  1.924036396477989e-18
-1.099982814763928e-01  6.148757924808907e-04  1.951233004171181e-18
-1.098739595241140e-01 -5.264315576909103e-03  2.009427102311950e-18
-1.098281983580173e-01  6.145473572634039e-03  1.891381289114349e-18
-1.086443163759307e-01 -1.721663495595444e-02  2.110349875402002e-18
-1.094954808129967e-01  1.052329233322965e-02  1.840479686092260e-18
-8.264699516137193e-02 -7.259114402457158e-02  2.216649498364027e-18
-1.062740069148490e-01  2.838724104703663e-02  1.599604131789574e-18
-1.099998195850923e-01  1.992266223951229e-04  1.955531020879369e-18
-1.099998195850923e-01  1.992266223951229e-04  1.955531020879369e-18
-1.099998195850923e-01  1.992266223951229e-04  1.955531020879369e-18
-1.099629631486312e-01 -2.854248687954682e-03  1.986248466202066e-18
-1.086827990033448e-01 -1.697201227899843e-02  2.108521310519286e-18
-1.096990172155719e-01 -8.131766224971713e-03  2.035775808998621e-18
-1.099999719366995e-01 -7.857432949300219e-05  1.958388036021449e-18
-1.085351736672291e-01  1.789178797729086e-02  1.747681258958798e-18
-1.054483526243442e-01 -3.131525073844815e-02  2.198332043699620e-18
-1.095471328204368e-01  9.971243193378568e-03  1.847070999545687e-18
-1.096211896152351e-01 -9.121117658521688e-03  2.044556000591112e-18
-1.074320647283987e-01  2.362946186846169e-02  1.669097604657615e-18
-1.078742823110116e-01 -2.152066950362095e-02  2.140868592131329e-18
-1.088981193563683e-01  1.553060206965887e-02  1.778400637883830e-18
-1.077089186837232e-01 -2.233358090372100e-02  2.146278118459387e-18
-1.085920091278288e-01  1.754353309859437e-02  1.752270906143514e-18
-1.092042237974051e-01 -1.320747912382227e-02  2.079121476085542e-18
-1.099773940126084e-01  2.229978967482849e-03  1.934266688435379e-18
-1.099773940126084e-01  2.229978967482849e-03  1.934266688435379e-18
-1.021835686901391e-01  4.072490994155240e-02  1.400044838361129e-18
-1.099865698485711e-01  1.718852217418043e-03  1.939681625060834e-18
-1.099988924108469e-01  4.936277816835562e-04  1.952489655743543e-18
-1.099988924108469e-01  4.936277816835562e-04  1.952489655743543e-18
-1.099431216723718e-01 -3.536947403338347e-03  1.992909844759881e-18
-1.099691176249305e-01  2.606370809023846e-03  1.930252110804792e-18
-1.099970701026675e-01  8.028504398593097e-04  1.949280075114767e-18
-1.099868409372249e-01  1.701417247330049e-03  1.939865587390823e-18
-1.099999948782115e-01  3.356774305423421e-05  1.957236225235610e-18
-1.099874817314623e-01  1.659476535285201e-03  1.940307916669043e-18
-1.099935165865466e-01 -1.194281761151350e-03  1.969736643920902e-18
-1.098355937169142e-01  6.011851033822839e-03  1.892885821392458e-18
-1.099716015505681e-01 -2.499370401326739e-03  1.982755951390834e-18
-1.099801747742361e-01  2.088338245687535e-03  1.935771482367976e-18
-1.097928025486514e-01 -6.748370804334569e-03  2.023230945472965e-18
-1.099269185046373e-01  4.009063241549935e-03  1.915088971936137e-18
-1.099409496284367e-01 -3.603830572800993e-03  1.993558390916632e-18
-1.098049125478703e-01  6.548372343909857e-03  1.886827251833222e-18
-1.099493026295547e-01 -3.339289037283991e-03  1.990988974358293e-18
-1.099676307896635e-01  2.668366261999338e-03  1.929588670039508e-18
-1.097381030405295e-01 -7.586088653981074e-03  2.030864749064149e-18
-1.099538713468776e-01  3.185306238686531e-03  1.924032433871345e-18
-1.099781103614556e-01 -2.194365813487512e-03  1.979737972103978e-18
-1.099977186949707e-01 -7.084362370949255e-04  1.964819539186888e-18
-1.099977186949707e-01 -7.084362370949255e-04  1.964819539186888e-18
-1.098081467917638e-01 -6.493912392261918e-03  2.020889546835855e-18
-1.096151130739374e-01  9.193855871605637e-03  1.856268161575115e-18
-1.099066799385454e-01 -4.530088838649135e-03  2.002465488105066e-18
-1.095667998098614e-01  9.752762656072948e-03  1.849665805235206e-18
-1.096636570347628e-01 -8.595482869615831e-03  2.039911052470677e-18
-1.068259861621119e-01  2.623373173020178e-02  1.631553786841344e-18
-1.098021790207676e-01 -6.594049005826047e-03  2.021812210559961e-18
-1.080645326928069e-01  2.054402039244488e-02  1.712054916832660e-18
-1.091898066651949e-01 -1.332614424420228e-02  2.080084147024740e-18
-1.098370522876728e-01  5.985143670368359e-03  1.893186186856424e-18
-1.078329983456226e-01 -2.172658435633363e-02  2.142249595030572e-18
-1.094941551191206e-01  1.053707714453519e-02  1.840314459859854e-18
-1.089526901771690e-01 -1.514302820302967e-02  2.094532198932432e-18
-1.089611380834717e-01  1.508212145404406e-02  1.784130106709338e-18
-1.067022689420554e-01 -2.673248590418058e-02  2.173560736414299e-18
-1.099504562718440e-01  3.301085520438066e-03  1.922782068476783e-18
-1.093664022591102e-01 -1.178940443357653e-02  2.067437432968816e-18
-1.098901122755686e-01  4.915610243181243e-03  1.905119520066671e-18
-1.080204174413246e-01 -2.077473022212066e-02  2.135804985952564e-18
-1.099782978378278e-01  2.184949586140741e-03  1.934745433618682e-18
-1.085375650319535e-01 -1.787727543375687e-02  2.115237948815915e-18
-1.085375650319535e-01 -1.787727543375687e-02  2.115237948815915e-18
-7.980861054117043e-02 -7.570063198869417e-02  2.198085917542998e-18
-1.031441427166123e-01  3.822676841239699e-02  1.442806895684996e-18
-1.092675261238904e-01 -1.267311069804335e-02  2.074757575041006e-18
-1.062793335881533e-01  2.836729194085967e-02  1.599903896113937e-18
-1.099962919075926e-01 -9.031979736511482e-04  1.966795253895300e-18
-1.062003267426478e-01  2.866165730998047e-02  1.595473377822207e-18
-1.099430856624489e-01 -3.538066565136764e-03  1.992920702901269e-18
-1.086012575086265e-01  1.748619076714308e-02  1.753024663736508e-18
-1.099901138057719e-01 -1.474742348095288e-03  1.972557718025561e-18
-1.090581033292067e-01  1.436419500828366e-02  1.793232152349538e-18
-1.082546097069770e-01 -1.951767089562705e-02  2.127056888748525e-18
-8.312472245581286e-02  7.204360149689915e-02  7.390817568615813e-19
-1.094873068183917e-01 -1.060799913533524e-02  2.057450563552786e-18
-1.099860425230110e-01 -1.752269992421857e-03  1.975336760420016e-18
-1.099692335020048e-01 -2.601477076869963e-03  1.983762918140708e-18
-1.097200036924539e-01  7.843518963311272e-03  1.872009036443568e-18
-1.099963585394790e-01 -8.950463978512418e-04  1.966712685209091e-18
-1.099969602765449e-01  8.177590843963124e-04  1.949124939721180e-18
-1.081417623997989e-01 -2.013353483781143e-02  2.131376414588313e-18
-1.099380047682919e-01  3.692574652859644e-03  1.918538070499573e-18
-1.089948257744737e-01 -1.483670968887797e-02  2.092134740691489e-18
-1.099990884245513e-01  4.478233666018133e-04  1.952963767766755e-18
-1.066332506990981e-01 -2.700647784038528e-02  2.175147642063992e-18
-1.061570716879036e-01  2.882145261171303e-02  1.593061763850303e-18
-1.052733215733207e-01 -3.189871102286327e-02  2.201211999829968e-18
-1.005224236685680e-01  4.466813562033719e-02  1.329967569828524e-18
-1.093466134214084e-01  1.197155517336776e-02  1.822950038713604e-18
-1.098475594270107e-01 -5.789100787624551e-03  2.014349258493444e-18
-1.093735814214096e-01  1.172261434383180e-02  1.825987743032609e-18
-1.090478733346806e-01  1.444165230101321e-02  1.792254251849395e-18
-1.099282087490618e-01  3.973527554028068e-03  1.915477049654916e-18
-1.096715464856652e-01 -8.494226947904346e-03  2.039011086848162e-18
-1.095405450141140e-01 -1.004335591377632e-02  2.052596496767721e-18
-1.053764167972478e-01  3.155646974825686e-02  1.551067771347848e-18
-1.099980267431365e-01  6.588722305258117e-04  1.950776423470765e-18
-1.033647342479795e-01 -3.762621046351194e-02  2.226094387845844e-18
-1.099997834443602e-01  2.182709183534002e-04  1.955334704489208e-18
-1.089378333576964e-01 -1.524953977439015e-02  2.095362171811178e-18
-1.097506521684691e-01  7.402320487229433e-03  1.877087616700015e-18
-1.098938097221282e-01  4.832244277413415e-03  1.906041875552466e-18
-1.093842478112578e-01 -1.162266452949919e-02  2.066041823913679e-18
-1.080828541393570e-01  2.044741159879153e-02  1.713373589088205e-18
-1.095665448144243e-01  9.755626962357230e-03  1.849631837580684e-18
-1.099879152656370e-01  1.630489349545071e-03  1.940613464730082e-18
-1.092818315299570e-01 -1.254915524878158e-02  2.073738559594377e-18
-1.095976552031714e-01  9.399679460847951e-03  1.853842715330700e-18
-1.083012584286180e-01 -1.925713952739671e-02  2.125210193229773e-18
-1.097892561388187e-01  6.805823718315089e-03  1.883903408011227e-18
-1.010559953809755e-01 -4.344750622947392e-02  2.244819325028861e-18
-1.099355761590301e-01  3.764185779426254e-03  1.917759072189612e-18
-1.072235779522381e-01 -2.455818256956847e-02  2.160497875189561e-18
-1.080303929297221e-01  2.072279429637278e-02  1.709610522105776e-18
-1.092171082031505e-01  1.310050669788147e-02  1.809045772076757e-18
-1.099991283925058e-01  4.378959796069632e-04  1.953066479339217e-18
-1.094002840366150e-01  1.147073897828167e-02  1.829050875804123e-18
-1.083524972694993e-01  1.896671651770693e-02  1.733385814294965e-18
-1.099056743258732e-01 -4.554421036204268e-03  2.002697596518712e-18
-1.099841793993136e-01 -1.865551355368221e-03  1.976467528763798e-18
-1.099279959207418e-01  3.979411118407530e-03  1.915412810634423e-18
-1.099279959207418e-01  3.979411118407530e-03  1.915412810634423e-18
-1.097762114590945e-01  7.013087600201833e-03  1.881541701281938e-18
-1.099297656228758e-01  3.930220108280207e-03  1.915949724354242e-18
-1.099995460217854e-01 -3.160300635045222e-04  1.960820227763585e-18
-1.098536204712610e-01  5.672924233237677e-03  1.896688978742734e-18
-1.098766669227288e-01 -5.207500931506395e-03  2.008891533857429e-18
-1.098436645922786e-01  5.862537755863832e-03  1.894563591936633e-18
-1.096867725163338e-01 -8.295295953127269e-03  2.037238108520792e-18
-1.098776190642454e-01  5.187372048784519e-03  1.902104934639463e-18
-1.099007143302193e-01 -4.672578485959796e-03  2.003823352352564e-18
-1.098934078881298e-01  4.841374054238215e-03  1.905940919296851e-18
-1.090825183998200e-01 -1.417759427945586e-02  2.086923164169067e-18
-1.097828721397130e-01  6.908037692090533e-03  1.882739585682906e-18
-1.090842547805580e-01 -1.416422814594036e-02  2.086816732969192e-18
-1.097307270686836e-01  7.692043745195367e-03  1.873756224554400e-18
-1.088017420585076e-01 -1.619200188469304e-02  2.102623720620330e-18
-1.096766989809393e-01  8.427437371132319e-03  1.865238827926953e-18
-1.097558442938743e-01 -7.324932992099737e-03  2.028497196274516e-18
-1.099822060434510e-01  1.978472596680097e-03  1.936936460859139e-18
-1.081384591297948e-01 -2.015126936531820e-02  2.131499844785993e-18
-9.471080285491239e-02  5.594518587490650e-02  1.110675250361870e-18
-9.218154544159000e-02 -6.002135186748131e-02  2.257178145656170e-18
-5.651964795378566e-02  9.436911250605283e-02  3.622620501786494e-20
-5.539737322535745e-02 -9.503226315168120e-02  1.962284318300390e-18
-1.095293821871206e-01  1.016437099419360e-02  1.844770787856542e-18
-1.097700431611375e-01 -7.108981952568184e-03  2.026531063572145e-18
-1.099565513147902e-01  3.091411159622742e-03  1.925044864925111e-18
-1.095544519395971e-01 -9.890503536950352e-03  2.051273484450491e-18
-1.085613264026507e-01  1.773241127701094e-02  1.749784215780108e-18
-1.083610833029541e-01  1.891760094224873e-02  1.734043257697630e-18
-1.099994584882495e-01  3.451554603313474e-04  1.954025228932304e-18
-1.052208526179332e-01 -3.207136065643465e-02  2.202052164447878e-18
-1.099986649020225e-01  5.419591981876445e-04  1.951989019205474e-18
-1.099943832941515e-01 -1.111595132773400e-03  1.968902492947685e-18
-1.098846104822564e-01  5.037100273242768e-03  1.903773343166883e-18
-1.098846104822564e-01  5.037100273242768e-03  1.903773343166883e-18
-1.097346453053215e-01  7.635942621261159e-03  1.874402372917703e-18
-1.098315839980412e-01  6.084665683598273e-03  1.892066319587185e-18
-1.099999971330225e-01 -2.511443728565068e-05  1.957839203448094e-18
-1.086306907907898e-01  1.730239920692348e-02  1.755436855616925e-18
-1.099757896696927e-01 -2.307744900857846e-03  1.980861601561180e-18
-1.659370511729187e-02  1.087412017152665e-01 -8.219715688012177e-19
-1.034850149836257e-01 -3.729412385133467e-02  2.224822857710184e-18
-1.093194261715832e-01  1.221732628342622e-02  1.819941000298613e-18
-1.067036999015035e-01 -2.672677360494151e-02  2.173527510245023e-18
-1.080152732356930e-01  2.080146023284233e-02  1.708533185194967e-18
-1.096476762799845e-01  8.796993031692551e-03  1.860925284180693e-18
-1.097901296984494e-01 -6.791717072845683e-03  2.023628746077821e-18
-1.080952238696309e-01 -2.038191788263065e-02  2.133100251485857e-18
-1.074333668075703e-01  2.362354114839629e-02  1.669181609957495e-18
-1.093600132136144e-01 -1.184852353325110e-02  2.067931159555966e-18
-1.093600132136144e-01 -1.184852353325110e-02  2.067931159555966e-18
-8.459299564649365e-02  7.031376172238431e-02  7.829849049911591e-19
-1.070575035793440e-01 -2.527233521775681e-02  2.164880042652103e-18
-1.054277078716805e-01 -3.138468436870948e-02  2.198678051027698e-18
-1.099833284583877e-01  1.915061673763433e-03  1.937607959769395e-18
-1.069516277312469e-01  2.571671296329897e-02  1.639101908446563e-18
-1.096197400348634e-01  9.138522565977754e-03  1.856919033478351e-18
-1.099812023572438e-01  2.033501427321829e-03  1.936353197821401e-18
-1.099812023572438e-01  2.033501427321829e-03  1.936353197821401e-18
-1.099898467934003e-01  1.494524126355669e-03  1.942044831846628e-18
-1.098701443215009e-01 -5.343349770741871e-03  2.010171253861279e-18
 1.095156299571473e-01 -1.031148850016777e-02 -1.843014471589619e-18
 1.095207055377515e-01  1.025743917910612e-02 -2.054443057401393e-18
 1.098065212075374e-01  6.521341909344712e-03 -2.021142445949143e-18
 1.096695520786350e-01 -8.519938196459614e-03 -1.864161227897985e-18
 1.099976374326864e-01 -7.209432898558135e-04 -1.950131737640947e-18
 1.099976374326864e-01 -7.209432898558135e-04 -1.950131737640947e-18
 1.099402106505176e-01 -3.626304195700654e-03 -1.919258231678193e-18
 1.099844082381904e-01 -1.852010932747336e-03 -1.938274999198397e-18
 1.097991500193330e-01 -6.644294923611971e-03 -1.885739131103602e-18
 1.099604838570346e-01 -2.948218093484014e-03 -1.926586105941882e-18
 1.099683329160590e-01  2.639271805392398e-03 -1.984135218245367e-18
 1.099683329160590e-01  2.639271805392398e-03 -1.984135218245367e-18
 1.088040149475320e-01 -1.617672189589544e-02 -1.770087291179087e-18
 1.092581889063960e-01 -1.275335865151592e-02 -1.813343672261283e-18
 1.097118187633609e-01  7.957186917208276e-03 -2.034209888844171e-18
 1.099978537804927e-01 -6.871416777233979e-04 -1.950482887093730e-18
 1.025831087841400e-01 -3.970775481163892e-02 -1.417606030379002e-18
 1.098888522319958e-01 -4.943698527875281e-03 -1.904808499166701e-18
 1.099583858492253e-01  3.025455574425654e-03 -1.987926096263053e-18
 1.099362514756198e-01 -3.744410699857438e-03 -1.917974272012721e-18
 1.099362514756198e-01 -3.744410699857438e-03 -1.917974272012721e-18
 1.099518615100928e-01  3.253943832534561e-03 -1.990157621714488e-18
 1.096655699566313e-01 -8.571042298760346e-03 -1.863565285200403e-18
 1.099096316704932e-01  4.457899287382361e-03 -2.001776296281166e-18
 1.046360539808027e-01 -3.393075606771034e-02 -1.513497202470501e-18
 1.093763208232668e-01  1.169702710801922e-02 -2.066664802187219e-18
 1.095224330935106e-01 -1.023897696439559e-02 -1.843880571204966e-18
 1.089497489008200e-01  1.516417536327625e-02 -2.094697134800695e-18
 1.099175231507052e-01 -4.258885348786370e-03 -1.912354939007114e-18
 1.044151113844632e-01  3.460468919915436e-02 -2.213742068565881e-18
 1.052093811387219e-01 -3.210897258410918e-02 -1.542418406627153e-18
 1.097188445110837e-01  7.859717498266984e-03 -2.033333457533750e-18
 1.095400060274165e-01 -1.004923278233107e-02 -1.846142855067648e-18
 1.080405184895300e-01  2.066993866738498e-02 -2.135086012925646e-18
 1.078813637251354e-01 -2.148514279228710e-02 -1.699125515785603e-18
 1.081166785593460e-01  2.026780247819132e-02 -2.132309568955670e-18
 1.037331410754228e-01 -3.659829835697773e-02 -1.470020762305473e-18
 1.097774716033488e-01  6.993334567707160e-03 -2.025475026694206e-18
 1.093962329835840e-01 -1.150930966658415e-02 -1.828582482672487e-18
 1.099824976221594e-01  1.962196929879571e-03 -1.977430597702768e-18
 1.099970809420622e-01 -8.013639780746635e-04 -1.949295540869573e-18
 1.099970809420622e-01 -8.013639780746635e-04 -1.949295540869573e-18
 1.099509276288733e-01  3.285348314897248e-03 -1.990463671832137e-18
 1.099595132050686e-01 -2.984201016064410e-03 -1.926199120574364e-18
 1.095742963719739e-01  9.668173280757468e-03 -2.049342277179782e-18
 1.098699849201483e-01 -5.346626379906272e-03 -1.900332795539194e-18
 1.091257397798522e-01  1.384098686871393e-02 -2.084233821317555e-18
 1.099970719374338e-01 -8.025990225132519e-04 -1.949282690988520e-18
 1.099229958090191e-01  4.115214741699622e-03 -1.998493167848174e-18
 1.092310770533318e-01 -1.298352054602413e-02 -1.810496354640986e-18
 1.099224044024373e-01  4.130981770352284e-03 -1.998644643554289e-18
 1.098637688350952e-01 -5.472869206248354e-03 -1.898925073710607e-18
 1.099943859742419e-01 -1.111329901257349e-03 -1.946062793443603e-18
 1.099943859742419e-01 -1.111329901257349e-03 -1.946062793443603e-18
 1.099874486195692e-01  1.661669689661571e-03 -1.974430898387163e-18
 1.099972683446903e-01 -7.752139744053101e-04 -1.949567557711037e-18
 1.099683044703816e-01  2.640456761501782e-03 -1.984146887014171e-18
 1.098876143213250e-01  4.971138578600682e-03 -2.006657818561565e-18
 1.098368736530307e-01  5.988421004580031e-03 -2.016207035220892e-18
 7.891801141676499e-02 -7.662863351269730e-02 -6.171087776240170e-19
 1.098849119701229e-01 -5.030518990944434e-03 -1.903846328787919e-18
 1.087648816706006e-01  1.643777707538898e-02 -2.104492996850154e-18
 1.098021322683230e-01 -6.594827467767729e-03 -1.886300463920420e-18
 1.091759102587105e-01 -1.343951707398394e-02 -1.804829397051095e-18
 1.099836380685936e-01 -1.897197194955795e-03 -1.937797020682417e-18
 1.097573273135975e-01 -7.302677657938313e-03 -1.878230202743551e-18
 1.097573273135975e-01 -7.302677657938313e-03 -1.878230202743551e-18
 1.097970839707365e-01  6.678349460980071e-03 -2.022587694619822e-18
 2.735174596369500e-02  1.065452110267628e-01 -1.581470284235248e-18
 7.200074888520130e-02 -8.316184317323730e-02 -4.268814837318532e-19
 1.050237567382859e-01  3.271101527891294e-02 -2.205116827042786e-18
 1.089275095104142e-01 -1.532310907937916e-02 -1.781055585831769e-18
 1.066604025077222e-01  2.689904341962016e-02 -2.174526991240803e-18
 1.094612113766427e-01 -1.087396909862651e-02 -1.836266744220679e-18
 1.094955287406358e-01 -1.052279363137536e-02 -1.840485663002158e-18
 1.098912817273788e-01  4.889396722888829e-03 -2.005883216553974e-18
 1.098912817273788e-01  4.889396722888829e-03 -2.005883216553974e-18
 1.099974214854220e-01  7.531710020607469e-04 -1.965273883447606e-18
 1.099813710323069e-01  2.024358133822525e-03 -1.978049232481621e-18
 1.099546804439588e-01 -3.157253310524385e-03 -1.924335066365070e-18
 1.098083590110655e-01  6.490322896195627e-03 -2.020856442763352e-18
 1.093289605645870e-01 -1.213170976684279e-02 -1.820990354801011e-18
 1.099040732793459e-01  4.592894142923723e-03 -2.003064401181322e-18
 1.098853631202982e-01  5.020654531048003e-03 -2.007126514177628e-18
 1.099999898617981e-01 -4.722715583013312e-05 -1.957095790458351e-18
 1.099999898617981e-01 -4.722715583013312e-05 -1.957095790458351e-18
 1.099970434628713e-01 -8.064920502565016e-04 -1.949242184803880e-18
 1.099999702884017e-01  8.084893729855425e-05 -1.958411377456927e-18
 1.099894947207053e-01  1.520214157235145e-03 -1.973013906988632e-18
 1.093265172611450e-01 -1.215370822212239e-02 -1.820720847165195e-18
 1.079882442500423e-01  2.094132526353422e-02 -2.136944129167427e-18
 1.031171451410348e-01  3.829953495752509e-02 -2.228606408929211e-18
 1.099779646861728e-01 -2.201654715629595e-03 -1.934567865650583e-18
 1.094045250100031e-01 -1.143021904145027e-02 -1.829542676615585e-18
 1.099289429627955e-01  3.953163174268842e-03 -1.996933983557000e-18
 1.099955197875989e-01 -9.927873165261007e-04 -1.947300952999731e-18
 1.099955197875989e-01 -9.927873165261007e-04 -1.947300952999731e-18
 1.099280514837018e-01 -3.977875940315712e-03 -1.915429572840781e-18
 1.093891759650124e-01 -1.157619029281572e-02 -1.827769720470380e-18
 1.045307723584597e-01  3.425372432515614e-02 -2.212194356978737e-18
 1.069874451927663e-01  2.556729495126026e-02 -2.166663874205586e-18
 1.087143362013122e-01 -1.676881344365157e-02 -1.762407825354178e-18
 1.099914876960356e-01 -1.368442330814043e-03 -1.943369478313640e-18
 1.084778057441979e-01  1.823638289036527e-02 -2.117864159670014e-18
 1.099266549106424e-01 -4.016284371962098e-03 -1.915010086474816e-18
 1.097019942510941e-01  8.091505257542125e-03 -2.035415122082197e-18
 1.099851379686287e-01 -1.808155419652802e-03 -1.938738585087593e-18
 1.099851379686287e-01 -1.808155419652802e-03 -1.938738585087593e-18
 1.097542754339761e-01 -7.348402817131430e-03 -1.877706081505211e-18
 1.099494351856772e-01 -3.334921640833728e-03 -1.922416243185079e-18
 7.748523722040898e-02 -7.807712861585571e-02 -5.767280907368854e-19
 1.058118458278494e-01  3.006415278206504e-02 -2.191946261832704e-18
 1.097732630585282e-01 -7.059087581486292e-03 -1.881016597879664e-18
 6.746295970712861e-02 -8.688353737938083e-02 -3.078870564542730e-19
 1.054772695447388e-01  3.121771307105039e-02 -2.197844490691530e-18
 1.095811143567007e-01  9.590587903961646e-03 -2.048666449788755e-18
 1.099977514856844e-01  7.033264487730491e-04 -1.964767621517986e-18
 1.099838583150093e-01 -1.884385879769843e-03 -1.937932571839656e-18
 1.099838583150093e-01 -1.884385879769843e-03 -1.937932571839656e-18
 1.095935229129945e-01 -9.447737058092574e-03 -1.853275401944093e-18
 1.099222232537827e-01  4.135799190659818e-03 -1.998690917041530e-18
 1.099398642279641e-01  3.636791654292676e-03 -1.993877738059017e-18
 1.087351970584302e-01  1.663300696399401e-02 -2.105970639951471e-18
 1.091800193147504e-01 -1.340609497320699e-02 -1.805245922548974e-18
 1.091827044531098e-01 -1.338420891591320e-02 -1.805518579077141e-18
 1.099948951710363e-01 -1.059734076389060e-03 -1.946601983565183e-18
 1.096224446258024e-01 -9.106021868127477e-03 -1.857301097764098e-18
 1.099382780747120e-01  3.684428580828963e-03 -1.994338962684888e-18
 1.082300207363417e-01 -1.965356485248880e-02 -1.724149081164626e-18
 1.097872020008752e-01  6.838879792695568e-03 -2.024061224020793e-18
 1.087206852101730e-01 -1.672760016949255e-02 -1.762944264960607e-18
 1.094948851969496e-01  1.052948791284512e-02 -2.056778755548839e-18
 1.096129841589099e-01 -9.219202990415334e-03 -1.855969842554855e-18
 1.086767161214557e-01  1.701091923020208e-02 -2.108812813169977e-18
 9.984034276049150e-02 -4.617256715266650e-02 -1.302371638976069e-18
 1.096011931330566e-01  9.358336594200356e-03 -2.046637477727312e-18
 1.099129685690154e-01  4.374853180000725e-03 -2.000982411785696e-18
 1.026323484862180e-01  3.958031132019329e-02 -2.233138386027307e-18
 9.890512958392048e-02 -4.814327930238883e-02 -1.265480053501375e-18
 1.097346109879485e-01  7.636435773548900e-03 -2.031319902186889e-18
 1.091241765864090e-01 -1.385330589924814e-02 -1.799657204780405e-18
 1.099994866004633e-01  3.360768281615762e-04 -1.961025143514712e-18
 1.099994866004633e-01  3.360768281615762e-04 -1.961025143514712e-18
 1.098926711954747e-01  4.858067262113049e-03 -2.005586044967785e-18
 1.099703293792969e-01 -2.554732120763678e-03 -1.930804244182189e-18
 1.098983788761945e-01  4.727189480477381e-03 -2.004342898292416e-18
 1.097899985361116e-01  6.793837018985413e-03 -2.023648193564034e-18
 1.098882809573230e-01  4.956380558873179e-03 -2.006518048852807e-18
 1.099988409756930e-01  5.049594084098500e-04 -1.962748861013627e-18
 1.099269454984134e-01  4.008323014526197e-03 -1.997465183616309e-18
 1.099269454984134e-01  4.008323014526197e-03 -1.997465183616309e-18
 1.099911944956342e-01 -1.391809406308352e-03 -1.943124172250641e-18
 1.099071076216332e-01  4.519700681092518e-03 -2.002366364690597e-18
 1.099715379783976e-01 -2.502165994849609e-03 -1.931365850492849e-18
 1.096851226286795e-01  8.317083258659421e-03 -2.037432603451563e-18
 1.096627521054193e-01 -8.607020429003506e-03 -1.863145475958410e-18
 1.099940551249513e-01  1.143607086855690e-03 -1.969225563984479e-18
 1.094397697717163e-01 -1.108768651764950e-02 -1.833689296441514e-18
 1.099742438988202e-01 -2.380268657680179e-03 -1.932666456432102e-18
 1.099028250024387e-01 -4.622667680383718e-03 -1.908355636620694e-18
 1.098610927074615e-01 -5.526328720088141e-03 -1.898328171742776e-18
 1.098610927074615e-01 -5.526328720088141e-03 -1.898328171742776e-18
 1.099798030746699e-01 -2.107822491756199e-03 -1.935564673980531e-18
 1.099584579319717e-01 -3.022834633707644e-03 -1.925783394344035e-18
 1.099746189199318e-01  2.362878205856192e-03 -1.981407241353167e-18
 1.074249208865080e-01 -2.366191819205334e-02 -1.668636994535239e-18
 1.099878765959395e-01  1.633095807450932e-03 -1.974144928477541e-18
 1.095348262156195e-01  1.010553540956481e-02 -2.053133595658072e-18
 1.099899872566802e-01 -1.484150691559696e-03 -1.942153914832401e-18
 1.085994850969484e-01 -1.749719510886272e-02 -1.752880055942881e-18
 1.092435027494272e-01  1.287855221039271e-02 -2.076440887344671e-18
 9.548259291745313e-02 -5.461752877748912e-02 -1.138051369525350e-18
 1.098475282240698e-01  5.789692829685603e-03 -2.014354786216996e-18
 1.097709034720717e-01 -7.095685373877191e-03 -1.880598577202170e-18
 1.099283478326795e-01  3.969677918591250e-03 -1.997093075505268e-18
 1.098542842326278e-01 -5.660056160228981e-03 -1.896833005943580e-18
 1.099826289403612e-01  1.954822592138579e-03 -1.977357166025410e-18
 1.098492014309120e-01 -5.757859410479823e-03 -1.895737658556862e-18
 1.095275514431433e-01  1.018407948071510e-02 -2.053811144202447e-18
 1.077268171040510e-01 -2.224708692459049e-02 -1.688546475146647e-18
 1.099250572206324e-01 -4.059777708277658e-03 -1.914534775444539e-18
 1.060717727805193e-01 -2.913381230113609e-02 -1.588334385707710e-18
 1.084344615661043e-01  1.849236450184175e-02 -2.119722916385145e-18
 1.057582135973869e-01 -3.025227688438359e-02 -1.571262408730311e-18
 1.003865869606119e-01  4.497258229632168e-02 -2.248576006259503e-18
 9.637336432073434e-02 -5.302994106637245e-02 -1.170215596203780e-18
 1.036088744199374e-01  3.694862841072134e-02 -2.223477243980558e-18
 9.468163416628393e-02 -5.599453680138722e-02 -1.109649095912246e-18
 1.029697115139884e-01  3.869416636556387e-02 -2.230037346030002e-18
 1.099560448820932e-01  3.109371944145905e-03 -1.988746646174986e-18
 1.087044997949553e-01  1.683246043596984e-02 -2.107473657499715e-18
 1.099688449610929e-01 -2.617849866406043e-03 -1.930129315281968e-18
 1.091963476024334e-01  1.327244025371574e-02 -2.079648761812089e-18
 1.099999805865985e-01  6.535248945695008e-05 -1.958252340353467e-18
 1.099865889630971e-01  1.717628674266245e-03 -1.974990558013317e-18
 1.099951135349096e-01  1.036821316468195e-03 -1.968147214653692e-18
 1.099951135349096e-01  1.036821316468195e-03 -1.968147214653692e-18
 1.099556740281700e-01 -3.122458808494710e-03 -1.924710249249803e-18
 1.099797284524921e-01  2.111712460549978e-03 -1.978917534788269e-18
 1.099871554533721e-01  1.680962603894368e-03 -1.974623908830161e-18
 1.099797284524921e-01  2.111712460544381e-03 -1.978917534788213e-18
 1.096829499602658e-01  8.345686791015982e-03 -2.037687829129608e-18
 1.070923005767160e-01 -2.512447327181690e-02 -1.647690397218542e-18
 1.092188092013212e-01  1.308631791778422e-02 -2.078136153368695e-18
 1.097601638409316e-01 -7.259919669788356e-03 -1.878720004926479e-18
 1.035630555771974e-01 -3.707685962314293e-02 -1.462076844817018e-18
 1.099628828787437e-01 -2.857339496037542e-03 -1.927562543970014e-18
 1.099335601971233e-01 -3.822609368662229e-03 -1.917122914586978e-18
-3.275912344309746e-02 -1.050087607356635e-01  1.661914548042020e-18
 1.040337213869397e-01  3.573492429521209e-02 -2.218567533651354e-18
 1.097674620571047e-01  7.148725308892273e-03 -2.026893478295634e-18
 1.097013831075496e-01  8.099786681793545e-03 -2.035489334679602e-18
 1.096433244774787e-01  8.851067592456916e-03 -2.042175250540817e-18
 1.097946174186583e-01  6.718778601083679e-03 -2.022959194111194e-18
 1.099521192373031e-01  3.245223447746430e-03 -1.990072609491792e-18
 1.098220812736741e-01  6.253836000282800e-03 -2.018670829848413e-18
 1.078946094977787e-01  2.141852565705134e-02 -2.140180847749434e-18
 1.098387145160264e-01 -5.954560728280998e-03 -1.893529996812791e-18
 1.095921155150931e-01  9.464048654059889e-03 -2.047562083700361e-18
 1.099999801184356e-01 -6.613579734694078e-05 -1.956901337640979e-18
 1.020747928984062e-01  4.099678834674012e-02 -2.237769806147933e-18
 1.091703766551582e-01 -1.348439323702832e-02 -1.804269833702107e-18
 1.014106428550669e-01  4.261316129697488e-02 -2.242558108781395e-18
 1.083985416209753e-01 -1.870176928650372e-02 -1.736927465006020e-18
 1.098469964997264e-01  5.799772408382343e-03 -2.014448887557526e-18
 1.089382071490991e-01  1.524686928978860e-02 -2.095341385615895e-18
 1.095285950838007e-01  1.017284910773550e-02 -2.053714329030155e-18
 1.099882978234364e-01 -1.604475585040350e-03 -1.940887554782682e-18
 1.099321798135103e-01  3.862103241753307e-03 -1.996055979449403e-18
 3.936654198312751e-02  1.027145334034604e-01 -1.755929090164868e-18
 1.034527429636873e-01 -3.738355217591240e-02 -1.456962545706897e-18
 2.936894830564788e-03  1.099607868685657e-01 -1.182072686225938e-18
 9.944052543131372e-02 -4.702745902070597e-02 -1.286472709297671e-18
 1.097304367499513e-01 -7.696184162613878e-03 -1.873708516701374e-18
 1.053781576961964e-01 -3.155065578645693e-02 -1.551158489066707e-18
 1.088558834076474e-01  1.582392642616249e-02 -2.099805388885312e-18
 1.099953337953924e-01 -1.013184701884414e-03 -1.947088067321787e-18
 1.099889911913371e-01 -1.556218722387747e-03 -1.941395715824969e-18
 1.091856760246461e-01 -1.335994577238022e-02 -1.805820756722943e-18
 1.093532697780249e-01  1.191059985283835e-02 -2.068448963708994e-18
 1.070194646329460e-01 -2.543293513689605e-02 -1.643224861108994e-18
 1.098525365482039e-01  5.693875123801959e-03 -2.013459423198989e-18
 1.099494165096021e-01 -3.335537317727808e-03 -1.922409584965617e-18
 1.099917465884064e-01  1.347472608895089e-03 -1.971279125003373e-18
 1.099803202986772e-01  2.080660231823182e-03 -1.978609017027334e-18
 1.099803202986772e-01  2.080660231823182e-03 -1.978609017027334e-18
 1.099636356282161e-01 -2.828221954664020e-03 -1.927875112204830e-18
 1.099999495849763e-01 -1.053152533686057e-04 -1.956498239583804e-18
 1.099005146344033e-01 -4.677273040268696e-03 -1.907753470629348e-18
 1.099591683313344e-01  2.996881692892878e-03 -1.987646435212889e-18
 1.099981937451046e-01  6.303751377985896e-04 -1.964025943832780e-18
 1.099997154478344e-01  2.502027086223283e-04 -1.960146890744007e-18
 1.099845615976022e-01 -1.842880946551907e-03 -1.938371535703560e-18
 1.099845615976022e-01 -1.842880946551907e-03 -1.938371535703560e-18
 1.099293398193010e-01 -3.942111983766734e-03 -1.915819961971070e-18
 1.099999338856857e-01 -1.206032532740662e-04 -1.956340881550865e-18
 1.095201839595241e-01 -1.026300664873231e-02 -1.843593648905551e-18
 1.095783751395970e-01 -9.621834636163173e-03 -1.851217039877568e-18
 1.098884550399421e-01  4.952519453223528e-03 -2.006481475402746e-18
 1.099465984034177e-01 -3.427170774488865e-03 -1.921417932924105e-18
 1.098528908658545e-01 -5.687035116349129e-03 -1.896531010346331e-18
 1.098528908658545e-01 -5.687035116349129e-03 -1.896531010346331e-18
 1.098993381439849e-01 -4.704835333355006e-03 -1.907449341030115e-18
 1.097544908061268e-01 -7.345185354212607e-03 -1.877742972572216e-18
 1.097891654755525e-01 -6.807286109873145e-03 -1.883886769008242e-18
 1.088284719420267e-01  1.601136142754374e-02 -2.101243395706422e-18
 1.088000022129080e-01 -1.620368842181113e-02 -1.769738808522274e-18
 1.088000022129080e-01 -1.620368842181113e-02 -1.769738808522274e-18
 1.054577398112925e-01 -3.128362373341143e-02 -1.555318405073748e-18
 1.078656041158735e-01  2.156412411199623e-02 -2.141160633612358e-18
 6.464662491913790e-02 -8.899895441275825e-02 -2.360318779088780e-19
 1.096775757431531e-01 -8.416019195846530e-03 -1.865371748559552e-18
 6.975273816337256e-02 -8.505619036091322e-02 -3.674117222215172e-19
 2.306964786441358e-02  1.075536672894601e-01 -1.515626762442884e-18
 1.074025882502747e-01 -2.376308138987655e-02 -1.667200143526201e-18
 1.090977952064792e-01  1.405955479683015e-02 -2.085982220362795e-18
 1.097173843652553e-01 -7.880074114294847e-03 -1.871586831494705e-18
 1.093090976310309e-01  1.230939377425538e-02 -2.071760330334910e-18
 1.099225633214273e-01 -4.126750882562183e-03 -1.913802268497022e-18
 1.099994048599278e-01  3.618431450576655e-04 -1.961288428390319e-18
 1.099994048599278e-01  3.618431450576655e-04 -1.961288428390319e-18
 1.099975018088732e-01  7.413472916664014e-04 -1.965153828570148e-18
 1.099736400134375e-01  2.408007930795595e-03 -1.981853512073832e-18
 1.099170719640041e-01  4.270514121260647e-03 -1.999983390669072e-18
 1.069749680564055e-01  2.561944982490736e-02 -2.166977701061125e-18
 1.071943202354328e-01 -2.468557694815754e-02 -1.654015459025963e-18
 1.099375386893926e-01  3.706425086012102e-03 -1.994551810541215e-18
 7.953467910725025e-02  7.598838608173394e-02 -2.196167549692286e-18
 1.094048456928042e-01 -1.142714920413784e-02 -1.829579925011756e-18
 1.096405039711608e-01 -8.885937707963159e-03 -1.859883770152116e-18
 1.099960191865626e-01 -9.358221568655083e-04 -1.947895136721691e-18
 1.099926671520508e-01  1.270107388403216e-03 -1.970500607995536e-18
 1.099926671520508e-01  1.270107388403216e-03 -1.970500607995536e-18
 1.099005519345469e-01  4.676396527443510e-03 -2.003859691317122e-18
 1.099454446486834e-01  3.463986287967867e-03 -1.992201535938549e-18
 1.098181462692473e-01  6.322558816343676e-03 -2.019306903720783e-18
 1.097148041623769e-01  7.915917357527202e-03 -2.033838987847105e-18
 1.098423465054424e-01  5.887182193396647e-03 -2.015264239150073e-18
 1.095950933011983e-01  9.429502866087102e-03 -2.047260131534214e-18
 1.099208735771955e-01  4.171516753667462e-03 -1.999033882921440e-18
 1.099600368234480e-01 -2.964844310564051e-03 -1.926407322105299e-18
 1.098047743867368e-01  6.550688656756782e-03 -2.021412886358138e-18
 1.099626627129297e-01 -2.865799902714409e-03 -1.927471698251549e-18
 1.096922522344234e-01  8.222517846715800e-03 -2.036587858035470e-18
 1.099985152219874e-01 -5.715321146987018e-04 -1.951682504496550e-18
 1.099985152219874e-01 -5.715321146987018e-04 -1.951682504496550e-18
 1.067065713766801e-01 -2.671530694252620e-02 -1.624480647927361e-18
 1.085977113898415e-01  1.750820038977787e-02 -2.112516212997245e-18
 9.699652679389947e-02 -5.188134337042806e-02 -1.193106939821949e-18
 9.352535236402486e-02  5.790516786250523e-02 -2.259349770889903e-18
 1.056259487161650e-01 -3.071089314575550e-02 -1.564196481914299e-18
 1.046404844891986e-01  3.391709017391841e-02 -2.210688021600207e-18
-2.561607096457524e-03 -1.099701694510075e-01  1.175490395964252e-18
 1.099985289333204e-01 -5.688870761397520e-04 -1.951709925316403e-18
 1.094314688718793e-01 -1.116931602842546e-02 -1.832702858457691e-18
 1.099978050715868e-01 -6.948952677339742e-04 -1.950402354939946e-18
 1.099990336817261e-01  4.610738405164776e-04 -1.962301382179624e-18
 1.099990336817261e-01  4.610738405164776e-04 -1.962301382179624e-18
 1.099600793182342e-01  2.963267846073710e-03 -1.987317277246319e-18
 1.099983290306809e-01  6.063088800201412e-04 -1.963781079344895e-18
 1.099163452618403e-01  4.289177576160619e-03 -2.000162218356424e-18
 1.095458851266465e-01  9.984941252681411e-03 -2.052091341017781e-18
 1.099841194140395e-01 -1.869084459896349e-03 -1.938094434938979e-18
 1.085644928903092e-01  1.771301452237689e-02 -2.114029440982937e-18
 1.097095576443051e-01  7.988301539803651e-03 -2.034489340977528e-18
 1.026301026711008e-01 -3.958613426086494e-02 -1.419691949631739e-18
 1.096886204856398e-01  8.270824381958610e-03 -2.037019558834995e-18
 1.062552392095034e-01 -2.845740923786166e-02 -1.598549185415392e-18
 1.076258294912131e-01  2.273061429720395e-02 -2.148878821053440e-18
 1.091285121618845e-01 -1.381911116292762e-02 -1.800085700011375e-18
 1.093982473226841e-01  1.149014720205019e-02 -2.064929394518952e-18
 1.093518917401176e-01 -1.192324506405488e-02 -1.823540341514749e-18
 1.093379888546095e-01  1.205007025826932e-02 -2.069610029199260e-18
 1.089144340890424e-01 -1.541577267163612e-02 -1.779870808363127e-18
 1.080053779097289e-01 -2.085277781439610e-02 -1.707829816557612e-18
 1.070102265843569e-01  2.547177666289743e-02 -2.166087880529705e-18
 1.099828672334694e-01 -1.941369389108567e-03 -1.937329449503474e-18
 1.093861730851164e-01 -1.160453091653802e-02 -1.827425091027257e-18
 1.099951299876931e-01 -1.035074388836453e-03 -1.946859531739133e-18
 1.099226387032440e-01 -4.124742478751831e-03 -1.913824245625924e-18
 1.099226387032440e-01 -4.124742478751831e-03 -1.913824245625924e-18
 1.099932949032277e-01  1.214527204927358e-03 -1.969940713382015e-18
 1.099243331479931e-01 -4.079335971570404e-03 -1.914320935657844e-18
 1.099290538358836e-01  3.950078827988481e-03 -1.996904266138284e-18
 1.095141027329986e-01 -1.032769589919025e-02 -1.842820767676882e-18
 1.099944430838798e-01  1.105662998864448e-03 -1.968842606456279e-18
 9.178226269977720e-02  6.063015960484530e-02 -2.256327711322868e-18
 1.096127243159422e-01  9.222291908043728e-03 -2.045444879152545e-18
 6.174529652192363e-02 -9.103580810549032e-02 -1.634713464886167e-19
 1.099995081100066e-01  3.289613297968695e-04 -1.960952417141853e-18
 1.099441313940753e-01 -3.505420374538834e-03 -1.920570043335433e-18
 1.098906635549960e-01 -4.903270688286086e-03 -1.905256115185613e-18
 1.098483643643440e-01 -5.773806931154650e-03 -1.895558906977141e-18
 1.098483643643440e-01 -5.773806931154650e-03 -1.895558906977141e-18
 1.099779744875409e-01  2.201165059173306e-03 -1.979805413845038e-18
 1.074612297635964e-01 -2.349646989859243e-02 -1.670983075426495e-18
 1.089000618485110e-01  1.551697552329068e-02 -2.097437787917921e-18
 9.885271852524698e-02 -4.825080351836868e-02 -1.263442563935389e-18
 1.003371442876582e-01  4.508278469879151e-02 -2.248828404568929e-18
 9.776069955216742e-02 -5.042663604753716e-02 -1.221652894882668e-18
 1.099984768771475e-01  5.788650167169443e-04 -1.963501734723257e-18
 1.078288285201759e-01  2.174726971291843e-02 -2.142387922537310e-18
 1.098447918684998e-01  5.841378207741979e-03 -2.014837137989293e-18
 1.095906506397329e-01  9.480996380124264e-03 -2.047710146224647e-18
 1.092724470591176e-01  1.263061018764567e-02 -2.074408471648165e-18
 1.092724470591176e-01  1.263061018764567e-02 -2.074408471648165e-18
 1.099990855957532e-01 -4.485176675260163e-04 -1.952956583735143e-18
 1.098603542961142e-01  5.540988533843331e-03 -2.012027695175908e-18
 1.098603542961142e-01  5.540988533843331e-03 -2.012027695175908e-18
 1.365179517529684e-02  1.091495693463408e-01 -1.364422153707527e-18
 1.098983900224354e-01 -4.726930343953518e-03 -1.907205449868769e-18
 1.098983900224354e-01 -4.726930343953518e-03 -1.907205449868769e-18
 1.096329564599978e-01 -8.978577718110576e-03 -1.858797610737179e-18
 9.704267877790647e-02  5.179496592920960e-02 -2.259164684840990e-18
 1.090710205796433e-01 -1.426577967427458e-02 -1.794473212034775e-18
 1.055718102157144e-01  3.089648665750066e-02 -2.196226469996893e-18
 1.095314699893065e-01  1.014184805553644e-02 -2.053446966853391e-18
 1.007444505617514e-01 -4.416509573193245e-02 -1.339087355349320e-18
 1.095666238066473e-01 -9.754739751143876e-03 -1.849642359114437e-18
 1.013669927487542e-01  4.271689105112798e-02 -2.242847088613694e-18
 1.097361112074105e-01 -7.614847147169772e-03 -1.874645208726873e-18
 3.167230137987924e-02  1.053416599703176e-01 -1.645993671722054e-18
 6.968738936004917e-02 -8.510973953773349e-02 -3.656985639765620e-19
 1.091512774967538e-01 -1.363813113394172e-02 -1.802350340353801e-18
 1.065530381944261e-01 -2.732123810402993e-02 -1.615522619241176e-18
 1.097395176941662e-01 -7.565596886677760e-03 -1.875211859757437e-18
 1.086316088898947e-01 -1.729663406541520e-02 -1.755512429020332e-18
 1.099997435105149e-01  2.375449870014063e-04 -1.960017336661418e-18
 1.095772048617227e-01  9.635153070499872e-03 -2.049054766559137e-18
 1.091889572708904e-01 -1.333310204324537e-02 -1.806154959979174e-18
 1.082582978680092e-01  1.949720345899185e-02 -2.126912228497298e-18
 1.084213911532841e-01 -1.856884327001844e-02 -1.738699866220524e-18
 1.095690091921711e-01  9.727909572249439e-03 -2.049861954203005e-18
 1.097886131792333e-01 -6.816187804088848e-03 -1.883785478562104e-18
 1.073818378567365e-01  2.385667408733826e-02 -2.156106554152440e-18
 1.098638306575889e-01 -5.471628024689142e-03 -1.898938926605262e-18
 1.094036052818874e-01  1.143901880953564e-02 -2.064499420134579e-18
 1.099764074546887e-01 -2.278113991928183e-03 -1.933754561570294e-18
 1.097436246119823e-01  7.505788234704542e-03 -2.030137954377304e-18
 1.099202968751955e-01  4.186685427496099e-03 -1.999179472434678e-18
 1.099202968751955e-01  4.186685427496099e-03 -1.999179472434678e-18
 1.095203667091467e-01  1.026105627574360e-02 -2.054474191896163e-18
 1.099958514950429e-01  9.553292000120599e-04 -1.967323045641708e-18
 1.080294054823427e-01  2.072794131435903e-02 -2.135484199833627e-18
 1.092905310129717e-01 -1.247316443019129e-02 -1.816798132464410e-18
 9.893841566088063e-02  4.807483652093621e-02 -2.254678605737082e-18
 1.097740143540453e-01  7.047394738326173e-03 -2.025968949433489e-18
 1.097740143540453e-01  7.047394738326173e-03 -2.025968949433489e-18
 9.583316670569864e-02  5.400003851070573e-02 -2.260296294492805e-18
 3.532261357639337e-02 -1.041744353002824e-01  4.417464361826634e-19
 9.453338137140017e-02  5.624446467421786e-02 -2.260225727523056e-18
 1.092150626677161e-01 -1.311754879871883e-02 -1.808834267938502e-18
 1.094600673801394e-01  1.088547881975173e-02 -2.059816808213644e-18
 1.078351215952830e-01 -2.171604362056897e-02 -1.695930159794350e-18
 1.099709530118834e-01  2.527744777086366e-03 -1.983035946274666e-18
 1.099173741027124e-01  4.262730388416108e-03 -1.999908792560423e-18
 1.099173741027124e-01  4.262730388416108e-03 -1.999908792560423e-18
 9.394273164660501e-02 -5.722554648733313e-02 -1.083851266847298e-18
 1.095857738016524e-01  9.537199814045917e-03 -2.048200826940143e-18
 1.091498000332729e-01 -1.364995064813448e-02 -1.802202605914138e-18
 1.091498000332729e-01 -1.364995064813448e-02 -1.802202605914138e-18
 1.016427961413549e-01  4.205641440454638e-02 -2.240969181363896e-18
 1.092959115664611e-01  1.242592913452721e-02 -2.072723027079807e-18
 1.099207091135388e-01  4.175848174533698e-03 -1.999075459870408e-18
 1.087170729242075e-01 -1.675106130346715e-02 -1.762638925394132e-18
 1.089817247282799e-01  1.493263791998570e-02 -2.092887219673621e-18
 9.573196955522417e-02 -5.417923961332053e-02 -1.146992586205603e-18
 1.044289381499842e-01  3.456294080177116e-02 -2.213559182734379e-18
 1.009953997992580e-01 -4.358817751854286e-02 -1.349480921438503e-18
-1.790154240477672e-02  1.085335652207645e-01 -7.965636546730383e-19
 1.021950358747060e-01 -4.069612564566225e-02 -1.400544658772808e-18
 1.095959664393954e-01 -9.419349245828226e-03 -1.853610561869674e-18
 1.074742807615642e-01 -2.343670144846395e-02 -1.671829432616025e-18
 1.073999062683950e-01  2.377519996845289e-02 -2.155590986116359e-18
 1.085394689956267e-01 -1.786571213658553e-02 -1.748025619241925e-18
 1.097964467698251e-01  6.688817288648581e-03 -2.022683907996155e-18
 1.077097154173616e-01 -2.232973812454897e-02 -1.687392919177628e-18
 1.097158643160990e-01  7.901209867565363e-03 -2.033706740430641e-18
 1.096007440112836e-01 -9.363595045336268e-03 -1.854268438616465e-18
 1.043511281807061e-01  3.479715573741344e-02 -2.214580934896111e-18
 1.096795394075007e-01 -8.390389464051327e-03 -1.865670030492608e-18
 1.098090301364670e-01  6.478958287290127e-03 -2.020751619012354e-18
 1.098222386893437e-01 -6.251071049091964e-03 -1.890190253991294e-18
 1.097805806036003e-01  6.944359029915859e-03 -2.025027149202841e-18
 1.099732261778781e-01 -2.426834157753720e-03 -1.932169901276616e-18
 1.098625516858162e-01  5.497248137143264e-03 -2.011617383660340e-18
 1.099888707679229e-01 -1.564706744760950e-03 -1.941306361400242e-18
 1.099932445209002e-01  1.219081525338937e-03 -1.969986610756174e-18
 1.099987331110544e-01  5.279336729005497e-04 -1.962982993655467e-18
 1.099935504578418e-01 -1.191158124757563e-03 -1.945227718435471e-18
 1.099757958411766e-01 -2.307450779496397e-03 -1.933442252343241e-18
 1.099938418977805e-01  1.163934949225173e-03 -1.969430630753943e-18
 1.099913660940543e-01  1.378181687470355e-03 -1.971587878279138e-18
 1.099999963466181e-01 -2.835037857016008e-05 -1.957289857892411e-18
 1.099785723557245e-01  2.171087883209793e-03 -1.979507021565684e-18
 1.098915600973203e-01 -4.883136223473846e-03 -1.905478944537379e-18
 1.097342550208487e-01  7.641549255177334e-03 -2.031366106493885e-18
 1.099411845703742e-01 -3.596656122410937e-03 -1.919580186926529e-18
 1.095316461562663e-01  1.013994528084032e-02 -2.053430551635803e-18
 1.094042732191321e-01 -1.143262880502339e-02 -1.829513436251375e-18
 1.098611271684197e-01  5.525643608149612e-03 -2.011883785823368e-18
 1.098714751688978e-01 -5.315914240302611e-03 -1.900674872370907e-18
 1.095992022653356e-01  9.381623676210420e-03 -2.046841314169544e-18
 1.099486398388847e-01 -3.361041145118436e-03 -1.922133720622128e-18
 1.098922211033578e-01  4.868237973917135e-03 -2.005682535410733e-18
 1.099978676384044e-01 -6.849197062616317e-04 -1.950505963661390e-18
 1.099897717814281e-01  1.500034489378118e-03 -1.972811498858149e-18
 1.099915274340913e-01  1.365244562529188e-03 -1.971457825258466e-18
 1.099579687815798e-01 -3.040575838405449e-03 -1.925592404895934e-18
 1.098879969696452e-01  4.962672868445957e-03 -2.006577646148372e-18
 1.099991238151595e-01  4.390442997726748e-04 -1.962076640683147e-18
 1.090771593642620e-01  1.421876594586688e-02 -2.087250817654707e-18
 1.097901992968972e-01 -6.790591899646608e-03 -1.884076694037807e-18
 1.098896714230532e-01  4.925455769101897e-03 -2.006225052868277e-18
 1.094156128846688e-01  1.132358852450315e-02 -2.063527105503079e-18
 1.095241817588783e-01  1.022025489154435e-02 -2.054122865856225e-18
 1.091282653964583e-01 -1.382105971190794e-02 -1.800061287893342e-18
 1.086490682108808e-01  1.718662203306183e-02 -2.110126068093250e-18
 1.074209518693227e-01 -2.367993031004585e-02 -1.668381293170926e-18
 1.097085310345458e-01  8.002388283635704e-03 -2.034615807407839e-18
 1.093868795498847e-01 -1.159786973279981e-02 -1.827506104653602e-18
 1.099952707290302e-01  1.020008454533089e-03 -1.967977266061827e-18
 1.098049607146395e-01  6.547564620256401e-03 -2.021384103945259e-18
 1.099805787936893e-01 -2.066951427839905e-03 -1.935998414160242e-18
 1.099805787936893e-01 -2.066951427839905e-03 -1.935998414160242e-18
 1.099701516355324e-01 -2.562371803227447e-03 -1.930722586057841e-18
 1.097630243157261e-01  7.216543013471289e-03 -2.027511305672586e-18
 1.099227978836052e-01 -4.120498202892676e-03 -1.913870686822958e-18
 1.089982719821392e-01 -1.481137079772115e-02 -1.787572813368778e-18
 1.095005565404595e-01  1.047034466145217e-02 -2.056272008448612e-18
 1.099972201647452e-01 -7.820204783300786e-04 -1.949496765936224e-18
 1.099850001299562e-01  1.816520413734165e-03 -1.975978359530834e-18
 1.099164990763713e-01 -4.285234041920008e-03 -1.912065991132561e-18
 1.086657665637172e-01 -1.708072531011760e-02 -1.758338689597949e-18
 1.090958654476551e-01  1.407452103011299e-02 -2.086101650612798e-18
 1.098871353471220e-01  4.981715086517873e-03 -2.006757964420989e-18
 1.089051034619374e-01 -1.548155160003931e-02 -1.779028904130082e-18
 1.098264532901475e-01  6.176581393215813e-03 -2.017954872073465e-18
 1.099245407073465e-01  4.073739102949370e-03 -1.998094514035487e-18
 1.098991113995422e-01 -4.710128829552376e-03 -1.907390917091834e-18
 1.099979182820993e-01 -6.767374709287087e-04 -1.950590934422024e-18
 1.096549484399348e-01  8.705876327814360e-03 -2.040890325317925e-18
 1.090211962703541e-01  1.464167899459905e-02 -2.090600165586912e-18
 1.099808376098582e-01 -2.053133856809841e-03 -1.936144990625498e-18
 1.098166279067165e-01  6.348876687866077e-03 -2.019550289217740e-18
 1.062795306601865e-01 -2.836655359134149e-02 -1.599914989518922e-18
 1.098753452042767e-01  5.235314340227208e-03 -2.009153784971760e-18
 1.097745174015443e-01 -7.039554620713851e-03 -1.881239614486039e-18
 1.099609507109738e-01 -2.930753953979254e-03 -1.926773851853800e-18
 1.092535805142822e-01 -1.279277705618406e-02 -1.812856650638142e-18
 1.096887072568218e-01  8.269673532082173e-03 -2.037009278467273e-18
 1.095395782387024e-01 -1.005389473224988e-02 -1.846087342215332e-18
 1.098683452723162e-01  5.380214412369748e-03 -2.010518008435910e-18
 1.097777406950513e-01 -6.989109234376104e-03 -1.881815284858132e-18
 1.096705411102711e-01  8.507197692560736e-03 -2.039126464683212e-18
 1.097158054077722e-01 -7.902027823528628e-03 -1.871333165675625e-18
 1.096566942456551e-01  8.683858999020825e-03 -2.040695173958103e-18
 1.074267871891654e-01 -2.365344360159257e-02 -1.668757280955642e-18
 1.090664634187561e-01 -1.430057891573291e-02 -1.794034562356394e-18
 1.072597431805296e-01  2.439974370453120e-02 -2.159513576784510e-18
 1.098654049469165e-01 -5.439926088654064e-03 -1.899292668838080e-18
 9.322661964062338e-02 -5.838490721395814e-02 -1.059195189188102e-18
-1.315791506371059e-02  1.092102068085952e-01 -8.879344081212209e-19
 1.089233097725148e-01 -1.535293418864129e-02 -1.780674404323162e-18
 1.091684709329819e-01  1.349981311554446e-02 -2.081488836783929e-18
 1.086409832227948e-01 -1.723765542016628e-02 -1.756285240611073e-18
 1.085107451702198e-01  1.803935094740318e-02 -2.116425924409787e-18
 1.099928837245879e-01 -1.251211392708762e-03 -1.944598827609350e-18
 1.081161464924244e-01  2.027064053325871e-02 -2.132329260174960e-18
 1.098127057921499e-01  6.416357736808397e-03 -2.020173833774504e-18
 1.052410605550499e-01 -3.200498669345585e-02 -1.544050596880644e-18
 1.099992479073778e-01 -4.067675149405040e-04 -1.953388439915293e-18
 1.096888807903677e-01  8.267371465978583e-03 -2.036988713810780e-18
 1.092741416427278e-01 -1.261594103684051e-02 -1.815039486304313e-18
 1.099762610527062e-01 -2.285170642859392e-03 -1.933679451647542e-18
 1.099579750850592e-01  3.040347873758252e-03 -1.988071799190436e-18
 1.097341706413216e-01 -7.642760866419377e-03 -1.874323870713497e-18
 1.098200968792486e-01  6.288586600535109e-03 -2.018992564976228e-18
 1.099262441474430e-01 -4.027511345325752e-03 -1.914887423380833e-18
 1.099650165639352e-01  2.774010110547951e-03 -1.985460586942331e-18
 1.099999816003975e-01  6.362320472149182e-05 -1.958234590622772e-18
 1.099921217738824e-01  1.316490668168407e-03 -1.970967473690345e-18
 1.099787642709688e-01  2.161344357258230e-03 -1.979410325736770e-18
 1.099725986787801e-01 -2.455104852328171e-03 -1.931868263064844e-18
 1.090210442919511e-01  1.464281057353358e-02 -2.090609087512427e-18
 1.099875264892794e-01  1.656507401138217e-03 -1.974379243532275e-18
 1.099625977763972e-01  2.868290478012203e-03 -1.986386238259188e-18
 8.969301791175247e-02 -6.368015811759585e-02 -9.419037519686733e-19
 1.096950188739533e-01  8.185525898987286e-03 -2.036257014861279e-18
 1.098584872735671e-01 -5.577882569887458e-03 -1.897752107860105e-18
 1.091954535718157e-01  1.327979364468500e-02 -2.079708404891740e-18
 1.099657702054937e-01 -2.743972141351090e-03 -1.928778735779939e-18
 1.099761991377969e-01  2.288148422547486e-03 -1.980667541838728e-18
 1.089534707448327e-01 -1.513741102880005e-02 -1.783425576976831e-18
 1.057444506831142e-01  3.030034900337587e-02 -2.193173715210929e-18
 1.099555169166598e-01 -3.127986507342317e-03 -1.924650658165465e-18
 1.073740557155673e-01  2.389167552077940e-02 -2.156327688681047e-18
 1.098215466943316e-01 -6.263216558982931e-03 -1.890053148412599e-18
 1.089710193060930e-01 -1.501056132831336e-02 -1.785041209148766e-18
 1.096161163934460e-01  9.181885798596466e-03 -2.045090087121754e-18
 1.099997225145598e-01  2.470763440878403e-04 -1.960114894244944e-18
 1.094219256421840e-01 -1.126242375140997e-02 -1.831576377271398e-18
-4.028448944868022e-02 -1.023579987585686e-01  1.768601796324342e-18
 1.068440849560954e-01  2.615992182508626e-02 -2.170201633631890e-18
 1.081996682727086e-01  1.981998450240983e-02 -2.129185302876998e-18
 1.099396216697923e-01 -3.644116779537674e-03 -1.919064732235502e-18
 1.066678927010482e-01  2.686932575852344e-02 -2.174354949993472e-18
 1.099858684150270e-01  1.763164482489550e-03 -1.975445598888547e-18
 1.077747051138321e-01  2.201392599302775e-02 -2.144164528370197e-18
 1.099316656756855e-01  3.876710173492468e-03 -1.996196910670865e-18
 1.021196526875447e-01  4.088491818476818e-02 -2.237418714331322e-18
 1.097302865141333e-01 -7.698325891139233e-03 -1.873683837593216e-18
 1.034512037348234e-01  3.738781146063542e-02 -2.225183752357762e-18
 1.099518483586889e-01  3.254388192557729e-03 -1.990161953307381e-18
 5.256778796585149e-02  9.662622660736182e-02 -1.928305868821725e-18
 8.858044715871369e-02  6.521889589039584e-02 -2.246495182883008e-18
 7.587725468197978e-02  7.964070706570818e-02 -2.168605590637251e-18
 6.489318035911917e-02 -8.881933991467618e-02 -2.422650997842952e-19
 1.063522609898147e-01  2.809264285100809e-02 -2.181307045922058e-18
 6.207187872360802e-02 -9.081344543470235e-02 -1.715679619932802e-19
 1.008899623803825e-01  4.383167223464054e-02 -2.245811735878525e-18
 1.051790072396263e-01 -3.220832867577272e-02 -1.540857019112837e-18
 1.020007283737432e-01  4.118071649723715e-02 -2.238341534514706e-18
 9.464012537647787e-02 -5.606466506387527e-02 -1.108189855062701e-18
 1.075218630758537e-01  2.321742795180658e-02 -2.152030448132034e-18
 1.078240083259401e-01 -2.177115588404906e-02 -1.695166127423459e-18
 1.099790537172355e-01  2.146565503631858e-03 -1.979263629426077e-18
 1.097298688526182e-01 -7.704276837391597e-03 -1.873615260997416e-18
 1.089120221020630e-01  1.543280407572472e-02 -2.096785803849928e-18
 1.092248937240578e-01 -1.303543597154466e-02 -1.809852902782982e-18
 1.098391641650772e-01  5.946260633135376e-03 -2.015814615114048e-18
 1.094268301282411e-01 -1.121467110908860e-02 -1.832154299503748e-18
 1.093226522691870e-01  1.218842487076890e-02 -2.070758639750680e-18
 1.092199461174371e-01 -1.307682568913868e-02 -1.809339589908869e-18
 1.097893971885774e-01  6.803547969167523e-03 -2.023737268352759e-18
 1.099951244549879e-01 -1.035662170642189e-03 -1.946853394033515e-18
 1.098506890105009e-01 -5.729408688353593e-03 -1.896056452644609e-18
 1.099994746688960e-01 -3.399596547766566e-04 -1.954078901900796e-18
 1.088672573320559e-01 -1.574548446367677e-02 -1.775643572809738e-18
-4.340448659839773e-02  1.010744801773894e-01 -2.660689525864296e-19
 1.076755971895817e-01 -2.249368288802229e-02 -1.685101271728351e-18
 1.097084520509714e-01 -8.003471033226168e-03 -1.870160011791731e-18
 1.097084520509714e-01 -8.003471033226168e-03 -1.870160011791731e-18
 1.057455928424239e-01  3.029636272565220e-02 -2.193153083742750e-18
 9.829961663129859e-02 -4.936785766204259e-02 -1.242122130436375e-18
 1.097326734108752e-01  7.664227691174759e-03 -2.031570972549239e-18
 1.083307304685925e-01 -1.909064787117301e-02 -1.731725098472305e-18
 1.070416626593544e-01  2.533934598842168e-02 -2.165286645910636e-18
 1.025301595118961e-01 -3.984427675921734e-02 -1.415261021502401e-18
 1.088729223506201e-01  1.570626559166153e-02 -2.098899694868622e-18
 1.071557642372988e-01 -2.485240814730818e-02 -1.651615179081646e-18
 1.099980066717233e-01 -6.622146536393598e-04 -1.950741724092740e-18
 1.089244931137003e-01  1.534453648447561e-02 -2.096100822942987e-18
 1.099891533233825e-01  1.544717192699512e-03 -1.973259591204182e-18
 1.095772061303762e-01  9.635138642541638e-03 -2.049054640894309e-18
 1.091561022171502e-01  1.359946134076669e-02 -2.082292570046568e-18
 1.082206227887881e-01 -1.970524811330233e-02 -1.723450806747826e-18
 1.095125944762623e-01  1.034367686452350e-02 -2.055184772276944e-18
 1.096824700889276e-01 -8.351991091438065e-03 -1.866116714794013e-18
 1.089583559487829e-01  1.510220741939033e-02 -2.094213609373809e-18
 1.091332418435664e-01 -1.378170978919545e-02 -1.800554155866920e-18
 1.099291433519053e-01  3.947586847203320e-03 -1.996880254985366e-18
 1.087387115418072e-01 -1.661001541924619e-02 -1.764473205628226e-18
 1.099999730095771e-01 -7.705772035055682e-05 -1.956788992339124e-18
 1.099999730095771e-01 -7.705772035055682e-05 -1.956788992339124e-18
 1.099962301330160e-01 -9.106901364038140e-04 -1.948157113145954e-18
 1.099962301330160e-01 -9.106901364038140e-04 -1.948157113145954e-18
 1.099546486835953e-01 -3.158359204886562e-03 -1.924323138488685e-18
 1.099998624159418e-01 -1.739783717708477e-04 -1.955791199708621e-18
 1.099299859002455e-01  3.924054022538323e-03 -1.996653457913476e-18
 1.099257607902973e-01 -4.040682451554096e-03 -1.914743493132048e-18
 1.099694170040494e-01  2.593708501249146e-03 -1.983686364486079e-18
 1.099507038430262e-01 -3.292829242930443e-03 -1.922871304553406e-18
 1.098700940686769e-01  5.344382970938510e-03 -2.010180975309020e-18
 1.098899389059129e-01 -4.919484450091740e-03 -1.905076628678231e-18
 1.099937694656695e-01  1.170759895588342e-03 -1.969499465582701e-18
 1.099192451489383e-01 -4.214207622739499e-03 -1.912844631424735e-18
 1.099990012162643e-01  4.687551858329243e-04 -1.962379727450719e-18
 1.099392874597183e-01 -3.654185661594575e-03 -1.918955330463177e-18
 1.099997578379369e-01  2.308150670886744e-04 -1.959948444152667e-18
 1.099983088183194e-01 -6.099648429143340e-04 -1.951283948976168e-18
 1.099976085427909e-01 -7.253377605612029e-04 -1.950086071920684e-18
 1.099998864755006e-01 -1.580359989009607e-04 -1.955955429967000e-18
 1.099976085427914e-01 -7.253377604885179e-04 -1.950086071921439e-18
 1.099991139725270e-01 -4.415034076748171e-04 -1.953029157705572e-18
 1.099976933594459e-01 -7.123591799616469e-04 -1.950220931535145e-18
 1.099971361971732e-01 -7.937432963450363e-04 -1.949374823936581e-18
 1.099977535649111e-01 -7.030011899410896e-04 -1.950318152911183e-18
 1.099961100783642e-01 -9.250770931881457e-04 -1.948007155875631e-18
 1.099929065661264e-01 -1.249201799290852e-03 -1.944619881944115e-18
 1.099929065661264e-01 -1.249201799290852e-03 -1.944619881944115e-18
 1.099935719578689e-01  1.189171118503483e-03 -1.969685119322975e-18
 1.099998329018220e-01  1.917330727639846e-04 -1.959548226709727e-18
 1.092399614664347e-01 -1.290855603124675e-02 -1.811424696526733e-18
 1.099953398954558e-01 -1.012522238325994e-03 -1.947094982452101e-18
 1.099999879860441e-01 -5.141079772286466e-05 -1.957052771676422e-18
 1.099999879860441e-01 -5.141079772286466e-05 -1.957052771676422e-18
 1.099991764961558e-01 -4.256408903453815e-04 -1.953193251991287e-18
 1.099989134399565e-01  4.889192458099059e-04 -1.962585343757855e-18
 1.099989134399565e-01  4.889192458099059e-04 -1.962585343757855e-18
 1.099988929317817e-01  4.935116841424907e-04 -1.962632164425987e-18
 1.099810316868637e-01  2.042711211368698e-03 -1.978231764629311e-18
 1.099810316868637e-01  2.042711211368698e-03 -1.978231764629311e-18
 1.099810316868637e-01  2.042711211368698e-03 -1.978231764629311e-18
 1.099944004641144e-01 -1.109894832857609e-03 -1.946077796114656e-18
 1.099966844661226e-01  8.540529610165520e-04 -1.966297292790762e-18
 1.099883318667517e-01  1.602140184019495e-03 -1.973834972779248e-18
 1.099564504664156e-01 -3.094996094772116e-03 -1.925006236301634e-18
 1.099766157371174e-01  2.268036818566802e-03 -1.980468316295644e-18
 1.099966238276023e-01  8.618274356982934e-04 -1.966376093559070e-18
 1.099966238276023e-01  8.618274356982934e-04 -1.966376093559070e-18
 1.099958669722742e-01  9.535454985110152e-04 -1.967304994192545e-18
 1.099999552742028e-01  9.919512765439731e-05 -1.958599610702605e-18
 1.098102399799342e-01  6.458420515049887e-03 -2.020562131471025e-18
 1.098102399799342e-01  6.458420515049887e-03 -2.020562131471025e-18
 1.099217310934239e-01  4.148859292018778e-03 -1.998816346257975e-18
 1.098338117754099e-01  6.044318893291660e-03 -2.016726875956695e-18
 1.096775000395475e-01 -8.417005707198876e-03 -1.865360265277815e-18
 1.090942120787661e-01  1.408733086546840e-02 -2.086203843346037e-18
 1.095810300619970e-01 -9.591550998231380e-03 -1.851575440767150e-18
 1.099693691355531e-01 -2.595737261054984e-03 -1.930365842578849e-18
 1.095095806473277e-01 -1.037553595947730e-02 -1.842248752527706e-18
 1.099999230698491e-01  1.300946857104983e-04 -1.958916519321816e-18
 1.098997216308914e-01 -4.695868977360227e-03 -1.907548291687682e-18
 1.099827625308170e-01 -1.947291988856893e-03 -1.937266733633979e-18
 1.099528276927071e-01  3.221130605523352e-03 -1.989837672099181e-18
 1.098907627328376e-01 -4.901047438574975e-03 -1.905280723256746e-18
 1.099993863186465e-01  3.674364178301032e-04 -1.961345567271961e-18
 1.096277850756690e-01 -9.041500948564141e-03 -1.858059066449700e-18
 1.099459331473297e-01  3.448446659418372e-03 -1.992050565316422e-18
 1.096999999469999e-01 -8.118498114072363e-03 -1.868827735049882e-18
 1.099952787243068e-01  1.019145898305942e-03 -1.967968545895419e-18
 1.099335196298683e-01 -3.823775855005586e-03 -1.917110207420856e-18
 1.099829278938296e-01  1.937929797658349e-03 -1.977188918932368e-18
 1.099863049489524e-01 -1.735719930179805e-03 -1.939503601235067e-18
 1.088828811678768e-01  1.563707736701455e-02 -2.098366040026868e-18
 1.095889643192286e-01 -9.500468379970116e-03 -1.852652481153831e-18
 1.099999539989475e-01  1.005993508471763e-04 -1.958614015891110e-18
 1.096889438435373e-01 -8.266534853811926e-03 -1.867109954777264e-18
 1.084711025609917e-01  1.827621156593414e-02 -2.118154093701865e-18
 1.005213075285319e-01 -4.467064732857893e-02 -1.329921899895449e-18
 1.091529044617168e-01  1.362510358020397e-02 -2.082499126869334e-18
 1.076492081984299e-01 -2.261963691687046e-02 -1.683337516261964e-18
 1.096780799726024e-01  8.409445494406337e-03 -2.038256259405624e-18
 1.068411156762951e-01 -2.617204617611097e-02 -1.632456831253055e-18
 9.722103367289162e-02  5.145940741569458e-02 -2.258890981119126e-18
 1.099215349749686e-01 -4.154052087628172e-03 -1.913503457880827e-18
 1.079743841720216e-01  2.101267147872079e-02 -2.137430528989149e-18
 1.095292890498231e-01 -1.016537457451814e-02 -1.844758818943973e-18
 1.097934422989343e-01 -6.737954300123412e-03 -1.884675239340813e-18
 1.099792493306388e-01  2.136519756321100e-03 -1.979163894195639e-18
 1.053702594046664e-01  3.157702381468665e-02 -2.199631904966156e-18
 1.099977164687606e-01  7.087818127670731e-04 -1.964823050233319e-18
 1.099904364453619e-01 -1.450479423766385e-03 -1.942507868725570e-18
 1.094281454606022e-01  1.120182936190544e-02 -2.062499106477146e-18
 1.099873190375595e-01 -1.670224814230969e-03 -1.940194586675348e-18
 1.099161960767960e-01  4.292998952632566e-03 -2.000198826685659e-18
 1.094229400793191e-01  1.125256345895034e-02 -2.062927744924898e-18
 1.099750339035904e-01  2.343484137797577e-03 -1.981215359478390e-18
 1.094264161671453e-01 -1.121870958776800e-02 -1.832105438670891e-18
 1.090979975227694e-01  1.405798479590021e-02 -2.085969689633294e-18
 1.099338696090078e-01 -3.813700668592625e-03 -1.917219954597481e-18
 1.099399925063673e-01  3.632911738519205e-03 -1.993840156201107e-18
 1.095344778573818e-01 -1.010931058533195e-02 -1.845427197086355e-18
 1.077972867606809e-01  2.190308122241043e-02 -2.143427505960882e-18
 1.097276612886670e-01 -7.735654343333364e-03 -1.873253582288627e-18
 1.099328826161753e-01 -3.842046290478864e-03 -1.916911148914972e-18
 1.098291738190937e-01  6.128015846525061e-03 -2.017504293781456e-18
 1.099839778596545e-01 -1.877395580854399e-03 -1.938006522061193e-18
 1.098152985740697e-01 -6.371828551356580e-03 -1.888826006893508e-18
 1.099998481744870e-01  1.827610182212371e-04 -1.959456313903882e-18
 1.099877229262513e-01 -1.643412759512978e-03 -1.940477258478569e-18
 1.059763050075274e-01 -2.947919227101538e-02 -1.583086769085408e-18
 1.075424989155780e-01  2.312165493629032e-02 -2.151413654572420e-18
 1.099890719193170e-01  1.550502604726237e-03 -1.973317585528634e-18
 1.099584570511321e-01 -3.022866674913026e-03 -1.925783049456698e-18
 1.098408920925820e-01 -5.914256023011216e-03 -1.893982865590205e-18
 1.099917192442269e-01  1.349702818820864e-03 -1.971301552977899e-18
 1.099647642800408e-01 -2.783992966051433e-03 -1.928349634701220e-18
 1.099992002011832e-01 -4.194700227620352e-04 -1.953257077273245e-18
 1.099849379363896e-01 -1.820282156285673e-03 -1.938610427461684e-18
 1.099980299624268e-01  6.583345540249869e-04 -1.964310301969529e-18
 1.099958743162534e-01  9.526979599746282e-04 -1.967296416736842e-18
 1.099965962650755e-01  8.653381408065036e-04 -1.966411674270677e-18
 1.099710340582789e-01 -2.524216344298223e-03 -1.931130323302917e-18
 1.099527113564277e-01  3.225099280650942e-03 -1.989876378451548e-18
 1.099999197826892e-01 -1.328450296720064e-04 -1.956214850765819e-18
 1.099997210827041e-01  2.477129937430373e-04 -1.960121410107295e-18
 1.099053669104087e-01  4.561833434968919e-03 -2.002768285398417e-18
 1.099766922766905e-01  2.264322388282026e-03 -1.980431513986818e-18
 1.098882719959075e-01 -4.956579239093505e-03 -1.904665828544807e-18
 1.098906087416856e-01 -4.904498993957583e-03 -1.905242519322806e-18
 1.099782167536992e-01  2.189027107259870e-03 -1.979685012213771e-18
 1.099888915439996e-01 -1.563245637214718e-03 -1.941321743484565e-18
 1.099979076557200e-01  6.784624998163782e-04 -1.964514932706889e-18
 1.099614028224790e-01  2.913741462874183e-03 -1.986831964987233e-18
 1.092055751245001e-01 -1.319630106230989e-02 -1.807856274889873e-18
 1.098757628099362e-01  5.226542541165369e-03 -2.009071089713793e-18
 1.098973977332080e-01 -4.749944364836607e-03 -1.906951330194084e-18
 1.047500734539561e-01  3.357710695385714e-02 -2.209145083870580e-18
 1.083856098354740e-01 -1.877656999007960e-02 -1.735928778401151e-18
 1.098336194309634e-01  6.047813050538537e-03 -2.016759354154218e-18
 1.099946572733863e-01 -1.084145428551846e-03 -1.946346932117201e-18
 1.099620425937301e-01  2.889496256208033e-03 -1.986594239788891e-18
 1.099621692231592e-01 -2.884673246185540e-03 -1.927268999264409e-18
 1.099999648783204e-01 -8.790203764718265e-05 -1.956677426212920e-18
 1.099755757468769e-01  2.317916983612521e-03 -1.980962309004573e-18
 1.099093082855759e-01 -4.465865222573840e-03 -1.910082102669803e-18
 1.088382195000784e-01 -1.594496710729493e-02 -1.773077198255291e-18
 1.096038127750996e-01  9.327605542735515e-03 -2.046368346992202e-18
 1.099533309739107e-01  3.203905076873798e-03 -1.989669642539204e-18
 1.097922142111558e-01 -6.757935972738877e-03 -1.884448079626526e-18
 1.099447890229049e-01 -3.484733377017349e-03 -1.920794298009441e-18
 1.099401668939432e-01  3.627630539607225e-03 -1.993788997235725e-18
 1.093991969226409e-01 -1.148110241576113e-02 -1.828925048758836e-18
 1.099079165460179e-01  4.499986723706318e-03 -2.002178206714317e-18
 1.094020459829947e-01 -1.145392224238875e-02 -1.829255017593933e-18
 1.099179952490425e-01  4.246683462588564e-03 -1.999754970266809e-18
 1.097890012815705e-01 -6.809933743823509e-03 -1.883856643503446e-18
 1.046040997556181e-01  3.402913919447063e-02 -2.211191774846826e-18
 1.029289915093887e-01 -3.880235439841449e-02 -1.433064086398421e-18
 1.094852793368234e-01 -1.062890439027992e-02 -1.839213013134649e-18
 1.098321746278561e-01  6.073995103396108e-03 -2.017002653241420e-18
 1.094964330403440e-01  1.051337963936582e-02 -2.056640794610053e-18
 1.099407694366347e-01  3.609323438082670e-03 -1.993611621383943e-18
 1.099147542260395e-01 -4.329757894997842e-03 -1.911577473023444e-18
 1.099779442756584e-01 -2.202674034020402e-03 -1.934557029294956e-18
 1.099850374404708e-01 -1.814259964336579e-03 -1.938674074090089e-18
 1.099874982048667e-01  1.658384344599334e-03 -1.974398025089636e-18
 1.099999999499937e-01 -3.316826953936334e-06 -1.957547132667662e-18
 1.099829731031058e-01 -1.935362343715987e-03 -1.937393053789160e-18
 1.099983444497379e-01  6.035050263169105e-04 -1.963752545167166e-18
 1.099836183399860e-01  1.898340550127126e-03 -1.976794441108576e-18
 1.099983830464578e-01 -5.964286752894644e-04 -1.951424349159475e-18
 1.099640269558399e-01 -2.812965633504532e-03 -1.928038829504415e-18
 1.097690043360495e-01  7.125004355951268e-03 -2.026677200814828e-18
 1.099720792822234e-01 -2.478261153377630e-03 -1.931621097202297e-18
 1.095230450839068e-01  1.023242862415822e-02 -2.054227718049469e-18
 1.097877692414386e-01 -6.829767564756236e-03 -1.883630932574644e-18
 1.098515580894943e-01  5.712721357674778e-03 -2.013635648565848e-18
 1.086927848775533e-01 -1.690794238107893e-02 -1.760594794550043e-18
 1.092355486044319e-01  1.294584570774552e-02 -2.076990750085927e-18
 1.088429726394257e-01 -1.591248902633327e-02 -1.773495486523248e-18
 1.015266577654971e-01  4.233601023912862e-02 -2.241775106061787e-18
 1.099898578051847e-01 -1.493713491678579e-03 -1.942053356791294e-18
 1.094718450543423e-01  1.076638938539883e-02 -2.058802805298817e-18
 1.099704664483860e-01  2.548825047817237e-03 -1.983243879420734e-18
 1.099322753082944e-01  3.859384088340591e-03 -1.996029740579471e-18
 1.099322753082944e-01  3.859384088340591e-03 -1.996029740579471e-18
 1.067407270259763e-01 -2.657851000274400e-02 -1.626494027310761e-18
 1.050594247753799e-01  3.259627687123578e-02 -2.204572686851552e-18
 1.099970423418496e-01 -8.066449313719376e-04 -1.949240594056037e-18
 1.073700440198058e-01  2.390969776439943e-02 -2.156441467775877e-18
 1.096595100230262e-01 -8.648228807667741e-03 -1.862664378113982e-18
 1.099262141146807e-01 -4.028330971176160e-03 -1.914878467554138e-18
 1.098919151458353e-01 -4.875139544720991e-03 -1.905567426018440e-18
 1.099959248693035e-01  9.468432533906644e-04 -1.967237161405367e-18
 1.084162026668972e-01 -1.859911286299048e-02 -1.738296521844509e-18
 1.095157640481378e-01  1.031006425550179e-02 -2.054895821242073e-18
 1.087063009553752e-01 -1.682082437335833e-02 -1.761730435159290e-18
 1.085407843502971e-01 -1.785771913269633e-02 -1.748131152758627e-18
 1.188892645597500e-02 -1.093556282398139e-01  9.120117264785992e-19
 1.098918368195314e-01 -4.876904800122830e-03 -1.905547894750443e-18
 1.098652134066380e-01  5.443793081468242e-03 -2.011115520879013e-18
 1.098798199373679e-01 -5.140541851941508e-03 -1.902625265062464e-18
 1.099933062476549e-01  1.213499365294343e-03 -1.969930354590785e-18
 1.098587018084575e-01 -5.573655619104649e-03 -1.897799356148148e-18
 1.099829501221037e-01 -1.936667870031059e-03 -1.937379231006188e-18
 1.096166822391340e-01 -9.175128058217857e-03 -1.856488508220836e-18
 1.099985926329060e-01  5.564339852588420e-04 -1.963273324035381e-18
 1.096370097621914e-01 -8.928946769082159e-03 -1.859379684056428e-18
 1.099866300624796e-01  1.714994897724607e-03 -1.974964228328665e-18
 1.096856839280377e-01 -8.309677565259244e-03 -1.866608665004775e-18
 1.096856839280377e-01 -8.309677565259244e-03 -1.866608665004775e-18
 1.084386554113510e-01 -1.846775602443988e-02 -1.740045739012589e-18
 1.099983578002400e-01 -6.010667603071407e-04 -1.951376245234242e-18
 1.090418440057669e-01  1.448710653726152e-02 -2.089379440820708e-18
 1.099045051831817e-01  4.582547374545443e-03 -2.002965778138872e-18
 1.098224190202913e-01  6.247902090424866e-03 -2.018615871684172e-18
 1.099140968563064e-01  4.346413724263135e-03 -2.000710285927449e-18
 1.099726266077126e-01  2.453853500231379e-03 -1.982306523881688e-18
 1.099471779824075e-01  3.408526617875771e-03 -1.991662554716484e-18
 1.099762628385707e-01  2.285084694619313e-03 -1.980637196778485e-18
 1.099762628385707e-01  2.285084694619313e-03 -1.980637196778485e-18
-1.090151299172192e-01 -1.468677803780592e-02  2.090955583882425e-18
-1.089167615390932e-01  1.539931997967026e-02  1.780081273546220e-18
-1.070775089921616e-01  2.518743869537982e-02  1.646780216473787e-18
-1.097357012844357e-01  7.620752168457818e-03  1.874577241709953e-18
-1.037629760447259e-01  3.651362488635718e-02  1.471421700323833e-18
 2.310209642309831e-02 -1.075467021384562e-01  6.938739328000768e-19
-1.022171864084944e-01  4.064045770818852e-02  1.401510821778658e-18
-1.090092189963020e-01  1.473058633647148e-02  1.788597659536531e-18
-1.090092189963020e-01  1.473058633647148e-02  1.788597659536531e-18
-1.097071161370747e-01  8.021762205798238e-03  1.869948302456886e-18
-1.097071161370747e-01  8.021762205798238e-03  1.869948302456886e-18
-1.097593449793722e-01  7.272289164982719e-03  1.878578340238617e-18
-1.097593449793722e-01  7.272289164982719e-03  1.878578340238617e-18
-1.003661304513232e-01 -4.501821695967019e-02  2.248680837863439e-18
-1.099933149065382e-01 -1.212714257807191e-03  1.969922441991718e-18
-1.072657688475652e-01  2.437324011166112e-02  1.658496119837795e-18
-1.099923423501588e-01 -1.297930786067676e-03  1.970780703061985e-18
-1.078086373980342e-01  2.184714403255379e-02  1.694111832804706e-18
-1.024158672476674e-01 -4.013714160111703e-02  2.235007073015083e-18
-1.092382530199197e-01  1.292300573225756e-02  1.811245827254370e-18
-1.098320786563586e-01 -6.075730246104138e-03  2.017018773275139e-18
-1.099826030582366e-01  1.956278235408995e-03  1.937171565210307e-18
-1.093632623115390e-01 -1.181849637549018e-02  2.067680462991214e-18
-1.099616486435167e-01  2.904449620794405e-03  1.927056539863787e-18
-1.098020874474789e-01 -6.595573680595995e-03  2.021826246383446e-18
-1.096854018956140e-01  8.313399485023116e-03  1.866565404527869e-18
-1.095142455756321e-01 -1.032618109467945e-02  2.055034392880298e-18
-1.099779957147786e-01 -2.200104215738762e-03  1.979794891828137e-18
-1.099516986216887e-01 -3.259443235478584e-03  1.990211227288510e-18
-1.099909998052457e-01  1.407111169168989e-03  1.942963487448243e-18
-1.099998085452895e-01  2.052315755802034e-04  1.955469125700360e-18
-1.098587297037230e-01 -5.573105766472079e-03  2.012328776514409e-18
-1.099990031759877e-01 -4.682950875418566e-04  1.962375034983534e-18
-1.099998380773854e-01 -1.887404274851202e-04  1.959517570471953e-18
-1.098855812021951e-01  5.015879170769129e-03  1.904008657405004e-18
-1.098726026215414e-01 -5.292560171488190e-03  2.009693157560945e-18
-1.099885481520279e-01  1.587222545518922e-03  1.941069278392117e-18
-1.099938256338104e-01 -1.165470908636489e-03  1.969446122742176e-18
-1.099609297305746e-01 -2.931541026082608e-03  1.987006429798363e-18
-1.099998034159139e-01  2.079626414568283e-04  1.955440973707241e-18
-1.098028742748429e-01 -6.582461620321649e-03  2.021705527258869e-18
-1.099750122362012e-01  2.344500724535370e-03  1.933047632431898e-18
-1.097465740548477e-01 -7.462538658110952e-03  2.029746069543153e-18
-1.097939184514312e-01  6.730191013666459e-03  1.884763477990636e-18
-1.097627809114941e-01 -7.220244218535877e-03  2.027545002541432e-18
-1.099726317926325e-01  2.453621120311857e-03  1.931884097172816e-18
-1.099952239426898e-01  1.025041363787860e-03  1.946964289468037e-18
-1.099883730144934e-01  1.599312860145365e-03  1.940941938020058e-18
-1.099553428735361e-01 -3.134098524788575e-03  1.988988209728969e-18
-1.099671994913545e-01  2.686081910254199e-03  1.929398972721401e-18
-1.099518339942625e-01 -3.254873468833569e-03  1.990166683712726e-18
-1.099999610574160e-01  9.256007199703036e-05  1.956629498604552e-18
-1.099721834538173e-01  2.473634249425688e-03  1.931670490817354e-18
-1.099695116853216e-01 -2.589691041781788e-03  1.983646771515658e-18
-1.099216016717132e-01  4.152286830793299e-03  1.913522782201668e-18
-1.099923638649444e-01 -1.296106246270104e-03  1.970762339459643e-18
-1.099254415905917e-01  4.049356876514342e-03  1.914648686027236e-18
-1.098423958454646e-01 -5.886261540929486e-03  2.015255657844970e-18
-1.097872867879857e-01  6.837518536175665e-03  1.883542708324330e-18
-1.988444323150003e-02 -1.081878408943131e-01  1.465458149963275e-18
-1.083511097467315e-01  1.897464141035901e-02  1.733279696279101e-18
-1.041763192568661e-01 -3.531705687187815e-02  2.216811796868136e-18
-9.762465109008872e-02  5.068952060868596e-02  1.216530706848147e-18
-1.068015224457496e-01 -2.633315027242291e-02  2.171224042357323e-18
-6.611993639934307e-03 -1.098010999038964e-01  1.245834727802950e-18
-1.084843223020592e-01  1.819757716463647e-02  1.743634425442397e-18
-1.084843223020592e-01  1.819757716463647e-02  1.743634425442397e-18
-1.079264157537907e-01  2.125767584991087e-02  1.702264410576201e-18
-1.097336571466716e-01 -7.650130013057978e-03  2.031443630779812e-18
-1.097601886015722e-01  7.259545312707629e-03  1.878724291954625e-18
-1.094343889170860e-01 -1.114066974395729e-02  2.061981823375866e-18
-1.099172708193305e-01  4.265392787295610e-03  1.912283586902594e-18
-1.098937286550099e-01 -4.834087535307056e-03  2.005358480739817e-18
-1.099986600503387e-01  5.429430264531666e-04  1.951978824385943e-18
-1.099897830636583e-01 -1.499206993502892e-03  1.972803197419379e-18
-1.099436037380279e-01  3.521930876019657e-03  1.920391013661737e-18
-1.085231644190342e-01 -1.796448675802397e-02  2.115877737406807e-18
-1.099998998535584e-01  1.484325000855284e-04  1.956054340507149e-18
-1.099530781977369e-01 -3.212568262668344e-03  1.989754155172620e-18
-1.090217942527622e-01  1.463722575860444e-02  1.789780697247901e-18
-1.099204854545438e-01 -4.181731392306372e-03  1.999131927517210e-18
-1.097051819220036e-01 -8.048171187299058e-03  2.035026608658704e-18
-1.099764135463615e-01  2.277819896223924e-03  1.933757691705403e-18
-1.099503810932621e-01 -3.303588570992283e-03  1.990641357584218e-18
-1.099154464154550e-01 -4.312150193488788e-03  2.000382257610566e-18
-1.099589250586791e-01  3.005794394126385e-03  1.925966789692467e-18
-1.096835499903837e-01 -8.337797161539016e-03  2.037617444304497e-18
-1.094164732607719e-01  1.131527194435658e-02  1.830936349656047e-18
-1.058507576537032e-01 -2.992686258425628e-02  2.191228137280599e-18
-1.092651804916919e-01  1.269331840449702e-02  1.814084987588700e-18
-1.080957836563339e-01 -2.037894883753839e-02  2.133079707698221e-18
-1.099696643917987e-01  2.583198318971062e-03  1.930499930090806e-18
-1.091752584587947e-01 -1.344481091184769e-02  2.081044501239965e-18
-1.098934163987752e-01 -4.841180868897428e-03  2.005425805193482e-18
-1.057959497802655e-01  3.012004332818114e-02  1.573292620871289e-18
-1.068815384554844e-01 -2.600647491277464e-02  2.169291552048547e-18
-1.046121415476761e-01 -3.400440913777150e-02  2.211080795780233e-18
-1.054793226661058e-01  3.121077522105951e-02  1.556450989720744e-18
-1.095775791942878e-01  9.630894969812056e-03  1.851109783444470e-18
-1.093014642889288e-01  1.237699092251394e-02  1.817980851006046e-18
-1.099771528600825e-01 -2.241840491655012e-03  1.980208717296869e-18
-1.096853151614733e-01  8.314543759476120e-03  1.866552103986051e-18
-1.098255160160977e-01 -6.193224668766325e-03  2.018109195773984e-18
-1.095903127932164e-01  9.484900731423036e-03  1.852836430790502e-18
-1.085478448150305e-01 -1.781475192114709e-02  2.114778483438883e-18
-1.084207183452197e-01  1.857277129311900e-02  1.738647533788044e-18
-1.099763904531117e-01 -2.278934598598238e-03  1.980576277829004e-18
-1.093034682199627e-01  1.235928133378198e-02  1.818198472940002e-18
-1.099962870458915e-01  9.037898637374532e-04  1.948229023773437e-18
-1.090749756498316e-01  1.423550796384183e-02  1.794854628054402e-18
-1.098836189834494e-01  5.058683534288227e-03  1.903533938096250e-18
 6.254226051195383e-02  9.049014117601352e-02 -2.042767457018641e-18
-1.087283893915947e-01 -1.667745005418176e-02  2.106306126006427e-18
-1.099807077771448e-01 -2.060076901051690e-03  1.978404426422524e-18
-1.098877308428669e-01 -4.968562186951902e-03  2.006633420713132e-18
-1.098477663094959e-01 -5.785173879351805e-03  2.014312592658078e-18
-1.099836340623257e-01 -1.897429430677375e-03  1.976785359485002e-18
-1.099836340623257e-01 -1.897429430677375e-03  1.976785359485002e-18
-1.098898439409374e-01 -4.921605290593244e-03  2.006188560761905e-18
-1.099381652751153e-01  3.687792827883614e-03  1.918590058424482e-18
-1.094738906530752e-01 -1.074556956510497e-02  2.058625293078072e-18
-1.091093526017384e-01  1.396958033834520e-02  1.798198716667963e-18
-1.099982716978791e-01 -6.166226394807968e-04  1.963886029171062e-18
-1.099982716978791e-01 -6.166226394807968e-04  1.963886029171062e-18
-1.099819579347897e-01 -1.992217064002941e-03  1.977729439294923e-18
-1.099687794674655e-01 -2.620599632890215e-03  1.983951315370918e-18
-1.099425923483969e-01 -3.553362873980374e-03  1.993069087805922e-18
-1.099885627986408e-01 -1.586207265591786e-03  1.973675377538808e-18
-1.099084204554610e-01 -4.487662307434442e-03  2.002060545483858e-18
-1.099936697138023e-01 -1.180094441534375e-03  1.969593599447857e-18
-1.098897170586636e-01 -4.924437507656370e-03  2.006215402741954e-18
-1.099754693688543e-01  2.322958695317191e-03  1.933277104177359e-18
-1.097935903549380e-01 -6.735541327320130e-03  2.023113147209824e-18
-1.099119485499424e-01 -4.400405203475586e-03  2.001226797088454e-18
-1.099119485499424e-01 -4.400405203475586e-03  2.001226797088454e-18
-1.099219191947272e-01 -4.143872651014345e-03  1.998768457820226e-18
-1.091991147288055e-01  1.324965442738520e-02  1.807193117997855e-18
-1.099621861479763e-01 -2.884028009185678e-03  1.986540610256243e-18
-1.098278240545319e-01  6.152159250762741e-03  1.891305935023285e-18
-1.097912482047046e-01 -6.773611861695456e-03  2.023462626763373e-18
-1.099825560770734e-01  1.958917750539069e-03  1.937143609065366e-18
-1.099825560770734e-01  1.958917750539069e-03  1.937143609065366e-18
-1.098367355464501e-01  5.990953555081713e-03  1.893120855613679e-18
-1.099858852128003e-01  1.762116328931159e-03  1.939224918121449e-18
-1.097581469795554e-01  7.290347839045879e-03  1.878371474087052e-18
-1.091838945296581e-01 -1.337449719938879e-02  2.080475742569906e-18
-1.082580821020846e-01  1.949840146212689e-02  1.726242714110371e-18
-1.090286544275903e-01 -1.458603831439704e-02  2.090161204614936e-18
-1.093641891882678e-01  1.180991630760941e-02  1.824923601076884e-18
-1.093423052526448e-01 -1.201084018865438e-02  2.069283769936956e-18
-1.098521399388122e-01  5.701521802430058e-03  1.896368801266992e-18
-1.099902449975255e-01  1.464925043916106e-03  1.942356038183597e-18
-1.099767573951817e-01  2.261157411883825e-03  1.933935011878904e-18
-1.099767573951817e-01  2.261157411883825e-03  1.933935011878904e-18
-1.099999820925023e-01  6.276662426992048e-05  1.956935989801294e-18
-1.099601420949474e-01  2.960937429080613e-03  1.926449337325188e-18
-1.097110802852375e-01 -7.967362339328135e-03  2.034301295510919e-18
-1.098954078491105e-01  4.795762053900556e-03  1.906445157722074e-18
-1.099807675175111e-01 -2.056885086518273e-03  1.978372694838768e-18
-1.091539888381093e-01 -1.361641365154111e-02  2.082429138780521e-18
-1.099066892664179e-01  4.529862524959490e-03  1.909377945066186e-18
-1.099066892664179e-01  4.529862524959490e-03  1.909377945066186e-18
-1.094915848337303e-01  1.056375172928619e-02  1.839994646897186e-18
-1.095323819314230e-01 -1.013199429672358e-02  2.053361952158947e-18
-1.099780268587381e-01  2.198546851593608e-03  1.934600904259516e-18
-1.098252880700700e-01 -6.197265552330530e-03  2.018146657813200e-18
-1.098078338558525e-01  6.499201788331953e-03  1.887384449589731e-18
-1.096537959466937e-01 -8.720380409181192e-03  2.041018839493081e-18
-1.098991292269486e-01  4.709712853073324e-03  1.907395508359007e-18
-1.094497696338994e-01 -1.098853616667475e-02  2.060692424337548e-18
-1.097277093905423e-01  7.734972004128468e-03  1.873261449106333e-18
-1.085086688994164e-01 -1.805183574257149e-02  2.116517251429160e-18
-1.096987052494371e-01  8.135973610889850e-03  1.868625139980930e-18
-1.096592581154611e-01 -8.651422401354062e-03  2.040407526821859e-18
-1.099468867969311e-01  3.417906327384807e-03  1.921518254059169e-18
-1.099313138203519e-01 -3.886674893949465e-03  1.996293032868292e-18
-1.099980847087898e-01  6.491227910541246e-04  1.950877626987589e-18
-1.099980847087898e-01  6.491227910541246e-04  1.950877626987589e-18
-1.099880262889334e-01  1.622982767886260e-03  1.940692567921693e-18
-1.099480767777279e-01 -3.379410137703741e-03  1.991379388594750e-18
-1.099916243506276e-01  1.357413979003322e-03  1.943485222553680e-18
-1.099996757591361e-01  2.670821688010363e-04  1.954831270235578e-18
-1.099916243506276e-01  1.357413978997948e-03  1.943485222553736e-18
-1.099805593097571e-01  2.067987889941557e-03  1.935987418148850e-18
-1.099999443321937e-01  1.106657772663952e-04  1.956443171414913e-18
-1.099812202347581e-01 -2.032534298257502e-03  1.978130555978766e-18
-1.099812202347581e-01 -2.032534298257502e-03  1.978130555978766e-18
-1.099989054044186e-01  4.907237814903713e-04  1.952519724526696e-18
-1.099091359873067e-01 -4.470103636796347e-03  2.001892870264325e-18
-1.099207641760999e-01  4.174398512625180e-03  1.913280688469948e-18
-1.099890530390607e-01 -1.551841348416307e-03  1.973331004637038e-18
-1.096670929536246e-01  8.551533377180931e-03  1.863792835830789e-18
-1.093095993789238e-01 -1.230493736754293e-02  2.071723471577084e-18
-1.099697249074978e-01 -2.580620810818377e-03  1.983557372730432e-18
-1.076726345011462e-01 -2.250786039548259e-02  2.147423056616180e-18
-1.099942303392616e-01 -1.126628631547443e-03  1.969054234671630e-18
-1.088585939560717e-01 -1.580526880211435e-02  2.099661926018468e-18
-7.318438419547932e-02  8.212214019330256e-02  4.586282563939859e-19
-7.085980426103754e-02 -8.413612862550432e-02  2.125502898833718e-18
-1.084264309975980e-01  1.853939214545849e-02  1.739092155867936e-18
-1.096988891871890e-01 -8.133493166947539e-03  2.035791274282284e-18
-1.097635974335150e-01 -7.207820645191010e-03  2.027431885821785e-18
-1.096149239033236e-01 -9.196111007841717e-03  2.045215024194955e-18
-1.096149239033236e-01 -9.196111007841717e-03  2.045215024194955e-18
-1.099078489653280e-01 -4.501637014977378e-03  2.002193960178634e-18
-1.092000238230295e-01 -1.324215983326595e-02  2.079403064222640e-18
-1.099863203442676e-01 -1.734744110270797e-03  1.975161632508225e-18
-1.099910899749566e-01 -1.400045042482242e-03  1.971807602440841e-18
-1.099910899749566e-01 -1.400045042482242e-03  1.971807602440841e-18
-1.050862041493540e-01 -3.250984001006858e-02  2.204161150406565e-18
 1.450504806566616e-02  1.090394588239169e-01 -1.378475461070641e-18
-9.631415890786872e-02 -5.313739543739210e-02  2.259992780273984e-18
-1.089275726175034e-01 -1.532266046280770e-02  2.095930858210823e-18
-1.019157729599150e-01 -4.139052091944525e-02  2.238985315809379e-18
-2.050783566223776e-02  1.080714054523703e-01 -7.454330335265800e-19
-8.435224831517432e-02 -7.060239517307562e-02  2.226562840342073e-18
-1.098815671173871e-01  5.103058673689091e-03  1.903041484254993e-18
-8.372703330016081e-02 -7.134272138595314e-02  2.223042976264387e-18
-1.091109605740026e-01  1.395701553407495e-02  1.798356431251905e-18
-1.081246446062472e-01 -2.022526214348562e-02  2.132014247777108e-18
-7.770925357009334e-02  7.785417079115864e-02  5.830055395504452e-19
-9.836256027828026e-02 -4.924232666620910e-02  2.256426109425396e-18
-1.071910209531591e-01  2.469989933217103e-02  1.653809587069549e-18
-1.037677091337864e-01 -3.650017179584034e-02  2.221696168371984e-18
-1.087200185737555e-01  1.673193238458213e-02  1.762887889434089e-18
-1.089482902291358e-01 -1.517465176364680e-02  2.094778817206139e-18
-1.085426547096171e-01  1.784634720576730e-02  1.748281280451871e-18
-4.879896635272025e-02 -9.858326877774970e-02  1.881343089966109e-18
-1.090705936287529e-01  1.426904360745373e-02  1.794432078206671e-18
-1.047722170718030e-01  3.350794726417845e-02  1.520264593957991e-18
-1.096657174936451e-01 -8.569154369245675e-03  2.039677205017383e-18
-1.096657174936451e-01 -8.569154369245675e-03  2.039677205017383e-18
-1.097331857630741e-01 -7.656888551273854e-03  2.031504683471393e-18
-1.096056200277590e-01 -9.306345057565689e-03  2.046182065447251e-18
-1.096056200277590e-01 -9.306345057565689e-03  2.046182065447251e-18
-1.099987624860990e-01 -5.217772769455489e-04  1.962920261687431e-18
-1.096796202135909e-01  8.389333096404293e-03  1.865682322327198e-18
-1.096796202135909e-01  8.389333096404293e-03  1.865682322327198e-18
-1.099999831032085e-01 -6.096961379007364e-05  1.958207352684239e-18
-1.097285954659091e-01  7.722391927300364e-03  1.873406473593860e-18
-1.094188897200991e-01  1.129188081856851e-02  1.831219688752375e-18
-1.099931214571472e-01 -1.230134997966912e-03  1.970097991105736e-18
-1.075876873600198e-01  2.291046766267783e-02  1.679254499295075e-18
-1.096386796850227e-01 -8.908418317803229e-03  2.042681848787604e-18
-1.098480518188011e-01  5.779750134213765e-03  1.895492280603951e-18
-1.096006017876538e-01  9.365259621821260e-03  1.854248804658631e-18
-1.097552887078014e-01  7.333253075348806e-03  1.877879772014956e-18
-1.098606088795449e-01 -5.535938639075293e-03  2.011980339957477e-18
-1.087944279881761e-01  1.624107258544035e-02  1.769255499843301e-18
-1.098320474409675e-01 -6.076294506113078e-03  2.017024015326633e-18
-1.087066723284210e-01 -1.681842416165275e-02  2.107368102704598e-18
-1.099209103472660e-01 -4.170547737201789e-03  1.999024580996536e-18
-1.094542056740315e-01  1.094426152222143e-02  1.835419840268801e-18
-1.081657985116245e-01 -2.000400040848335e-02  2.130473246664375e-18
-1.097517725723539e-01  7.385690030475887e-03  1.877278427525386e-18
-1.086338425069075e-01 -1.728259998334691e-02  2.110841247102297e-18
-1.098928190446918e-01  4.854721661494956e-03  1.905793298309715e-18
-1.095345655757159e-01 -1.010836011127199e-02  2.053157980043994e-18
-1.097732795550913e-01  7.058831044850714e-03  1.881019527276418e-18
-1.095777371456174e-01 -9.629097675585065e-03  2.049002022202975e-18
-1.099250870589499e-01  4.058969706988292e-03  1.914543608372716e-18
-1.099150025450698e-01 -4.323449492854851e-03  2.000490454603867e-18
-1.074876089371145e-01  2.337549839002166e-02  1.672695462590536e-18
-1.099262423731885e-01 -4.027559771250373e-03  1.997650321351390e-18
-1.091951204544366e-01  1.328253247468428e-02  1.806784225128574e-18
-1.097759380956661e-01 -7.017365261724406e-03  2.025694642747121e-18
-1.079051133887820e-01  2.136554479890606e-02  1.700776995315273e-18
-1.091610366922494e-01 -1.355979602624449e-02  2.081972838219572e-18
-1.092801451070639e-01  1.256383243198586e-02  1.815681722098680e-18
-1.089754549106101e-01 -1.497832524101199e-02  2.093245061415926e-18
-9.790519051995225e-02  5.014552491750204e-02  1.227112598750929e-18
-1.053232805290781e-01 -3.173336695960711e-02  2.200402228855690e-18
-1.078529406552315e-01  2.162737136175049e-02  1.697158346468740e-18
-1.097995692789142e-01 -6.637362892360711e-03  2.022210801540113e-18
-8.421117372099576e-02 -7.077060279898877e-02  2.225780521910028e-18
-1.099425245706627e-01 -3.555459327456014e-03  1.993089421918174e-18
-1.068356777301200e-01 -2.619423531897611e-02  2.170404575701762e-18
-1.068356777301200e-01 -2.619423531897611e-02  2.170404575701762e-18
-1.098818205200883e-01 -5.097599355683709e-03  2.007854049502400e-18
-1.037730057840071e-01  3.648511025819166e-02  1.471893168944098e-18
-1.060163369362152e-01 -2.933489905601937e-02  2.188092607913828e-18
-1.077767444667301e-01  2.200393946894842e-02  1.691933243899231e-18
-1.092116088849446e-01 -1.314627265660724e-02  2.078624028311486e-18
-3.248450952361236e-02  1.050940371334658e-01 -5.017024579858382e-19
-1.083918231641673e-01 -1.874066890876193e-02  2.121515352740955e-18
-1.035134735040172e-01  3.721506150919391e-02  1.459774498506764e-18
-1.067247398161309e-01 -2.664263333792516e-02  2.173037429945299e-18
-1.033229159050404e-01  3.774089358878385e-02  1.450980565129630e-18
-1.098609067632348e-01 -5.530023974612499e-03  2.011924870124340e-18
-1.098609067632348e-01 -5.530023974612499e-03  2.011924870124340e-18
-1.089985790756474e-01 -1.480911069206420e-02  2.091917965496640e-18
-1.051158719887499e-01 -3.241378496943410e-02  2.203702194349229e-18
-1.068449465466069e-02  1.094798683501880e-01 -9.347225490824549e-19
-8.785261570622012e-02 -6.619605663160888e-02  2.243582525638475e-18
-1.057638436833767e-01 -3.023258787001581e-02  2.192822615753817e-18
-9.506379746695004e-02 -5.534324178400352e-02  2.260405376838172e-18
 1.652077635296193e-02  1.087523054868051e-01 -1.411397354166589e-18
-9.376782148299166e-02 -5.751170015165415e-02  2.259622060296137e-18
-1.091654620063657e-01 -1.352412307459093e-02  2.081685065343703e-18
-9.971320388831030e-02 -4.644649578093294e-02  2.251736276871198e-18
-7.463739705732950e-02  8.080383011037599e-02  4.980315106847576e-19
-1.008304941250254e-01 -4.396830056419278e-02  2.246157233791121e-18
-1.066037798063480e-01  2.712257603915305e-02  1.618466807300467e-18
-1.099994524184342e-01  3.470844920222002e-04  1.954005300812838e-18
-7.980692750299333e-02  7.570240631929694e-02  6.424447476562420e-19
-1.036866611030336e-01 -3.672977415264930e-02  2.222612902795380e-18
-1.073929200394943e-01 -2.380673697487199e-02  2.155790689124058e-18
-1.099302835880814e-01 -3.915705586986661e-03  1.996572978481067e-18
-1.073955803784030e-01 -2.379473292949387e-02  2.155714695822772e-18
-1.098370155248059e-01 -5.985818290217776e-03  2.016182818053783e-18
-1.098889097914191e-01 -4.942418927339119e-03  2.006385789013497e-18
-1.099909835095683e-01  1.408384392785560e-03  1.942950115537089e-18
-1.099118373456138e-01 -4.403181953009702e-03  2.001253348167526e-18
-1.099953340960593e-01 -1.013152059792432e-03  1.967907946788469e-18
-1.099953340960593e-01 -1.013152059792432e-03  1.967907946788469e-18
-1.099746738516809e-01  2.360320151247432e-03  1.932879071612998e-18
-1.085699712320116e-01  1.767940459065724e-02  1.750482685276979e-18
-1.086819928295598e-01 -1.697717392841012e-02  2.108559997767766e-18
-1.097799139419839e-01  6.954889998451844e-03  1.882205550597893e-18
-1.099940720028443e-01  1.141982588777635e-03  1.945742260719039e-18
-1.095526763935427e-01  9.910151109426170e-03  1.847797353011322e-18
-1.099515949134297e-01 -3.262939777718837e-03  1.990245307377658e-18
-1.095214367024098e-01  1.024962939037353e-02  1.843753389429588e-18
-1.099091257009918e-01  4.470356545461200e-03  1.910032706648235e-18
-1.074790865765075e-01  2.341465243559171e-02  1.672141503423010e-18
-1.099727866795534e-01  2.446669150784257e-03  1.931958282531774e-18
-1.057139891327502e-01  3.040645493379254e-02  1.568891258180053e-18
-9.548390309887388e-02  5.461523824908962e-02  1.138098220113795e-18
-1.048707554471761e-01 -3.319826278494925e-02  2.207400277682360e-18
-1.076228166877396e-01 -2.274487476767408e-02  2.148971725775486e-18
-1.087811946376477e-01 -1.632947314539424e-02  2.103670522020601e-18
-1.089318978879935e-01 -1.529188093465723e-02  2.095691583088140e-18
-1.095388578707106e-01 -1.006174022623472e-02  2.052755364170374e-18
-1.085205195908209e-01 -1.798045682785090e-02  2.115994756199887e-18
-1.060520492599309e-01 -2.920552769201661e-02  2.187398907545345e-18
-1.086505222469557e-01 -1.717742749842809e-02  2.110057473896388e-18
-1.099418987167248e-01  3.574759650857512e-03  1.919817874303550e-18
-1.094897221111757e-01 -1.058304077368583e-02  2.057237108469655e-18
-1.093938508603691e-01  1.153192932424106e-02  1.828307681183028e-18
-1.086797256722506e-01 -1.699168113531777e-02  2.108668707280008e-18
-1.099856831512765e-01  1.774683562487818e-03  1.939092198436128e-18
-1.090087719616021e-01 -1.473389410249018e-02  2.091326536926884e-18
-1.063076729844584e-01 -2.826090346449372e-02  2.182242365859532e-18
-1.063076729844584e-01 -2.826090346449372e-02  2.182242365859532e-18
-6.732415196313453e-02  8.699114071240088e-02  3.043112219164644e-19
-1.096935078298612e-01 -8.205750421512793e-03  2.036437923651179e-18
-1.096935078298612e-01 -8.205750421512793e-03  2.036437923651179e-18
-1.070988044101742e-01  2.509673472607952e-02  1.648091144173815e-18
-1.096892381989624e-01 -8.262628112849911e-03  2.036946338092783e-18
-1.069712790215248e-01  2.563484863421364e-02  1.640292752840345e-18
-1.066897199276682e-01 -2.678252530579742e-02  2.173851548408001e-18
-1.023604439098792e-01  4.027827606256800e-02  1.407781544738036e-18
-1.083827811254699e-01  1.879289108967693e-02  1.735710744763045e-18
-1.084210381779216e-01 -1.857090413581534e-02  2.120290997388308e-18
-1.091969987341942e-01  1.326708209985740e-02  1.806976398346020e-18
-1.098579464341331e-01 -5.588524427351907e-03  2.012473258437120e-18
-1.064548734764697e-01  2.770126194072714e-02  1.609871054119771e-18
-7.156128668397382e-02 -8.354030313647463e-02  2.131864724854995e-18
-1.099258897619862e-01  4.037172282134840e-03  1.914781854052732e-18
-1.084700763401493e-01 -1.828230124361143e-02  2.118198400103781e-18
-1.035714222520992e-01  3.705348151897910e-02  1.462465941304714e-18
-1.048004448200839e-01 -3.341955663249469e-02  2.208422730097497e-18
-1.083848260326283e-01  1.878109384133065e-02  1.735868348766338e-18
-1.096861818718416e-01 -8.303102214066877e-03  2.037307803792870e-18
-1.097387659644473e-01  7.576492895807333e-03  1.875086529294796e-18
-1.091114368600512e-01 -1.395329159499720e-02  2.085133174064016e-18
-1.098950302470571e-01  4.804407039205037e-03  1.906349613759588e-18
-1.094591127965625e-01 -1.089507346415712e-02  2.059898401746027e-18
-1.099988206750458e-01  5.093624437152512e-04  1.952326711182971e-18
-1.097770193877017e-01 -7.000429583400095e-03  2.025539877686172e-18
-1.097770193877017e-01 -7.000429583400095e-03  2.025539877686172e-18
-1.088005465039624e-01 -1.620003334685075e-02  2.102684964657158e-18
-1.093621597350229e-01  1.182869469093299e-02  1.824694543468571e-18
-1.099517730579496e-01 -3.256931287749368e-03  1.990186742620165e-18
-1.089989400139378e-01  1.480645385762382e-02  1.787635221564810e-18
-1.099992958172449e-01 -3.935984123569040e-04  1.961612761681425e-18
-1.095059356345475e-01  1.041393589390234e-02  1.841789339800737e-18
-1.099228755384769e-01  4.118426077091451e-03  1.913893359123894e-18
-1.099228755384769e-01  4.118426077091451e-03  1.913893359123894e-18
-1.099987160288150e-01 -5.314809611689322e-04  1.963019136754968e-18
-1.095238412633498e-01  1.022390311576379e-02  1.844060509585773e-18
-1.097434392378838e-01 -7.508498134837791e-03  2.030162498663539e-18

TENSORS stress double
0.000000000000000e+00 0.000000000000000e+00 0.000000000000000e+00
0.000000000000000e+00 0.000000000000000e+00 0.000000000000000e+00
0.000000000000000e+00 0.000000000000000e+00 0.000000000000000e+00

0.000000000000000e+00 0.000000000000000e+00 0.000000000000000e+00
0.000000000000000e+00 0.000000000000000e+00 0.000000000000000e+00
0.000000000000000e+00 0.000000000000000e+00 0.000000000000000e+00

0.000000000000000e+00 0.000000000000000e+00 0.000000000000000e+00
0.000000000000000e+00 0.000000000000000e+00 0.000000000000000e+00
0.000000000000000e+00 0.000000000000000e+00 0.000000000000000e+00

0.000000000000000e+00 0.000000000000000e+00 0.000000000000000e+00
0.000000000000000e+00 0.000000000000000e+00 0.000000000000000e+00
0.000000000000000e+00 0.000000000000000e+00 0.000000000000000e+00

0.000000000000000e+00 0.000000000000000e+00 0.000000000000000e+00
0.000000000000000e+00 0.000000000000000e+00 0.000000000000000e+00
0.000000000000000e+00 0.000000000000000e+00 0.000000000000000e+00

0.000000000000000e+00 0.000000000000000e+00 0.000000000000000e+00
0.000000000000000e+00 0.000000000000000e+00 0.000000000000000e+00
0.000000000000000e+00 0.000000000000000e+00 0.000000000000000e+00

0.000000000000000e+00 0.000000000000000e+00 0.000000000000000e+00
0.000000000000000e+00 0.000000000000000e+00 0.000000000000000e+00
0.000000000000000e+00 0.000000000000000e+00 0.000000000000000e+00

0.000000000000000e+00 0.000000000000000e+00 0.000000000000000e+00
0.000000000000000e+00 0.000000000000000e+00 0.000000000000000e+00
0.000000000000000e+00 0.000000000000000e+00 0.000000000000000e+00

0.000000000000000e+00 0.000000000000000e+00 0.000000000000000e+00
0.000000000000000e+00 0.000000000000000e+00 0.000000000000000e+00
0.000000000000000e+00 0.000000000000000e+00 0.000000000000000e+00

0.000000000000000e+00 0.000000000000000e+00 0.000000000000000e+00
0.000000000000000e+00 0.000000000000000e+00 0.000000000000000e+00
0.000000000000000e+00 0.000000000000000e+00 0.000000000000000e+00

0.000000000000000e+00 0.000000000000000e+00 0.000000000000000e+00
0.000000000000000e+00 0.000000000000000e+00 0.000000000000000e+00
0.000000000000000e+00 0.000000000000000e+00 0.000000000000000e+00

0.000000000000000e+00 0.000000000000000e+00 0.000000000000000e+00
0.000000000000000e+00 0.000000000000000e+00 0.000000000000000e+00
0.000000000000000e+00 0.000000000000000e+00 0.000000000000000e+00

0.000000000000000e+00 0.000000000000000e+00 0.000000000000000e+00
0.000000000000000e+00 0.000000000000000e+00 0.000000000000000e+00
0.000000000000000e+00 0.000000000000000e+00 0.000000000000000e+00

0.000000000000000e+00 0.000000000000000e+00 0.000000000000000e+00
0.000000000000000e+00 0.000000000000000e+00 0.000000000000000e+00
0.000000000000000e+00 0.000000000000000e+00 0.000000000000000e+00

0.000000000000000e+00 0.000000000000000e+00 0.000000000000000e+00
0.000000000000000e+00 0.000000000000000e+00 0.000000000000000e+00
0.000000000000000e+00 0.000000000000000e+00 0.000000000000000e+00

0.000000000000000e+00 0.000000000000000e+00 0.000000000000000e+00
0.000000000000000e+00 0.000000000000000e+00 0.000000000000000e+00
0.000000000000000e+00 0.000000000000000e+00 0.000000000000000e+00

0.000000000000000e+00 0.000000000000000e+00 0.000000000000000e+00
0.000000000000000e+00 0.000000000000000e+00 0.000000000000000e+00
0.000000000000000e+00 0.000000000000000e+00 0.000000000000000e+00

0.000000000000000e+00 0.000000000000000e+00 0.000000000000000e+00
0.000000000000000e+00 0.000000000000000e+00 0.000000000000000e+00
0.000000000000000e+00 0.000000000000000e+00 0.000000000000000e+00

0.000000000000000e+00 0.000000000000000e+00 0.000000000000000e+00
0.000000000000000e+00 0.000000000000000e+00 0.000000000000000e+00
0.000000000000000e+00 0.000000000000000e+00 0.000000000000000e+00

0.000000000000000e+00 0.000000000000000e+00 0.000000000000000e+00
0.000000000000000e+00 0.000000000000000e+00 0.000000000000000e+00
0.000000000000000e+00 0.000000000000000e+00 0.000000000000000e+00

0.000000000000000e+00 0.000000000000000e+00 0.000000000000000e+00
0.000000000000000e+00 0.000000000000000e+00 0.000000000000000e+00
0.000000000000000e+00 0.000000000000000e+00 0.000000000000000e+00

0.000000000000000e+00 0.000000000000000e+00 0.000000000000000e+00
0.000000000000000e+00 0.000000000000000e+00 0.000000000000000e+00
0.000000000000000e+00 0.000000000000000e+00 0.000000000000000e+00

0.000000000000000e+00 0.000000000000000e+00 0.000000000000000e+00
0.000000000000000e+00 0.000000000000000e+00 0.000000000000000e+00
0.000000000000000e+00 0.000000000000000e+00 0.000000000000000e+00

0.000000000000000e+00 0.000000000000000e+00 0.000000000000000e+00
0.000000000000000e+00 0.000000000000000e+00 0.000000000000000e+00
0.000000000000000e+00 0.000000000000000e+00 0.000000000000000e+00

0.000000000000000e+00 0.000000000000000e+00 0.000000000000000e+00
0.000000000000000e+00 0.000000000000000e+00 0.000000000000000e+00
0.000000000000000e+00 0.000000000000000e+00 0.000000000000000e+00

0.000000000000000e+00 0.000000000000000e+00 0.000000000000000e+00
0.000000000000000e+00 0.000000000000000e+00 0.000000000000000e+00
0.000000000000000e+00 0.000000000000000e+00 0.000000000000000e+00

0.000000000000000e+00 0.000000000000000e+00 0.000000000000000e+00
0.000000000000000e+00 0.000000000000000e+00 0.000000000000000e+00
0.000000000000000e+00 0.000000000000000e+00 0.000000000000000e+00

0.000000000000000e+00 0.000000000000000e+00 0.000000000000000e+00
0.000000000000000e+00 0.000000000000000e+00 0.000000000000000e+00
0.000000000000000e+00 0.000000000000000e+00 0.000000000000000e+00

0.000000000000000e+00 0.000000000000000e+00 0.000000000000000e+00
0.000000000000000e+00 0.000000000000000e+00 0.000000000000000e+00
0.000000000000000e+00 0.000000000000000e+00 0.000000000000000e+00

0.000000000000000e+00 0.000000000000000e+00 0.000000000000000e+00
0.000000000000000e+00 0.000000000000000e+00 0.000000000000000e+00
0.000000000000000e+00 0.000000000000000e+00 0.000000000000000e+00

0.000000000000000e+00 0.000000000000000e+00 0.000000000000000e+00
0.000000000000000e+00 0.000000000000000e+00 0.000000000000000e+00
0.000000000000000e+00 0.000000000000000e+00 0.000000000000000e+00

0.000000000000000e+00 0.000000000000000e+00 0.000000000000000e+00
0.000000000000000e+00 0.000000000000000e+00 0.000000000000000e+00
0.000000000000000e+00 0.000000000000000e+00 0.000000000000000e+00

0.000000000000000e+00 0.000000000000000e+00 0.000000000000000e+00
0.000000000000000e+00 0.000000000000000e+00 0.000000000000000e+00
0.000000000000000e+00 0.000000000000000e+00 0.000000000000000e+00

0.000000000000000e+00 0.000000000000000e+00 0.000000000000000e+00
0.000000000000000e+00 0.000000000000000e+00 0.000000000000000e+00
0.000000000000000e+00 0.000000000000000e+00 0.000000000000000e+00

0.000000000000000e+00 0.000000000000000e+00 0.000000000000000e+00
0.000000000000000e+00 0.000000000000000e+00 0.000000000000000e+00
0.000000000000000e+00 0.000000000000000e+00 0.000000000000000e+00

0.000000000000000e+00 0.000000000000000e+00 0.000000000000000e+00
0.000000000000000e+00 0.000000000000000e+00 0.000000000000000e+00
0.000000000000000e+00 0.000000000000000e+00 0.000000000000000e+00

0.000000000000000e+00 0.000000000000000e+00 0.000000000000000e+00
0.000000000000000e+00 0.000000000000000e+00 0.000000000000000e+00
0.000000000000000e+00 0.000000000000000e+00 0.000000000000000e+00

0.000000000000000e+00 0.000000000000000e+00 0.000000000000000e+00
0.000000000000000e+00 0.000000000000000e+00 0.000000000000000e+00
0.000000000000000e+00 0.000000000000000e+00 0.000000000000000e+00

0.000000000000000e+00 0.000000000000000e+00 0.000000000000000e+00
0.000000000000000e+00 0.000000000000000e+00 0.000000000000000e+00
0.000000000000000e+00 0.000000000000000e+00 0.000000000000000e+00

0.000000000000000e+00 0.000000000000000e+00 0.000000000000000e+00
0.000000000000000e+00 0.000000000000000e+00 0.000000000000000e+00
0.000000000000000e+00 0.000000000000000e+00 0.000000000000000e+00

0.000000000000000e+00 0.000000000000000e+00 0.000000000000000e+00
0.000000000000000e+00 0.000000000000000e+00 0.000000000000000e+00
0.000000000000000e+00 0.000000000000000e+00 0.000000000000000e+00

0.000000000000000e+00 0.000000000000000e+00 0.000000000000000e+00
0.000000000000000e+00 0.000000000000000e+00 0.000000000000000e+00
0.000000000000000e+00 0.000000000000000e+00 0.000000000000000e+00

0.000000000000000e+00 0.000000000000000e+00 0.000000000000000e+00
0.000000000000000e+00 0.000000000000000e+00 0.000000000000000e+00
0.000000000000000e+00 0.000000000000000e+00 0.000000000000000e+00

0.000000000000000e+00 0.000000000000000e+00 0.000000000000000e+00
0.000000000000000e+00 0.000000000000000e+00 0.000000000000000e+00
0.000000000000000e+00 0.000000000000000e+00 0.000000000000000e+00

0.000000000000000e+00 0.000000000000000e+00 0.000000000000000e+00
0.000000000000000e+00 0.000000000000000e+00 0.000000000000000e+00
0.000000000000000e+00 0.000000000000000e+00 0.000000000000000e+00

0.000000000000000e+00 0.000000000000000e+00 0.000000000000000e+00
0.000000000000000e+00 0.000000000000000e+00 0.000000000000000e+00
0.000000000000000e+00 0.000000000000000e+00 0.000000000000000e+00

0.000000000000000e+00 0.000000000000000e+00 0.000000000000000e+00
0.000000000000000e+00 0.000000000000000e+00 0.000000000000000e+00
0.000000000000000e+00 0.000000000000000e+00 0.000000000000000e+00

0.000000000000000e+00 0.000000000000000e+00 0.000000000000000e+00
0.000000000000000e+00 0.000000000000000e+00 0.000000000000000e+00
0.000000000000000e+00 0.000000000000000e+00 0.000000000000000e+00

0.000000000000000e+00 0.000000000000000e+00 0.000000000000000e+00
0.000000000000000e+00 0.000000000000000e+00 0.000000000000000e+00
0.000000000000000e+00 0.000000000000000e+00 0.000000000000000e+00

0.000000000000000e+00 0.000000000000000e+00 0.000000000000000e+00
0.000000000000000e+00 0.000000000000000e+00 0.000000000000000e+00
0.000000000000000e+00 0.000000000000000e+00 0.000000000000000e+00

0.000000000000000e+00 0.000000000000000e+00 0.000000000000000e+00
0.000000000000000e+00 0.000000000000000e+00 0.000000000000000e+00
0.000000000000000e+00 0.000000000000000e+00 0.000000000000000e+00

0.000000000000000e+00 0.000000000000000e+00 0.000000000000000e+00
0.000000000000000e+00 0.000000000000000e+00 0.000000000000000e+00
0.000000000000000e+00 0.000000000000000e+00 0.000000000000000e+00

0.000000000000000e+00 0.000000000000000e+00 0.000000000000000e+00
0.000000000000000e+00 0.000000000000000e+00 0.000000000000000e+00
0.000000000000000e+00 0.000000000000000e+00 0.000000000000000e+00

0.000000000000000e+00 0.000000000000000e+00 0.000000000000000e+00
0.000000000000000e+00 0.000000000000000e+00 0.000000000000000e+00
0.000000000000000e+00 0.000000000000000e+00 0.000000000000000e+00

0.000000000000000e+00 0.000000000000000e+00 0.000000000000000e+00
0.000000000000000e+00 0.000000000000000e+00 0.000000000000000e+00
0.000000000000000e+00 0.000000000000000e+00 0.000000000000000e+00

0.000000000000000e+00 0.000000000000000e+00 0.000000000000000e+00
0.000000000000000e+00 0.000000000000000e+00 0.000000000000000e+00
0.000000000000000e+00 0.000000000000000e+00 0.000000000000000e+00

0.000000000000000e+00 0.000000000000000e+00 0.000000000000000e+00
0.000000000000000e+00 0.000000000000000e+00 0.000000000000000e+00
0.000000000000000e+00 0.000000000000000e+00 0.000000000000000e+00

0.000000000000000e+00 0.000000000000000e+00 0.000000000000000e+00
0.000000000000000e+00 0.000000000000000e+00 0.000000000000000e+00
0.000000000000000e+00 0.000000000000000e+00 0.000000000000000e+00

0.000000000000000e+00 0.000000000000000e+00 0.000000000000000e+00
0.000000000000000e+00 0.000000000000000e+00 0.000000000000000e+00
0.000000000000000e+00 0.000000000000000e+00 0.000000000000000e+00

0.000000000000000e+00 0.000000000000000e+00 0.000000000000000e+00
0.000000000000000e+00 0.000000000000000e+00 0.000000000000000e+00
0.000000000000000e+00 0.000000000000000e+00 0.000000000000000e+00

0.000000000000000e+00 0.000000000000000e+00 0.000000000000000e+00
0.000000000000000e+00 0.000000000000000e+00 0.000000000000000e+00
0.000000000000000e+00 0.000000000000000e+00 0.000000000000000e+00

0.000000000000000e+00 0.000000000000000e+00 0.000000000000000e+00
0.000000000000000e+00 0.000000000000000e+00 0.000000000000000e+00
0.000000000000000e+00 0.000000000000000e+00 0.000000000000000e+00

0.000000000000000e+00 0.000000000000000e+00 0.000000000000000e+00
0.000000000000000e+00 0.000000000000000e+00 0.000000000000000e+00
0.000000000000000e+00 0.000000000000000e+00 0.000000000000000e+00

0.000000000000000e+00 0.000000000000000e+00 0.000000000000000e+00
0.000000000000000e+00 0.000000000000000e+00 0.000000000000000e+00
0.000000000000000e+00 0.000000000000000e+00 0.000000000000000e+00

0.000000000000000e+00 0.000000000000000e+00 0.000000000000000e+00
0.000000000000000e+00 0.000000000000000e+00 0.000000000000000e+00
0.000000000000000e+00 0.000000000000000e+00 0.000000000000000e+00

0.000000000000000e+00 0.000000000000000e+00 0.000000000000000e+00
0.000000000000000e+00 0.000000000000000e+00 0.000000000000000e+00
0.000000000000000e+00 0.000000000000000e+00 0.000000000000000e+00

0.000000000000000e+00 0.000000000000000e+00 0.000000000000000e+00
0.000000000000000e+00 0.000000000000000e+00 0.000000000000000e+00
0.000000000000000e+00 0.000000000000000e+00 0.000000000000000e+00

0.000000000000000e+00 0.000000000000000e+00 0.000000000000000e+00
0.000000000000000e+00 0.000000000000000e+00 0.000000000000000e+00
0.000000000000000e+00 0.000000000000000e+00 0.000000000000000e+00

0.000000000000000e+00 0.000000000000000e+00 0.000000000000000e+00
0.000000000000000e+00 0.000000000000000e+00 0.000000000000000e+00
0.000000000000000e+00 0.000000000000000e+00 0.000000000000000e+00

0.000000000000000e+00 0.000000000000000e+00 0.000000000000000e+00
0.000000000000000e+00 0.000000000000000e+00 0.000000000000000e+00
0.000000000000000e+00 0.000000000000000e+00 0.000000000000000e+00

0.000000000000000e+00 0.000000000000000e+00 0.000000000000000e+00
0.000000000000000e+00 0.000000000000000e+00 0.000000000000000e+00
0.000000000000000e+00 0.000000000000000e+00 0.000000000000000e+00

0.000000000000000e+00 0.000000000000000e+00 0.000000000000000e+00
0.000000000000000e+00 0.000000000000000e+00 0.000000000000000e+00
0.000000000000000e+00 0.000000000000000e+00 0.000000000000000e+00

0.000000000000000e+00 0.000000000000000e+00 0.000000000000000e+00
0.000000000000000e+00 0.000000000000000e+00 0.000000000000000e+00
0.000000000000000e+00 0.000000000000000e+00 0.000000000000000e+00

0.000000000000000e+00 0.000000000000000e+00 0.000000000000000e+00
0.000000000000000e+00 0.000000000000000e+00 0.000000000000000e+00
0.000000000000000e+00 0.000000000000000e+00 0.000000000000000e+00

0.000000000000000e+00 0.000000000000000e+00 0.000000000000000e+00
0.000000000000000e+00 0.000000000000000e+00 0.000000000000000e+00
0.000000000000000e+00 0.000000000000000e+00 0.000000000000000e+00

0.000000000000000e+00 0.000000000000000e+00 0.000000000000000e+00
0.000000000000000e+00 0.000000000000000e+00 0.000000000000000e+00
0.000000000000000e+00 0.000000000000000e+00 0.000000000000000e+00

0.000000000000000e+00 0.000000000000000e+00 0.000000000000000e+00
0.000000000000000e+00 0.000000000000000e+00 0.000000000000000e+00
0.000000000000000e+00 0.000000000000000e+00 0.000000000000000e+00

0.000000000000000e+00 0.000000000000000e+00 0.000000000000000e+00
0.000000000000000e+00 0.000000000000000e+00 0.000000000000000e+00
0.000000000000000e+00 0.000000000000000e+00 0.000000000000000e+00

0.000000000000000e+00 0.000000000000000e+00 0.000000000000000e+00
0.000000000000000e+00 0.000000000000000e+00 0.000000000000000e+00
0.000000000000000e+00 0.000000000000000e+00 0.000000000000000e+00

0.000000000000000e+00 0.000000000000000e+00 0.000000000000000e+00
0.000000000000000e+00 0.000000000000000e+00 0.000000000000000e+00
0.000000000000000e+00 0.000000000000000e+00 0.000000000000000e+00

0.000000000000000e+00 0.000000000000000e+00 0.000000000000000e+00
0.000000000000000e+00 0.000000000000000e+00 0.000000000000000e+00
0.000000000000000e+00 0.000000000000000e+00 0.000000000000000e+00

0.000000000000000e+00 0.000000000000000e+00 0.000000000000000e+00
0.000000000000000e+00 0.000000000000000e+00 0.000000000000000e+00
0.000000000000000e+00 0.000000000000000e+00 0.000000000000000e+00

0.000000000000000e+00 0.000000000000000e+00 0.000000000000000e+00
0.000000000000000e+00 0.000000000000000e+00 0.000000000000000e+00
0.000000000000000e+00 0.000000000000000e+00 0.000000000000000e+00

0.000000000000000e+00 0.000000000000000e+00 0.000000000000000e+00
0.000000000000000e+00 0.000000000000000e+00 0.000000000000000e+00
0.000000000000000e+00 0.000000000000000e+00 0.000000000000000e+00

0.000000000000000e+00 0.000000000000000e+00 0.000000000000000e+00
0.000000000000000e+00 0.000000000000000e+00 0.000000000000000e+00
0.000000000000000e+00 0.000000000000000e+00 0.000000000000000e+00

0.000000000000000e+00 0.000000000000000e+00 0.000000000000000e+00
0.000000000000000e+00 0.000000000000000e+00 0.000000000000000e+00
0.000000000000000e+00 0.000000000000000e+00 0.000000000000000e+00

0.000000000000000e+00 0.000000000000000e+00 0.000000000000000e+00
0.000000000000000e+00 0.000000000000000e+00 0.000000000000000e+00
0.000000000000000e+00 0.000000000000000e+00 0.000000000000000e+00

0.000000000000000e+00 0.000000000000000e+00 0.000000000000000e+00
0.000000000000000e+00 0.000000000000000e+00 0.000000000000000e+00
0.000000000000000e+00 0.000000000000000e+00 0.000000000000000e+00

0.000000000000000e+00 0.000000000000000e+00 0.000000000000000e+00
0.000000000000000e+00 0.000000000000000e+00 0.000000000000000e+00
0.000000000000000e+00 0.000000000000000e+00 0.000000000000000e+00

0.000000000000000e+00 0.000000000000000e+00 0.000000000000000e+00
0.000000000000000e+00 0.000000000000000e+00 0.000000000000000e+00
0.000000000000000e+00 0.000000000000000e+00 0.000000000000000e+00

0.000000000000000e+00 0.000000000000000e+00 0.000000000000000e+00
0.000000000000000e+00 0.000000000000000e+00 0.000000000000000e+00
0.000000000000000e+00 0.000000000000000e+00 0.000000000000000e+00

0.000000000000000e+00 0.000000000000000e+00 0.000000000000000e+00
0.000000000000000e+00 0.000000000000000e+00 0.000000000000000e+00
0.000000000000000e+00 0.000000000000000e+00 0.000000000000000e+00

0.000000000000000e+00 0.000000000000000e+00 0.000000000000000e+00
0.000000000000000e+00 0.000000000000000e+00 0.000000000000000e+00
0.000000000000000e+00 0.000000000000000e+00 0.000000000000000e+00

0.000000000000000e+00 0.000000000000000e+00 0.000000000000000e+00
0.000000000000000e+00 0.000000000000000e+00 0.000000000000000e+00
0.000000000000000e+00 0.000000000000000e+00 0.000000000000000e+00

0.000000000000000e+00 0.000000000000000e+00 0.000000000000000e+00
0.000000000000000e+00 0.000000000000000e+00 0.000000000000000e+00
0.000000000000000e+00 0.000000000000000e+00 0.000000000000000e+00

0.000000000000000e+00 0.000000000000000e+00 0.000000000000000e+00
0.000000000000000e+00 0.000000000000000e+00 0.000000000000000e+00
0.000000000000000e+00 0.000000000000000e+00 0.000000000000000e+00

0.000000000000000e+00 0.000000000000000e+00 0.000000000000000e+00
0.000000000000000e+00 0.000000000000000e+00 0.000000000000000e+00
0.000000000000000e+00 0.000000000000000e+00 0.000000000000000e+00

0.000000000000000e+00 0.000000000000000e+00 0.000000000000000e+00
0.000000000000000e+00 0.000000000000000e+00 0.000000000000000e+00
0.000000000000000e+00 0.000000000000000e+00 0.000000000000000e+00

0.000000000000000e+00 0.000000000000000e+00 0.000000000000000e+00
0.000000000000000e+00 0.000000000000000e+00 0.000000000000000e+00
0.000000000000000e+00 0.000000000000000e+00 0.000000000000000e+00

0.000000000000000e+00 0.000000000000000e+00 0.000000000000000e+00
0.000000000000000e+00 0.000000000000000e+00 0.000000000000000e+00
0.000000000000000e+00 0.000000000000000e+00 0.000000000000000e+00

0.000000000000000e+00 0.000000000000000e+00 0.000000000000000e+00
0.000000000000000e+00 0.000000000000000e+00 0.000000000000000e+00
0.000000000000000e+00 0.000000000000000e+00 0.000000000000000e+00

0.000000000000000e+00 0.000000000000000e+00 0.000000000000000e+00
0.000000000000000e+00 0.000000000000000e+00 0.000000000000000e+00
0.000000000000000e+00 0.000000000000000e+00 0.000000000000000e+00

0.000000000000000e+00 0.000000000000000e+00 0.000000000000000e+00
0.000000000000000e+00 0.000000000000000e+00 0.000000000000000e+00
0.000000000000000e+00 0.000000000000000e+00 0.000000000000000e+00

0.000000000000000e+00 0.000000000000000e+00 0.000000000000000e+00
0.000000000000000e+00 0.000000000000000e+00 0.000000000000000e+00
0.000000000000000e+00 0.000000000000000e+00 0.000000000000000e+00

0.000000000000000e+00 0.000000000000000e+00 0.000000000000000e+00
0.000000000000000e+00 0.000000000000000e+00 0.000000000000000e+00
0.000000000000000e+00 0.000000000000000e+00 0.000000000000000e+00

0.000000000000000e+00 0.000000000000000e+00 0.000000000000000e+00
0.000000000000000e+00 0.000000000000000e+00 0.000000000000000e+00
0.000000000000000e+00 0.000000000000000e+00 0.000000000000000e+00

0.000000000000000e+00 0.000000000000000e+00 0.000000000000000e+00
0.000000000000000e+00 0.000000000000000e+00 0.000000000000000e+00
0.000000000000000e+00 0.000000000000000e+00 0.000000000000000e+00

0.000000000000000e+00 0.000000000000000e+00 0.000000000000000e+00
0.000000000000000e+00 0.000000000000000e+00 0.000000000000000e+00
0.000000000000000e+00 0.000000000000000e+00 0.000000000000000e+00

0.000000000000000e+00 0.000000000000000e+00 0.000000000000000e+00
0.000000000000000e+00 0.000000000000000e+00 0.000000000000000e+00
0.000000000000000e+00 0.000000000000000e+00 0.000000000000000e+00

0.000000000000000e+00 0.000000000000000e+00 0.000000000000000e+00
0.000000000000000e+00 0.000000000000000e+00 0.000000000000000e+00
0.000000000000000e+00 0.000000000000000e+00 0.000000000000000e+00

0.000000000000000e+00 0.000000000000000e+00 0.000000000000000e+00
0.000000000000000e+00 0.000000000000000e+00 0.000000000000000e+00
0.000000000000000e+00 0.000000000000000e+00 0.000000000000000e+00

0.000000000000000e+00 0.000000000000000e+00 0.000000000000000e+00
0.000000000000000e+00 0.000000000000000e+00 0.000000000000000e+00
0.000000000000000e+00 0.000000000000000e+00 0.000000000000000e+00

0.000000000000000e+00 0.000000000000000e+00 0.000000000000000e+00
0.000000000000000e+00 0.000000000000000e+00 0.000000000000000e+00
0.000000000000000e+00 0.000000000000000e+00 0.000000000000000e+00

0.000000000000000e+00 0.000000000000000e+00 0.000000000000000e+00
0.000000000000000e+00 0.000000000000000e+00 0.000000000000000e+00
0.000000000000000e+00 0.000000000000000e+00 0.000000000000000e+00

0.000000000000000e+00 0.000000000000000e+00 0.000000000000000e+00
0.000000000000000e+00 0.000000000000000e+00 0.000000000000000e+00
0.000000000000000e+00 0.000000000000000e+00 0.000000000000000e+00

0.000000000000000e+00 0.000000000000000e+00 0.000000000000000e+00
0.000000000000000e+00 0.000000000000000e+00 0.000000000000000e+00
0.000000000000000e+00 0.000000000000000e+00 0.000000000000000e+00

0.000000000000000e+00 0.000000000000000e+00 0.000000000000000e+00
0.000000000000000e+00 0.000000000000000e+00 0.000000000000000e+00
0.000000000000000e+00 0.000000000000000e+00 0.000000000000000e+00

0.000000000000000e+00 0.000000000000000e+00 0.000000000000000e+00
0.000000000000000e+00 0.000000000000000e+00 0.000000000000000e+00
0.000000000000000e+00 0.000000000000000e+00 0.000000000000000e+00

0.000000000000000e+00 0.000000000000000e+00 0.000000000000000e+00
0.000000000000000e+00 0.000000000000000e+00 0.000000000000000e+00
0.000000000000000e+00 0.000000000000000e+00 0.000000000000000e+00

0.000000000000000e+00 0.000000000000000e+00 0.000000000000000e+00
0.000000000000000e+00 0.000000000000000e+00 0.000000000000000e+00
0.000000000000000e+00 0.000000000000000e+00 0.000000000000000e+00

0.000000000000000e+00 0.000000000000000e+00 0.000000000000000e+00
0.000000000000000e+00 0.000000000000000e+00 0.000000000000000e+00
0.000000000000000e+00 0.000000000000000e+00 0.000000000000000e+00

0.000000000000000e+00 0.000000000000000e+00 0.000000000000000e+00
0.000000000000000e+00 0.000000000000000e+00 0.000000000000000e+00
0.000000000000000e+00 0.000000000000000e+00 0.000000000000000e+00

0.000000000000000e+00 0.000000000000000e+00 0.000000000000000e+00
0.000000000000000e+00 0.000000000000000e+00 0.000000000000000e+00
0.000000000000000e+00 0.000000000000000e+00 0.000000000000000e+00

0.000000000000000e+00 0.000000000000000e+00 0.000000000000000e+00
0.000000000000000e+00 0.000000000000000e+00 0.000000000000000e+00
0.000000000000000e+00 0.000000000000000e+00 0.000000000000000e+00

0.000000000000000e+00 0.000000000000000e+00 0.000000000000000e+00
0.000000000000000e+00 0.000000000000000e+00 0.000000000000000e+00
0.000000000000000e+00 0.000000000000000e+00 0.000000000000000e+00

0.000000000000000e+00 0.000000000000000e+00 0.000000000000000e+00
0.000000000000000e+00 0.000000000000000e+00 0.000000000000000e+00
0.000000000000000e+00 0.000000000000000e+00 0.000000000000000e+00

0.000000000000000e+00 0.000000000000000e+00 0.000000000000000e+00
0.000000000000000e+00 0.000000000000000e+00 0.000000000000000e+00
0.000000000000000e+00 0.000000000000000e+00 0.000000000000000e+00

0.000000000000000e+00 0.000000000000000e+00 0.000000000000000e+00
0.000000000000000e+00 0.000000000000000e+00 0.000000000000000e+00
0.000000000000000e+00 0.000000000000000e+00 0.000000000000000e+00

0.000000000000000e+00 0.000000000000000e+00 0.000000000000000e+00
0.000000000000000e+00 0.000000000000000e+00 0.000000000000000e+00
0.000000000000000e+00 0.000000000000000e+00 0.000000000000000e+00

0.000000000000000e+00 0.000000000000000e+00 0.000000000000000e+00
0.000000000000000e+00 0.000000000000000e+00 0.000000000000000e+00
0.000000000000000e+00 0.000000000000000e+00 0.000000000000000e+00

0.000000000000000e+00 0.000000000000000e+00 0.000000000000000e+00
0.000000000000000e+00 0.000000000000000e+00 0.000000000000000e+00
0.000000000000000e+00 0.000000000000000e+00 0.000000000000000e+00

0.000000000000000e+00 0.000000000000000e+00 0.000000000000000e+00
0.000000000000000e+00 0.000000000000000e+00 0.000000000000000e+00
0.000000000000000e+00 0.000000000000000e+00 0.000000000000000e+00

0.000000000000000e+00 0.000000000000000e+00 0.000000000000000e+00
0.000000000000000e+00 0.000000000000000e+00 0.000000000000000e+00
0.000000000000000e+00 0.000000000000000e+00 0.000000000000000e+00

0.000000000000000e+00 0.000000000000000e+00 0.000000000000000e+00
0.000000000000000e+00 0.000000000000000e+00 0.000000000000000e+00
0.000000000000000e+00 0.000000000000000e+00 0.000000000000000e+00

0.000000000000000e+00 0.000000000000000e+00 0.000000000000000e+00
0.000000000000000e+00 0.000000000000000e+00 0.000000000000000e+00
0.000000000000000e+00 0.000000000000000e+00 0.000000000000000e+00

0.000000000000000e+00 0.000000000000000e+00 0.000000000000000e+00
0.000000000000000e+00 0.000000000000000e+00 0.000000000000000e+00
0.000000000000000e+00 0.000000000000000e+00 0.000000000000000e+00

0.000000000000000e+00 0.000000000000000e+00 0.000000000000000e+00
0.000000000000000e+00 0.000000000000000e+00 0.000000000000000e+00
0.000000000000000e+00 0.000000000000000e+00 0.000000000000000e+00

0.000000000000000e+00 0.000000000000000e+00 0.000000000000000e+00
0.000000000000000e+00 0.000000000000000e+00 0.000000000000000e+00
0.000000000000000e+00 0.000000000000000e+00 0.000000000000000e+00

0.000000000000000e+00 0.000000000000000e+00 0.000000000000000e+00
0.000000000000000e+00 0.000000000000000e+00 0.000000000000000e+00
0.000000000000000e+00 0.000000000000000e+00 0.000000000000000e+00

0.000000000000000e+00 0.000000000000000e+00 0.000000000000000e+00
0.000000000000000e+00 0.000000000000000e+00 0.000000000000000e+00
0.000000000000000e+00 0.000000000000000e+00 0.000000000000000e+00

0.000000000000000e+00 0.000000000000000e+00 0.000000000000000e+00
0.000000000000000e+00 0.000000000000000e+00 0.000000000000000e+00
0.000000000000000e+00 0.000000000000000e+00 0.000000000000000e+00

0.000000000000000e+00 0.000000000000000e+00 0.000000000000000e+00
0.000000000000000e+00 0.000000000000000e+00 0.000000000000000e+00
0.000000000000000e+00 0.000000000000000e+00 0.000000000000000e+00

0.000000000000000e+00 0.000000000000000e+00 0.000000000000000e+00
0.000000000000000e+00 0.000000000000000e+00 0.000000000000000e+00
0.000000000000000e+00 0.000000000000000e+00 0.000000000000000e+00

0.000000000000000e+00 0.000000000000000e+00 0.000000000000000e+00
0.000000000000000e+00 0.000000000000000e+00 0.000000000000000e+00
0.000000000000000e+00 0.000000000000000e+00 0.000000000000000e+00

0.000000000000000e+00 0.000000000000000e+00 0.000000000000000e+00
0.000000000000000e+00 0.000000000000000e+00 0.000000000000000e+00
0.000000000000000e+00 0.000000000000000e+00 0.000000000000000e+00

0.000000000000000e+00 0.000000000000000e+00 0.000000000000000e+00
0.000000000000000e+00 0.000000000000000e+00 0.000000000000000e+00
0.000000000000000e+00 0.000000000000000e+00 0.000000000000000e+00

0.000000000000000e+00 0.000000000000000e+00 0.000000000000000e+00
0.000000000000000e+00 0.000000000000000e+00 0.000000000000000e+00
0.000000000000000e+00 0.000000000000000e+00 0.000000000000000e+00

0.000000000000000e+00 0.000000000000000e+00 0.000000000000000e+00
0.000000000000000e+00 0.000000000000000e+00 0.000000000000000e+00
0.000000000000000e+00 0.000000000000000e+00 0.000000000000000e+00

0.000000000000000e+00 0.000000000000000e+00 0.000000000000000e+00
0.000000000000000e+00 0.000000000000000e+00 0.000000000000000e+00
0.000000000000000e+00 0.000000000000000e+00 0.000000000000000e+00

0.000000000000000e+00 0.000000000000000e+00 0.000000000000000e+00
0.000000000000000e+00 0.000000000000000e+00 0.000000000000000e+00
0.000000000000000e+00 0.000000000000000e+00 0.000000000000000e+00

0.000000000000000e+00 0.000000000000000e+00 0.000000000000000e+00
0.000000000000000e+00 0.000000000000000e+00 0.000000000000000e+00
0.000000000000000e+00 0.000000000000000e+00 0.000000000000000e+00

0.000000000000000e+00 0.000000000000000e+00 0.000000000000000e+00
0.000000000000000e+00 0.000000000000000e+00 0.000000000000000e+00
0.000000000000000e+00 0.000000000000000e+00 0.000000000000000e+00

0.000000000000000e+00 0.000000000000000e+00 0.000000000000000e+00
0.000000000000000e+00 0.000000000000000e+00 0.000000000000000e+00
0.000000000000000e+00 0.000000000000000e+00 0.000000000000000e+00

0.000000000000000e+00 0.000000000000000e+00 0.000000000000000e+00
0.000000000000000e+00 0.000000000000000e+00 0.000000000000000e+00
0.000000000000000e+00 0.000000000000000e+00 0.000000000000000e+00

0.000000000000000e+00 0.000000000000000e+00 0.000000000000000e+00
0.000000000000000e+00 0.000000000000000e+00 0.000000000000000e+00
0.000000000000000e+00 0.000000000000000e+00 0.000000000000000e+00

0.000000000000000e+00 0.000000000000000e+00 0.000000000000000e+00
0.000000000000000e+00 0.000000000000000e+00 0.000000000000000e+00
0.000000000000000e+00 0.000000000000000e+00 0.000000000000000e+00

0.000000000000000e+00 0.000000000000000e+00 0.000000000000000e+00
0.000000000000000e+00 0.000000000000000e+00 0.000000000000000e+00
0.000000000000000e+00 0.000000000000000e+00 0.000000000000000e+00

0.000000000000000e+00 0.000000000000000e+00 0.000000000000000e+00
0.000000000000000e+00 0.000000000000000e+00 0.000000000000000e+00
0.000000000000000e+00 0.000000000000000e+00 0.000000000000000e+00

0.000000000000000e+00 0.000000000000000e+00 0.000000000000000e+00
0.000000000000000e+00 0.000000000000000e+00 0.000000000000000e+00
0.000000000000000e+00 0.000000000000000e+00 0.000000000000000e+00

0.000000000000000e+00 0.000000000000000e+00 0.000000000000000e+00
0.000000000000000e+00 0.000000000000000e+00 0.000000000000000e+00
0.000000000000000e+00 0.000000000000000e+00 0.000000000000000e+00

0.000000000000000e+00 0.000000000000000e+00 0.000000000000000e+00
0.000000000000000e+00 0.000000000000000e+00 0.000000000000000e+00
0.000000000000000e+00 0.000000000000000e+00 0.000000000000000e+00

0.000000000000000e+00 0.000000000000000e+00 0.000000000000000e+00
0.000000000000000e+00 0.000000000000000e+00 0.000000000000000e+00
0.000000000000000e+00 0.000000000000000e+00 0.000000000000000e+00

0.000000000000000e+00 0.000000000000000e+00 0.000000000000000e+00
0.000000000000000e+00 0.000000000000000e+00 0.000000000000000e+00
0.000000000000000e+00 0.000000000000000e+00 0.000000000000000e+00

0.000000000000000e+00 0.000000000000000e+00 0.000000000000000e+00
0.000000000000000e+00 0.000000000000000e+00 0.000000000000000e+00
0.000000000000000e+00 0.000000000000000e+00 0.000000000000000e+00

0.000000000000000e+00 0.000000000000000e+00 0.000000000000000e+00
0.000000000000000e+00 0.000000000000000e+00 0.000000000000000e+00
0.000000000000000e+00 0.000000000000000e+00 0.000000000000000e+00

0.000000000000000e+00 0.000000000000000e+00 0.000000000000000e+00
0.000000000000000e+00 0.000000000000000e+00 0.000000000000000e+00
0.000000000000000e+00 0.000000000000000e+00 0.000000000000000e+00

0.000000000000000e+00 0.000000000000000e+00 0.000000000000000e+00
0.000000000000000e+00 0.000000000000000e+00 0.000000000000000e+00
0.000000000000000e+00 0.000000000000000e+00 0.000000000000000e+00

0.000000000000000e+00 0.000000000000000e+00 0.000000000000000e+00
0.000000000000000e+00 0.000000000000000e+00 0.000000000000000e+00
0.000000000000000e+00 0.000000000000000e+00 0.000000000000000e+00

0.000000000000000e+00 0.000000000000000e+00 0.000000000000000e+00
0.000000000000000e+00 0.000000000000000e+00 0.000000000000000e+00
0.000000000000000e+00 0.000000000000000e+00 0.000000000000000e+00

0.000000000000000e+00 0.000000000000000e+00 0.000000000000000e+00
0.000000000000000e+00 0.000000000000000e+00 0.000000000000000e+00
0.000000000000000e+00 0.000000000000000e+00 0.000000000000000e+00

0.000000000000000e+00 0.000000000000000e+00 0.000000000000000e+00
0.000000000000000e+00 0.000000000000000e+00 0.000000000000000e+00
0.000000000000000e+00 0.000000000000000e+00 0.000000000000000e+00

0.000000000000000e+00 0.000000000000000e+00 0.000000000000000e+00
0.000000000000000e+00 0.000000000000000e+00 0.000000000000000e+00
0.000000000000000e+00 0.000000000000000e+00 0.000000000000000e+00

0.000000000000000e+00 0.000000000000000e+00 0.000000000000000e+00
0.000000000000000e+00 0.000000000000000e+00 0.000000000000000e+00
0.000000000000000e+00 0.000000000000000e+00 0.000000000000000e+00

0.000000000000000e+00 0.000000000000000e+00 0.000000000000000e+00
0.000000000000000e+00 0.000000000000000e+00 0.000000000000000e+00
0.000000000000000e+00 0.000000000000000e+00 0.000000000000000e+00

0.000000000000000e+00 0.000000000000000e+00 0.000000000000000e+00
0.000000000000000e+00 0.000000000000000e+00 0.000000000000000e+00
0.000000000000000e+00 0.000000000000000e+00 0.000000000000000e+00

0.000000000000000e+00 0.000000000000000e+00 0.000000000000000e+00
0.000000000000000e+00 0.000000000000000e+00 0.000000000000000e+00
0.000000000000000e+00 0.000000000000000e+00 0.000000000000000e+00

0.000000000000000e+00 0.000000000000000e+00 0.000000000000000e+00
0.000000000000000e+00 0.000000000000000e+00 0.000000000000000e+00
0.000000000000000e+00 0.000000000000000e+00 0.000000000000000e+00

0.000000000000000e+00 0.000000000000000e+00 0.000000000000000e+00
0.000000000000000e+00 0.000000000000000e+00 0.000000000000000e+00
0.000000000000000e+00 0.000000000000000e+00 0.000000000000000e+00

0.000000000000000e+00 0.000000000000000e+00 0.000000000000000e+00
0.000000000000000e+00 0.000000000000000e+00 0.000000000000000e+00
0.000000000000000e+00 0.000000000000000e+00 0.000000000000000e+00

0.000000000000000e+00 0.000000000000000e+00 0.000000000000000e+00
0.000000000000000e+00 0.000000000000000e+00 0.000000000000000e+00
0.000000000000000e+00 0.000000000000000e+00 0.000000000000000e+00

0.000000000000000e+00 0.000000000000000e+00 0.000000000000000e+00
0.000000000000000e+00 0.000000000000000e+00 0.000000000000000e+00
0.000000000000000e+00 0.000000000000000e+00 0.000000000000000e+00

0.000000000000000e+00 0.000000000000000e+00 0.000000000000000e+00
0.000000000000000e+00 0.000000000000000e+00 0.000000000000000e+00
0.000000000000000e+00 0.000000000000000e+00 0.000000000000000e+00

0.000000000000000e+00 0.000000000000000e+00 0.000000000000000e+00
0.000000000000000e+00 0.000000000000000e+00 0.000000000000000e+00
0.000000000000000e+00 0.000000000000000e+00 0.000000000000000e+00

0.000000000000000e+00 0.000000000000000e+00 0.000000000000000e+00
0.000000000000000e+00 0.000000000000000e+00 0.000000000000000e+00
0.000000000000000e+00 0.000000000000000e+00 0.000000000000000e+00

0.000000000000000e+00 0.000000000000000e+00 0.000000000000000e+00
0.000000000000000e+00 0.000000000000000e+00 0.000000000000000e+00
0.000000000000000e+00 0.000000000000000e+00 0.000000000000000e+00

0.000000000000000e+00 0.000000000000000e+00 0.000000000000000e+00
0.000000000000000e+00 0.000000000000000e+00 0.000000000000000e+00
0.000000000000000e+00 0.000000000000000e+00 0.000000000000000e+00

0.000000000000000e+00 0.000000000000000e+00 0.000000000000000e+00
0.000000000000000e+00 0.000000000000000e+00 0.000000000000000e+00
0.000000000000000e+00 0.000000000000000e+00 0.000000000000000e+00

0.000000000000000e+00 0.000000000000000e+00 0.000000000000000e+00
0.000000000000000e+00 0.000000000000000e+00 0.000000000000000e+00
0.000000000000000e+00 0.000000000000000e+00 0.000000000000000e+00

0.000000000000000e+00 0.000000000000000e+00 0.000000000000000e+00
0.000000000000000e+00 0.000000000000000e+00 0.000000000000000e+00
0.000000000000000e+00 0.000000000000000e+00 0.000000000000000e+00

0.000000000000000e+00 0.000000000000000e+00 0.000000000000000e+00
0.000000000000000e+00 0.000000000000000e+00 0.000000000000000e+00
0.000000000000000e+00 0.000000000000000e+00 0.000000000000000e+00

0.000000000000000e+00 0.000000000000000e+00 0.000000000000000e+00
0.000000000000000e+00 0.000000000000000e+00 0.000000000000000e+00
0.000000000000000e+00 0.000000000000000e+00 0.000000000000000e+00

0.000000000000000e+00 0.000000000000000e+00 0.000000000000000e+00
0.000000000000000e+00 0.000000000000000e+00 0.000000000000000e+00
0.000000000000000e+00 0.000000000000000e+00 0.000000000000000e+00

0.000000000000000e+00 0.000000000000000e+00 0.000000000000000e+00
0.000000000000000e+00 0.000000000000000e+00 0.000000000000000e+00
0.000000000000000e+00 0.000000000000000e+00 0.000000000000000e+00

0.000000000000000e+00 0.000000000000000e+00 0.000000000000000e+00
0.000000000000000e+00 0.000000000000000e+00 0.000000000000000e+00
0.000000000000000e+00 0.000000000000000e+00 0.000000000000000e+00

0.000000000000000e+00 0.000000000000000e+00 0.000000000000000e+00
0.000000000000000e+00 0.000000000000000e+00 0.000000000000000e+00
0.000000000000000e+00 0.000000000000000e+00 0.000000000000000e+00

0.000000000000000e+00 0.000000000000000e+00 0.000000000000000e+00
0.000000000000000e+00 0.000000000000000e+00 0.000000000000000e+00
0.000000000000000e+00 0.000000000000000e+00 0.000000000000000e+00

0.000000000000000e+00 0.000000000000000e+00 0.000000000000000e+00
0.000000000000000e+00 0.000000000000000e+00 0.000000000000000e+00
0.000000000000000e+00 0.000000000000000e+00 0.000000000000000e+00

0.000000000000000e+00 0.000000000000000e+00 0.000000000000000e+00
0.000000000000000e+00 0.000000000000000e+00 0.000000000000000e+00
0.000000000000000e+00 0.000000000000000e+00 0.000000000000000e+00

0.000000000000000e+00 0.000000000000000e+00 0.000000000000000e+00
0.000000000000000e+00 0.000000000000000e+00 0.000000000000000e+00
0.000000000000000e+00 0.000000000000000e+00 0.000000000000000e+00

0.000000000000000e+00 0.000000000000000e+00 0.000000000000000e+00
0.000000000000000e+00 0.000000000000000e+00 0.000000000000000e+00
0.000000000000000e+00 0.000000000000000e+00 0.000000000000000e+00

0.000000000000000e+00 0.000000000000000e+00 0.000000000000000e+00
0.000000000000000e+00 0.000000000000000e+00 0.000000000000000e+00
0.000000000000000e+00 0.000000000000000e+00 0.000000000000000e+00

0.000000000000000e+00 0.000000000000000e+00 0.000000000000000e+00
0.000000000000000e+00 0.000000000000000e+00 0.000000000000000e+00
0.000000000000000e+00 0.000000000000000e+00 0.000000000000000e+00

0.000000000000000e+00 0.000000000000000e+00 0.000000000000000e+00
0.000000000000000e+00 0.000000000000000e+00 0.000000000000000e+00
0.000000000000000e+00 0.000000000000000e+00 0.000000000000000e+00

0.000000000000000e+00 0.000000000000000e+00 0.000000000000000e+00
0.000000000000000e+00 0.000000000000000e+00 0.000000000000000e+00
0.000000000000000e+00 0.000000000000000e+00 0.000000000000000e+00

0.000000000000000e+00 0.000000000000000e+00 0.000000000000000e+00
0.000000000000000e+00 0.000000000000000e+00 0.000000000000000e+00
0.000000000000000e+00 0.000000000000000e+00 0.000000000000000e+00

0.000000000000000e+00 0.000000000000000e+00 0.000000000000000e+00
0.000000000000000e+00 0.000000000000000e+00 0.000000000000000e+00
0.000000000000000e+00 0.000000000000000e+00 0.000000000000000e+00

0.000000000000000e+00 0.000000000000000e+00 0.000000000000000e+00
0.000000000000000e+00 0.000000000000000e+00 0.000000000000000e+00
0.000000000000000e+00 0.000000000000000e+00 0.000000000000000e+00

0.000000000000000e+00 0.000000000000000e+00 0.000000000000000e+00
0.000000000000000e+00 0.000000000000000e+00 0.000000000000000e+00
0.000000000000000e+00 0.000000000000000e+00 0.000000000000000e+00

0.000000000000000e+00 0.000000000000000e+00 0.000000000000000e+00
0.000000000000000e+00 0.000000000000000e+00 0.000000000000000e+00
0.000000000000000e+00 0.000000000000000e+00 0.000000000000000e+00

0.000000000000000e+00 0.000000000000000e+00 0.000000000000000e+00
0.000000000000000e+00 0.000000000000000e+00 0.000000000000000e+00
0.000000000000000e+00 0.000000000000000e+00 0.000000000000000e+00

0.000000000000000e+00 0.000000000000000e+00 0.000000000000000e+00
0.000000000000000e+00 0.000000000000000e+00 0.000000000000000e+00
0.000000000000000e+00 0.000000000000000e+00 0.000000000000000e+00

0.000000000000000e+00 0.000000000000000e+00 0.000000000000000e+00
0.000000000000000e+00 0.000000000000000e+00 0.000000000000000e+00
0.000000000000000e+00 0.000000000000000e+00 0.000000000000000e+00

0.000000000000000e+00 0.000000000000000e+00 0.000000000000000e+00
0.000000000000000e+00 0.000000000000000e+00 0.000000000000000e+00
0.000000000000000e+00 0.000000000000000e+00 0.000000000000000e+00

0.000000000000000e+00 0.000000000000000e+00 0.000000000000000e+00
0.000000000000000e+00 0.000000000000000e+00 0.000000000000000e+00
0.000000000000000e+00 0.000000000000000e+00 0.000000000000000e+00

0.000000000000000e+00 0.000000000000000e+00 0.000000000000000e+00
0.000000000000000e+00 0.000000000000000e+00 0.000000000000000e+00
0.000000000000000e+00 0.000000000000000e+00 0.000000000000000e+00

0.000000000000000e+00 0.000000000000000e+00 0.000000000000000e+00
0.000000000000000e+00 0.000000000000000e+00 0.000000000000000e+00
0.000000000000000e+00 0.000000000000000e+00 0.000000000000000e+00

0.000000000000000e+00 0.000000000000000e+00 0.000000000000000e+00
0.000000000000000e+00 0.000000000000000e+00 0.000000000000000e+00
0.000000000000000e+00 0.000000000000000e+00 0.000000000000000e+00

0.000000000000000e+00 0.000000000000000e+00 0.000000000000000e+00
0.000000000000000e+00 0.000000000000000e+00 0.000000000000000e+00
0.000000000000000e+00 0.000000000000000e+00 0.000000000000000e+00

0.000000000000000e+00 0.000000000000000e+00 0.000000000000000e+00
0.000000000000000e+00 0.000000000000000e+00 0.000000000000000e+00
0.000000000000000e+00 0.000000000000000e+00 0.000000000000000e+00

0.000000000000000e+00 0.000000000000000e+00 0.000000000000000e+00
0.000000000000000e+00 0.000000000000000e+00 0.000000000000000e+00
0.000000000000000e+00 0.000000000000000e+00 0.000000000000000e+00

0.000000000000000e+00 0.000000000000000e+00 0.000000000000000e+00
0.000000000000000e+00 0.000000000000000e+00 0.000000000000000e+00
0.000000000000000e+00 0.000000000000000e+00 0.000000000000000e+00

0.000000000000000e+00 0.000000000000000e+00 0.000000000000000e+00
0.000000000000000e+00 0.000000000000000e+00 0.000000000000000e+00
0.000000000000000e+00 0.000000000000000e+00 0.000000000000000e+00

0.000000000000000e+00 0.000000000000000e+00 0.000000000000000e+00
0.000000000000000e+00 0.000000000000000e+00 0.000000000000000e+00
0.000000000000000e+00 0.000000000000000e+00 0.000000000000000e+00

0.000000000000000e+00 0.000000000000000e+00 0.000000000000000e+00
0.000000000000000e+00 0.000000000000000e+00 0.000000000000000e+00
0.000000000000000e+00 0.000000000000000e+00 0.000000000000000e+00

0.000000000000000e+00 0.000000000000000e+00 0.000000000000000e+00
0.000000000000000e+00 0.000000000000000e+00 0.000000000000000e+00
0.000000000000000e+00 0.000000000000000e+00 0.000000000000000e+00

0.000000000000000e+00 0.000000000000000e+00 0.000000000000000e+00
0.000000000000000e+00 0.000000000000000e+00 0.000000000000000e+00
0.000000000000000e+00 0.000000000000000e+00 0.000000000000000e+00

0.000000000000000e+00 0.000000000000000e+00 0.000000000000000e+00
0.000000000000000e+00 0.000000000000000e+00 0.000000000000000e+00
0.000000000000000e+00 0.000000000000000e+00 0.000000000000000e+00

0.000000000000000e+00 0.000000000000000e+00 0.000000000000000e+00
0.000000000000000e+00 0.000000000000000e+00 0.000000000000000e+00
0.000000000000000e+00 0.000000000000000e+00 0.000000000000000e+00

0.000000000000000e+00 0.000000000000000e+00 0.000000000000000e+00
0.000000000000000e+00 0.000000000000000e+00 0.000000000000000e+00
0.000000000000000e+00 0.000000000000000e+00 0.000000000000000e+00

0.000000000000000e+00 0.000000000000000e+00 0.000000000000000e+00
0.000000000000000e+00 0.000000000000000e+00 0.000000000000000e+00
0.000000000000000e+00 0.000000000000000e+00 0.000000000000000e+00

0.000000000000000e+00 0.000000000000000e+00 0.000000000000000e+00
0.000000000000000e+00 0.000000000000000e+00 0.000000000000000e+00
0.000000000000000e+00 0.000000000000000e+00 0.000000000000000e+00

0.000000000000000e+00 0.000000000000000e+00 0.000000000000000e+00
0.000000000000000e+00 0.000000000000000e+00 0.000000000000000e+00
0.000000000000000e+00 0.000000000000000e+00 0.000000000000000e+00

0.000000000000000e+00 0.000000000000000e+00 0.000000000000000e+00
0.000000000000000e+00 0.000000000000000e+00 0.000000000000000e+00
0.000000000000000e+00 0.000000000000000e+00 0.000000000000000e+00

0.000000000000000e+00 0.000000000000000e+00 0.000000000000000e+00
0.000000000000000e+00 0.000000000000000e+00 0.000000000000000e+00
0.000000000000000e+00 0.000000000000000e+00 0.000000000000000e+00

0.000000000000000e+00 0.000000000000000e+00 0.000000000000000e+00
0.000000000000000e+00 0.000000000000000e+00 0.000000000000000e+00
0.000000000000000e+00 0.000000000000000e+00 0.000000000000000e+00

0.000000000000000e+00 0.000000000000000e+00 0.000000000000000e+00
0.000000000000000e+00 0.000000000000000e+00 0.000000000000000e+00
0.000000000000000e+00 0.000000000000000e+00 0.000000000000000e+00

0.000000000000000e+00 0.000000000000000e+00 0.000000000000000e+00
0.000000000000000e+00 0.000000000000000e+00 0.000000000000000e+00
0.000000000000000e+00 0.000000000000000e+00 0.000000000000000e+00

0.000000000000000e+00 0.000000000000000e+00 0.000000000000000e+00
0.000000000000000e+00 0.000000000000000e+00 0.000000000000000e+00
0.000000000000000e+00 0.000000000000000e+00 0.000000000000000e+00

0.000000000000000e+00 0.000000000000000e+00 0.000000000000000e+00
0.000000000000000e+00 0.000000000000000e+00 0.000000000000000e+00
0.000000000000000e+00 0.000000000000000e+00 0.000000000000000e+00

0.000000000000000e+00 0.000000000000000e+00 0.000000000000000e+00
0.000000000000000e+00 0.000000000000000e+00 0.000000000000000e+00
0.000000000000000e+00 0.000000000000000e+00 0.000000000000000e+00

0.000000000000000e+00 0.000000000000000e+00 0.000000000000000e+00
0.000000000000000e+00 0.000000000000000e+00 0.000000000000000e+00
0.000000000000000e+00 0.000000000000000e+00 0.000000000000000e+00

0.000000000000000e+00 0.000000000000000e+00 0.000000000000000e+00
0.000000000000000e+00 0.000000000000000e+00 0.000000000000000e+00
0.000000000000000e+00 0.000000000000000e+00 0.000000000000000e+00

0.000000000000000e+00 0.000000000000000e+00 0.000000000000000e+00
0.000000000000000e+00 0.000000000000000e+00 0.000000000000000e+00
0.000000000000000e+00 0.000000000000000e+00 0.000000000000000e+00

0.000000000000000e+00 0.000000000000000e+00 0.000000000000000e+00
0.000000000000000e+00 0.000000000000000e+00 0.000000000000000e+00
0.000000000000000e+00 0.000000000000000e+00 0.000000000000000e+00

0.000000000000000e+00 0.000000000000000e+00 0.000000000000000e+00
0.000000000000000e+00 0.000000000000000e+00 0.000000000000000e+00
0.000000000000000e+00 0.000000000000000e+00 0.000000000000000e+00

0.000000000000000e+00 0.000000000000000e+00 0.000000000000000e+00
0.000000000000000e+00 0.000000000000000e+00 0.000000000000000e+00
0.000000000000000e+00 0.000000000000000e+00 0.000000000000000e+00

0.000000000000000e+00 0.000000000000000e+00 0.000000000000000e+00
0.000000000000000e+00 0.000000000000000e+00 0.000000000000000e+00
0.000000000000000e+00 0.000000000000000e+00 0.000000000000000e+00

0.000000000000000e+00 0.000000000000000e+00 0.000000000000000e+00
0.000000000000000e+00 0.000000000000000e+00 0.000000000000000e+00
0.000000000000000e+00 0.000000000000000e+00 0.000000000000000e+00

0.000000000000000e+00 0.000000000000000e+00 0.000000000000000e+00
0.000000000000000e+00 0.000000000000000e+00 0.000000000000000e+00
0.000000000000000e+00 0.000000000000000e+00 0.000000000000000e+00

0.000000000000000e+00 0.000000000000000e+00 0.000000000000000e+00
0.000000000000000e+00 0.000000000000000e+00 0.000000000000000e+00
0.000000000000000e+00 0.000000000000000e+00 0.000000000000000e+00

0.000000000000000e+00 0.000000000000000e+00 0.000000000000000e+00
0.000000000000000e+00 0.000000000000000e+00 0.000000000000000e+00
0.000000000000000e+00 0.000000000000000e+00 0.000000000000000e+00

0.000000000000000e+00 0.000000000000000e+00 0.000000000000000e+00
0.000000000000000e+00 0.000000000000000e+00 0.000000000000000e+00
0.000000000000000e+00 0.000000000000000e+00 0.000000000000000e+00

0.000000000000000e+00 0.000000000000000e+00 0.000000000000000e+00
0.000000000000000e+00 0.000000000000000e+00 0.000000000000000e+00
0.000000000000000e+00 0.000000000000000e+00 0.000000000000000e+00

0.000000000000000e+00 0.000000000000000e+00 0.000000000000000e+00
0.000000000000000e+00 0.000000000000000e+00 0.000000000000000e+00
0.000000000000000e+00 0.000000000000000e+00 0.000000000000000e+00

0.000000000000000e+00 0.000000000000000e+00 0.000000000000000e+00
0.000000000000000e+00 0.000000000000000e+00 0.000000000000000e+00
0.000000000000000e+00 0.000000000000000e+00 0.000000000000000e+00

0.000000000000000e+00 0.000000000000000e+00 0.000000000000000e+00
0.000000000000000e+00 0.000000000000000e+00 0.000000000000000e+00
0.000000000000000e+00 0.000000000000000e+00 0.000000000000000e+00

0.000000000000000e+00 0.000000000000000e+00 0.000000000000000e+00
0.000000000000000e+00 0.000000000000000e+00 0.000000000000000e+00
0.000000000000000e+00 0.000000000000000e+00 0.000000000000000e+00

0.000000000000000e+00 0.000000000000000e+00 0.000000000000000e+00
0.000000000000000e+00 0.000000000000000e+00 0.000000000000000e+00
0.000000000000000e+00 0.000000000000000e+00 0.000000000000000e+00

0.000000000000000e+00 0.000000000000000e+00 0.000000000000000e+00
0.000000000000000e+00 0.000000000000000e+00 0.000000000000000e+00
0.000000000000000e+00 0.000000000000000e+00 0.000000000000000e+00

0.000000000000000e+00 0.000000000000000e+00 0.000000000000000e+00
0.000000000000000e+00 0.000000000000000e+00 0.000000000000000e+00
0.000000000000000e+00 0.000000000000000e+00 0.000000000000000e+00

0.000000000000000e+00 0.000000000000000e+00 0.000000000000000e+00
0.000000000000000e+00 0.000000000000000e+00 0.000000000000000e+00
0.000000000000000e+00 0.000000000000000e+00 0.000000000000000e+00

0.000000000000000e+00 0.000000000000000e+00 0.000000000000000e+00
0.000000000000000e+00 0.000000000000000e+00 0.000000000000000e+00
0.000000000000000e+00 0.000000000000000e+00 0.000000000000000e+00

0.000000000000000e+00 0.000000000000000e+00 0.000000000000000e+00
0.000000000000000e+00 0.000000000000000e+00 0.000000000000000e+00
0.000000000000000e+00 0.000000000000000e+00 0.000000000000000e+00

0.000000000000000e+00 0.000000000000000e+00 0.000000000000000e+00
0.000000000000000e+00 0.000000000000000e+00 0.000000000000000e+00
0.000000000000000e+00 0.000000000000000e+00 0.000000000000000e+00

0.000000000000000e+00 0.000000000000000e+00 0.000000000000000e+00
0.000000000000000e+00 0.000000000000000e+00 0.000000000000000e+00
0.000000000000000e+00 0.000000000000000e+00 0.000000000000000e+00

0.000000000000000e+00 0.000000000000000e+00 0.000000000000000e+00
0.000000000000000e+00 0.000000000000000e+00 0.000000000000000e+00
0.000000000000000e+00 0.000000000000000e+00 0.000000000000000e+00

0.000000000000000e+00 0.000000000000000e+00 0.000000000000000e+00
0.000000000000000e+00 0.000000000000000e+00 0.000000000000000e+00
0.000000000000000e+00 0.000000000000000e+00 0.000000000000000e+00

0.000000000000000e+00 0.000000000000000e+00 0.000000000000000e+00
0.000000000000000e+00 0.000000000000000e+00 0.000000000000000e+00
0.000000000000000e+00 0.000000000000000e+00 0.000000000000000e+00

0.000000000000000e+00 0.000000000000000e+00 0.000000000000000e+00
0.000000000000000e+00 0.000000000000000e+00 0.000000000000000e+00
0.000000000000000e+00 0.000000000000000e+00 0.000000000000000e+00

0.000000000000000e+00 0.000000000000000e+00 0.000000000000000e+00
0.000000000000000e+00 0.000000000000000e+00 0.000000000000000e+00
0.000000000000000e+00 0.000000000000000e+00 0.000000000000000e+00

0.000000000000000e+00 0.000000000000000e+00 0.000000000000000e+00
0.000000000000000e+00 0.000000000000000e+00 0.000000000000000e+00
0.000000000000000e+00 0.000000000000000e+00 0.000000000000000e+00

0.000000000000000e+00 0.000000000000000e+00 0.000000000000000e+00
0.000000000000000e+00 0.000000000000000e+00 0.000000000000000e+00
0.000000000000000e+00 0.000000000000000e+00 0.000000000000000e+00

0.000000000000000e+00 0.000000000000000e+00 0.000000000000000e+00
0.000000000000000e+00 0.000000000000000e+00 0.000000000000000e+00
0.000000000000000e+00 0.000000000000000e+00 0.000000000000000e+00

0.000000000000000e+00 0.000000000000000e+00 0.000000000000000e+00
0.000000000000000e+00 0.000000000000000e+00 0.000000000000000e+00
0.000000000000000e+00 0.000000000000000e+00 0.000000000000000e+00

0.000000000000000e+00 0.000000000000000e+00 0.000000000000000e+00
0.000000000000000e+00 0.000000000000000e+00 0.000000000000000e+00
0.000000000000000e+00 0.000000000000000e+00 0.000000000000000e+00

0.000000000000000e+00 0.000000000000000e+00 0.000000000000000e+00
0.000000000000000e+00 0.000000000000000e+00 0.000000000000000e+00
0.000000000000000e+00 0.000000000000000e+00 0.000000000000000e+00

0.000000000000000e+00 0.000000000000000e+00 0.000000000000000e+00
0.000000000000000e+00 0.000000000000000e+00 0.000000000000000e+00
0.000000000000000e+00 0.000000000000000e+00 0.000000000000000e+00

0.000000000000000e+00 0.000000000000000e+00 0.000000000000000e+00
0.000000000000000e+00 0.000000000000000e+00 0.000000000000000e+00
0.000000000000000e+00 0.000000000000000e+00 0.000000000000000e+00

0.000000000000000e+00 0.000000000000000e+00 0.000000000000000e+00
0.000000000000000e+00 0.000000000000000e+00 0.000000000000000e+00
0.000000000000000e+00 0.000000000000000e+00 0.000000000000000e+00

0.000000000000000e+00 0.000000000000000e+00 0.000000000000000e+00
0.000000000000000e+00 0.000000000000000e+00 0.000000000000000e+00
0.000000000000000e+00 0.000000000000000e+00 0.000000000000000e+00

0.000000000000000e+00 0.000000000000000e+00 0.000000000000000e+00
0.000000000000000e+00 0.000000000000000e+00 0.000000000000000e+00
0.000000000000000e+00 0.000000000000000e+00 0.000000000000000e+00

0.000000000000000e+00 0.000000000000000e+00 0.000000000000000e+00
0.000000000000000e+00 0.000000000000000e+00 0.000000000000000e+00
0.000000000000000e+00 0.000000000000000e+00 0.000000000000000e+00

0.000000000000000e+00 0.000000000000000e+00 0.000000000000000e+00
0.000000000000000e+00 0.000000000000000e+00 0.000000000000000e+00
0.000000000000000e+00 0.000000000000000e+00 0.000000000000000e+00

0.000000000000000e+00 0.000000000000000e+00 0.000000000000000e+00
0.000000000000000e+00 0.000000000000000e+00 0.000000000000000e+00
0.000000000000000e+00 0.000000000000000e+00 0.000000000000000e+00

0.000000000000000e+00 0.000000000000000e+00 0.000000000000000e+00
0.000000000000000e+00 0.000000000000000e+00 0.000000000000000e+00
0.000000000000000e+00 0.000000000000000e+00 0.000000000000000e+00

0.000000000000000e+00 0.000000000000000e+00 0.000000000000000e+00
0.000000000000000e+00 0.000000000000000e+00 0.000000000000000e+00
0.000000000000000e+00 0.000000000000000e+00 0.000000000000000e+00

0.000000000000000e+00 0.000000000000000e+00 0.000000000000000e+00
0.000000000000000e+00 0.000000000000000e+00 0.000000000000000e+00
0.000000000000000e+00 0.000000000000000e+00 0.000000000000000e+00

0.000000000000000e+00 0.000000000000000e+00 0.000000000000000e+00
0.000000000000000e+00 0.000000000000000e+00 0.000000000000000e+00
0.000000000000000e+00 0.000000000000000e+00 0.000000000000000e+00

0.000000000000000e+00 0.000000000000000e+00 0.000000000000000e+00
0.000000000000000e+00 0.000000000000000e+00 0.000000000000000e+00
0.000000000000000e+00 0.000000000000000e+00 0.000000000000000e+00

0.000000000000000e+00 0.000000000000000e+00 0.000000000000000e+00
0.000000000000000e+00 0.000000000000000e+00 0.000000000000000e+00
0.000000000000000e+00 0.000000000000000e+00 0.000000000000000e+00

0.000000000000000e+00 0.000000000000000e+00 0.000000000000000e+00
0.000000000000000e+00 0.000000000000000e+00 0.000000000000000e+00
0.000000000000000e+00 0.000000000000000e+00 0.000000000000000e+00

0.000000000000000e+00 0.000000000000000e+00 0.000000000000000e+00
0.000000000000000e+00 0.000000000000000e+00 0.000000000000000e+00
0.000000000000000e+00 0.000000000000000e+00 0.000000000000000e+00

0.000000000000000e+00 0.000000000000000e+00 0.000000000000000e+00
0.000000000000000e+00 0.000000000000000e+00 0.000000000000000e+00
0.000000000000000e+00 0.000000000000000e+00 0.000000000000000e+00

0.000000000000000e+00 0.000000000000000e+00 0.000000000000000e+00
0.000000000000000e+00 0.000000000000000e+00 0.000000000000000e+00
0.000000000000000e+00 0.000000000000000e+00 0.000000000000000e+00

0.000000000000000e+00 0.000000000000000e+00 0.000000000000000e+00
0.000000000000000e+00 0.000000000000000e+00 0.000000000000000e+00
0.000000000000000e+00 0.000000000000000e+00 0.000000000000000e+00

0.000000000000000e+00 0.000000000000000e+00 0.000000000000000e+00
0.000000000000000e+00 0.000000000000000e+00 0.000000000000000e+00
0.000000000000000e+00 0.000000000000000e+00 0.000000000000000e+00

0.000000000000000e+00 0.000000000000000e+00 0.000000000000000e+00
0.000000000000000e+00 0.000000000000000e+00 0.000000000000000e+00
0.000000000000000e+00 0.000000000000000e+00 0.000000000000000e+00

0.000000000000000e+00 0.000000000000000e+00 0.000000000000000e+00
0.000000000000000e+00 0.000000000000000e+00 0.000000000000000e+00
0.000000000000000e+00 0.000000000000000e+00 0.000000000000000e+00

0.000000000000000e+00 0.000000000000000e+00 0.000000000000000e+00
0.000000000000000e+00 0.000000000000000e+00 0.000000000000000e+00
0.000000000000000e+00 0.000000000000000e+00 0.000000000000000e+00

0.000000000000000e+00 0.000000000000000e+00 0.000000000000000e+00
0.000000000000000e+00 0.000000000000000e+00 0.000000000000000e+00
0.000000000000000e+00 0.000000000000000e+00 0.000000000000000e+00

0.000000000000000e+00 0.000000000000000e+00 0.000000000000000e+00
0.000000000000000e+00 0.000000000000000e+00 0.000000000000000e+00
0.000000000000000e+00 0.000000000000000e+00 0.000000000000000e+00

0.000000000000000e+00 0.000000000000000e+00 0.000000000000000e+00
0.000000000000000e+00 0.000000000000000e+00 0.000000000000000e+00
0.000000000000000e+00 0.000000000000000e+00 0.000000000000000e+00

0.000000000000000e+00 0.000000000000000e+00 0.000000000000000e+00
0.000000000000000e+00 0.000000000000000e+00 0.000000000000000e+00
0.000000000000000e+00 0.000000000000000e+00 0.000000000000000e+00

0.000000000000000e+00 0.000000000000000e+00 0.000000000000000e+00
0.000000000000000e+00 0.000000000000000e+00 0.000000000000000e+00
0.000000000000000e+00 0.000000000000000e+00 0.000000000000000e+00

0.000000000000000e+00 0.000000000000000e+00 0.000000000000000e+00
0.000000000000000e+00 0.000000000000000e+00 0.000000000000000e+00
0.000000000000000e+00 0.000000000000000e+00 0.000000000000000e+00

0.000000000000000e+00 0.000000000000000e+00 0.000000000000000e+00
0.000000000000000e+00 0.000000000000000e+00 0.000000000000000e+00
0.000000000000000e+00 0.000000000000000e+00 0.000000000000000e+00

0.000000000000000e+00 0.000000000000000e+00 0.000000000000000e+00
0.000000000000000e+00 0.000000000000000e+00 0.000000000000000e+00
0.000000000000000e+00 0.000000000000000e+00 0.000000000000000e+00

0.000000000000000e+00 0.000000000000000e+00 0.000000000000000e+00
0.000000000000000e+00 0.000000000000000e+00 0.000000000000000e+00
0.000000000000000e+00 0.000000000000000e+00 0.000000000000000e+00

0.000000000000000e+00 0.000000000000000e+00 0.000000000000000e+00
0.000000000000000e+00 0.000000000000000e+00 0.000000000000000e+00
0.000000000000000e+00 0.000000000000000e+00 0.000000000000000e+00

0.000000000000000e+00 0.000000000000000e+00 0.000000000000000e+00
0.000000000000000e+00 0.000000000000000e+00 0.000000000000000e+00
0.000000000000000e+00 0.000000000000000e+00 0.000000000000000e+00

0.000000000000000e+00 0.000000000000000e+00 0.000000000000000e+00
0.000000000000000e+00 0.000000000000000e+00 0.000000000000000e+00
0.000000000000000e+00 0.000000000000000e+00 0.000000000000000e+00

0.000000000000000e+00 0.000000000000000e+00 0.000000000000000e+00
0.000000000000000e+00 0.000000000000000e+00 0.000000000000000e+00
0.000000000000000e+00 0.000000000000000e+00 0.000000000000000e+00

0.000000000000000e+00 0.000000000000000e+00 0.000000000000000e+00
0.000000000000000e+00 0.000000000000000e+00 0.000000000000000e+00
0.000000000000000e+00 0.000000000000000e+00 0.000000000000000e+00

0.000000000000000e+00 0.000000000000000e+00 0.000000000000000e+00
0.000000000000000e+00 0.000000000000000e+00 0.000000000000000e+00
0.000000000000000e+00 0.000000000000000e+00 0.000000000000000e+00

0.000000000000000e+00 0.000000000000000e+00 0.000000000000000e+00
0.000000000000000e+00 0.000000000000000e+00 0.000000000000000e+00
0.000000000000000e+00 0.000000000000000e+00 0.000000000000000e+00

0.000000000000000e+00 0.000000000000000e+00 0.000000000000000e+00
0.000000000000000e+00 0.000000000000000e+00 0.000000000000000e+00
0.000000000000000e+00 0.000000000000000e+00 0.000000000000000e+00

0.000000000000000e+00 0.000000000000000e+00 0.000000000000000e+00
0.000000000000000e+00 0.000000000000000e+00 0.000000000000000e+00
0.000000000000000e+00 0.000000000000000e+00 0.000000000000000e+00

0.000000000000000e+00 0.000000000000000e+00 0.000000000000000e+00
0.000000000000000e+00 0.000000000000000e+00 0.000000000000000e+00
0.000000000000000e+00 0.000000000000000e+00 0.000000000000000e+00

0.000000000000000e+00 0.000000000000000e+00 0.000000000000000e+00
0.000000000000000e+00 0.000000000000000e+00 0.000000000000000e+00
0.000000000000000e+00 0.000000000000000e+00 0.000000000000000e+00

0.000000000000000e+00 0.000000000000000e+00 0.000000000000000e+00
0.000000000000000e+00 0.000000000000000e+00 0.000000000000000e+00
0.000000000000000e+00 0.000000000000000e+00 0.000000000000000e+00

0.000000000000000e+00 0.000000000000000e+00 0.000000000000000e+00
0.000000000000000e+00 0.000000000000000e+00 0.000000000000000e+00
0.000000000000000e+00 0.000000000000000e+00 0.000000000000000e+00

0.000000000000000e+00 0.000000000000000e+00 0.000000000000000e+00
0.000000000000000e+00 0.000000000000000e+00 0.000000000000000e+00
0.000000000000000e+00 0.000000000000000e+00 0.000000000000000e+00

0.000000000000000e+00 0.000000000000000e+00 0.000000000000000e+00
0.000000000000000e+00 0.000000000000000e+00 0.000000000000000e+00
0.000000000000000e+00 0.000000000000000e+00 0.000000000000000e+00

0.000000000000000e+00 0.000000000000000e+00 0.000000000000000e+00
0.000000000000000e+00 0.000000000000000e+00 0.000000000000000e+00
0.000000000000000e+00 0.000000000000000e+00 0.000000000000000e+00

0.000000000000000e+00 0.000000000000000e+00 0.000000000000000e+00
0.000000000000000e+00 0.000000000000000e+00 0.000000000000000e+00
0.000000000000000e+00 0.000000000000000e+00 0.000000000000000e+00

0.000000000000000e+00 0.000000000000000e+00 0.000000000000000e+00
0.000000000000000e+00 0.000000000000000e+00 0.000000000000000e+00
0.000000000000000e+00 0.000000000000000e+00 0.000000000000000e+00

0.000000000000000e+00 0.000000000000000e+00 0.000000000000000e+00
0.000000000000000e+00 0.000000000000000e+00 0.000000000000000e+00
0.000000000000000e+00 0.000000000000000e+00 0.000000000000000e+00

0.000000000000000e+00 0.000000000000000e+00 0.000000000000000e+00
0.000000000000000e+00 0.000000000000000e+00 0.000000000000000e+00
0.000000000000000e+00 0.000000000000000e+00 0.000000000000000e+00

0.000000000000000e+00 0.000000000000000e+00 0.000000000000000e+00
0.000000000000000e+00 0.000000000000000e+00 0.000000000000000e+00
0.000000000000000e+00 0.000000000000000e+00 0.000000000000000e+00

0.000000000000000e+00 0.000000000000000e+00 0.000000000000000e+00
0.000000000000000e+00 0.000000000000000e+00 0.000000000000000e+00
0.000000000000000e+00 0.000000000000000e+00 0.000000000000000e+00

0.000000000000000e+00 0.000000000000000e+00 0.000000000000000e+00
0.000000000000000e+00 0.000000000000000e+00 0.000000000000000e+00
0.000000000000000e+00 0.000000000000000e+00 0.000000000000000e+00

0.000000000000000e+00 0.000000000000000e+00 0.000000000000000e+00
0.000000000000000e+00 0.000000000000000e+00 0.000000000000000e+00
0.000000000000000e+00 0.000000000000000e+00 0.000000000000000e+00

0.000000000000000e+00 0.000000000000000e+00 0.000000000000000e+00
0.000000000000000e+00 0.000000000000000e+00 0.000000000000000e+00
0.000000000000000e+00 0.000000000000000e+00 0.000000000000000e+00

0.000000000000000e+00 0.000000000000000e+00 0.000000000000000e+00
0.000000000000000e+00 0.000000000000000e+00 0.000000000000000e+00
0.000000000000000e+00 0.000000000000000e+00 0.000000000000000e+00

0.000000000000000e+00 0.000000000000000e+00 0.000000000000000e+00
0.000000000000000e+00 0.000000000000000e+00 0.000000000000000e+00
0.000000000000000e+00 0.000000000000000e+00 0.000000000000000e+00

0.000000000000000e+00 0.000000000000000e+00 0.000000000000000e+00
0.000000000000000e+00 0.000000000000000e+00 0.000000000000000e+00
0.000000000000000e+00 0.000000000000000e+00 0.000000000000000e+00

0.000000000000000e+00 0.000000000000000e+00 0.000000000000000e+00
0.000000000000000e+00 0.000000000000000e+00 0.000000000000000e+00
0.000000000000000e+00 0.000000000000000e+00 0.000000000000000e+00

0.000000000000000e+00 0.000000000000000e+00 0.000000000000000e+00
0.000000000000000e+00 0.000000000000000e+00 0.000000000000000e+00
0.000000000000000e+00 0.000000000000000e+00 0.000000000000000e+00

0.000000000000000e+00 0.000000000000000e+00 0.000000000000000e+00
0.000000000000000e+00 0.000000000000000e+00 0.000000000000000e+00
0.000000000000000e+00 0.000000000000000e+00 0.000000000000000e+00

0.000000000000000e+00 0.000000000000000e+00 0.000000000000000e+00
0.000000000000000e+00 0.000000000000000e+00 0.000000000000000e+00
0.000000000000000e+00 0.000000000000000e+00 0.000000000000000e+00

0.000000000000000e+00 0.000000000000000e+00 0.000000000000000e+00
0.000000000000000e+00 0.000000000000000e+00 0.000000000000000e+00
0.000000000000000e+00 0.000000000000000e+00 0.000000000000000e+00

0.000000000000000e+00 0.000000000000000e+00 0.000000000000000e+00
0.000000000000000e+00 0.000000000000000e+00 0.000000000000000e+00
0.000000000000000e+00 0.000000000000000e+00 0.000000000000000e+00

0.000000000000000e+00 0.000000000000000e+00 0.000000000000000e+00
0.000000000000000e+00 0.000000000000000e+00 0.000000000000000e+00
0.000000000000000e+00 0.000000000000000e+00 0.000000000000000e+00

0.000000000000000e+00 0.000000000000000e+00 0.000000000000000e+00
0.000000000000000e+00 0.000000000000000e+00 0.000000000000000e+00
0.000000000000000e+00 0.000000000000000e+00 0.000000000000000e+00

0.000000000000000e+00 0.000000000000000e+00 0.000000000000000e+00
0.000000000000000e+00 0.000000000000000e+00 0.000000000000000e+00
0.000000000000000e+00 0.000000000000000e+00 0.000000000000000e+00

0.000000000000000e+00 0.000000000000000e+00 0.000000000000000e+00
0.000000000000000e+00 0.000000000000000e+00 0.000000000000000e+00
0.000000000000000e+00 0.000000000000000e+00 0.000000000000000e+00

0.000000000000000e+00 0.000000000000000e+00 0.000000000000000e+00
0.000000000000000e+00 0.000000000000000e+00 0.000000000000000e+00
0.000000000000000e+00 0.000000000000000e+00 0.000000000000000e+00

0.000000000000000e+00 0.000000000000000e+00 0.000000000000000e+00
0.000000000000000e+00 0.000000000000000e+00 0.000000000000000e+00
0.000000000000000e+00 0.000000000000000e+00 0.000000000000000e+00

0.000000000000000e+00 0.000000000000000e+00 0.000000000000000e+00
0.000000000000000e+00 0.000000000000000e+00 0.000000000000000e+00
0.000000000000000e+00 0.000000000000000e+00 0.000000000000000e+00

0.000000000000000e+00 0.000000000000000e+00 0.000000000000000e+00
0.000000000000000e+00 0.000000000000000e+00 0.000000000000000e+00
0.000000000000000e+00 0.000000000000000e+00 0.000000000000000e+00

0.000000000000000e+00 0.000000000000000e+00 0.000000000000000e+00
0.000000000000000e+00 0.000000000000000e+00 0.000000000000000e+00
0.000000000000000e+00 0.000000000000000e+00 0.000000000000000e+00

0.000000000000000e+00 0.000000000000000e+00 0.000000000000000e+00
0.000000000000000e+00 0.000000000000000e+00 0.000000000000000e+00
0.000000000000000e+00 0.000000000000000e+00 0.000000000000000e+00

0.000000000000000e+00 0.000000000000000e+00 0.000000000000000e+00
0.000000000000000e+00 0.000000000000000e+00 0.000000000000000e+00
0.000000000000000e+00 0.000000000000000e+00 0.000000000000000e+00

0.000000000000000e+00 0.000000000000000e+00 0.000000000000000e+00
0.000000000000000e+00 0.000000000000000e+00 0.000000000000000e+00
0.000000000000000e+00 0.000000000000000e+00 0.000000000000000e+00

0.000000000000000e+00 0.000000000000000e+00 0.000000000000000e+00
0.000000000000000e+00 0.000000000000000e+00 0.000000000000000e+00
0.000000000000000e+00 0.000000000000000e+00 0.000000000000000e+00

0.000000000000000e+00 0.000000000000000e+00 0.000000000000000e+00
0.000000000000000e+00 0.000000000000000e+00 0.000000000000000e+00
0.000000000000000e+00 0.000000000000000e+00 0.000000000000000e+00

0.000000000000000e+00 0.000000000000000e+00 0.000000000000000e+00
0.000000000000000e+00 0.000000000000000e+00 0.000000000000000e+00
0.000000000000000e+00 0.000000000000000e+00 0.000000000000000e+00

0.000000000000000e+00 0.000000000000000e+00 0.000000000000000e+00
0.000000000000000e+00 0.000000000000000e+00 0.000000000000000e+00
0.000000000000000e+00 0.000000000000000e+00 0.000000000000000e+00

0.000000000000000e+00 0.000000000000000e+00 0.000000000000000e+00
0.000000000000000e+00 0.000000000000000e+00 0.000000000000000e+00
0.000000000000000e+00 0.000000000000000e+00 0.000000000000000e+00

0.000000000000000e+00 0.000000000000000e+00 0.000000000000000e+00
0.000000000000000e+00 0.000000000000000e+00 0.000000000000000e+00
0.000000000000000e+00 0.000000000000000e+00 0.000000000000000e+00

0.000000000000000e+00 0.000000000000000e+00 0.000000000000000e+00
0.000000000000000e+00 0.000000000000000e+00 0.000000000000000e+00
0.000000000000000e+00 0.000000000000000e+00 0.000000000000000e+00

0.000000000000000e+00 0.000000000000000e+00 0.000000000000000e+00
0.000000000000000e+00 0.000000000000000e+00 0.000000000000000e+00
0.000000000000000e+00 0.000000000000000e+00 0.000000000000000e+00

0.000000000000000e+00 0.000000000000000e+00 0.000000000000000e+00
0.000000000000000e+00 0.000000000000000e+00 0.000000000000000e+00
0.000000000000000e+00 0.000000000000000e+00 0.000000000000000e+00

0.000000000000000e+00 0.000000000000000e+00 0.000000000000000e+00
0.000000000000000e+00 0.000000000000000e+00 0.000000000000000e+00
0.000000000000000e+00 0.000000000000000e+00 0.000000000000000e+00

0.000000000000000e+00 0.000000000000000e+00 0.000000000000000e+00
0.000000000000000e+00 0.000000000000000e+00 0.000000000000000e+00
0.000000000000000e+00 0.000000000000000e+00 0.000000000000000e+00

0.000000000000000e+00 0.000000000000000e+00 0.000000000000000e+00
0.000000000000000e+00 0.000000000000000e+00 0.000000000000000e+00
0.000000000000000e+00 0.000000000000000e+00 0.000000000000000e+00

0.000000000000000e+00 0.000000000000000e+00 0.000000000000000e+00
0.000000000000000e+00 0.000000000000000e+00 0.000000000000000e+00
0.000000000000000e+00 0.000000000000000e+00 0.000000000000000e+00

0.000000000000000e+00 0.000000000000000e+00 0.000000000000000e+00
0.000000000000000e+00 0.000000000000000e+00 0.000000000000000e+00
0.000000000000000e+00 0.000000000000000e+00 0.000000000000000e+00

0.000000000000000e+00 0.000000000000000e+00 0.000000000000000e+00
0.000000000000000e+00 0.000000000000000e+00 0.000000000000000e+00
0.000000000000000e+00 0.000000000000000e+00 0.000000000000000e+00

0.000000000000000e+00 0.000000000000000e+00 0.000000000000000e+00
0.000000000000000e+00 0.000000000000000e+00 0.000000000000000e+00
0.000000000000000e+00 0.000000000000000e+00 0.000000000000000e+00

0.000000000000000e+00 0.000000000000000e+00 0.000000000000000e+00
0.000000000000000e+00 0.000000000000000e+00 0.000000000000000e+00
0.000000000000000e+00 0.000000000000000e+00 0.000000000000000e+00

0.000000000000000e+00 0.000000000000000e+00 0.000000000000000e+00
0.000000000000000e+00 0.000000000000000e+00 0.000000000000000e+00
0.000000000000000e+00 0.000000000000000e+00 0.000000000000000e+00

0.000000000000000e+00 0.000000000000000e+00 0.000000000000000e+00
0.000000000000000e+00 0.000000000000000e+00 0.000000000000000e+00
0.000000000000000e+00 0.000000000000000e+00 0.000000000000000e+00

0.000000000000000e+00 0.000000000000000e+00 0.000000000000000e+00
0.000000000000000e+00 0.000000000000000e+00 0.000000000000000e+00
0.000000000000000e+00 0.000000000000000e+00 0.000000000000000e+00

0.000000000000000e+00 0.000000000000000e+00 0.000000000000000e+00
0.000000000000000e+00 0.000000000000000e+00 0.000000000000000e+00
0.000000000000000e+00 0.000000000000000e+00 0.000000000000000e+00

0.000000000000000e+00 0.000000000000000e+00 0.000000000000000e+00
0.000000000000000e+00 0.000000000000000e+00 0.000000000000000e+00
0.000000000000000e+00 0.000000000000000e+00 0.000000000000000e+00

0.000000000000000e+00 0.000000000000000e+00 0.000000000000000e+00
0.000000000000000e+00 0.000000000000000e+00 0.000000000000000e+00
0.000000000000000e+00 0.000000000000000e+00 0.000000000000000e+00

0.000000000000000e+00 0.000000000000000e+00 0.000000000000000e+00
0.000000000000000e+00 0.000000000000000e+00 0.000000000000000e+00
0.000000000000000e+00 0.000000000000000e+00 0.000000000000000e+00

0.000000000000000e+00 0.000000000000000e+00 0.000000000000000e+00
0.000000000000000e+00 0.000000000000000e+00 0.000000000000000e+00
0.000000000000000e+00 0.000000000000000e+00 0.000000000000000e+00

0.000000000000000e+00 0.000000000000000e+00 0.000000000000000e+00
0.000000000000000e+00 0.000000000000000e+00 0.000000000000000e+00
0.000000000000000e+00 0.000000000000000e+00 0.000000000000000e+00

0.000000000000000e+00 0.000000000000000e+00 0.000000000000000e+00
0.000000000000000e+00 0.000000000000000e+00 0.000000000000000e+00
0.000000000000000e+00 0.000000000000000e+00 0.000000000000000e+00

0.000000000000000e+00 0.000000000000000e+00 0.000000000000000e+00
0.000000000000000e+00 0.000000000000000e+00 0.000000000000000e+00
0.000000000000000e+00 0.000000000000000e+00 0.000000000000000e+00

0.000000000000000e+00 0.000000000000000e+00 0.000000000000000e+00
0.000000000000000e+00 0.000000000000000e+00 0.000000000000000e+00
0.000000000000000e+00 0.000000000000000e+00 0.000000000000000e+00

0.000000000000000e+00 0.000000000000000e+00 0.000000000000000e+00
0.000000000000000e+00 0.000000000000000e+00 0.000000000000000e+00
0.000000000000000e+00 0.000000000000000e+00 0.000000000000000e+00

0.000000000000000e+00 0.000000000000000e+00 0.000000000000000e+00
0.000000000000000e+00 0.000000000000000e+00 0.000000000000000e+00
0.000000000000000e+00 0.000000000000000e+00 0.000000000000000e+00

0.000000000000000e+00 0.000000000000000e+00 0.000000000000000e+00
0.000000000000000e+00 0.000000000000000e+00 0.000000000000000e+00
0.000000000000000e+00 0.000000000000000e+00 0.000000000000000e+00

0.000000000000000e+00 0.000000000000000e+00 0.000000000000000e+00
0.000000000000000e+00 0.000000000000000e+00 0.000000000000000e+00
0.000000000000000e+00 0.000000000000000e+00 0.000000000000000e+00

0.000000000000000e+00 0.000000000000000e+00 0.000000000000000e+00
0.000000000000000e+00 0.000000000000000e+00 0.000000000000000e+00
0.000000000000000e+00 0.000000000000000e+00 0.000000000000000e+00

0.000000000000000e+00 0.000000000000000e+00 0.000000000000000e+00
0.000000000000000e+00 0.000000000000000e+00 0.000000000000000e+00
0.000000000000000e+00 0.000000000000000e+00 0.000000000000000e+00

0.000000000000000e+00 0.000000000000000e+00 0.000000000000000e+00
0.000000000000000e+00 0.000000000000000e+00 0.000000000000000e+00
0.000000000000000e+00 0.000000000000000e+00 0.000000000000000e+00

0.000000000000000e+00 0.000000000000000e+00 0.000000000000000e+00
0.000000000000000e+00 0.000000000000000e+00 0.000000000000000e+00
0.000000000000000e+00 0.000000000000000e+00 0.000000000000000e+00

0.000000000000000e+00 0.000000000000000e+00 0.000000000000000e+00
0.000000000000000e+00 0.000000000000000e+00 0.000000000000000e+00
0.000000000000000e+00 0.000000000000000e+00 0.000000000000000e+00

0.000000000000000e+00 0.000000000000000e+00 0.000000000000000e+00
0.000000000000000e+00 0.000000000000000e+00 0.000000000000000e+00
0.000000000000000e+00 0.000000000000000e+00 0.000000000000000e+00

0.000000000000000e+00 0.000000000000000e+00 0.000000000000000e+00
0.000000000000000e+00 0.000000000000000e+00 0.000000000000000e+00
0.000000000000000e+00 0.000000000000000e+00 0.000000000000000e+00

0.000000000000000e+00 0.000000000000000e+00 0.000000000000000e+00
0.000000000000000e+00 0.000000000000000e+00 0.000000000000000e+00
0.000000000000000e+00 0.000000000000000e+00 0.000000000000000e+00

0.000000000000000e+00 0.000000000000000e+00 0.000000000000000e+00
0.000000000000000e+00 0.000000000000000e+00 0.000000000000000e+00
0.000000000000000e+00 0.000000000000000e+00 0.000000000000000e+00

0.000000000000000e+00 0.000000000000000e+00 0.000000000000000e+00
0.000000000000000e+00 0.000000000000000e+00 0.000000000000000e+00
0.000000000000000e+00 0.000000000000000e+00 0.000000000000000e+00

0.000000000000000e+00 0.000000000000000e+00 0.000000000000000e+00
0.000000000000000e+00 0.000000000000000e+00 0.000000000000000e+00
0.000000000000000e+00 0.000000000000000e+00 0.000000000000000e+00

0.000000000000000e+00 0.000000000000000e+00 0.000000000000000e+00
0.000000000000000e+00 0.000000000000000e+00 0.000000000000000e+00
0.000000000000000e+00 0.000000000000000e+00 0.000000000000000e+00

0.000000000000000e+00 0.000000000000000e+00 0.000000000000000e+00
0.000000000000000e+00 0.000000000000000e+00 0.000000000000000e+00
0.000000000000000e+00 0.000000000000000e+00 0.000000000000000e+00

0.000000000000000e+00 0.000000000000000e+00 0.000000000000000e+00
0.000000000000000e+00 0.000000000000000e+00 0.000000000000000e+00
0.000000000000000e+00 0.000000000000000e+00 0.000000000000000e+00

0.000000000000000e+00 0.000000000000000e+00 0.000000000000000e+00
0.000000000000000e+00 0.000000000000000e+00 0.000000000000000e+00
0.000000000000000e+00 0.000000000000000e+00 0.000000000000000e+00

0.000000000000000e+00 0.000000000000000e+00 0.000000000000000e+00
0.000000000000000e+00 0.000000000000000e+00 0.000000000000000e+00
0.000000000000000e+00 0.000000000000000e+00 0.000000000000000e+00

0.000000000000000e+00 0.000000000000000e+00 0.000000000000000e+00
0.000000000000000e+00 0.000000000000000e+00 0.000000000000000e+00
0.000000000000000e+00 0.000000000000000e+00 0.000000000000000e+00

0.000000000000000e+00 0.000000000000000e+00 0.000000000000000e+00
0.000000000000000e+00 0.000000000000000e+00 0.000000000000000e+00
0.000000000000000e+00 0.000000000000000e+00 0.000000000000000e+00

0.000000000000000e+00 0.000000000000000e+00 0.000000000000000e+00
0.000000000000000e+00 0.000000000000000e+00 0.000000000000000e+00
0.000000000000000e+00 0.000000000000000e+00 0.000000000000000e+00

0.000000000000000e+00 0.000000000000000e+00 0.000000000000000e+00
0.000000000000000e+00 0.000000000000000e+00 0.000000000000000e+00
0.000000000000000e+00 0.000000000000000e+00 0.000000000000000e+00

0.000000000000000e+00 0.000000000000000e+00 0.000000000000000e+00
0.000000000000000e+00 0.000000000000000e+00 0.000000000000000e+00
0.000000000000000e+00 0.000000000000000e+00 0.000000000000000e+00

0.000000000000000e+00 0.000000000000000e+00 0.000000000000000e+00
0.000000000000000e+00 0.000000000000000e+00 0.000000000000000e+00
0.000000000000000e+00 0.000000000000000e+00 0.000000000000000e+00

0.000000000000000e+00 0.000000000000000e+00 0.000000000000000e+00
0.000000000000000e+00 0.000000000000000e+00 0.000000000000000e+00
0.000000000000000e+00 0.000000000000000e+00 0.000000000000000e+00

0.000000000000000e+00 0.000000000000000e+00 0.000000000000000e+00
0.000000000000000e+00 0.000000000000000e+00 0.000000000000000e+00
0.000000000000000e+00 0.000000000000000e+00 0.000000000000000e+00

0.000000000000000e+00 0.000000000000000e+00 0.000000000000000e+00
0.000000000000000e+00 0.000000000000000e+00 0.000000000000000e+00
0.000000000000000e+00 0.000000000000000e+00 0.000000000000000e+00

0.000000000000000e+00 0.000000000000000e+00 0.000000000000000e+00
0.000000000000000e+00 0.000000000000000e+00 0.000000000000000e+00
0.000000000000000e+00 0.000000000000000e+00 0.000000000000000e+00

0.000000000000000e+00 0.000000000000000e+00 0.000000000000000e+00
0.000000000000000e+00 0.000000000000000e+00 0.000000000000000e+00
0.000000000000000e+00 0.000000000000000e+00 0.000000000000000e+00

0.000000000000000e+00 0.000000000000000e+00 0.000000000000000e+00
0.000000000000000e+00 0.000000000000000e+00 0.000000000000000e+00
0.000000000000000e+00 0.000000000000000e+00 0.000000000000000e+00

0.000000000000000e+00 0.000000000000000e+00 0.000000000000000e+00
0.000000000000000e+00 0.000000000000000e+00 0.000000000000000e+00
0.000000000000000e+00 0.000000000000000e+00 0.000000000000000e+00

0.000000000000000e+00 0.000000000000000e+00 0.000000000000000e+00
0.000000000000000e+00 0.000000000000000e+00 0.000000000000000e+00
0.000000000000000e+00 0.000000000000000e+00 0.000000000000000e+00

0.000000000000000e+00 0.000000000000000e+00 0.000000000000000e+00
0.000000000000000e+00 0.000000000000000e+00 0.000000000000000e+00
0.000000000000000e+00 0.000000000000000e+00 0.000000000000000e+00

0.000000000000000e+00 0.000000000000000e+00 0.000000000000000e+00
0.000000000000000e+00 0.000000000000000e+00 0.000000000000000e+00
0.000000000000000e+00 0.000000000000000e+00 0.000000000000000e+00

0.000000000000000e+00 0.000000000000000e+00 0.000000000000000e+00
0.000000000000000e+00 0.000000000000000e+00 0.000000000000000e+00
0.000000000000000e+00 0.000000000000000e+00 0.000000000000000e+00

0.000000000000000e+00 0.000000000000000e+00 0.000000000000000e+00
0.000000000000000e+00 0.000000000000000e+00 0.000000000000000e+00
0.000000000000000e+00 0.000000000000000e+00 0.000000000000000e+00

0.000000000000000e+00 0.000000000000000e+00 0.000000000000000e+00
0.000000000000000e+00 0.000000000000000e+00 0.000000000000000e+00
0.000000000000000e+00 0.000000000000000e+00 0.000000000000000e+00

0.000000000000000e+00 0.000000000000000e+00 0.000000000000000e+00
0.000000000000000e+00 0.000000000000000e+00 0.000000000000000e+00
0.000000000000000e+00 0.000000000000000e+00 0.000000000000000e+00

0.000000000000000e+00 0.000000000000000e+00 0.000000000000000e+00
0.000000000000000e+00 0.000000000000000e+00 0.000000000000000e+00
0.000000000000000e+00 0.000000000000000e+00 0.000000000000000e+00

0.000000000000000e+00 0.000000000000000e+00 0.000000000000000e+00
0.000000000000000e+00 0.000000000000000e+00 0.000000000000000e+00
0.000000000000000e+00 0.000000000000000e+00 0.000000000000000e+00

0.000000000000000e+00 0.000000000000000e+00 0.000000000000000e+00
0.000000000000000e+00 0.000000000000000e+00 0.000000000000000e+00
0.000000000000000e+00 0.000000000000000e+00 0.000000000000000e+00

0.000000000000000e+00 0.000000000000000e+00 0.000000000000000e+00
0.000000000000000e+00 0.000000000000000e+00 0.000000000000000e+00
0.000000000000000e+00 0.000000000000000e+00 0.000000000000000e+00

0.000000000000000e+00 0.000000000000000e+00 0.000000000000000e+00
0.000000000000000e+00 0.000000000000000e+00 0.000000000000000e+00
0.000000000000000e+00 0.000000000000000e+00 0.000000000000000e+00

0.000000000000000e+00 0.000000000000000e+00 0.000000000000000e+00
0.000000000000000e+00 0.000000000000000e+00 0.000000000000000e+00
0.000000000000000e+00 0.000000000000000e+00 0.000000000000000e+00

0.000000000000000e+00 0.000000000000000e+00 0.000000000000000e+00
0.000000000000000e+00 0.000000000000000e+00 0.000000000000000e+00
0.000000000000000e+00 0.000000000000000e+00 0.000000000000000e+00

0.000000000000000e+00 0.000000000000000e+00 0.000000000000000e+00
0.000000000000000e+00 0.000000000000000e+00 0.000000000000000e+00
0.000000000000000e+00 0.000000000000000e+00 0.000000000000000e+00

0.000000000000000e+00 0.000000000000000e+00 0.000000000000000e+00
0.000000000000000e+00 0.000000000000000e+00 0.000000000000000e+00
0.000000000000000e+00 0.000000000000000e+00 0.000000000000000e+00

0.000000000000000e+00 0.000000000000000e+00 0.000000000000000e+00
0.000000000000000e+00 0.000000000000000e+00 0.000000000000000e+00
0.000000000000000e+00 0.000000000000000e+00 0.000000000000000e+00

0.000000000000000e+00 0.000000000000000e+00 0.000000000000000e+00
0.000000000000000e+00 0.000000000000000e+00 0.000000000000000e+00
0.000000000000000e+00 0.000000000000000e+00 0.000000000000000e+00

0.000000000000000e+00 0.000000000000000e+00 0.000000000000000e+00
0.000000000000000e+00 0.000000000000000e+00 0.000000000000000e+00
0.000000000000000e+00 0.000000000000000e+00 0.000000000000000e+00

0.000000000000000e+00 0.000000000000000e+00 0.000000000000000e+00
0.000000000000000e+00 0.000000000000000e+00 0.000000000000000e+00
0.000000000000000e+00 0.000000000000000e+00 0.000000000000000e+00

0.000000000000000e+00 0.000000000000000e+00 0.000000000000000e+00
0.000000000000000e+00 0.000000000000000e+00 0.000000000000000e+00
0.000000000000000e+00 0.000000000000000e+00 0.000000000000000e+00

0.000000000000000e+00 0.000000000000000e+00 0.000000000000000e+00
0.000000000000000e+00 0.000000000000000e+00 0.000000000000000e+00
0.000000000000000e+00 0.000000000000000e+00 0.000000000000000e+00

0.000000000000000e+00 0.000000000000000e+00 0.000000000000000e+00
0.000000000000000e+00 0.000000000000000e+00 0.000000000000000e+00
0.000000000000000e+00 0.000000000000000e+00 0.000000000000000e+00

0.000000000000000e+00 0.000000000000000e+00 0.000000000000000e+00
0.000000000000000e+00 0.000000000000000e+00 0.000000000000000e+00
0.000000000000000e+00 0.000000000000000e+00 0.000000000000000e+00

0.000000000000000e+00 0.000000000000000e+00 0.000000000000000e+00
0.000000000000000e+00 0.000000000000000e+00 0.000000000000000e+00
0.000000000000000e+00 0.000000000000000e+00 0.000000000000000e+00

0.000000000000000e+00 0.000000000000000e+00 0.000000000000000e+00
0.000000000000000e+00 0.000000000000000e+00 0.000000000000000e+00
0.000000000000000e+00 0.000000000000000e+00 0.000000000000000e+00

0.000000000000000e+00 0.000000000000000e+00 0.000000000000000e+00
0.000000000000000e+00 0.000000000000000e+00 0.000000000000000e+00
0.000000000000000e+00 0.000000000000000e+00 0.000000000000000e+00

0.000000000000000e+00 0.000000000000000e+00 0.000000000000000e+00
0.000000000000000e+00 0.000000000000000e+00 0.000000000000000e+00
0.000000000000000e+00 0.000000000000000e+00 0.000000000000000e+00

0.000000000000000e+00 0.000000000000000e+00 0.000000000000000e+00
0.000000000000000e+00 0.000000000000000e+00 0.000000000000000e+00
0.000000000000000e+00 0.000000000000000e+00 0.000000000000000e+00

0.000000000000000e+00 0.000000000000000e+00 0.000000000000000e+00
0.000000000000000e+00 0.000000000000000e+00 0.000000000000000e+00
0.000000000000000e+00 0.000000000000000e+00 0.000000000000000e+00

0.000000000000000e+00 0.000000000000000e+00 0.000000000000000e+00
0.000000000000000e+00 0.000000000000000e+00 0.000000000000000e+00
0.000000000000000e+00 0.000000000000000e+00 0.000000000000000e+00

0.000000000000000e+00 0.000000000000000e+00 0.000000000000000e+00
0.000000000000000e+00 0.000000000000000e+00 0.000000000000000e+00
0.000000000000000e+00 0.000000000000000e+00 0.000000000000000e+00

0.000000000000000e+00 0.000000000000000e+00 0.000000000000000e+00
0.000000000000000e+00 0.000000000000000e+00 0.000000000000000e+00
0.000000000000000e+00 0.000000000000000e+00 0.000000000000000e+00

0.000000000000000e+00 0.000000000000000e+00 0.000000000000000e+00
0.000000000000000e+00 0.000000000000000e+00 0.000000000000000e+00
0.000000000000000e+00 0.000000000000000e+00 0.000000000000000e+00

0.000000000000000e+00 0.000000000000000e+00 0.000000000000000e+00
0.000000000000000e+00 0.000000000000000e+00 0.000000000000000e+00
0.000000000000000e+00 0.000000000000000e+00 0.000000000000000e+00

0.000000000000000e+00 0.000000000000000e+00 0.000000000000000e+00
0.000000000000000e+00 0.000000000000000e+00 0.000000000000000e+00
0.000000000000000e+00 0.000000000000000e+00 0.000000000000000e+00

0.000000000000000e+00 0.000000000000000e+00 0.000000000000000e+00
0.000000000000000e+00 0.000000000000000e+00 0.000000000000000e+00
0.000000000000000e+00 0.000000000000000e+00 0.000000000000000e+00

0.000000000000000e+00 0.000000000000000e+00 0.000000000000000e+00
0.000000000000000e+00 0.000000000000000e+00 0.000000000000000e+00
0.000000000000000e+00 0.000000000000000e+00 0.000000000000000e+00

0.000000000000000e+00 0.000000000000000e+00 0.000000000000000e+00
0.000000000000000e+00 0.000000000000000e+00 0.000000000000000e+00
0.000000000000000e+00 0.000000000000000e+00 0.000000000000000e+00

0.000000000000000e+00 0.000000000000000e+00 0.000000000000000e+00
0.000000000000000e+00 0.000000000000000e+00 0.000000000000000e+00
0.000000000000000e+00 0.000000000000000e+00 0.000000000000000e+00

0.000000000000000e+00 0.000000000000000e+00 0.000000000000000e+00
0.000000000000000e+00 0.000000000000000e+00 0.000000000000000e+00
0.000000000000000e+00 0.000000000000000e+00 0.000000000000000e+00

0.000000000000000e+00 0.000000000000000e+00 0.000000000000000e+00
0.000000000000000e+00 0.000000000000000e+00 0.000000000000000e+00
0.000000000000000e+00 0.000000000000000e+00 0.000000000000000e+00

0.000000000000000e+00 0.000000000000000e+00 0.000000000000000e+00
0.000000000000000e+00 0.000000000000000e+00 0.000000000000000e+00
0.000000000000000e+00 0.000000000000000e+00 0.000000000000000e+00

0.000000000000000e+00 0.000000000000000e+00 0.000000000000000e+00
0.000000000000000e+00 0.000000000000000e+00 0.000000000000000e+00
0.000000000000000e+00 0.000000000000000e+00 0.000000000000000e+00

0.000000000000000e+00 0.000000000000000e+00 0.000000000000000e+00
0.000000000000000e+00 0.000000000000000e+00 0.000000000000000e+00
0.000000000000000e+00 0.000000000000000e+00 0.000000000000000e+00

0.000000000000000e+00 0.000000000000000e+00 0.000000000000000e+00
0.000000000000000e+00 0.000000000000000e+00 0.000000000000000e+00
0.000000000000000e+00 0.000000000000000e+00 0.000000000000000e+00

0.000000000000000e+00 0.000000000000000e+00 0.000000000000000e+00
0.000000000000000e+00 0.000000000000000e+00 0.000000000000000e+00
0.000000000000000e+00 0.000000000000000e+00 0.000000000000000e+00

0.000000000000000e+00 0.000000000000000e+00 0.000000000000000e+00
0.000000000000000e+00 0.000000000000000e+00 0.000000000000000e+00
0.000000000000000e+00 0.000000000000000e+00 0.000000000000000e+00

0.000000000000000e+00 0.000000000000000e+00 0.000000000000000e+00
0.000000000000000e+00 0.000000000000000e+00 0.000000000000000e+00
0.000000000000000e+00 0.000000000000000e+00 0.000000000000000e+00

0.000000000000000e+00 0.000000000000000e+00 0.000000000000000e+00
0.000000000000000e+00 0.000000000000000e+00 0.000000000000000e+00
0.000000000000000e+00 0.000000000000000e+00 0.000000000000000e+00

0.000000000000000e+00 0.000000000000000e+00 0.000000000000000e+00
0.000000000000000e+00 0.000000000000000e+00 0.000000000000000e+00
0.000000000000000e+00 0.000000000000000e+00 0.000000000000000e+00

0.000000000000000e+00 0.000000000000000e+00 0.000000000000000e+00
0.000000000000000e+00 0.000000000000000e+00 0.000000000000000e+00
0.000000000000000e+00 0.000000000000000e+00 0.000000000000000e+00

0.000000000000000e+00 0.000000000000000e+00 0.000000000000000e+00
0.000000000000000e+00 0.000000000000000e+00 0.000000000000000e+00
0.000000000000000e+00 0.000000000000000e+00 0.000000000000000e+00

0.000000000000000e+00 0.000000000000000e+00 0.000000000000000e+00
0.000000000000000e+00 0.000000000000000e+00 0.000000000000000e+00
0.000000000000000e+00 0.000000000000000e+00 0.000000000000000e+00

0.000000000000000e+00 0.000000000000000e+00 0.000000000000000e+00
0.000000000000000e+00 0.000000000000000e+00 0.000000000000000e+00
0.000000000000000e+00 0.000000000000000e+00 0.000000000000000e+00

0.000000000000000e+00 0.000000000000000e+00 0.000000000000000e+00
0.000000000000000e+00 0.000000000000000e+00 0.000000000000000e+00
0.000000000000000e+00 0.000000000000000e+00 0.000000000000000e+00

0.000000000000000e+00 0.000000000000000e+00 0.000000000000000e+00
0.000000000000000e+00 0.000000000000000e+00 0.000000000000000e+00
0.000000000000000e+00 0.000000000000000e+00 0.000000000000000e+00

0.000000000000000e+00 0.000000000000000e+00 0.000000000000000e+00
0.000000000000000e+00 0.000000000000000e+00 0.000000000000000e+00
0.000000000000000e+00 0.000000000000000e+00 0.000000000000000e+00

0.000000000000000e+00 0.000000000000000e+00 0.000000000000000e+00
0.000000000000000e+00 0.000000000000000e+00 0.000000000000000e+00
0.000000000000000e+00 0.000000000000000e+00 0.000000000000000e+00

0.000000000000000e+00 0.000000000000000e+00 0.000000000000000e+00
0.000000000000000e+00 0.000000000000000e+00 0.000000000000000e+00
0.000000000000000e+00 0.000000000000000e+00 0.000000000000000e+00

0.000000000000000e+00 0.000000000000000e+00 0.000000000000000e+00
0.000000000000000e+00 0.000000000000000e+00 0.000000000000000e+00
0.000000000000000e+00 0.000000000000000e+00 0.000000000000000e+00

0.000000000000000e+00 0.000000000000000e+00 0.000000000000000e+00
0.000000000000000e+00 0.000000000000000e+00 0.000000000000000e+00
0.000000000000000e+00 0.000000000000000e+00 0.000000000000000e+00

0.000000000000000e+00 0.000000000000000e+00 0.000000000000000e+00
0.000000000000000e+00 0.000000000000000e+00 0.000000000000000e+00
0.000000000000000e+00 0.000000000000000e+00 0.000000000000000e+00

0.000000000000000e+00 0.000000000000000e+00 0.000000000000000e+00
0.000000000000000e+00 0.000000000000000e+00 0.000000000000000e+00
0.000000000000000e+00 0.000000000000000e+00 0.000000000000000e+00

0.000000000000000e+00 0.000000000000000e+00 0.000000000000000e+00
0.000000000000000e+00 0.000000000000000e+00 0.000000000000000e+00
0.000000000000000e+00 0.000000000000000e+00 0.000000000000000e+00

0.000000000000000e+00 0.000000000000000e+00 0.000000000000000e+00
0.000000000000000e+00 0.000000000000000e+00 0.000000000000000e+00
0.000000000000000e+00 0.000000000000000e+00 0.000000000000000e+00

0.000000000000000e+00 0.000000000000000e+00 0.000000000000000e+00
0.000000000000000e+00 0.000000000000000e+00 0.000000000000000e+00
0.000000000000000e+00 0.000000000000000e+00 0.000000000000000e+00

0.000000000000000e+00 0.000000000000000e+00 0.000000000000000e+00
0.000000000000000e+00 0.000000000000000e+00 0.000000000000000e+00
0.000000000000000e+00 0.000000000000000e+00 0.000000000000000e+00

0.000000000000000e+00 0.000000000000000e+00 0.000000000000000e+00
0.000000000000000e+00 0.000000000000000e+00 0.000000000000000e+00
0.000000000000000e+00 0.000000000000000e+00 0.000000000000000e+00

0.000000000000000e+00 0.000000000000000e+00 0.000000000000000e+00
0.000000000000000e+00 0.000000000000000e+00 0.000000000000000e+00
0.000000000000000e+00 0.000000000000000e+00 0.000000000000000e+00

0.000000000000000e+00 0.000000000000000e+00 0.000000000000000e+00
0.000000000000000e+00 0.000000000000000e+00 0.000000000000000e+00
0.000000000000000e+00 0.000000000000000e+00 0.000000000000000e+00

0.000000000000000e+00 0.000000000000000e+00 0.000000000000000e+00
0.000000000000000e+00 0.000000000000000e+00 0.000000000000000e+00
0.000000000000000e+00 0.000000000000000e+00 0.000000000000000e+00

0.000000000000000e+00 0.000000000000000e+00 0.000000000000000e+00
0.000000000000000e+00 0.000000000000000e+00 0.000000000000000e+00
0.000000000000000e+00 0.000000000000000e+00 0.000000000000000e+00

0.000000000000000e+00 0.000000000000000e+00 0.000000000000000e+00
0.000000000000000e+00 0.000000000000000e+00 0.000000000000000e+00
0.000000000000000e+00 0.000000000000000e+00 0.000000000000000e+00

0.000000000000000e+00 0.000000000000000e+00 0.000000000000000e+00
0.000000000000000e+00 0.000000000000000e+00 0.000000000000000e+00
0.000000000000000e+00 0.000000000000000e+00 0.000000000000000e+00

0.000000000000000e+00 0.000000000000000e+00 0.000000000000000e+00
0.000000000000000e+00 0.000000000000000e+00 0.000000000000000e+00
0.000000000000000e+00 0.000000000000000e+00 0.000000000000000e+00

0.000000000000000e+00 0.000000000000000e+00 0.000000000000000e+00
0.000000000000000e+00 0.000000000000000e+00 0.000000000000000e+00
0.000000000000000e+00 0.000000000000000e+00 0.000000000000000e+00

0.000000000000000e+00 0.000000000000000e+00 0.000000000000000e+00
0.000000000000000e+00 0.000000000000000e+00 0.000000000000000e+00
0.000000000000000e+00 0.000000000000000e+00 0.000000000000000e+00

0.000000000000000e+00 0.000000000000000e+00 0.000000000000000e+00
0.000000000000000e+00 0.000000000000000e+00 0.000000000000000e+00
0.000000000000000e+00 0.000000000000000e+00 0.000000000000000e+00

0.000000000000000e+00 0.000000000000000e+00 0.000000000000000e+00
0.000000000000000e+00 0.000000000000000e+00 0.000000000000000e+00
0.000000000000000e+00 0.000000000000000e+00 0.000000000000000e+00

0.000000000000000e+00 0.000000000000000e+00 0.000000000000000e+00
0.000000000000000e+00 0.000000000000000e+00 0.000000000000000e+00
0.000000000000000e+00 0.000000000000000e+00 0.000000000000000e+00

0.000000000000000e+00 0.000000000000000e+00 0.000000000000000e+00
0.000000000000000e+00 0.000000000000000e+00 0.000000000000000e+00
0.000000000000000e+00 0.000000000000000e+00 0.000000000000000e+00

0.000000000000000e+00 0.000000000000000e+00 0.000000000000000e+00
0.000000000000000e+00 0.000000000000000e+00 0.000000000000000e+00
0.000000000000000e+00 0.000000000000000e+00 0.000000000000000e+00

0.000000000000000e+00 0.000000000000000e+00 0.000000000000000e+00
0.000000000000000e+00 0.000000000000000e+00 0.000000000000000e+00
0.000000000000000e+00 0.000000000000000e+00 0.000000000000000e+00

0.000000000000000e+00 0.000000000000000e+00 0.000000000000000e+00
0.000000000000000e+00 0.000000000000000e+00 0.000000000000000e+00
0.000000000000000e+00 0.000000000000000e+00 0.000000000000000e+00

0.000000000000000e+00 0.000000000000000e+00 0.000000000000000e+00
0.000000000000000e+00 0.000000000000000e+00 0.000000000000000e+00
0.000000000000000e+00 0.000000000000000e+00 0.000000000000000e+00

0.000000000000000e+00 0.000000000000000e+00 0.000000000000000e+00
0.000000000000000e+00 0.000000000000000e+00 0.000000000000000e+00
0.000000000000000e+00 0.000000000000000e+00 0.000000000000000e+00

0.000000000000000e+00 0.000000000000000e+00 0.000000000000000e+00
0.000000000000000e+00 0.000000000000000e+00 0.000000000000000e+00
0.000000000000000e+00 0.000000000000000e+00 0.000000000000000e+00

0.000000000000000e+00 0.000000000000000e+00 0.000000000000000e+00
0.000000000000000e+00 0.000000000000000e+00 0.000000000000000e+00
0.000000000000000e+00 0.000000000000000e+00 0.000000000000000e+00

0.000000000000000e+00 0.000000000000000e+00 0.000000000000000e+00
0.000000000000000e+00 0.000000000000000e+00 0.000000000000000e+00
0.000000000000000e+00 0.000000000000000e+00 0.000000000000000e+00

0.000000000000000e+00 0.000000000000000e+00 0.000000000000000e+00
0.000000000000000e+00 0.000000000000000e+00 0.000000000000000e+00
0.000000000000000e+00 0.000000000000000e+00 0.000000000000000e+00

0.000000000000000e+00 0.000000000000000e+00 0.000000000000000e+00
0.000000000000000e+00 0.000000000000000e+00 0.000000000000000e+00
0.000000000000000e+00 0.000000000000000e+00 0.000000000000000e+00

0.000000000000000e+00 0.000000000000000e+00 0.000000000000000e+00
0.000000000000000e+00 0.000000000000000e+00 0.000000000000000e+00
0.000000000000000e+00 0.000000000000000e+00 0.000000000000000e+00

0.000000000000000e+00 0.000000000000000e+00 0.000000000000000e+00
0.000000000000000e+00 0.000000000000000e+00 0.000000000000000e+00
0.000000000000000e+00 0.000000000000000e+00 0.000000000000000e+00

0.000000000000000e+00 0.000000000000000e+00 0.000000000000000e+00
0.000000000000000e+00 0.000000000000000e+00 0.000000000000000e+00
0.000000000000000e+00 0.000000000000000e+00 0.000000000000000e+00

0.000000000000000e+00 0.000000000000000e+00 0.000000000000000e+00
0.000000000000000e+00 0.000000000000000e+00 0.000000000000000e+00
0.000000000000000e+00 0.000000000000000e+00 0.000000000000000e+00

0.000000000000000e+00 0.000000000000000e+00 0.000000000000000e+00
0.000000000000000e+00 0.000000000000000e+00 0.000000000000000e+00
0.000000000000000e+00 0.000000000000000e+00 0.000000000000000e+00

0.000000000000000e+00 0.000000000000000e+00 0.000000000000000e+00
0.000000000000000e+00 0.000000000000000e+00 0.000000000000000e+00
0.000000000000000e+00 0.000000000000000e+00 0.000000000000000e+00

0.000000000000000e+00 0.000000000000000e+00 0.000000000000000e+00
0.000000000000000e+00 0.000000000000000e+00 0.000000000000000e+00
0.000000000000000e+00 0.000000000000000e+00 0.000000000000000e+00

0.000000000000000e+00 0.000000000000000e+00 0.000000000000000e+00
0.000000000000000e+00 0.000000000000000e+00 0.000000000000000e+00
0.000000000000000e+00 0.000000000000000e+00 0.000000000000000e+00

0.000000000000000e+00 0.000000000000000e+00 0.000000000000000e+00
0.000000000000000e+00 0.000000000000000e+00 0.000000000000000e+00
0.000000000000000e+00 0.000000000000000e+00 0.000000000000000e+00

0.000000000000000e+00 0.000000000000000e+00 0.000000000000000e+00
0.000000000000000e+00 0.000000000000000e+00 0.000000000000000e+00
0.000000000000000e+00 0.000000000000000e+00 0.000000000000000e+00

0.000000000000000e+00 0.000000000000000e+00 0.000000000000000e+00
0.000000000000000e+00 0.000000000000000e+00 0.000000000000000e+00
0.000000000000000e+00 0.000000000000000e+00 0.000000000000000e+00

0.000000000000000e+00 0.000000000000000e+00 0.000000000000000e+00
0.000000000000000e+00 0.000000000000000e+00 0.000000000000000e+00
0.000000000000000e+00 0.000000000000000e+00 0.000000000000000e+00

0.000000000000000e+00 0.000000000000000e+00 0.000000000000000e+00
0.000000000000000e+00 0.000000000000000e+00 0.000000000000000e+00
0.000000000000000e+00 0.000000000000000e+00 0.000000000000000e+00

0.000000000000000e+00 0.000000000000000e+00 0.000000000000000e+00
0.000000000000000e+00 0.000000000000000e+00 0.000000000000000e+00
0.000000000000000e+00 0.000000000000000e+00 0.000000000000000e+00

0.000000000000000e+00 0.000000000000000e+00 0.000000000000000e+00
0.000000000000000e+00 0.000000000000000e+00 0.000000000000000e+00
0.000000000000000e+00 0.000000000000000e+00 0.000000000000000e+00

0.000000000000000e+00 0.000000000000000e+00 0.000000000000000e+00
0.000000000000000e+00 0.000000000000000e+00 0.000000000000000e+00
0.000000000000000e+00 0.000000000000000e+00 0.000000000000000e+00

0.000000000000000e+00 0.000000000000000e+00 0.000000000000000e+00
0.000000000000000e+00 0.000000000000000e+00 0.000000000000000e+00
0.000000000000000e+00 0.000000000000000e+00 0.000000000000000e+00

0.000000000000000e+00 0.000000000000000e+00 0.000000000000000e+00
0.000000000000000e+00 0.000000000000000e+00 0.000000000000000e+00
0.000000000000000e+00 0.000000000000000e+00 0.000000000000000e+00

0.000000000000000e+00 0.000000000000000e+00 0.000000000000000e+00
0.000000000000000e+00 0.000000000000000e+00 0.000000000000000e+00
0.000000000000000e+00 0.000000000000000e+00 0.000000000000000e+00

0.000000000000000e+00 0.000000000000000e+00 0.000000000000000e+00
0.000000000000000e+00 0.000000000000000e+00 0.000000000000000e+00
0.000000000000000e+00 0.000000000000000e+00 0.000000000000000e+00

0.000000000000000e+00 0.000000000000000e+00 0.000000000000000e+00
0.000000000000000e+00 0.000000000000000e+00 0.000000000000000e+00
0.000000000000000e+00 0.000000000000000e+00 0.000000000000000e+00

0.000000000000000e+00 0.000000000000000e+00 0.000000000000000e+00
0.000000000000000e+00 0.000000000000000e+00 0.000000000000000e+00
0.000000000000000e+00 0.000000000000000e+00 0.000000000000000e+00

0.000000000000000e+00 0.000000000000000e+00 0.000000000000000e+00
0.000000000000000e+00 0.000000000000000e+00 0.000000000000000e+00
0.000000000000000e+00 0.000000000000000e+00 0.000000000000000e+00

0.000000000000000e+00 0.000000000000000e+00 0.000000000000000e+00
0.000000000000000e+00 0.000000000000000e+00 0.000000000000000e+00
0.000000000000000e+00 0.000000000000000e+00 0.000000000000000e+00

0.000000000000000e+00 0.000000000000000e+00 0.000000000000000e+00
0.000000000000000e+00 0.000000000000000e+00 0.000000000000000e+00
0.000000000000000e+00 0.000000000000000e+00 0.000000000000000e+00

0.000000000000000e+00 0.000000000000000e+00 0.000000000000000e+00
0.000000000000000e+00 0.000000000000000e+00 0.000000000000000e+00
0.000000000000000e+00 0.000000000000000e+00 0.000000000000000e+00

0.000000000000000e+00 0.000000000000000e+00 0.000000000000000e+00
0.000000000000000e+00 0.000000000000000e+00 0.000000000000000e+00
0.000000000000000e+00 0.000000000000000e+00 0.000000000000000e+00

0.000000000000000e+00 0.000000000000000e+00 0.000000000000000e+00
0.000000000000000e+00 0.000000000000000e+00 0.000000000000000e+00
0.000000000000000e+00 0.000000000000000e+00 0.000000000000000e+00

0.000000000000000e+00 0.000000000000000e+00 0.000000000000000e+00
0.000000000000000e+00 0.000000000000000e+00 0.000000000000000e+00
0.000000000000000e+00 0.000000000000000e+00 0.000000000000000e+00

0.000000000000000e+00 0.000000000000000e+00 0.000000000000000e+00
0.000000000000000e+00 0.000000000000000e+00 0.000000000000000e+00
0.000000000000000e+00 0.000000000000000e+00 0.000000000000000e+00

0.000000000000000e+00 0.000000000000000e+00 0.000000000000000e+00
0.000000000000000e+00 0.000000000000000e+00 0.000000000000000e+00
0.000000000000000e+00 0.000000000000000e+00 0.000000000000000e+00

0.000000000000000e+00 0.000000000000000e+00 0.000000000000000e+00
0.000000000000000e+00 0.000000000000000e+00 0.000000000000000e+00
0.000000000000000e+00 0.000000000000000e+00 0.000000000000000e+00

0.000000000000000e+00 0.000000000000000e+00 0.000000000000000e+00
0.000000000000000e+00 0.000000000000000e+00 0.000000000000000e+00
0.000000000000000e+00 0.000000000000000e+00 0.000000000000000e+00

0.000000000000000e+00 0.000000000000000e+00 0.000000000000000e+00
0.000000000000000e+00 0.000000000000000e+00 0.000000000000000e+00
0.000000000000000e+00 0.000000000000000e+00 0.000000000000000e+00

0.000000000000000e+00 0.000000000000000e+00 0.000000000000000e+00
0.000000000000000e+00 0.000000000000000e+00 0.000000000000000e+00
0.000000000000000e+00 0.000000000000000e+00 0.000000000000000e+00

0.000000000000000e+00 0.000000000000000e+00 0.000000000000000e+00
0.000000000000000e+00 0.000000000000000e+00 0.000000000000000e+00
0.000000000000000e+00 0.000000000000000e+00 0.000000000000000e+00

0.000000000000000e+00 0.000000000000000e+00 0.000000000000000e+00
0.000000000000000e+00 0.000000000000000e+00 0.000000000000000e+00
0.000000000000000e+00 0.000000000000000e+00 0.000000000000000e+00

0.000000000000000e+00 0.000000000000000e+00 0.000000000000000e+00
0.000000000000000e+00 0.000000000000000e+00 0.000000000000000e+00
0.000000000000000e+00 0.000000000000000e+00 0.000000000000000e+00

0.000000000000000e+00 0.000000000000000e+00 0.000000000000000e+00
0.000000000000000e+00 0.000000000000000e+00 0.000000000000000e+00
0.000000000000000e+00 0.000000000000000e+00 0.000000000000000e+00

0.000000000000000e+00 0.000000000000000e+00 0.000000000000000e+00
0.000000000000000e+00 0.000000000000000e+00 0.000000000000000e+00
0.000000000000000e+00 0.000000000000000e+00 0.000000000000000e+00

0.000000000000000e+00 0.000000000000000e+00 0.000000000000000e+00
0.000000000000000e+00 0.000000000000000e+00 0.000000000000000e+00
0.000000000000000e+00 0.000000000000000e+00 0.000000000000000e+00

0.000000000000000e+00 0.000000000000000e+00 0.000000000000000e+00
0.000000000000000e+00 0.000000000000000e+00 0.000000000000000e+00
0.000000000000000e+00 0.000000000000000e+00 0.000000000000000e+00

0.000000000000000e+00 0.000000000000000e+00 0.000000000000000e+00
0.000000000000000e+00 0.000000000000000e+00 0.000000000000000e+00
0.000000000000000e+00 0.000000000000000e+00 0.000000000000000e+00

0.000000000000000e+00 0.000000000000000e+00 0.000000000000000e+00
0.000000000000000e+00 0.000000000000000e+00 0.000000000000000e+00
0.000000000000000e+00 0.000000000000000e+00 0.000000000000000e+00

0.000000000000000e+00 0.000000000000000e+00 0.000000000000000e+00
0.000000000000000e+00 0.000000000000000e+00 0.000000000000000e+00
0.000000000000000e+00 0.000000000000000e+00 0.000000000000000e+00

0.000000000000000e+00 0.000000000000000e+00 0.000000000000000e+00
0.000000000000000e+00 0.000000000000000e+00 0.000000000000000e+00
0.000000000000000e+00 0.000000000000000e+00 0.000000000000000e+00

0.000000000000000e+00 0.000000000000000e+00 0.000000000000000e+00
0.000000000000000e+00 0.000000000000000e+00 0.000000000000000e+00
0.000000000000000e+00 0.000000000000000e+00 0.000000000000000e+00

0.000000000000000e+00 0.000000000000000e+00 0.000000000000000e+00
0.000000000000000e+00 0.000000000000000e+00 0.000000000000000e+00
0.000000000000000e+00 0.000000000000000e+00 0.000000000000000e+00

0.000000000000000e+00 0.000000000000000e+00 0.000000000000000e+00
0.000000000000000e+00 0.000000000000000e+00 0.000000000000000e+00
0.000000000000000e+00 0.000000000000000e+00 0.000000000000000e+00

0.000000000000000e+00 0.000000000000000e+00 0.000000000000000e+00
0.000000000000000e+00 0.000000000000000e+00 0.000000000000000e+00
0.000000000000000e+00 0.000000000000000e+00 0.000000000000000e+00

0.000000000000000e+00 0.000000000000000e+00 0.000000000000000e+00
0.000000000000000e+00 0.000000000000000e+00 0.000000000000000e+00
0.000000000000000e+00 0.000000000000000e+00 0.000000000000000e+00

0.000000000000000e+00 0.000000000000000e+00 0.000000000000000e+00
0.000000000000000e+00 0.000000000000000e+00 0.000000000000000e+00
0.000000000000000e+00 0.000000000000000e+00 0.000000000000000e+00

0.000000000000000e+00 0.000000000000000e+00 0.000000000000000e+00
0.000000000000000e+00 0.000000000000000e+00 0.000000000000000e+00
0.000000000000000e+00 0.000000000000000e+00 0.000000000000000e+00

0.000000000000000e+00 0.000000000000000e+00 0.000000000000000e+00
0.000000000000000e+00 0.000000000000000e+00 0.000000000000000e+00
0.000000000000000e+00 0.000000000000000e+00 0.000000000000000e+00

0.000000000000000e+00 0.000000000000000e+00 0.000000000000000e+00
0.000000000000000e+00 0.000000000000000e+00 0.000000000000000e+00
0.000000000000000e+00 0.000000000000000e+00 0.000000000000000e+00

0.000000000000000e+00 0.000000000000000e+00 0.000000000000000e+00
0.000000000000000e+00 0.000000000000000e+00 0.000000000000000e+00
0.000000000000000e+00 0.000000000000000e+00 0.000000000000000e+00

0.000000000000000e+00 0.000000000000000e+00 0.000000000000000e+00
0.000000000000000e+00 0.000000000000000e+00 0.000000000000000e+00
0.000000000000000e+00 0.000000000000000e+00 0.000000000000000e+00

0.000000000000000e+00 0.000000000000000e+00 0.000000000000000e+00
0.000000000000000e+00 0.000000000000000e+00 0.000000000000000e+00
0.000000000000000e+00 0.000000000000000e+00 0.000000000000000e+00

0.000000000000000e+00 0.000000000000000e+00 0.000000000000000e+00
0.000000000000000e+00 0.000000000000000e+00 0.000000000000000e+00
0.000000000000000e+00 0.000000000000000e+00 0.000000000000000e+00

0.000000000000000e+00 0.000000000000000e+00 0.000000000000000e+00
0.000000000000000e+00 0.000000000000000e+00 0.000000000000000e+00
0.000000000000000e+00 0.000000000000000e+00 0.000000000000000e+00

0.000000000000000e+00 0.000000000000000e+00 0.000000000000000e+00
0.000000000000000e+00 0.000000000000000e+00 0.000000000000000e+00
0.000000000000000e+00 0.000000000000000e+00 0.000000000000000e+00

0.000000000000000e+00 0.000000000000000e+00 0.000000000000000e+00
0.000000000000000e+00 0.000000000000000e+00 0.000000000000000e+00
0.000000000000000e+00 0.000000000000000e+00 0.000000000000000e+00

0.000000000000000e+00 0.000000000000000e+00 0.000000000000000e+00
0.000000000000000e+00 0.000000000000000e+00 0.000000000000000e+00
0.000000000000000e+00 0.000000000000000e+00 0.000000000000000e+00

0.000000000000000e+00 0.000000000000000e+00 0.000000000000000e+00
0.000000000000000e+00 0.000000000000000e+00 0.000000000000000e+00
0.000000000000000e+00 0.000000000000000e+00 0.000000000000000e+00

0.000000000000000e+00 0.000000000000000e+00 0.000000000000000e+00
0.000000000000000e+00 0.000000000000000e+00 0.000000000000000e+00
0.000000000000000e+00 0.000000000000000e+00 0.000000000000000e+00

0.000000000000000e+00 0.000000000000000e+00 0.000000000000000e+00
0.000000000000000e+00 0.000000000000000e+00 0.000000000000000e+00
0.000000000000000e+00 0.000000000000000e+00 0.000000000000000e+00

0.000000000000000e+00 0.000000000000000e+00 0.000000000000000e+00
0.000000000000000e+00 0.000000000000000e+00 0.000000000000000e+00
0.000000000000000e+00 0.000000000000000e+00 0.000000000000000e+00

0.000000000000000e+00 0.000000000000000e+00 0.000000000000000e+00
0.000000000000000e+00 0.000000000000000e+00 0.000000000000000e+00
0.000000000000000e+00 0.000000000000000e+00 0.000000000000000e+00

0.000000000000000e+00 0.000000000000000e+00 0.000000000000000e+00
0.000000000000000e+00 0.000000000000000e+00 0.000000000000000e+00
0.000000000000000e+00 0.000000000000000e+00 0.000000000000000e+00

0.000000000000000e+00 0.000000000000000e+00 0.000000000000000e+00
0.000000000000000e+00 0.000000000000000e+00 0.000000000000000e+00
0.000000000000000e+00 0.000000000000000e+00 0.000000000000000e+00

0.000000000000000e+00 0.000000000000000e+00 0.000000000000000e+00
0.000000000000000e+00 0.000000000000000e+00 0.000000000000000e+00
0.000000000000000e+00 0.000000000000000e+00 0.000000000000000e+00

0.000000000000000e+00 0.000000000000000e+00 0.000000000000000e+00
0.000000000000000e+00 0.000000000000000e+00 0.000000000000000e+00
0.000000000000000e+00 0.000000000000000e+00 0.000000000000000e+00

0.000000000000000e+00 0.000000000000000e+00 0.000000000000000e+00
0.000000000000000e+00 0.000000000000000e+00 0.000000000000000e+00
0.000000000000000e+00 0.000000000000000e+00 0.000000000000000e+00

0.000000000000000e+00 0.000000000000000e+00 0.000000000000000e+00
0.000000000000000e+00 0.000000000000000e+00 0.000000000000000e+00
0.000000000000000e+00 0.000000000000000e+00 0.000000000000000e+00

0.000000000000000e+00 0.000000000000000e+00 0.000000000000000e+00
0.000000000000000e+00 0.000000000000000e+00 0.000000000000000e+00
0.000000000000000e+00 0.000000000000000e+00 0.000000000000000e+00

0.000000000000000e+00 0.000000000000000e+00 0.000000000000000e+00
0.000000000000000e+00 0.000000000000000e+00 0.000000000000000e+00
0.000000000000000e+00 0.000000000000000e+00 0.000000000000000e+00

0.000000000000000e+00 0.000000000000000e+00 0.000000000000000e+00
0.000000000000000e+00 0.000000000000000e+00 0.000000000000000e+00
0.000000000000000e+00 0.000000000000000e+00 0.000000000000000e+00

0.000000000000000e+00 0.000000000000000e+00 0.000000000000000e+00
0.000000000000000e+00 0.000000000000000e+00 0.000000000000000e+00
0.000000000000000e+00 0.000000000000000e+00 0.000000000000000e+00

0.000000000000000e+00 0.000000000000000e+00 0.000000000000000e+00
0.000000000000000e+00 0.000000000000000e+00 0.000000000000000e+00
0.000000000000000e+00 0.000000000000000e+00 0.000000000000000e+00

0.000000000000000e+00 0.000000000000000e+00 0.000000000000000e+00
0.000000000000000e+00 0.000000000000000e+00 0.000000000000000e+00
0.000000000000000e+00 0.000000000000000e+00 0.000000000000000e+00

0.000000000000000e+00 0.000000000000000e+00 0.000000000000000e+00
0.000000000000000e+00 0.000000000000000e+00 0.000000000000000e+00
0.000000000000000e+00 0.000000000000000e+00 0.000000000000000e+00

0.000000000000000e+00 0.000000000000000e+00 0.000000000000000e+00
0.000000000000000e+00 0.000000000000000e+00 0.000000000000000e+00
0.000000000000000e+00 0.000000000000000e+00 0.000000000000000e+00

0.000000000000000e+00 0.000000000000000e+00 0.000000000000000e+00
0.000000000000000e+00 0.000000000000000e+00 0.000000000000000e+00
0.000000000000000e+00 0.000000000000000e+00 0.000000000000000e+00

0.000000000000000e+00 0.000000000000000e+00 0.000000000000000e+00
0.000000000000000e+00 0.000000000000000e+00 0.000000000000000e+00
0.000000000000000e+00 0.000000000000000e+00 0.000000000000000e+00

0.000000000000000e+00 0.000000000000000e+00 0.000000000000000e+00
0.000000000000000e+00 0.000000000000000e+00 0.000000000000000e+00
0.000000000000000e+00 0.000000000000000e+00 0.000000000000000e+00

0.000000000000000e+00 0.000000000000000e+00 0.000000000000000e+00
0.000000000000000e+00 0.000000000000000e+00 0.000000000000000e+00
0.000000000000000e+00 0.000000000000000e+00 0.000000000000000e+00

0.000000000000000e+00 0.000000000000000e+00 0.000000000000000e+00
0.000000000000000e+00 0.000000000000000e+00 0.000000000000000e+00
0.000000000000000e+00 0.000000000000000e+00 0.000000000000000e+00

0.000000000000000e+00 0.000000000000000e+00 0.000000000000000e+00
0.000000000000000e+00 0.000000000000000e+00 0.000000000000000e+00
0.000000000000000e+00 0.000000000000000e+00 0.000000000000000e+00

0.000000000000000e+00 0.000000000000000e+00 0.000000000000000e+00
0.000000000000000e+00 0.000000000000000e+00 0.000000000000000e+00
0.000000000000000e+00 0.000000000000000e+00 0.000000000000000e+00

0.000000000000000e+00 0.000000000000000e+00 0.000000000000000e+00
0.000000000000000e+00 0.000000000000000e+00 0.000000000000000e+00
0.000000000000000e+00 0.000000000000000e+00 0.000000000000000e+00

0.000000000000000e+00 0.000000000000000e+00 0.000000000000000e+00
0.000000000000000e+00 0.000000000000000e+00 0.000000000000000e+00
0.000000000000000e+00 0.000000000000000e+00 0.000000000000000e+00

0.000000000000000e+00 0.000000000000000e+00 0.000000000000000e+00
0.000000000000000e+00 0.000000000000000e+00 0.000000000000000e+00
0.000000000000000e+00 0.000000000000000e+00 0.000000000000000e+00

0.000000000000000e+00 0.000000000000000e+00 0.000000000000000e+00
0.000000000000000e+00 0.000000000000000e+00 0.000000000000000e+00
0.000000000000000e+00 0.000000000000000e+00 0.000000000000000e+00

0.000000000000000e+00 0.000000000000000e+00 0.000000000000000e+00
0.000000000000000e+00 0.000000000000000e+00 0.000000000000000e+00
0.000000000000000e+00 0.000000000000000e+00 0.000000000000000e+00

0.000000000000000e+00 0.000000000000000e+00 0.000000000000000e+00
0.000000000000000e+00 0.000000000000000e+00 0.000000000000000e+00
0.000000000000000e+00 0.000000000000000e+00 0.000000000000000e+00

0.000000000000000e+00 0.000000000000000e+00 0.000000000000000e+00
0.000000000000000e+00 0.000000000000000e+00 0.000000000000000e+00
0.000000000000000e+00 0.000000000000000e+00 0.000000000000000e+00

0.000000000000000e+00 0.000000000000000e+00 0.000000000000000e+00
0.000000000000000e+00 0.000000000000000e+00 0.000000000000000e+00
0.000000000000000e+00 0.000000000000000e+00 0.000000000000000e+00

0.000000000000000e+00 0.000000000000000e+00 0.000000000000000e+00
0.000000000000000e+00 0.000000000000000e+00 0.000000000000000e+00
0.000000000000000e+00 0.000000000000000e+00 0.000000000000000e+00

0.000000000000000e+00 0.000000000000000e+00 0.000000000000000e+00
0.000000000000000e+00 0.000000000000000e+00 0.000000000000000e+00
0.000000000000000e+00 0.000000000000000e+00 0.000000000000000e+00

0.000000000000000e+00 0.000000000000000e+00 0.000000000000000e+00
0.000000000000000e+00 0.000000000000000e+00 0.000000000000000e+00
0.000000000000000e+00 0.000000000000000e+00 0.000000000000000e+00

0.000000000000000e+00 0.000000000000000e+00 0.000000000000000e+00
0.000000000000000e+00 0.000000000000000e+00 0.000000000000000e+00
0.000000000000000e+00 0.000000000000000e+00 0.000000000000000e+00

0.000000000000000e+00 0.000000000000000e+00 0.000000000000000e+00
0.000000000000000e+00 0.000000000000000e+00 0.000000000000000e+00
0.000000000000000e+00 0.000000000000000e+00 0.000000000000000e+00

0.000000000000000e+00 0.000000000000000e+00 0.000000000000000e+00
0.000000000000000e+00 0.000000000000000e+00 0.000000000000000e+00
0.000000000000000e+00 0.000000000000000e+00 0.000000000000000e+00

0.000000000000000e+00 0.000000000000000e+00 0.000000000000000e+00
0.000000000000000e+00 0.000000000000000e+00 0.000000000000000e+00
0.000000000000000e+00 0.000000000000000e+00 0.000000000000000e+00

0.000000000000000e+00 0.000000000000000e+00 0.000000000000000e+00
0.000000000000000e+00 0.000000000000000e+00 0.000000000000000e+00
0.000000000000000e+00 0.000000000000000e+00 0.000000000000000e+00

0.000000000000000e+00 0.000000000000000e+00 0.000000000000000e+00
0.000000000000000e+00 0.000000000000000e+00 0.000000000000000e+00
0.000000000000000e+00 0.000000000000000e+00 0.000000000000000e+00

0.000000000000000e+00 0.000000000000000e+00 0.000000000000000e+00
0.000000000000000e+00 0.000000000000000e+00 0.000000000000000e+00
0.000000000000000e+00 0.000000000000000e+00 0.000000000000000e+00

0.000000000000000e+00 0.000000000000000e+00 0.000000000000000e+00
0.000000000000000e+00 0.000000000000000e+00 0.000000000000000e+00
0.000000000000000e+00 0.000000000000000e+00 0.000000000000000e+00

0.000000000000000e+00 0.000000000000000e+00 0.000000000000000e+00
0.000000000000000e+00 0.000000000000000e+00 0.000000000000000e+00
0.000000000000000e+00 0.000000000000000e+00 0.000000000000000e+00

0.000000000000000e+00 0.000000000000000e+00 0.000000000000000e+00
0.000000000000000e+00 0.000000000000000e+00 0.000000000000000e+00
0.000000000000000e+00 0.000000000000000e+00 0.000000000000000e+00

0.000000000000000e+00 0.000000000000000e+00 0.000000000000000e+00
0.000000000000000e+00 0.000000000000000e+00 0.000000000000000e+00
0.000000000000000e+00 0.000000000000000e+00 0.000000000000000e+00

0.000000000000000e+00 0.000000000000000e+00 0.000000000000000e+00
0.000000000000000e+00 0.000000000000000e+00 0.000000000000000e+00
0.000000000000000e+00 0.000000000000000e+00 0.000000000000000e+00

0.000000000000000e+00 0.000000000000000e+00 0.000000000000000e+00
0.000000000000000e+00 0.000000000000000e+00 0.000000000000000e+00
0.000000000000000e+00 0.000000000000000e+00 0.000000000000000e+00

0.000000000000000e+00 0.000000000000000e+00 0.000000000000000e+00
0.000000000000000e+00 0.000000000000000e+00 0.000000000000000e+00
0.000000000000000e+00 0.000000000000000e+00 0.000000000000000e+00

0.000000000000000e+00 0.000000000000000e+00 0.000000000000000e+00
0.000000000000000e+00 0.000000000000000e+00 0.000000000000000e+00
0.000000000000000e+00 0.000000000000000e+00 0.000000000000000e+00

0.000000000000000e+00 0.000000000000000e+00 0.000000000000000e+00
0.000000000000000e+00 0.000000000000000e+00 0.000000000000000e+00
0.000000000000000e+00 0.000000000000000e+00 0.000000000000000e+00

0.000000000000000e+00 0.000000000000000e+00 0.000000000000000e+00
0.000000000000000e+00 0.000000000000000e+00 0.000000000000000e+00
0.000000000000000e+00 0.000000000000000e+00 0.000000000000000e+00

0.000000000000000e+00 0.000000000000000e+00 0.000000000000000e+00
0.000000000000000e+00 0.000000000000000e+00 0.000000000000000e+00
0.000000000000000e+00 0.000000000000000e+00 0.000000000000000e+00

0.000000000000000e+00 0.000000000000000e+00 0.000000000000000e+00
0.000000000000000e+00 0.000000000000000e+00 0.000000000000000e+00
0.000000000000000e+00 0.000000000000000e+00 0.000000000000000e+00

0.000000000000000e+00 0.000000000000000e+00 0.000000000000000e+00
0.000000000000000e+00 0.000000000000000e+00 0.000000000000000e+00
0.000000000000000e+00 0.000000000000000e+00 0.000000000000000e+00

0.000000000000000e+00 0.000000000000000e+00 0.000000000000000e+00
0.000000000000000e+00 0.000000000000000e+00 0.000000000000000e+00
0.000000000000000e+00 0.000000000000000e+00 0.000000000000000e+00

0.000000000000000e+00 0.000000000000000e+00 0.000000000000000e+00
0.000000000000000e+00 0.000000000000000e+00 0.000000000000000e+00
0.000000000000000e+00 0.000000000000000e+00 0.000000000000000e+00

0.000000000000000e+00 0.000000000000000e+00 0.000000000000000e+00
0.000000000000000e+00 0.000000000000000e+00 0.000000000000000e+00
0.000000000000000e+00 0.000000000000000e+00 0.000000000000000e+00

0.000000000000000e+00 0.000000000000000e+00 0.000000000000000e+00
0.000000000000000e+00 0.000000000000000e+00 0.000000000000000e+00
0.000000000000000e+00 0.000000000000000e+00 0.000000000000000e+00

0.000000000000000e+00 0.000000000000000e+00 0.000000000000000e+00
0.000000000000000e+00 0.000000000000000e+00 0.000000000000000e+00
0.000000000000000e+00 0.000000000000000e+00 0.000000000000000e+00

0.000000000000000e+00 0.000000000000000e+00 0.000000000000000e+00
0.000000000000000e+00 0.000000000000000e+00 0.000000000000000e+00
0.000000000000000e+00 0.000000000000000e+00 0.000000000000000e+00

0.000000000000000e+00 0.000000000000000e+00 0.000000000000000e+00
0.000000000000000e+00 0.000000000000000e+00 0.000000000000000e+00
0.000000000000000e+00 0.000000000000000e+00 0.000000000000000e+00

0.000000000000000e+00 0.000000000000000e+00 0.000000000000000e+00
0.000000000000000e+00 0.000000000000000e+00 0.000000000000000e+00
0.000000000000000e+00 0.000000000000000e+00 0.000000000000000e+00

0.000000000000000e+00 0.000000000000000e+00 0.000000000000000e+00
0.000000000000000e+00 0.000000000000000e+00 0.000000000000000e+00
0.000000000000000e+00 0.000000000000000e+00 0.000000000000000e+00

0.000000000000000e+00 0.000000000000000e+00 0.000000000000000e+00
0.000000000000000e+00 0.000000000000000e+00 0.000000000000000e+00
0.000000000000000e+00 0.000000000000000e+00 0.000000000000000e+00

0.000000000000000e+00 0.000000000000000e+00 0.000000000000000e+00
0.000000000000000e+00 0.000000000000000e+00 0.000000000000000e+00
0.000000000000000e+00 0.000000000000000e+00 0.000000000000000e+00

0.000000000000000e+00 0.000000000000000e+00 0.000000000000000e+00
0.000000000000000e+00 0.000000000000000e+00 0.000000000000000e+00
0.000000000000000e+00 0.000000000000000e+00 0.000000000000000e+00

0.000000000000000e+00 0.000000000000000e+00 0.000000000000000e+00
0.000000000000000e+00 0.000000000000000e+00 0.000000000000000e+00
0.000000000000000e+00 0.000000000000000e+00 0.000000000000000e+00

0.000000000000000e+00 0.000000000000000e+00 0.000000000000000e+00
0.000000000000000e+00 0.000000000000000e+00 0.000000000000000e+00
0.000000000000000e+00 0.000000000000000e+00 0.000000000000000e+00

0.000000000000000e+00 0.000000000000000e+00 0.000000000000000e+00
0.000000000000000e+00 0.000000000000000e+00 0.000000000000000e+00
0.000000000000000e+00 0.000000000000000e+00 0.000000000000000e+00

0.000000000000000e+00 0.000000000000000e+00 0.000000000000000e+00
0.000000000000000e+00 0.000000000000000e+00 0.000000000000000e+00
0.000000000000000e+00 0.000000000000000e+00 0.000000000000000e+00

0.000000000000000e+00 0.000000000000000e+00 0.000000000000000e+00
0.000000000000000e+00 0.000000000000000e+00 0.000000000000000e+00
0.000000000000000e+00 0.000000000000000e+00 0.000000000000000e+00

0.000000000000000e+00 0.000000000000000e+00 0.000000000000000e+00
0.000000000000000e+00 0.000000000000000e+00 0.000000000000000e+00
0.000000000000000e+00 0.000000000000000e+00 0.000000000000000e+00

0.000000000000000e+00 0.000000000000000e+00 0.000000000000000e+00
0.000000000000000e+00 0.000000000000000e+00 0.000000000000000e+00
0.000000000000000e+00 0.000000000000000e+00 0.000000000000000e+00

0.000000000000000e+00 0.000000000000000e+00 0.000000000000000e+00
0.000000000000000e+00 0.000000000000000e+00 0.000000000000000e+00
0.000000000000000e+00 0.000000000000000e+00 0.000000000000000e+00

0.000000000000000e+00 0.000000000000000e+00 0.000000000000000e+00
0.000000000000000e+00 0.000000000000000e+00 0.000000000000000e+00
0.000000000000000e+00 0.000000000000000e+00 0.000000000000000e+00

0.000000000000000e+00 0.000000000000000e+00 0.000000000000000e+00
0.000000000000000e+00 0.000000000000000e+00 0.000000000000000e+00
0.000000000000000e+00 0.000000000000000e+00 0.000000000000000e+00

0.000000000000000e+00 0.000000000000000e+00 0.000000000000000e+00
0.000000000000000e+00 0.000000000000000e+00 0.000000000000000e+00
0.000000000000000e+00 0.000000000000000e+00 0.000000000000000e+00

0.000000000000000e+00 0.000000000000000e+00 0.000000000000000e+00
0.000000000000000e+00 0.000000000000000e+00 0.000000000000000e+00
0.000000000000000e+00 0.000000000000000e+00 0.000000000000000e+00

0.000000000000000e+00 0.000000000000000e+00 0.000000000000000e+00
0.000000000000000e+00 0.000000000000000e+00 0.000000000000000e+00
0.000000000000000e+00 0.000000000000000e+00 0.000000000000000e+00

0.000000000000000e+00 0.000000000000000e+00 0.000000000000000e+00
0.000000000000000e+00 0.000000000000000e+00 0.000000000000000e+00
0.000000000000000e+00 0.000000000000000e+00 0.000000000000000e+00

0.000000000000000e+00 0.000000000000000e+00 0.000000000000000e+00
0.000000000000000e+00 0.000000000000000e+00 0.000000000000000e+00
0.000000000000000e+00 0.000000000000000e+00 0.000000000000000e+00

0.000000000000000e+00 0.000000000000000e+00 0.000000000000000e+00
0.000000000000000e+00 0.000000000000000e+00 0.000000000000000e+00
0.000000000000000e+00 0.000000000000000e+00 0.000000000000000e+00

0.000000000000000e+00 0.000000000000000e+00 0.000000000000000e+00
0.000000000000000e+00 0.000000000000000e+00 0.000000000000000e+00
0.000000000000000e+00 0.000000000000000e+00 0.000000000000000e+00

0.000000000000000e+00 0.000000000000000e+00 0.000000000000000e+00
0.000000000000000e+00 0.000000000000000e+00 0.000000000000000e+00
0.000000000000000e+00 0.000000000000000e+00 0.000000000000000e+00

0.000000000000000e+00 0.000000000000000e+00 0.000000000000000e+00
0.000000000000000e+00 0.000000000000000e+00 0.000000000000000e+00
0.000000000000000e+00 0.000000000000000e+00 0.000000000000000e+00

0.000000000000000e+00 0.000000000000000e+00 0.000000000000000e+00
0.000000000000000e+00 0.000000000000000e+00 0.000000000000000e+00
0.000000000000000e+00 0.000000000000000e+00 0.000000000000000e+00

0.000000000000000e+00 0.000000000000000e+00 0.000000000000000e+00
0.000000000000000e+00 0.000000000000000e+00 0.000000000000000e+00
0.000000000000000e+00 0.000000000000000e+00 0.000000000000000e+00

0.000000000000000e+00 0.000000000000000e+00 0.000000000000000e+00
0.000000000000000e+00 0.000000000000000e+00 0.000000000000000e+00
0.000000000000000e+00 0.000000000000000e+00 0.000000000000000e+00

0.000000000000000e+00 0.000000000000000e+00 0.000000000000000e+00
0.000000000000000e+00 0.000000000000000e+00 0.000000000000000e+00
0.000000000000000e+00 0.000000000000000e+00 0.000000000000000e+00

0.000000000000000e+00 0.000000000000000e+00 0.000000000000000e+00
0.000000000000000e+00 0.000000000000000e+00 0.000000000000000e+00
0.000000000000000e+00 0.000000000000000e+00 0.000000000000000e+00

0.000000000000000e+00 0.000000000000000e+00 0.000000000000000e+00
0.000000000000000e+00 0.000000000000000e+00 0.000000000000000e+00
0.000000000000000e+00 0.000000000000000e+00 0.000000000000000e+00

0.000000000000000e+00 0.000000000000000e+00 0.000000000000000e+00
0.000000000000000e+00 0.000000000000000e+00 0.000000000000000e+00
0.000000000000000e+00 0.000000000000000e+00 0.000000000000000e+00

0.000000000000000e+00 0.000000000000000e+00 0.000000000000000e+00
0.000000000000000e+00 0.000000000000000e+00 0.000000000000000e+00
0.000000000000000e+00 0.000000000000000e+00 0.000000000000000e+00

0.000000000000000e+00 0.000000000000000e+00 0.000000000000000e+00
0.000000000000000e+00 0.000000000000000e+00 0.000000000000000e+00
0.000000000000000e+00 0.000000000000000e+00 0.000000000000000e+00

0.000000000000000e+00 0.000000000000000e+00 0.000000000000000e+00
0.000000000000000e+00 0.000000000000000e+00 0.000000000000000e+00
0.000000000000000e+00 0.000000000000000e+00 0.000000000000000e+00

0.000000000000000e+00 0.000000000000000e+00 0.000000000000000e+00
0.000000000000000e+00 0.000000000000000e+00 0.000000000000000e+00
0.000000000000000e+00 0.000000000000000e+00 0.000000000000000e+00

0.000000000000000e+00 0.000000000000000e+00 0.000000000000000e+00
0.000000000000000e+00 0.000000000000000e+00 0.000000000000000e+00
0.000000000000000e+00 0.000000000000000e+00 0.000000000000000e+00

0.000000000000000e+00 0.000000000000000e+00 0.000000000000000e+00
0.000000000000000e+00 0.000000000000000e+00 0.000000000000000e+00
0.000000000000000e+00 0.000000000000000e+00 0.000000000000000e+00

0.000000000000000e+00 0.000000000000000e+00 0.000000000000000e+00
0.000000000000000e+00 0.000000000000000e+00 0.000000000000000e+00
0.000000000000000e+00 0.000000000000000e+00 0.000000000000000e+00

0.000000000000000e+00 0.000000000000000e+00 0.000000000000000e+00
0.000000000000000e+00 0.000000000000000e+00 0.000000000000000e+00
0.000000000000000e+00 0.000000000000000e+00 0.000000000000000e+00

0.000000000000000e+00 0.000000000000000e+00 0.000000000000000e+00
0.000000000000000e+00 0.000000000000000e+00 0.000000000000000e+00
0.000000000000000e+00 0.000000000000000e+00 0.000000000000000e+00

0.000000000000000e+00 0.000000000000000e+00 0.000000000000000e+00
0.000000000000000e+00 0.000000000000000e+00 0.000000000000000e+00
0.000000000000000e+00 0.000000000000000e+00 0.000000000000000e+00

0.000000000000000e+00 0.000000000000000e+00 0.000000000000000e+00
0.000000000000000e+00 0.000000000000000e+00 0.000000000000000e+00
0.000000000000000e+00 0.000000000000000e+00 0.000000000000000e+00

0.000000000000000e+00 0.000000000000000e+00 0.000000000000000e+00
0.000000000000000e+00 0.000000000000000e+00 0.000000000000000e+00
0.000000000000000e+00 0.000000000000000e+00 0.000000000000000e+00

0.000000000000000e+00 0.000000000000000e+00 0.000000000000000e+00
0.000000000000000e+00 0.000000000000000e+00 0.000000000000000e+00
0.000000000000000e+00 0.000000000000000e+00 0.000000000000000e+00

0.000000000000000e+00 0.000000000000000e+00 0.000000000000000e+00
0.000000000000000e+00 0.000000000000000e+00 0.000000000000000e+00
0.000000000000000e+00 0.000000000000000e+00 0.000000000000000e+00

0.000000000000000e+00 0.000000000000000e+00 0.000000000000000e+00
0.000000000000000e+00 0.000000000000000e+00 0.000000000000000e+00
0.000000000000000e+00 0.000000000000000e+00 0.000000000000000e+00

0.000000000000000e+00 0.000000000000000e+00 0.000000000000000e+00
0.000000000000000e+00 0.000000000000000e+00 0.000000000000000e+00
0.000000000000000e+00 0.000000000000000e+00 0.000000000000000e+00

0.000000000000000e+00 0.000000000000000e+00 0.000000000000000e+00
0.000000000000000e+00 0.000000000000000e+00 0.000000000000000e+00
0.000000000000000e+00 0.000000000000000e+00 0.000000000000000e+00

0.000000000000000e+00 0.000000000000000e+00 0.000000000000000e+00
0.000000000000000e+00 0.000000000000000e+00 0.000000000000000e+00
0.000000000000000e+00 0.000000000000000e+00 0.000000000000000e+00

0.000000000000000e+00 0.000000000000000e+00 0.000000000000000e+00
0.000000000000000e+00 0.000000000000000e+00 0.000000000000000e+00
0.000000000000000e+00 0.000000000000000e+00 0.000000000000000e+00

0.000000000000000e+00 0.000000000000000e+00 0.000000000000000e+00
0.000000000000000e+00 0.000000000000000e+00 0.000000000000000e+00
0.000000000000000e+00 0.000000000000000e+00 0.000000000000000e+00

0.000000000000000e+00 0.000000000000000e+00 0.000000000000000e+00
0.000000000000000e+00 0.000000000000000e+00 0.000000000000000e+00
0.000000000000000e+00 0.000000000000000e+00 0.000000000000000e+00

0.000000000000000e+00 0.000000000000000e+00 0.000000000000000e+00
0.000000000000000e+00 0.000000000000000e+00 0.000000000000000e+00
0.000000000000000e+00 0.000000000000000e+00 0.000000000000000e+00

0.000000000000000e+00 0.000000000000000e+00 0.000000000000000e+00
0.000000000000000e+00 0.000000000000000e+00 0.000000000000000e+00
0.000000000000000e+00 0.000000000000000e+00 0.000000000000000e+00

0.000000000000000e+00 0.000000000000000e+00 0.000000000000000e+00
0.000000000000000e+00 0.000000000000000e+00 0.000000000000000e+00
0.000000000000000e+00 0.000000000000000e+00 0.000000000000000e+00

0.000000000000000e+00 0.000000000000000e+00 0.000000000000000e+00
0.000000000000000e+00 0.000000000000000e+00 0.000000000000000e+00
0.000000000000000e+00 0.000000000000000e+00 0.000000000000000e+00

0.000000000000000e+00 0.000000000000000e+00 0.000000000000000e+00
0.000000000000000e+00 0.000000000000000e+00 0.000000000000000e+00
0.000000000000000e+00 0.000000000000000e+00 0.000000000000000e+00

0.000000000000000e+00 0.000000000000000e+00 0.000000000000000e+00
0.000000000000000e+00 0.000000000000000e+00 0.000000000000000e+00
0.000000000000000e+00 0.000000000000000e+00 0.000000000000000e+00

0.000000000000000e+00 0.000000000000000e+00 0.000000000000000e+00
0.000000000000000e+00 0.000000000000000e+00 0.000000000000000e+00
0.000000000000000e+00 0.000000000000000e+00 0.000000000000000e+00

0.000000000000000e+00 0.000000000000000e+00 0.000000000000000e+00
0.000000000000000e+00 0.000000000000000e+00 0.000000000000000e+00
0.000000000000000e+00 0.000000000000000e+00 0.000000000000000e+00

0.000000000000000e+00 0.000000000000000e+00 0.000000000000000e+00
0.000000000000000e+00 0.000000000000000e+00 0.000000000000000e+00
0.000000000000000e+00 0.000000000000000e+00 0.000000000000000e+00

0.000000000000000e+00 0.000000000000000e+00 0.000000000000000e+00
0.000000000000000e+00 0.000000000000000e+00 0.000000000000000e+00
0.000000000000000e+00 0.000000000000000e+00 0.000000000000000e+00

0.000000000000000e+00 0.000000000000000e+00 0.000000000000000e+00
0.000000000000000e+00 0.000000000000000e+00 0.000000000000000e+00
0.000000000000000e+00 0.000000000000000e+00 0.000000000000000e+00

0.000000000000000e+00 0.000000000000000e+00 0.000000000000000e+00
0.000000000000000e+00 0.000000000000000e+00 0.000000000000000e+00
0.000000000000000e+00 0.000000000000000e+00 0.000000000000000e+00

0.000000000000000e+00 0.000000000000000e+00 0.000000000000000e+00
0.000000000000000e+00 0.000000000000000e+00 0.000000000000000e+00
0.000000000000000e+00 0.000000000000000e+00 0.000000000000000e+00

0.000000000000000e+00 0.000000000000000e+00 0.000000000000000e+00
0.000000000000000e+00 0.000000000000000e+00 0.000000000000000e+00
0.000000000000000e+00 0.000000000000000e+00 0.000000000000000e+00

0.000000000000000e+00 0.000000000000000e+00 0.000000000000000e+00
0.000000000000000e+00 0.000000000000000e+00 0.000000000000000e+00
0.000000000000000e+00 0.000000000000000e+00 0.000000000000000e+00

0.000000000000000e+00 0.000000000000000e+00 0.000000000000000e+00
0.000000000000000e+00 0.000000000000000e+00 0.000000000000000e+00
0.000000000000000e+00 0.000000000000000e+00 0.000000000000000e+00

0.000000000000000e+00 0.000000000000000e+00 0.000000000000000e+00
0.000000000000000e+00 0.000000000000000e+00 0.000000000000000e+00
0.000000000000000e+00 0.000000000000000e+00 0.000000000000000e+00

0.000000000000000e+00 0.000000000000000e+00 0.000000000000000e+00
0.000000000000000e+00 0.000000000000000e+00 0.000000000000000e+00
0.000000000000000e+00 0.000000000000000e+00 0.000000000000000e+00

0.000000000000000e+00 0.000000000000000e+00 0.000000000000000e+00
0.000000000000000e+00 0.000000000000000e+00 0.000000000000000e+00
0.000000000000000e+00 0.000000000000000e+00 0.000000000000000e+00

0.000000000000000e+00 0.000000000000000e+00 0.000000000000000e+00
0.000000000000000e+00 0.000000000000000e+00 0.000000000000000e+00
0.000000000000000e+00 0.000000000000000e+00 0.000000000000000e+00

0.000000000000000e+00 0.000000000000000e+00 0.000000000000000e+00
0.000000000000000e+00 0.000000000000000e+00 0.000000000000000e+00
0.000000000000000e+00 0.000000000000000e+00 0.000000000000000e+00

0.000000000000000e+00 0.000000000000000e+00 0.000000000000000e+00
0.000000000000000e+00 0.000000000000000e+00 0.000000000000000e+00
0.000000000000000e+00 0.000000000000000e+00 0.000000000000000e+00

0.000000000000000e+00 0.000000000000000e+00 0.000000000000000e+00
0.000000000000000e+00 0.000000000000000e+00 0.000000000000000e+00
0.000000000000000e+00 0.000000000000000e+00 0.000000000000000e+00

0.000000000000000e+00 0.000000000000000e+00 0.000000000000000e+00
0.000000000000000e+00 0.000000000000000e+00 0.000000000000000e+00
0.000000000000000e+00 0.000000000000000e+00 0.000000000000000e+00

0.000000000000000e+00 0.000000000000000e+00 0.000000000000000e+00
0.000000000000000e+00 0.000000000000000e+00 0.000000000000000e+00
0.000000000000000e+00 0.000000000000000e+00 0.000000000000000e+00

0.000000000000000e+00 0.000000000000000e+00 0.000000000000000e+00
0.000000000000000e+00 0.000000000000000e+00 0.000000000000000e+00
0.000000000000000e+00 0.000000000000000e+00 0.000000000000000e+00

0.000000000000000e+00 0.000000000000000e+00 0.000000000000000e+00
0.000000000000000e+00 0.000000000000000e+00 0.000000000000000e+00
0.000000000000000e+00 0.000000000000000e+00 0.000000000000000e+00

0.000000000000000e+00 0.000000000000000e+00 0.000000000000000e+00
0.000000000000000e+00 0.000000000000000e+00 0.000000000000000e+00
0.000000000000000e+00 0.000000000000000e+00 0.000000000000000e+00

0.000000000000000e+00 0.000000000000000e+00 0.000000000000000e+00
0.000000000000000e+00 0.000000000000000e+00 0.000000000000000e+00
0.000000000000000e+00 0.000000000000000e+00 0.000000000000000e+00

0.000000000000000e+00 0.000000000000000e+00 0.000000000000000e+00
0.000000000000000e+00 0.000000000000000e+00 0.000000000000000e+00
0.000000000000000e+00 0.000000000000000e+00 0.000000000000000e+00

0.000000000000000e+00 0.000000000000000e+00 0.000000000000000e+00
0.000000000000000e+00 0.000000000000000e+00 0.000000000000000e+00
0.000000000000000e+00 0.000000000000000e+00 0.000000000000000e+00

0.000000000000000e+00 0.000000000000000e+00 0.000000000000000e+00
0.000000000000000e+00 0.000000000000000e+00 0.000000000000000e+00
0.000000000000000e+00 0.000000000000000e+00 0.000000000000000e+00

0.000000000000000e+00 0.000000000000000e+00 0.000000000000000e+00
0.000000000000000e+00 0.000000000000000e+00 0.000000000000000e+00
0.000000000000000e+00 0.000000000000000e+00 0.000000000000000e+00

0.000000000000000e+00 0.000000000000000e+00 0.000000000000000e+00
0.000000000000000e+00 0.000000000000000e+00 0.000000000000000e+00
0.000000000000000e+00 0.000000000000000e+00 0.000000000000000e+00

0.000000000000000e+00 0.000000000000000e+00 0.000000000000000e+00
0.000000000000000e+00 0.000000000000000e+00 0.000000000000000e+00
0.000000000000000e+00 0.000000000000000e+00 0.000000000000000e+00

0.000000000000000e+00 0.000000000000000e+00 0.000000000000000e+00
0.000000000000000e+00 0.000000000000000e+00 0.000000000000000e+00
0.000000000000000e+00 0.000000000000000e+00 0.000000000000000e+00

0.000000000000000e+00 0.000000000000000e+00 0.000000000000000e+00
0.000000000000000e+00 0.000000000000000e+00 0.000000000000000e+00
0.000000000000000e+00 0.000000000000000e+00 0.000000000000000e+00

0.000000000000000e+00 0.000000000000000e+00 0.000000000000000e+00
0.000000000000000e+00 0.000000000000000e+00 0.000000000000000e+00
0.000000000000000e+00 0.000000000000000e+00 0.000000000000000e+00

0.000000000000000e+00 0.000000000000000e+00 0.000000000000000e+00
0.000000000000000e+00 0.000000000000000e+00 0.000000000000000e+00
0.000000000000000e+00 0.000000000000000e+00 0.000000000000000e+00

0.000000000000000e+00 0.000000000000000e+00 0.000000000000000e+00
0.000000000000000e+00 0.000000000000000e+00 0.000000000000000e+00
0.000000000000000e+00 0.000000000000000e+00 0.000000000000000e+00

0.000000000000000e+00 0.000000000000000e+00 0.000000000000000e+00
0.000000000000000e+00 0.000000000000000e+00 0.000000000000000e+00
0.000000000000000e+00 0.000000000000000e+00 0.000000000000000e+00

0.000000000000000e+00 0.000000000000000e+00 0.000000000000000e+00
0.000000000000000e+00 0.000000000000000e+00 0.000000000000000e+00
0.000000000000000e+00 0.000000000000000e+00 0.000000000000000e+00

0.000000000000000e+00 0.000000000000000e+00 0.000000000000000e+00
0.000000000000000e+00 0.000000000000000e+00 0.000000000000000e+00
0.000000000000000e+00 0.000000000000000e+00 0.000000000000000e+00

0.000000000000000e+00 0.000000000000000e+00 0.000000000000000e+00
0.000000000000000e+00 0.000000000000000e+00 0.000000000000000e+00
0.000000000000000e+00 0.000000000000000e+00 0.000000000000000e+00

0.000000000000000e+00 0.000000000000000e+00 0.000000000000000e+00
0.000000000000000e+00 0.000000000000000e+00 0.000000000000000e+00
0.000000000000000e+00 0.000000000000000e+00 0.000000000000000e+00

0.000000000000000e+00 0.000000000000000e+00 0.000000000000000e+00
0.000000000000000e+00 0.000000000000000e+00 0.000000000000000e+00
0.000000000000000e+00 0.000000000000000e+00 0.000000000000000e+00

0.000000000000000e+00 0.000000000000000e+00 0.000000000000000e+00
0.000000000000000e+00 0.000000000000000e+00 0.000000000000000e+00
0.000000000000000e+00 0.000000000000000e+00 0.000000000000000e+00

0.000000000000000e+00 0.000000000000000e+00 0.000000000000000e+00
0.000000000000000e+00 0.000000000000000e+00 0.000000000000000e+00
0.000000000000000e+00 0.000000000000000e+00 0.000000000000000e+00

0.000000000000000e+00 0.000000000000000e+00 0.000000000000000e+00
0.000000000000000e+00 0.000000000000000e+00 0.000000000000000e+00
0.000000000000000e+00 0.000000000000000e+00 0.000000000000000e+00

0.000000000000000e+00 0.000000000000000e+00 0.000000000000000e+00
0.000000000000000e+00 0.000000000000000e+00 0.000000000000000e+00
0.000000000000000e+00 0.000000000000000e+00 0.000000000000000e+00

0.000000000000000e+00 0.000000000000000e+00 0.000000000000000e+00
0.000000000000000e+00 0.000000000000000e+00 0.000000000000000e+00
0.000000000000000e+00 0.000000000000000e+00 0.000000000000000e+00

0.000000000000000e+00 0.000000000000000e+00 0.000000000000000e+00
0.000000000000000e+00 0.000000000000000e+00 0.000000000000000e+00
0.000000000000000e+00 0.000000000000000e+00 0.000000000000000e+00

0.000000000000000e+00 0.000000000000000e+00 0.000000000000000e+00
0.000000000000000e+00 0.000000000000000e+00 0.000000000000000e+00
0.000000000000000e+00 0.000000000000000e+00 0.000000000000000e+00

0.000000000000000e+00 0.000000000000000e+00 0.000000000000000e+00
0.000000000000000e+00 0.000000000000000e+00 0.000000000000000e+00
0.000000000000000e+00 0.000000000000000e+00 0.000000000000000e+00

0.000000000000000e+00 0.000000000000000e+00 0.000000000000000e+00
0.000000000000000e+00 0.000000000000000e+00 0.000000000000000e+00
0.000000000000000e+00 0.000000000000000e+00 0.000000000000000e+00

0.000000000000000e+00 0.000000000000000e+00 0.000000000000000e+00
0.000000000000000e+00 0.000000000000000e+00 0.000000000000000e+00
0.000000000000000e+00 0.000000000000000e+00 0.000000000000000e+00

0.000000000000000e+00 0.000000000000000e+00 0.000000000000000e+00
0.000000000000000e+00 0.000000000000000e+00 0.000000000000000e+00
0.000000000000000e+00 0.000000000000000e+00 0.000000000000000e+00

0.000000000000000e+00 0.000000000000000e+00 0.000000000000000e+00
0.000000000000000e+00 0.000000000000000e+00 0.000000000000000e+00
0.000000000000000e+00 0.000000000000000e+00 0.000000000000000e+00

0.000000000000000e+00 0.000000000000000e+00 0.000000000000000e+00
0.000000000000000e+00 0.000000000000000e+00 0.000000000000000e+00
0.000000000000000e+00 0.000000000000000e+00 0.000000000000000e+00

0.000000000000000e+00 0.000000000000000e+00 0.000000000000000e+00
0.000000000000000e+00 0.000000000000000e+00 0.000000000000000e+00
0.000000000000000e+00 0.000000000000000e+00 0.000000000000000e+00

0.000000000000000e+00 0.000000000000000e+00 0.000000000000000e+00
0.000000000000000e+00 0.000000000000000e+00 0.000000000000000e+00
0.000000000000000e+00 0.000000000000000e+00 0.000000000000000e+00

0.000000000000000e+00 0.000000000000000e+00 0.000000000000000e+00
0.000000000000000e+00 0.000000000000000e+00 0.000000000000000e+00
0.000000000000000e+00 0.000000000000000e+00 0.000000000000000e+00

0.000000000000000e+00 0.000000000000000e+00 0.000000000000000e+00
0.000000000000000e+00 0.000000000000000e+00 0.000000000000000e+00
0.000000000000000e+00 0.000000000000000e+00 0.000000000000000e+00

0.000000000000000e+00 0.000000000000000e+00 0.000000000000000e+00
0.000000000000000e+00 0.000000000000000e+00 0.000000000000000e+00
0.000000000000000e+00 0.000000000000000e+00 0.000000000000000e+00

0.000000000000000e+00 0.000000000000000e+00 0.000000000000000e+00
0.000000000000000e+00 0.000000000000000e+00 0.000000000000000e+00
0.000000000000000e+00 0.000000000000000e+00 0.000000000000000e+00

0.000000000000000e+00 0.000000000000000e+00 0.000000000000000e+00
0.000000000000000e+00 0.000000000000000e+00 0.000000000000000e+00
0.000000000000000e+00 0.000000000000000e+00 0.000000000000000e+00

0.000000000000000e+00 0.000000000000000e+00 0.000000000000000e+00
0.000000000000000e+00 0.000000000000000e+00 0.000000000000000e+00
0.000000000000000e+00 0.000000000000000e+00 0.000000000000000e+00

0.000000000000000e+00 0.000000000000000e+00 0.000000000000000e+00
0.000000000000000e+00 0.000000000000000e+00 0.000000000000000e+00
0.000000000000000e+00 0.000000000000000e+00 0.000000000000000e+00

0.000000000000000e+00 0.000000000000000e+00 0.000000000000000e+00
0.000000000000000e+00 0.000000000000000e+00 0.000000000000000e+00
0.000000000000000e+00 0.000000000000000e+00 0.000000000000000e+00

0.000000000000000e+00 0.000000000000000e+00 0.000000000000000e+00
0.000000000000000e+00 0.000000000000000e+00 0.000000000000000e+00
0.000000000000000e+00 0.000000000000000e+00 0.000000000000000e+00

0.000000000000000e+00 0.000000000000000e+00 0.000000000000000e+00
0.000000000000000e+00 0.000000000000000e+00 0.000000000000000e+00
0.000000000000000e+00 0.000000000000000e+00 0.000000000000000e+00

0.000000000000000e+00 0.000000000000000e+00 0.000000000000000e+00
0.000000000000000e+00 0.000000000000000e+00 0.000000000000000e+00
0.000000000000000e+00 0.000000000000000e+00 0.000000000000000e+00

0.000000000000000e+00 0.000000000000000e+00 0.000000000000000e+00
0.000000000000000e+00 0.000000000000000e+00 0.000000000000000e+00
0.000000000000000e+00 0.000000000000000e+00 0.000000000000000e+00

0.000000000000000e+00 0.000000000000000e+00 0.000000000000000e+00
0.000000000000000e+00 0.000000000000000e+00 0.000000000000000e+00
0.000000000000000e+00 0.000000000000000e+00 0.000000000000000e+00

0.000000000000000e+00 0.000000000000000e+00 0.000000000000000e+00
0.000000000000000e+00 0.000000000000000e+00 0.000000000000000e+00
0.000000000000000e+00 0.000000000000000e+00 0.000000000000000e+00

0.000000000000000e+00 0.000000000000000e+00 0.000000000000000e+00
0.000000000000000e+00 0.000000000000000e+00 0.000000000000000e+00
0.000000000000000e+00 0.000000000000000e+00 0.000000000000000e+00

0.000000000000000e+00 0.000000000000000e+00 0.000000000000000e+00
0.000000000000000e+00 0.000000000000000e+00 0.000000000000000e+00
0.000000000000000e+00 0.000000000000000e+00 0.000000000000000e+00

0.000000000000000e+00 0.000000000000000e+00 0.000000000000000e+00
0.000000000000000e+00 0.000000000000000e+00 0.000000000000000e+00
0.000000000000000e+00 0.000000000000000e+00 0.000000000000000e+00

0.000000000000000e+00 0.000000000000000e+00 0.000000000000000e+00
0.000000000000000e+00 0.000000000000000e+00 0.000000000000000e+00
0.000000000000000e+00 0.000000000000000e+00 0.000000000000000e+00

0.000000000000000e+00 0.000000000000000e+00 0.000000000000000e+00
0.000000000000000e+00 0.000000000000000e+00 0.000000000000000e+00
0.000000000000000e+00 0.000000000000000e+00 0.000000000000000e+00

0.000000000000000e+00 0.000000000000000e+00 0.000000000000000e+00
0.000000000000000e+00 0.000000000000000e+00 0.000000000000000e+00
0.000000000000000e+00 0.000000000000000e+00 0.000000000000000e+00

0.000000000000000e+00 0.000000000000000e+00 0.000000000000000e+00
0.000000000000000e+00 0.000000000000000e+00 0.000000000000000e+00
0.000000000000000e+00 0.000000000000000e+00 0.000000000000000e+00

0.000000000000000e+00 0.000000000000000e+00 0.000000000000000e+00
0.000000000000000e+00 0.000000000000000e+00 0.000000000000000e+00
0.000000000000000e+00 0.000000000000000e+00 0.000000000000000e+00

0.000000000000000e+00 0.000000000000000e+00 0.000000000000000e+00
0.000000000000000e+00 0.000000000000000e+00 0.000000000000000e+00
0.000000000000000e+00 0.000000000000000e+00 0.000000000000000e+00

0.000000000000000e+00 0.000000000000000e+00 0.000000000000000e+00
0.000000000000000e+00 0.000000000000000e+00 0.000000000000000e+00
0.000000000000000e+00 0.000000000000000e+00 0.000000000000000e+00

0.000000000000000e+00 0.000000000000000e+00 0.000000000000000e+00
0.000000000000000e+00 0.000000000000000e+00 0.000000000000000e+00
0.000000000000000e+00 0.000000000000000e+00 0.000000000000000e+00

0.000000000000000e+00 0.000000000000000e+00 0.000000000000000e+00
0.000000000000000e+00 0.000000000000000e+00 0.000000000000000e+00
0.000000000000000e+00 0.000000000000000e+00 0.000000000000000e+00

0.000000000000000e+00 0.000000000000000e+00 0.000000000000000e+00
0.000000000000000e+00 0.000000000000000e+00 0.000000000000000e+00
0.000000000000000e+00 0.000000000000000e+00 0.000000000000000e+00

0.000000000000000e+00 0.000000000000000e+00 0.000000000000000e+00
0.000000000000000e+00 0.000000000000000e+00 0.000000000000000e+00
0.000000000000000e+00 0.000000000000000e+00 0.000000000000000e+00

0.000000000000000e+00 0.000000000000000e+00 0.000000000000000e+00
0.000000000000000e+00 0.000000000000000e+00 0.000000000000000e+00
0.000000000000000e+00 0.000000000000000e+00 0.000000000000000e+00

0.000000000000000e+00 0.000000000000000e+00 0.000000000000000e+00
0.000000000000000e+00 0.000000000000000e+00 0.000000000000000e+00
0.000000000000000e+00 0.000000000000000e+00 0.000000000000000e+00

0.000000000000000e+00 0.000000000000000e+00 0.000000000000000e+00
0.000000000000000e+00 0.000000000000000e+00 0.000000000000000e+00
0.000000000000000e+00 0.000000000000000e+00 0.000000000000000e+00

0.000000000000000e+00 0.000000000000000e+00 0.000000000000000e+00
0.000000000000000e+00 0.000000000000000e+00 0.000000000000000e+00
0.000000000000000e+00 0.000000000000000e+00 0.000000000000000e+00

0.000000000000000e+00 0.000000000000000e+00 0.000000000000000e+00
0.000000000000000e+00 0.000000000000000e+00 0.000000000000000e+00
0.000000000000000e+00 0.000000000000000e+00 0.000000000000000e+00

0.000000000000000e+00 0.000000000000000e+00 0.000000000000000e+00
0.000000000000000e+00 0.000000000000000e+00 0.000000000000000e+00
0.000000000000000e+00 0.000000000000000e+00 0.000000000000000e+00

0.000000000000000e+00 0.000000000000000e+00 0.000000000000000e+00
0.000000000000000e+00 0.000000000000000e+00 0.000000000000000e+00
0.000000000000000e+00 0.000000000000000e+00 0.000000000000000e+00

0.000000000000000e+00 0.000000000000000e+00 0.000000000000000e+00
0.000000000000000e+00 0.000000000000000e+00 0.000000000000000e+00
0.000000000000000e+00 0.000000000000000e+00 0.000000000000000e+00

0.000000000000000e+00 0.000000000000000e+00 0.000000000000000e+00
0.000000000000000e+00 0.000000000000000e+00 0.000000000000000e+00
0.000000000000000e+00 0.000000000000000e+00 0.000000000000000e+00

0.000000000000000e+00 0.000000000000000e+00 0.000000000000000e+00
0.000000000000000e+00 0.000000000000000e+00 0.000000000000000e+00
0.000000000000000e+00 0.000000000000000e+00 0.000000000000000e+00

0.000000000000000e+00 0.000000000000000e+00 0.000000000000000e+00
0.000000000000000e+00 0.000000000000000e+00 0.000000000000000e+00
0.000000000000000e+00 0.000000000000000e+00 0.000000000000000e+00

0.000000000000000e+00 0.000000000000000e+00 0.000000000000000e+00
0.000000000000000e+00 0.000000000000000e+00 0.000000000000000e+00
0.000000000000000e+00 0.000000000000000e+00 0.000000000000000e+00

0.000000000000000e+00 0.000000000000000e+00 0.000000000000000e+00
0.000000000000000e+00 0.000000000000000e+00 0.000000000000000e+00
0.000000000000000e+00 0.000000000000000e+00 0.000000000000000e+00

0.000000000000000e+00 0.000000000000000e+00 0.000000000000000e+00
0.000000000000000e+00 0.000000000000000e+00 0.000000000000000e+00
0.000000000000000e+00 0.000000000000000e+00 0.000000000000000e+00

0.000000000000000e+00 0.000000000000000e+00 0.000000000000000e+00
0.000000000000000e+00 0.000000000000000e+00 0.000000000000000e+00
0.000000000000000e+00 0.000000000000000e+00 0.000000000000000e+00

0.000000000000000e+00 0.000000000000000e+00 0.000000000000000e+00
0.000000000000000e+00 0.000000000000000e+00 0.000000000000000e+00
0.000000000000000e+00 0.000000000000000e+00 0.000000000000000e+00

0.000000000000000e+00 0.000000000000000e+00 0.000000000000000e+00
0.000000000000000e+00 0.000000000000000e+00 0.000000000000000e+00
0.000000000000000e+00 0.000000000000000e+00 0.000000000000000e+00

0.000000000000000e+00 0.000000000000000e+00 0.000000000000000e+00
0.000000000000000e+00 0.000000000000000e+00 0.000000000000000e+00
0.000000000000000e+00 0.000000000000000e+00 0.000000000000000e+00

0.000000000000000e+00 0.000000000000000e+00 0.000000000000000e+00
0.000000000000000e+00 0.000000000000000e+00 0.000000000000000e+00
0.000000000000000e+00 0.000000000000000e+00 0.000000000000000e+00

0.000000000000000e+00 0.000000000000000e+00 0.000000000000000e+00
0.000000000000000e+00 0.000000000000000e+00 0.000000000000000e+00
0.000000000000000e+00 0.000000000000000e+00 0.000000000000000e+00

0.000000000000000e+00 0.000000000000000e+00 0.000000000000000e+00
0.000000000000000e+00 0.000000000000000e+00 0.000000000000000e+00
0.000000000000000e+00 0.000000000000000e+00 0.000000000000000e+00

0.000000000000000e+00 0.000000000000000e+00 0.000000000000000e+00
0.000000000000000e+00 0.000000000000000e+00 0.000000000000000e+00
0.000000000000000e+00 0.000000000000000e+00 0.000000000000000e+00

0.000000000000000e+00 0.000000000000000e+00 0.000000000000000e+00
0.000000000000000e+00 0.000000000000000e+00 0.000000000000000e+00
0.000000000000000e+00 0.000000000000000e+00 0.000000000000000e+00

0.000000000000000e+00 0.000000000000000e+00 0.000000000000000e+00
0.000000000000000e+00 0.000000000000000e+00 0.000000000000000e+00
0.000000000000000e+00 0.000000000000000e+00 0.000000000000000e+00

0.000000000000000e+00 0.000000000000000e+00 0.000000000000000e+00
0.000000000000000e+00 0.000000000000000e+00 0.000000000000000e+00
0.000000000000000e+00 0.000000000000000e+00 0.000000000000000e+00

0.000000000000000e+00 0.000000000000000e+00 0.000000000000000e+00
0.000000000000000e+00 0.000000000000000e+00 0.000000000000000e+00
0.000000000000000e+00 0.000000000000000e+00 0.000000000000000e+00

0.000000000000000e+00 0.000000000000000e+00 0.000000000000000e+00
0.000000000000000e+00 0.000000000000000e+00 0.000000000000000e+00
0.000000000000000e+00 0.000000000000000e+00 0.000000000000000e+00

0.000000000000000e+00 0.000000000000000e+00 0.000000000000000e+00
0.000000000000000e+00 0.000000000000000e+00 0.000000000000000e+00
0.000000000000000e+00 0.000000000000000e+00 0.000000000000000e+00

0.000000000000000e+00 0.000000000000000e+00 0.000000000000000e+00
0.000000000000000e+00 0.000000000000000e+00 0.000000000000000e+00
0.000000000000000e+00 0.000000000000000e+00 0.000000000000000e+00

0.000000000000000e+00 0.000000000000000e+00 0.000000000000000e+00
0.000000000000000e+00 0.000000000000000e+00 0.000000000000000e+00
0.000000000000000e+00 0.000000000000000e+00 0.000000000000000e+00

0.000000000000000e+00 0.000000000000000e+00 0.000000000000000e+00
0.000000000000000e+00 0.000000000000000e+00 0.000000000000000e+00
0.000000000000000e+00 0.000000000000000e+00 0.000000000000000e+00

0.000000000000000e+00 0.000000000000000e+00 0.000000000000000e+00
0.000000000000000e+00 0.000000000000000e+00 0.000000000000000e+00
0.000000000000000e+00 0.000000000000000e+00 0.000000000000000e+00

0.000000000000000e+00 0.000000000000000e+00 0.000000000000000e+00
0.000000000000000e+00 0.000000000000000e+00 0.000000000000000e+00
0.000000000000000e+00 0.000000000000000e+00 0.000000000000000e+00

0.000000000000000e+00 0.000000000000000e+00 0.000000000000000e+00
0.000000000000000e+00 0.000000000000000e+00 0.000000000000000e+00
0.000000000000000e+00 0.000000000000000e+00 0.000000000000000e+00

0.000000000000000e+00 0.000000000000000e+00 0.000000000000000e+00
0.000000000000000e+00 0.000000000000000e+00 0.000000000000000e+00
0.000000000000000e+00 0.000000000000000e+00 0.000000000000000e+00

0.000000000000000e+00 0.000000000000000e+00 0.000000000000000e+00
0.000000000000000e+00 0.000000000000000e+00 0.000000000000000e+00
0.000000000000000e+00 0.000000000000000e+00 0.000000000000000e+00

0.000000000000000e+00 0.000000000000000e+00 0.000000000000000e+00
0.000000000000000e+00 0.000000000000000e+00 0.000000000000000e+00
0.000000000000000e+00 0.000000000000000e+00 0.000000000000000e+00

0.000000000000000e+00 0.000000000000000e+00 0.000000000000000e+00
0.000000000000000e+00 0.000000000000000e+00 0.000000000000000e+00
0.000000000000000e+00 0.000000000000000e+00 0.000000000000000e+00

0.000000000000000e+00 0.000000000000000e+00 0.000000000000000e+00
0.000000000000000e+00 0.000000000000000e+00 0.000000000000000e+00
0.000000000000000e+00 0.000000000000000e+00 0.000000000000000e+00

0.000000000000000e+00 0.000000000000000e+00 0.000000000000000e+00
0.000000000000000e+00 0.000000000000000e+00 0.000000000000000e+00
0.000000000000000e+00 0.000000000000000e+00 0.000000000000000e+00

0.000000000000000e+00 0.000000000000000e+00 0.000000000000000e+00
0.000000000000000e+00 0.000000000000000e+00 0.000000000000000e+00
0.000000000000000e+00 0.000000000000000e+00 0.000000000000000e+00

0.000000000000000e+00 0.000000000000000e+00 0.000000000000000e+00
0.000000000000000e+00 0.000000000000000e+00 0.000000000000000e+00
0.000000000000000e+00 0.000000000000000e+00 0.000000000000000e+00

0.000000000000000e+00 0.000000000000000e+00 0.000000000000000e+00
0.000000000000000e+00 0.000000000000000e+00 0.000000000000000e+00
0.000000000000000e+00 0.000000000000000e+00 0.000000000000000e+00

0.000000000000000e+00 0.000000000000000e+00 0.000000000000000e+00
0.000000000000000e+00 0.000000000000000e+00 0.000000000000000e+00
0.000000000000000e+00 0.000000000000000e+00 0.000000000000000e+00

0.000000000000000e+00 0.000000000000000e+00 0.000000000000000e+00
0.000000000000000e+00 0.000000000000000e+00 0.000000000000000e+00
0.000000000000000e+00 0.000000000000000e+00 0.000000000000000e+00

0.000000000000000e+00 0.000000000000000e+00 0.000000000000000e+00
0.000000000000000e+00 0.000000000000000e+00 0.000000000000000e+00
0.000000000000000e+00 0.000000000000000e+00 0.000000000000000e+00

0.000000000000000e+00 0.000000000000000e+00 0.000000000000000e+00
0.000000000000000e+00 0.000000000000000e+00 0.000000000000000e+00
0.000000000000000e+00 0.000000000000000e+00 0.000000000000000e+00

0.000000000000000e+00 0.000000000000000e+00 0.000000000000000e+00
0.000000000000000e+00 0.000000000000000e+00 0.000000000000000e+00
0.000000000000000e+00 0.000000000000000e+00 0.000000000000000e+00

0.000000000000000e+00 0.000000000000000e+00 0.000000000000000e+00
0.000000000000000e+00 0.000000000000000e+00 0.000000000000000e+00
0.000000000000000e+00 0.000000000000000e+00 0.000000000000000e+00

0.000000000000000e+00 0.000000000000000e+00 0.000000000000000e+00
0.000000000000000e+00 0.000000000000000e+00 0.000000000000000e+00
0.000000000000000e+00 0.000000000000000e+00 0.000000000000000e+00

0.000000000000000e+00 0.000000000000000e+00 0.000000000000000e+00
0.000000000000000e+00 0.000000000000000e+00 0.000000000000000e+00
0.000000000000000e+00 0.000000000000000e+00 0.000000000000000e+00

0.000000000000000e+00 0.000000000000000e+00 0.000000000000000e+00
0.000000000000000e+00 0.000000000000000e+00 0.000000000000000e+00
0.000000000000000e+00 0.000000000000000e+00 0.000000000000000e+00

0.000000000000000e+00 0.000000000000000e+00 0.000000000000000e+00
0.000000000000000e+00 0.000000000000000e+00 0.000000000000000e+00
0.000000000000000e+00 0.000000000000000e+00 0.000000000000000e+00

0.000000000000000e+00 0.000000000000000e+00 0.000000000000000e+00
0.000000000000000e+00 0.000000000000000e+00 0.000000000000000e+00
0.000000000000000e+00 0.000000000000000e+00 0.000000000000000e+00

0.000000000000000e+00 0.000000000000000e+00 0.000000000000000e+00
0.000000000000000e+00 0.000000000000000e+00 0.000000000000000e+00
0.000000000000000e+00 0.000000000000000e+00 0.000000000000000e+00

0.000000000000000e+00 0.000000000000000e+00 0.000000000000000e+00
0.000000000000000e+00 0.000000000000000e+00 0.000000000000000e+00
0.000000000000000e+00 0.000000000000000e+00 0.000000000000000e+00

0.000000000000000e+00 0.000000000000000e+00 0.000000000000000e+00
0.000000000000000e+00 0.000000000000000e+00 0.000000000000000e+00
0.000000000000000e+00 0.000000000000000e+00 0.000000000000000e+00

0.000000000000000e+00 0.000000000000000e+00 0.000000000000000e+00
0.000000000000000e+00 0.000000000000000e+00 0.000000000000000e+00
0.000000000000000e+00 0.000000000000000e+00 0.000000000000000e+00

0.000000000000000e+00 0.000000000000000e+00 0.000000000000000e+00
0.000000000000000e+00 0.000000000000000e+00 0.000000000000000e+00
0.000000000000000e+00 0.000000000000000e+00 0.000000000000000e+00

0.000000000000000e+00 0.000000000000000e+00 0.000000000000000e+00
0.000000000000000e+00 0.000000000000000e+00 0.000000000000000e+00
0.000000000000000e+00 0.000000000000000e+00 0.000000000000000e+00

0.000000000000000e+00 0.000000000000000e+00 0.000000000000000e+00
0.000000000000000e+00 0.000000000000000e+00 0.000000000000000e+00
0.000000000000000e+00 0.000000000000000e+00 0.000000000000000e+00

0.000000000000000e+00 0.000000000000000e+00 0.000000000000000e+00
0.000000000000000e+00 0.000000000000000e+00 0.000000000000000e+00
0.000000000000000e+00 0.000000000000000e+00 0.000000000000000e+00

0.000000000000000e+00 0.000000000000000e+00 0.000000000000000e+00
0.000000000000000e+00 0.000000000000000e+00 0.000000000000000e+00
0.000000000000000e+00 0.000000000000000e+00 0.000000000000000e+00

0.000000000000000e+00 0.000000000000000e+00 0.000000000000000e+00
0.000000000000000e+00 0.000000000000000e+00 0.000000000000000e+00
0.000000000000000e+00 0.000000000000000e+00 0.000000000000000e+00

0.000000000000000e+00 0.000000000000000e+00 0.000000000000000e+00
0.000000000000000e+00 0.000000000000000e+00 0.000000000000000e+00
0.000000000000000e+00 0.000000000000000e+00 0.000000000000000e+00

0.000000000000000e+00 0.000000000000000e+00 0.000000000000000e+00
0.000000000000000e+00 0.000000000000000e+00 0.000000000000000e+00
0.000000000000000e+00 0.000000000000000e+00 0.000000000000000e+00

0.000000000000000e+00 0.000000000000000e+00 0.000000000000000e+00
0.000000000000000e+00 0.000000000000000e+00 0.000000000000000e+00
0.000000000000000e+00 0.000000000000000e+00 0.000000000000000e+00

0.000000000000000e+00 0.000000000000000e+00 0.000000000000000e+00
0.000000000000000e+00 0.000000000000000e+00 0.000000000000000e+00
0.000000000000000e+00 0.000000000000000e+00 0.000000000000000e+00

0.000000000000000e+00 0.000000000000000e+00 0.000000000000000e+00
0.000000000000000e+00 0.000000000000000e+00 0.000000000000000e+00
0.000000000000000e+00 0.000000000000000e+00 0.000000000000000e+00

0.000000000000000e+00 0.000000000000000e+00 0.000000000000000e+00
0.000000000000000e+00 0.000000000000000e+00 0.000000000000000e+00
0.000000000000000e+00 0.000000000000000e+00 0.000000000000000e+00

0.000000000000000e+00 0.000000000000000e+00 0.000000000000000e+00
0.000000000000000e+00 0.000000000000000e+00 0.000000000000000e+00
0.000000000000000e+00 0.000000000000000e+00 0.000000000000000e+00

0.000000000000000e+00 0.000000000000000e+00 0.000000000000000e+00
0.000000000000000e+00 0.000000000000000e+00 0.000000000000000e+00
0.000000000000000e+00 0.000000000000000e+00 0.000000000000000e+00

0.000000000000000e+00 0.000000000000000e+00 0.000000000000000e+00
0.000000000000000e+00 0.000000000000000e+00 0.000000000000000e+00
0.000000000000000e+00 0.000000000000000e+00 0.000000000000000e+00

0.000000000000000e+00 0.000000000000000e+00 0.000000000000000e+00
0.000000000000000e+00 0.000000000000000e+00 0.000000000000000e+00
0.000000000000000e+00 0.000000000000000e+00 0.000000000000000e+00

0.000000000000000e+00 0.000000000000000e+00 0.000000000000000e+00
0.000000000000000e+00 0.000000000000000e+00 0.000000000000000e+00
0.000000000000000e+00 0.000000000000000e+00 0.000000000000000e+00

0.000000000000000e+00 0.000000000000000e+00 0.000000000000000e+00
0.000000000000000e+00 0.000000000000000e+00 0.000000000000000e+00
0.000000000000000e+00 0.000000000000000e+00 0.000000000000000e+00

0.000000000000000e+00 0.000000000000000e+00 0.000000000000000e+00
0.000000000000000e+00 0.000000000000000e+00 0.000000000000000e+00
0.000000000000000e+00 0.000000000000000e+00 0.000000000000000e+00

0.000000000000000e+00 0.000000000000000e+00 0.000000000000000e+00
0.000000000000000e+00 0.000000000000000e+00 0.000000000000000e+00
0.000000000000000e+00 0.000000000000000e+00 0.000000000000000e+00

0.000000000000000e+00 0.000000000000000e+00 0.000000000000000e+00
0.000000000000000e+00 0.000000000000000e+00 0.000000000000000e+00
0.000000000000000e+00 0.000000000000000e+00 0.000000000000000e+00

0.000000000000000e+00 0.000000000000000e+00 0.000000000000000e+00
0.000000000000000e+00 0.000000000000000e+00 0.000000000000000e+00
0.000000000000000e+00 0.000000000000000e+00 0.000000000000000e+00

0.000000000000000e+00 0.000000000000000e+00 0.000000000000000e+00
0.000000000000000e+00 0.000000000000000e+00 0.000000000000000e+00
0.000000000000000e+00 0.000000000000000e+00 0.000000000000000e+00

0.000000000000000e+00 0.000000000000000e+00 0.000000000000000e+00
0.000000000000000e+00 0.000000000000000e+00 0.000000000000000e+00
0.000000000000000e+00 0.000000000000000e+00 0.000000000000000e+00

0.000000000000000e+00 0.000000000000000e+00 0.000000000000000e+00
0.000000000000000e+00 0.000000000000000e+00 0.000000000000000e+00
0.000000000000000e+00 0.000000000000000e+00 0.000000000000000e+00

0.000000000000000e+00 0.000000000000000e+00 0.000000000000000e+00
0.000000000000000e+00 0.000000000000000e+00 0.000000000000000e+00
0.000000000000000e+00 0.000000000000000e+00 0.000000000000000e+00

0.000000000000000e+00 0.000000000000000e+00 0.000000000000000e+00
0.000000000000000e+00 0.000000000000000e+00 0.000000000000000e+00
0.000000000000000e+00 0.000000000000000e+00 0.000000000000000e+00

0.000000000000000e+00 0.000000000000000e+00 0.000000000000000e+00
0.000000000000000e+00 0.000000000000000e+00 0.000000000000000e+00
0.000000000000000e+00 0.000000000000000e+00 0.000000000000000e+00

0.000000000000000e+00 0.000000000000000e+00 0.000000000000000e+00
0.000000000000000e+00 0.000000000000000e+00 0.000000000000000e+00
0.000000000000000e+00 0.000000000000000e+00 0.000000000000000e+00

0.000000000000000e+00 0.000000000000000e+00 0.000000000000000e+00
0.000000000000000e+00 0.000000000000000e+00 0.000000000000000e+00
0.000000000000000e+00 0.000000000000000e+00 0.000000000000000e+00

0.000000000000000e+00 0.000000000000000e+00 0.000000000000000e+00
0.000000000000000e+00 0.000000000000000e+00 0.000000000000000e+00
0.000000000000000e+00 0.000000000000000e+00 0.000000000000000e+00

0.000000000000000e+00 0.000000000000000e+00 0.000000000000000e+00
0.000000000000000e+00 0.000000000000000e+00 0.000000000000000e+00
0.000000000000000e+00 0.000000000000000e+00 0.000000000000000e+00

0.000000000000000e+00 0.000000000000000e+00 0.000000000000000e+00
0.000000000000000e+00 0.000000000000000e+00 0.000000000000000e+00
0.000000000000000e+00 0.000000000000000e+00 0.000000000000000e+00

0.000000000000000e+00 0.000000000000000e+00 0.000000000000000e+00
0.000000000000000e+00 0.000000000000000e+00 0.000000000000000e+00
0.000000000000000e+00 0.000000000000000e+00 0.000000000000000e+00

0.000000000000000e+00 0.000000000000000e+00 0.000000000000000e+00
0.000000000000000e+00 0.000000000000000e+00 0.000000000000000e+00
0.000000000000000e+00 0.000000000000000e+00 0.000000000000000e+00

0.000000000000000e+00 0.000000000000000e+00 0.000000000000000e+00
0.000000000000000e+00 0.000000000000000e+00 0.000000000000000e+00
0.000000000000000e+00 0.000000000000000e+00 0.000000000000000e+00

0.000000000000000e+00 0.000000000000000e+00 0.000000000000000e+00
0.000000000000000e+00 0.000000000000000e+00 0.000000000000000e+00
0.000000000000000e+00 0.000000000000000e+00 0.000000000000000e+00

0.000000000000000e+00 0.000000000000000e+00 0.000000000000000e+00
0.000000000000000e+00 0.000000000000000e+00 0.000000000000000e+00
0.000000000000000e+00 0.000000000000000e+00 0.000000000000000e+00

0.000000000000000e+00 0.000000000000000e+00 0.000000000000000e+00
0.000000000000000e+00 0.000000000000000e+00 0.000000000000000e+00
0.000000000000000e+00 0.000000000000000e+00 0.000000000000000e+00

0.000000000000000e+00 0.000000000000000e+00 0.000000000000000e+00
0.000000000000000e+00 0.000000000000000e+00 0.000000000000000e+00
0.000000000000000e+00 0.000000000000000e+00 0.000000000000000e+00

0.000000000000000e+00 0.000000000000000e+00 0.000000000000000e+00
0.000000000000000e+00 0.000000000000000e+00 0.000000000000000e+00
0.000000000000000e+00 0.000000000000000e+00 0.000000000000000e+00

0.000000000000000e+00 0.000000000000000e+00 0.000000000000000e+00
0.000000000000000e+00 0.000000000000000e+00 0.000000000000000e+00
0.000000000000000e+00 0.000000000000000e+00 0.000000000000000e+00

0.000000000000000e+00 0.000000000000000e+00 0.000000000000000e+00
0.000000000000000e+00 0.000000000000000e+00 0.000000000000000e+00
0.000000000000000e+00 0.000000000000000e+00 0.000000000000000e+00

0.000000000000000e+00 0.000000000000000e+00 0.000000000000000e+00
0.000000000000000e+00 0.000000000000000e+00 0.000000000000000e+00
0.000000000000000e+00 0.000000000000000e+00 0.000000000000000e+00

0.000000000000000e+00 0.000000000000000e+00 0.000000000000000e+00
0.000000000000000e+00 0.000000000000000e+00 0.000000000000000e+00
0.000000000000000e+00 0.000000000000000e+00 0.000000000000000e+00

0.000000000000000e+00 0.000000000000000e+00 0.000000000000000e+00
0.000000000000000e+00 0.000000000000000e+00 0.000000000000000e+00
0.000000000000000e+00 0.000000000000000e+00 0.000000000000000e+00

0.000000000000000e+00 0.000000000000000e+00 0.000000000000000e+00
0.000000000000000e+00 0.000000000000000e+00 0.000000000000000e+00
0.000000000000000e+00 0.000000000000000e+00 0.000000000000000e+00

0.000000000000000e+00 0.000000000000000e+00 0.000000000000000e+00
0.000000000000000e+00 0.000000000000000e+00 0.000000000000000e+00
0.000000000000000e+00 0.000000000000000e+00 0.000000000000000e+00

0.000000000000000e+00 0.000000000000000e+00 0.000000000000000e+00
0.000000000000000e+00 0.000000000000000e+00 0.000000000000000e+00
0.000000000000000e+00 0.000000000000000e+00 0.000000000000000e+00

0.000000000000000e+00 0.000000000000000e+00 0.000000000000000e+00
0.000000000000000e+00 0.000000000000000e+00 0.000000000000000e+00
0.000000000000000e+00 0.000000000000000e+00 0.000000000000000e+00

0.000000000000000e+00 0.000000000000000e+00 0.000000000000000e+00
0.000000000000000e+00 0.000000000000000e+00 0.000000000000000e+00
0.000000000000000e+00 0.000000000000000e+00 0.000000000000000e+00

0.000000000000000e+00 0.000000000000000e+00 0.000000000000000e+00
0.000000000000000e+00 0.000000000000000e+00 0.000000000000000e+00
0.000000000000000e+00 0.000000000000000e+00 0.000000000000000e+00

0.000000000000000e+00 0.000000000000000e+00 0.000000000000000e+00
0.000000000000000e+00 0.000000000000000e+00 0.000000000000000e+00
0.000000000000000e+00 0.000000000000000e+00 0.000000000000000e+00

0.000000000000000e+00 0.000000000000000e+00 0.000000000000000e+00
0.000000000000000e+00 0.000000000000000e+00 0.000000000000000e+00
0.000000000000000e+00 0.000000000000000e+00 0.000000000000000e+00

0.000000000000000e+00 0.000000000000000e+00 0.000000000000000e+00
0.000000000000000e+00 0.000000000000000e+00 0.000000000000000e+00
0.000000000000000e+00 0.000000000000000e+00 0.000000000000000e+00

0.000000000000000e+00 0.000000000000000e+00 0.000000000000000e+00
0.000000000000000e+00 0.000000000000000e+00 0.000000000000000e+00
0.000000000000000e+00 0.000000000000000e+00 0.000000000000000e+00

0.000000000000000e+00 0.000000000000000e+00 0.000000000000000e+00
0.000000000000000e+00 0.000000000000000e+00 0.000000000000000e+00
0.000000000000000e+00 0.000000000000000e+00 0.000000000000000e+00

0.000000000000000e+00 0.000000000000000e+00 0.000000000000000e+00
0.000000000000000e+00 0.000000000000000e+00 0.000000000000000e+00
0.000000000000000e+00 0.000000000000000e+00 0.000000000000000e+00

0.000000000000000e+00 0.000000000000000e+00 0.000000000000000e+00
0.000000000000000e+00 0.000000000000000e+00 0.000000000000000e+00
0.000000000000000e+00 0.000000000000000e+00 0.000000000000000e+00

0.000000000000000e+00 0.000000000000000e+00 0.000000000000000e+00
0.000000000000000e+00 0.000000000000000e+00 0.000000000000000e+00
0.000000000000000e+00 0.000000000000000e+00 0.000000000000000e+00

0.000000000000000e+00 0.000000000000000e+00 0.000000000000000e+00
0.000000000000000e+00 0.000000000000000e+00 0.000000000000000e+00
0.000000000000000e+00 0.000000000000000e+00 0.000000000000000e+00

0.000000000000000e+00 0.000000000000000e+00 0.000000000000000e+00
0.000000000000000e+00 0.000000000000000e+00 0.000000000000000e+00
0.000000000000000e+00 0.000000000000000e+00 0.000000000000000e+00

0.000000000000000e+00 0.000000000000000e+00 0.000000000000000e+00
0.000000000000000e+00 0.000000000000000e+00 0.000000000000000e+00
0.000000000000000e+00 0.000000000000000e+00 0.000000000000000e+00

0.000000000000000e+00 0.000000000000000e+00 0.000000000000000e+00
0.000000000000000e+00 0.000000000000000e+00 0.000000000000000e+00
0.000000000000000e+00 0.000000000000000e+00 0.000000000000000e+00

0.000000000000000e+00 0.000000000000000e+00 0.000000000000000e+00
0.000000000000000e+00 0.000000000000000e+00 0.000000000000000e+00
0.000000000000000e+00 0.000000000000000e+00 0.000000000000000e+00

0.000000000000000e+00 0.000000000000000e+00 0.000000000000000e+00
0.000000000000000e+00 0.000000000000000e+00 0.000000000000000e+00
0.000000000000000e+00 0.000000000000000e+00 0.000000000000000e+00

0.000000000000000e+00 0.000000000000000e+00 0.000000000000000e+00
0.000000000000000e+00 0.000000000000000e+00 0.000000000000000e+00
0.000000000000000e+00 0.000000000000000e+00 0.000000000000000e+00

0.000000000000000e+00 0.000000000000000e+00 0.000000000000000e+00
0.000000000000000e+00 0.000000000000000e+00 0.000000000000000e+00
0.000000000000000e+00 0.000000000000000e+00 0.000000000000000e+00

0.000000000000000e+00 0.000000000000000e+00 0.000000000000000e+00
0.000000000000000e+00 0.000000000000000e+00 0.000000000000000e+00
0.000000000000000e+00 0.000000000000000e+00 0.000000000000000e+00

0.000000000000000e+00 0.000000000000000e+00 0.000000000000000e+00
0.000000000000000e+00 0.000000000000000e+00 0.000000000000000e+00
0.000000000000000e+00 0.000000000000000e+00 0.000000000000000e+00

0.000000000000000e+00 0.000000000000000e+00 0.000000000000000e+00
0.000000000000000e+00 0.000000000000000e+00 0.000000000000000e+00
0.000000000000000e+00 0.000000000000000e+00 0.000000000000000e+00

0.000000000000000e+00 0.000000000000000e+00 0.000000000000000e+00
0.000000000000000e+00 0.000000000000000e+00 0.000000000000000e+00
0.000000000000000e+00 0.000000000000000e+00 0.000000000000000e+00

0.000000000000000e+00 0.000000000000000e+00 0.000000000000000e+00
0.000000000000000e+00 0.000000000000000e+00 0.000000000000000e+00
0.000000000000000e+00 0.000000000000000e+00 0.000000000000000e+00

0.000000000000000e+00 0.000000000000000e+00 0.000000000000000e+00
0.000000000000000e+00 0.000000000000000e+00 0.000000000000000e+00
0.000000000000000e+00 0.000000000000000e+00 0.000000000000000e+00

0.000000000000000e+00 0.000000000000000e+00 0.000000000000000e+00
0.000000000000000e+00 0.000000000000000e+00 0.000000000000000e+00
0.000000000000000e+00 0.000000000000000e+00 0.000000000000000e+00

0.000000000000000e+00 0.000000000000000e+00 0.000000000000000e+00
0.000000000000000e+00 0.000000000000000e+00 0.000000000000000e+00
0.000000000000000e+00 0.000000000000000e+00 0.000000000000000e+00

0.000000000000000e+00 0.000000000000000e+00 0.000000000000000e+00
0.000000000000000e+00 0.000000000000000e+00 0.000000000000000e+00
0.000000000000000e+00 0.000000000000000e+00 0.000000000000000e+00

0.000000000000000e+00 0.000000000000000e+00 0.000000000000000e+00
0.000000000000000e+00 0.000000000000000e+00 0.000000000000000e+00
0.000000000000000e+00 0.000000000000000e+00 0.000000000000000e+00

0.000000000000000e+00 0.000000000000000e+00 0.000000000000000e+00
0.000000000000000e+00 0.000000000000000e+00 0.000000000000000e+00
0.000000000000000e+00 0.000000000000000e+00 0.000000000000000e+00

0.000000000000000e+00 0.000000000000000e+00 0.000000000000000e+00
0.000000000000000e+00 0.000000000000000e+00 0.000000000000000e+00
0.000000000000000e+00 0.000000000000000e+00 0.000000000000000e+00

0.000000000000000e+00 0.000000000000000e+00 0.000000000000000e+00
0.000000000000000e+00 0.000000000000000e+00 0.000000000000000e+00
0.000000000000000e+00 0.000000000000000e+00 0.000000000000000e+00

0.000000000000000e+00 0.000000000000000e+00 0.000000000000000e+00
0.000000000000000e+00 0.000000000000000e+00 0.000000000000000e+00
0.000000000000000e+00 0.000000000000000e+00 0.000000000000000e+00

0.000000000000000e+00 0.000000000000000e+00 0.000000000000000e+00
0.000000000000000e+00 0.000000000000000e+00 0.000000000000000e+00
0.000000000000000e+00 0.000000000000000e+00 0.000000000000000e+00

0.000000000000000e+00 0.000000000000000e+00 0.000000000000000e+00
0.000000000000000e+00 0.000000000000000e+00 0.000000000000000e+00
0.000000000000000e+00 0.000000000000000e+00 0.000000000000000e+00

0.000000000000000e+00 0.000000000000000e+00 0.000000000000000e+00
0.000000000000000e+00 0.000000000000000e+00 0.000000000000000e+00
0.000000000000000e+00 0.000000000000000e+00 0.000000000000000e+00

0.000000000000000e+00 0.000000000000000e+00 0.000000000000000e+00
0.000000000000000e+00 0.000000000000000e+00 0.000000000000000e+00
0.000000000000000e+00 0.000000000000000e+00 0.000000000000000e+00

0.000000000000000e+00 0.000000000000000e+00 0.000000000000000e+00
0.000000000000000e+00 0.000000000000000e+00 0.000000000000000e+00
0.000000000000000e+00 0.000000000000000e+00 0.000000000000000e+00

0.000000000000000e+00 0.000000000000000e+00 0.000000000000000e+00
0.000000000000000e+00 0.000000000000000e+00 0.000000000000000e+00
0.000000000000000e+00 0.000000000000000e+00 0.000000000000000e+00

0.000000000000000e+00 0.000000000000000e+00 0.000000000000000e+00
0.000000000000000e+00 0.000000000000000e+00 0.000000000000000e+00
0.000000000000000e+00 0.000000000000000e+00 0.000000000000000e+00

0.000000000000000e+00 0.000000000000000e+00 0.000000000000000e+00
0.000000000000000e+00 0.000000000000000e+00 0.000000000000000e+00
0.000000000000000e+00 0.000000000000000e+00 0.000000000000000e+00

0.000000000000000e+00 0.000000000000000e+00 0.000000000000000e+00
0.000000000000000e+00 0.000000000000000e+00 0.000000000000000e+00
0.000000000000000e+00 0.000000000000000e+00 0.000000000000000e+00

0.000000000000000e+00 0.000000000000000e+00 0.000000000000000e+00
0.000000000000000e+00 0.000000000000000e+00 0.000000000000000e+00
0.000000000000000e+00 0.000000000000000e+00 0.000000000000000e+00

0.000000000000000e+00 0.000000000000000e+00 0.000000000000000e+00
0.000000000000000e+00 0.000000000000000e+00 0.000000000000000e+00
0.000000000000000e+00 0.000000000000000e+00 0.000000000000000e+00

0.000000000000000e+00 0.000000000000000e+00 0.000000000000000e+00
0.000000000000000e+00 0.000000000000000e+00 0.000000000000000e+00
0.000000000000000e+00 0.000000000000000e+00 0.000000000000000e+00

0.000000000000000e+00 0.000000000000000e+00 0.000000000000000e+00
0.000000000000000e+00 0.000000000000000e+00 0.000000000000000e+00
0.000000000000000e+00 0.000000000000000e+00 0.000000000000000e+00

0.000000000000000e+00 0.000000000000000e+00 0.000000000000000e+00
0.000000000000000e+00 0.000000000000000e+00 0.000000000000000e+00
0.000000000000000e+00 0.000000000000000e+00 0.000000000000000e+00

0.000000000000000e+00 0.000000000000000e+00 0.000000000000000e+00
0.000000000000000e+00 0.000000000000000e+00 0.000000000000000e+00
0.000000000000000e+00 0.000000000000000e+00 0.000000000000000e+00

0.000000000000000e+00 0.000000000000000e+00 0.000000000000000e+00
0.000000000000000e+00 0.000000000000000e+00 0.000000000000000e+00
0.000000000000000e+00 0.000000000000000e+00 0.000000000000000e+00

0.000000000000000e+00 0.000000000000000e+00 0.000000000000000e+00
0.000000000000000e+00 0.000000000000000e+00 0.000000000000000e+00
0.000000000000000e+00 0.000000000000000e+00 0.000000000000000e+00

0.000000000000000e+00 0.000000000000000e+00 0.000000000000000e+00
0.000000000000000e+00 0.000000000000000e+00 0.000000000000000e+00
0.000000000000000e+00 0.000000000000000e+00 0.000000000000000e+00

0.000000000000000e+00 0.000000000000000e+00 0.000000000000000e+00
0.000000000000000e+00 0.000000000000000e+00 0.000000000000000e+00
0.000000000000000e+00 0.000000000000000e+00 0.000000000000000e+00

0.000000000000000e+00 0.000000000000000e+00 0.000000000000000e+00
0.000000000000000e+00 0.000000000000000e+00 0.000000000000000e+00
0.000000000000000e+00 0.000000000000000e+00 0.000000000000000e+00

0.000000000000000e+00 0.000000000000000e+00 0.000000000000000e+00
0.000000000000000e+00 0.000000000000000e+00 0.000000000000000e+00
0.000000000000000e+00 0.000000000000000e+00 0.000000000000000e+00

0.000000000000000e+00 0.000000000000000e+00 0.000000000000000e+00
0.000000000000000e+00 0.000000000000000e+00 0.000000000000000e+00
0.000000000000000e+00 0.000000000000000e+00 0.000000000000000e+00

0.000000000000000e+00 0.000000000000000e+00 0.000000000000000e+00
0.000000000000000e+00 0.000000000000000e+00 0.000000000000000e+00
0.000000000000000e+00 0.000000000000000e+00 0.000000000000000e+00

0.000000000000000e+00 0.000000000000000e+00 0.000000000000000e+00
0.000000000000000e+00 0.000000000000000e+00 0.000000000000000e+00
0.000000000000000e+00 0.000000000000000e+00 0.000000000000000e+00

0.000000000000000e+00 0.000000000000000e+00 0.000000000000000e+00
0.000000000000000e+00 0.000000000000000e+00 0.000000000000000e+00
0.000000000000000e+00 0.000000000000000e+00 0.000000000000000e+00

0.000000000000000e+00 0.000000000000000e+00 0.000000000000000e+00
0.000000000000000e+00 0.000000000000000e+00 0.000000000000000e+00
0.000000000000000e+00 0.000000000000000e+00 0.000000000000000e+00

0.000000000000000e+00 0.000000000000000e+00 0.000000000000000e+00
0.000000000000000e+00 0.000000000000000e+00 0.000000000000000e+00
0.000000000000000e+00 0.000000000000000e+00 0.000000000000000e+00

0.000000000000000e+00 0.000000000000000e+00 0.000000000000000e+00
0.000000000000000e+00 0.000000000000000e+00 0.000000000000000e+00
0.000000000000000e+00 0.000000000000000e+00 0.000000000000000e+00

0.000000000000000e+00 0.000000000000000e+00 0.000000000000000e+00
0.000000000000000e+00 0.000000000000000e+00 0.000000000000000e+00
0.000000000000000e+00 0.000000000000000e+00 0.000000000000000e+00

0.000000000000000e+00 0.000000000000000e+00 0.000000000000000e+00
0.000000000000000e+00 0.000000000000000e+00 0.000000000000000e+00
0.000000000000000e+00 0.000000000000000e+00 0.000000000000000e+00

0.000000000000000e+00 0.000000000000000e+00 0.000000000000000e+00
0.000000000000000e+00 0.000000000000000e+00 0.000000000000000e+00
0.000000000000000e+00 0.000000000000000e+00 0.000000000000000e+00

0.000000000000000e+00 0.000000000000000e+00 0.000000000000000e+00
0.000000000000000e+00 0.000000000000000e+00 0.000000000000000e+00
0.000000000000000e+00 0.000000000000000e+00 0.000000000000000e+00

0.000000000000000e+00 0.000000000000000e+00 0.000000000000000e+00
0.000000000000000e+00 0.000000000000000e+00 0.000000000000000e+00
0.000000000000000e+00 0.000000000000000e+00 0.000000000000000e+00

0.000000000000000e+00 0.000000000000000e+00 0.000000000000000e+00
0.000000000000000e+00 0.000000000000000e+00 0.000000000000000e+00
0.000000000000000e+00 0.000000000000000e+00 0.000000000000000e+00

0.000000000000000e+00 0.000000000000000e+00 0.000000000000000e+00
0.000000000000000e+00 0.000000000000000e+00 0.000000000000000e+00
0.000000000000000e+00 0.000000000000000e+00 0.000000000000000e+00

0.000000000000000e+00 0.000000000000000e+00 0.000000000000000e+00
0.000000000000000e+00 0.000000000000000e+00 0.000000000000000e+00
0.000000000000000e+00 0.000000000000000e+00 0.000000000000000e+00

0.000000000000000e+00 0.000000000000000e+00 0.000000000000000e+00
0.000000000000000e+00 0.000000000000000e+00 0.000000000000000e+00
0.000000000000000e+00 0.000000000000000e+00 0.000000000000000e+00

0.000000000000000e+00 0.000000000000000e+00 0.000000000000000e+00
0.000000000000000e+00 0.000000000000000e+00 0.000000000000000e+00
0.000000000000000e+00 0.000000000000000e+00 0.000000000000000e+00

0.000000000000000e+00 0.000000000000000e+00 0.000000000000000e+00
0.000000000000000e+00 0.000000000000000e+00 0.000000000000000e+00
0.000000000000000e+00 0.000000000000000e+00 0.000000000000000e+00

0.000000000000000e+00 0.000000000000000e+00 0.000000000000000e+00
0.000000000000000e+00 0.000000000000000e+00 0.000000000000000e+00
0.000000000000000e+00 0.000000000000000e+00 0.000000000000000e+00

0.000000000000000e+00 0.000000000000000e+00 0.000000000000000e+00
0.000000000000000e+00 0.000000000000000e+00 0.000000000000000e+00
0.000000000000000e+00 0.000000000000000e+00 0.000000000000000e+00

0.000000000000000e+00 0.000000000000000e+00 0.000000000000000e+00
0.000000000000000e+00 0.000000000000000e+00 0.000000000000000e+00
0.000000000000000e+00 0.000000000000000e+00 0.000000000000000e+00

0.000000000000000e+00 0.000000000000000e+00 0.000000000000000e+00
0.000000000000000e+00 0.000000000000000e+00 0.000000000000000e+00
0.000000000000000e+00 0.000000000000000e+00 0.000000000000000e+00

0.000000000000000e+00 0.000000000000000e+00 0.000000000000000e+00
0.000000000000000e+00 0.000000000000000e+00 0.000000000000000e+00
0.000000000000000e+00 0.000000000000000e+00 0.000000000000000e+00

0.000000000000000e+00 0.000000000000000e+00 0.000000000000000e+00
0.000000000000000e+00 0.000000000000000e+00 0.000000000000000e+00
0.000000000000000e+00 0.000000000000000e+00 0.000000000000000e+00

0.000000000000000e+00 0.000000000000000e+00 0.000000000000000e+00
0.000000000000000e+00 0.000000000000000e+00 0.000000000000000e+00
0.000000000000000e+00 0.000000000000000e+00 0.000000000000000e+00

0.000000000000000e+00 0.000000000000000e+00 0.000000000000000e+00
0.000000000000000e+00 0.000000000000000e+00 0.000000000000000e+00
0.000000000000000e+00 0.000000000000000e+00 0.000000000000000e+00

0.000000000000000e+00 0.000000000000000e+00 0.000000000000000e+00
0.000000000000000e+00 0.000000000000000e+00 0.000000000000000e+00
0.000000000000000e+00 0.000000000000000e+00 0.000000000000000e+00

0.000000000000000e+00 0.000000000000000e+00 0.000000000000000e+00
0.000000000000000e+00 0.000000000000000e+00 0.000000000000000e+00
0.000000000000000e+00 0.000000000000000e+00 0.000000000000000e+00

0.000000000000000e+00 0.000000000000000e+00 0.000000000000000e+00
0.000000000000000e+00 0.000000000000000e+00 0.000000000000000e+00
0.000000000000000e+00 0.000000000000000e+00 0.000000000000000e+00

0.000000000000000e+00 0.000000000000000e+00 0.000000000000000e+00
0.000000000000000e+00 0.000000000000000e+00 0.000000000000000e+00
0.000000000000000e+00 0.000000000000000e+00 0.000000000000000e+00

0.000000000000000e+00 0.000000000000000e+00 0.000000000000000e+00
0.000000000000000e+00 0.000000000000000e+00 0.000000000000000e+00
0.000000000000000e+00 0.000000000000000e+00 0.000000000000000e+00

0.000000000000000e+00 0.000000000000000e+00 0.000000000000000e+00
0.000000000000000e+00 0.000000000000000e+00 0.000000000000000e+00
0.000000000000000e+00 0.000000000000000e+00 0.000000000000000e+00

0.000000000000000e+00 0.000000000000000e+00 0.000000000000000e+00
0.000000000000000e+00 0.000000000000000e+00 0.000000000000000e+00
0.000000000000000e+00 0.000000000000000e+00 0.000000000000000e+00

0.000000000000000e+00 0.000000000000000e+00 0.000000000000000e+00
0.000000000000000e+00 0.000000000000000e+00 0.000000000000000e+00
0.000000000000000e+00 0.000000000000000e+00 0.000000000000000e+00

0.000000000000000e+00 0.000000000000000e+00 0.000000000000000e+00
0.000000000000000e+00 0.000000000000000e+00 0.000000000000000e+00
0.000000000000000e+00 0.000000000000000e+00 0.000000000000000e+00

0.000000000000000e+00 0.000000000000000e+00 0.000000000000000e+00
0.000000000000000e+00 0.000000000000000e+00 0.000000000000000e+00
0.000000000000000e+00 0.000000000000000e+00 0.000000000000000e+00

0.000000000000000e+00 0.000000000000000e+00 0.000000000000000e+00
0.000000000000000e+00 0.000000000000000e+00 0.000000000000000e+00
0.000000000000000e+00 0.000000000000000e+00 0.000000000000000e+00

0.000000000000000e+00 0.000000000000000e+00 0.000000000000000e+00
0.000000000000000e+00 0.000000000000000e+00 0.000000000000000e+00
0.000000000000000e+00 0.000000000000000e+00 0.000000000000000e+00

0.000000000000000e+00 0.000000000000000e+00 0.000000000000000e+00
0.000000000000000e+00 0.000000000000000e+00 0.000000000000000e+00
0.000000000000000e+00 0.000000000000000e+00 0.000000000000000e+00

0.000000000000000e+00 0.000000000000000e+00 0.000000000000000e+00
0.000000000000000e+00 0.000000000000000e+00 0.000000000000000e+00
0.000000000000000e+00 0.000000000000000e+00 0.000000000000000e+00

0.000000000000000e+00 0.000000000000000e+00 0.000000000000000e+00
0.000000000000000e+00 0.000000000000000e+00 0.000000000000000e+00
0.000000000000000e+00 0.000000000000000e+00 0.000000000000000e+00

0.000000000000000e+00 0.000000000000000e+00 0.000000000000000e+00
0.000000000000000e+00 0.000000000000000e+00 0.000000000000000e+00
0.000000000000000e+00 0.000000000000000e+00 0.000000000000000e+00

0.000000000000000e+00 0.000000000000000e+00 0.000000000000000e+00
0.000000000000000e+00 0.000000000000000e+00 0.000000000000000e+00
0.000000000000000e+00 0.000000000000000e+00 0.000000000000000e+00

0.000000000000000e+00 0.000000000000000e+00 0.000000000000000e+00
0.000000000000000e+00 0.000000000000000e+00 0.000000000000000e+00
0.000000000000000e+00 0.000000000000000e+00 0.000000000000000e+00

0.000000000000000e+00 0.000000000000000e+00 0.000000000000000e+00
0.000000000000000e+00 0.000000000000000e+00 0.000000000000000e+00
0.000000000000000e+00 0.000000000000000e+00 0.000000000000000e+00

0.000000000000000e+00 0.000000000000000e+00 0.000000000000000e+00
0.000000000000000e+00 0.000000000000000e+00 0.000000000000000e+00
0.000000000000000e+00 0.000000000000000e+00 0.000000000000000e+00

0.000000000000000e+00 0.000000000000000e+00 0.000000000000000e+00
0.000000000000000e+00 0.000000000000000e+00 0.000000000000000e+00
0.000000000000000e+00 0.000000000000000e+00 0.000000000000000e+00

0.000000000000000e+00 0.000000000000000e+00 0.000000000000000e+00
0.000000000000000e+00 0.000000000000000e+00 0.000000000000000e+00
0.000000000000000e+00 0.000000000000000e+00 0.000000000000000e+00

0.000000000000000e+00 0.000000000000000e+00 0.000000000000000e+00
0.000000000000000e+00 0.000000000000000e+00 0.000000000000000e+00
0.000000000000000e+00 0.000000000000000e+00 0.000000000000000e+00

0.000000000000000e+00 0.000000000000000e+00 0.000000000000000e+00
0.000000000000000e+00 0.000000000000000e+00 0.000000000000000e+00
0.000000000000000e+00 0.000000000000000e+00 0.000000000000000e+00

0.000000000000000e+00 0.000000000000000e+00 0.000000000000000e+00
0.000000000000000e+00 0.000000000000000e+00 0.000000000000000e+00
0.000000000000000e+00 0.000000000000000e+00 0.000000000000000e+00

0.000000000000000e+00 0.000000000000000e+00 0.000000000000000e+00
0.000000000000000e+00 0.000000000000000e+00 0.000000000000000e+00
0.000000000000000e+00 0.000000000000000e+00 0.000000000000000e+00

0.000000000000000e+00 0.000000000000000e+00 0.000000000000000e+00
0.000000000000000e+00 0.000000000000000e+00 0.000000000000000e+00
0.000000000000000e+00 0.000000000000000e+00 0.000000000000000e+00

0.000000000000000e+00 0.000000000000000e+00 0.000000000000000e+00
0.000000000000000e+00 0.000000000000000e+00 0.000000000000000e+00
0.000000000000000e+00 0.000000000000000e+00 0.000000000000000e+00

0.000000000000000e+00 0.000000000000000e+00 0.000000000000000e+00
0.000000000000000e+00 0.000000000000000e+00 0.000000000000000e+00
0.000000000000000e+00 0.000000000000000e+00 0.000000000000000e+00

0.000000000000000e+00 0.000000000000000e+00 0.000000000000000e+00
0.000000000000000e+00 0.000000000000000e+00 0.000000000000000e+00
0.000000000000000e+00 0.000000000000000e+00 0.000000000000000e+00

0.000000000000000e+00 0.000000000000000e+00 0.000000000000000e+00
0.000000000000000e+00 0.000000000000000e+00 0.000000000000000e+00
0.000000000000000e+00 0.000000000000000e+00 0.000000000000000e+00

0.000000000000000e+00 0.000000000000000e+00 0.000000000000000e+00
0.000000000000000e+00 0.000000000000000e+00 0.000000000000000e+00
0.000000000000000e+00 0.000000000000000e+00 0.000000000000000e+00

0.000000000000000e+00 0.000000000000000e+00 0.000000000000000e+00
0.000000000000000e+00 0.000000000000000e+00 0.000000000000000e+00
0.000000000000000e+00 0.000000000000000e+00 0.000000000000000e+00

0.000000000000000e+00 0.000000000000000e+00 0.000000000000000e+00
0.000000000000000e+00 0.000000000000000e+00 0.000000000000000e+00
0.000000000000000e+00 0.000000000000000e+00 0.000000000000000e+00

0.000000000000000e+00 0.000000000000000e+00 0.000000000000000e+00
0.000000000000000e+00 0.000000000000000e+00 0.000000000000000e+00
0.000000000000000e+00 0.000000000000000e+00 0.000000000000000e+00

0.000000000000000e+00 0.000000000000000e+00 0.000000000000000e+00
0.000000000000000e+00 0.000000000000000e+00 0.000000000000000e+00
0.000000000000000e+00 0.000000000000000e+00 0.000000000000000e+00

0.000000000000000e+00 0.000000000000000e+00 0.000000000000000e+00
0.000000000000000e+00 0.000000000000000e+00 0.000000000000000e+00
0.000000000000000e+00 0.000000000000000e+00 0.000000000000000e+00

0.000000000000000e+00 0.000000000000000e+00 0.000000000000000e+00
0.000000000000000e+00 0.000000000000000e+00 0.000000000000000e+00
0.000000000000000e+00 0.000000000000000e+00 0.000000000000000e+00

0.000000000000000e+00 0.000000000000000e+00 0.000000000000000e+00
0.000000000000000e+00 0.000000000000000e+00 0.000000000000000e+00
0.000000000000000e+00 0.000000000000000e+00 0.000000000000000e+00

0.000000000000000e+00 0.000000000000000e+00 0.000000000000000e+00
0.000000000000000e+00 0.000000000000000e+00 0.000000000000000e+00
0.000000000000000e+00 0.000000000000000e+00 0.000000000000000e+00

0.000000000000000e+00 0.000000000000000e+00 0.000000000000000e+00
0.000000000000000e+00 0.000000000000000e+00 0.000000000000000e+00
0.000000000000000e+00 0.000000000000000e+00 0.000000000000000e+00

0.000000000000000e+00 0.000000000000000e+00 0.000000000000000e+00
0.000000000000000e+00 0.000000000000000e+00 0.000000000000000e+00
0.000000000000000e+00 0.000000000000000e+00 0.000000000000000e+00

0.000000000000000e+00 0.000000000000000e+00 0.000000000000000e+00
0.000000000000000e+00 0.000000000000000e+00 0.000000000000000e+00
0.000000000000000e+00 0.000000000000000e+00 0.000000000000000e+00

0.000000000000000e+00 0.000000000000000e+00 0.000000000000000e+00
0.000000000000000e+00 0.000000000000000e+00 0.000000000000000e+00
0.000000000000000e+00 0.000000000000000e+00 0.000000000000000e+00

0.000000000000000e+00 0.000000000000000e+00 0.000000000000000e+00
0.000000000000000e+00 0.000000000000000e+00 0.000000000000000e+00
0.000000000000000e+00 0.000000000000000e+00 0.000000000000000e+00

0.000000000000000e+00 0.000000000000000e+00 0.000000000000000e+00
0.000000000000000e+00 0.000000000000000e+00 0.000000000000000e+00
0.000000000000000e+00 0.000000000000000e+00 0.000000000000000e+00

0.000000000000000e+00 0.000000000000000e+00 0.000000000000000e+00
0.000000000000000e+00 0.000000000000000e+00 0.000000000000000e+00
0.000000000000000e+00 0.000000000000000e+00 0.000000000000000e+00

0.000000000000000e+00 0.000000000000000e+00 0.000000000000000e+00
0.000000000000000e+00 0.000000000000000e+00 0.000000000000000e+00
0.000000000000000e+00 0.000000000000000e+00 0.000000000000000e+00

0.000000000000000e+00 0.000000000000000e+00 0.000000000000000e+00
0.000000000000000e+00 0.000000000000000e+00 0.000000000000000e+00
0.000000000000000e+00 0.000000000000000e+00 0.000000000000000e+00

0.000000000000000e+00 0.000000000000000e+00 0.000000000000000e+00
0.000000000000000e+00 0.000000000000000e+00 0.000000000000000e+00
0.000000000000000e+00 0.000000000000000e+00 0.000000000000000e+00

0.000000000000000e+00 0.000000000000000e+00 0.000000000000000e+00
0.000000000000000e+00 0.000000000000000e+00 0.000000000000000e+00
0.000000000000000e+00 0.000000000000000e+00 0.000000000000000e+00

0.000000000000000e+00 0.000000000000000e+00 0.000000000000000e+00
0.000000000000000e+00 0.000000000000000e+00 0.000000000000000e+00
0.000000000000000e+00 0.000000000000000e+00 0.000000000000000e+00

0.000000000000000e+00 0.000000000000000e+00 0.000000000000000e+00
0.000000000000000e+00 0.000000000000000e+00 0.000000000000000e+00
0.000000000000000e+00 0.000000000000000e+00 0.000000000000000e+00

0.000000000000000e+00 0.000000000000000e+00 0.000000000000000e+00
0.000000000000000e+00 0.000000000000000e+00 0.000000000000000e+00
0.000000000000000e+00 0.000000000000000e+00 0.000000000000000e+00

0.000000000000000e+00 0.000000000000000e+00 0.000000000000000e+00
0.000000000000000e+00 0.000000000000000e+00 0.000000000000000e+00
0.000000000000000e+00 0.000000000000000e+00 0.000000000000000e+00

0.000000000000000e+00 0.000000000000000e+00 0.000000000000000e+00
0.000000000000000e+00 0.000000000000000e+00 0.000000000000000e+00
0.000000000000000e+00 0.000000000000000e+00 0.000000000000000e+00

0.000000000000000e+00 0.000000000000000e+00 0.000000000000000e+00
0.000000000000000e+00 0.000000000000000e+00 0.000000000000000e+00
0.000000000000000e+00 0.000000000000000e+00 0.000000000000000e+00

0.000000000000000e+00 0.000000000000000e+00 0.000000000000000e+00
0.000000000000000e+00 0.000000000000000e+00 0.000000000000000e+00
0.000000000000000e+00 0.000000000000000e+00 0.000000000000000e+00

0.000000000000000e+00 0.000000000000000e+00 0.000000000000000e+00
0.000000000000000e+00 0.000000000000000e+00 0.000000000000000e+00
0.000000000000000e+00 0.000000000000000e+00 0.000000000000000e+00

0.000000000000000e+00 0.000000000000000e+00 0.000000000000000e+00
0.000000000000000e+00 0.000000000000000e+00 0.000000000000000e+00
0.000000000000000e+00 0.000000000000000e+00 0.000000000000000e+00

0.000000000000000e+00 0.000000000000000e+00 0.000000000000000e+00
0.000000000000000e+00 0.000000000000000e+00 0.000000000000000e+00
0.000000000000000e+00 0.000000000000000e+00 0.000000000000000e+00

0.000000000000000e+00 0.000000000000000e+00 0.000000000000000e+00
0.000000000000000e+00 0.000000000000000e+00 0.000000000000000e+00
0.000000000000000e+00 0.000000000000000e+00 0.000000000000000e+00

0.000000000000000e+00 0.000000000000000e+00 0.000000000000000e+00
0.000000000000000e+00 0.000000000000000e+00 0.000000000000000e+00
0.000000000000000e+00 0.000000000000000e+00 0.000000000000000e+00

0.000000000000000e+00 0.000000000000000e+00 0.000000000000000e+00
0.000000000000000e+00 0.000000000000000e+00 0.000000000000000e+00
0.000000000000000e+00 0.000000000000000e+00 0.000000000000000e+00

0.000000000000000e+00 0.000000000000000e+00 0.000000000000000e+00
0.000000000000000e+00 0.000000000000000e+00 0.000000000000000e+00
0.000000000000000e+00 0.000000000000000e+00 0.000000000000000e+00

0.000000000000000e+00 0.000000000000000e+00 0.000000000000000e+00
0.000000000000000e+00 0.000000000000000e+00 0.000000000000000e+00
0.000000000000000e+00 0.000000000000000e+00 0.000000000000000e+00

0.000000000000000e+00 0.000000000000000e+00 0.000000000000000e+00
0.000000000000000e+00 0.000000000000000e+00 0.000000000000000e+00
0.000000000000000e+00 0.000000000000000e+00 0.000000000000000e+00

0.000000000000000e+00 0.000000000000000e+00 0.000000000000000e+00
0.000000000000000e+00 0.000000000000000e+00 0.000000000000000e+00
0.000000000000000e+00 0.000000000000000e+00 0.000000000000000e+00

0.000000000000000e+00 0.000000000000000e+00 0.000000000000000e+00
0.000000000000000e+00 0.000000000000000e+00 0.000000000000000e+00
0.000000000000000e+00 0.000000000000000e+00 0.000000000000000e+00

0.000000000000000e+00 0.000000000000000e+00 0.000000000000000e+00
0.000000000000000e+00 0.000000000000000e+00 0.000000000000000e+00
0.000000000000000e+00 0.000000000000000e+00 0.000000000000000e+00

0.000000000000000e+00 0.000000000000000e+00 0.000000000000000e+00
0.000000000000000e+00 0.000000000000000e+00 0.000000000000000e+00
0.000000000000000e+00 0.000000000000000e+00 0.000000000000000e+00

0.000000000000000e+00 0.000000000000000e+00 0.000000000000000e+00
0.000000000000000e+00 0.000000000000000e+00 0.000000000000000e+00
0.000000000000000e+00 0.000000000000000e+00 0.000000000000000e+00

0.000000000000000e+00 0.000000000000000e+00 0.000000000000000e+00
0.000000000000000e+00 0.000000000000000e+00 0.000000000000000e+00
0.000000000000000e+00 0.000000000000000e+00 0.000000000000000e+00

0.000000000000000e+00 0.000000000000000e+00 0.000000000000000e+00
0.000000000000000e+00 0.000000000000000e+00 0.000000000000000e+00
0.000000000000000e+00 0.000000000000000e+00 0.000000000000000e+00

0.000000000000000e+00 0.000000000000000e+00 0.000000000000000e+00
0.000000000000000e+00 0.000000000000000e+00 0.000000000000000e+00
0.000000000000000e+00 0.000000000000000e+00 0.000000000000000e+00

0.000000000000000e+00 0.000000000000000e+00 0.000000000000000e+00
0.000000000000000e+00 0.000000000000000e+00 0.000000000000000e+00
0.000000000000000e+00 0.000000000000000e+00 0.000000000000000e+00

0.000000000000000e+00 0.000000000000000e+00 0.000000000000000e+00
0.000000000000000e+00 0.000000000000000e+00 0.000000000000000e+00
0.000000000000000e+00 0.000000000000000e+00 0.000000000000000e+00

0.000000000000000e+00 0.000000000000000e+00 0.000000000000000e+00
0.000000000000000e+00 0.000000000000000e+00 0.000000000000000e+00
0.000000000000000e+00 0.000000000000000e+00 0.000000000000000e+00

0.000000000000000e+00 0.000000000000000e+00 0.000000000000000e+00
0.000000000000000e+00 0.000000000000000e+00 0.000000000000000e+00
0.000000000000000e+00 0.000000000000000e+00 0.000000000000000e+00

0.000000000000000e+00 0.000000000000000e+00 0.000000000000000e+00
0.000000000000000e+00 0.000000000000000e+00 0.000000000000000e+00
0.000000000000000e+00 0.000000000000000e+00 0.000000000000000e+00

0.000000000000000e+00 0.000000000000000e+00 0.000000000000000e+00
0.000000000000000e+00 0.000000000000000e+00 0.000000000000000e+00
0.000000000000000e+00 0.000000000000000e+00 0.000000000000000e+00

0.000000000000000e+00 0.000000000000000e+00 0.000000000000000e+00
0.000000000000000e+00 0.000000000000000e+00 0.000000000000000e+00
0.000000000000000e+00 0.000000000000000e+00 0.000000000000000e+00

0.000000000000000e+00 0.000000000000000e+00 0.000000000000000e+00
0.000000000000000e+00 0.000000000000000e+00 0.000000000000000e+00
0.000000000000000e+00 0.000000000000000e+00 0.000000000000000e+00

0.000000000000000e+00 0.000000000000000e+00 0.000000000000000e+00
0.000000000000000e+00 0.000000000000000e+00 0.000000000000000e+00
0.000000000000000e+00 0.000000000000000e+00 0.000000000000000e+00

0.000000000000000e+00 0.000000000000000e+00 0.000000000000000e+00
0.000000000000000e+00 0.000000000000000e+00 0.000000000000000e+00
0.000000000000000e+00 0.000000000000000e+00 0.000000000000000e+00

0.000000000000000e+00 0.000000000000000e+00 0.000000000000000e+00
0.000000000000000e+00 0.000000000000000e+00 0.000000000000000e+00
0.000000000000000e+00 0.000000000000000e+00 0.000000000000000e+00

0.000000000000000e+00 0.000000000000000e+00 0.000000000000000e+00
0.000000000000000e+00 0.000000000000000e+00 0.000000000000000e+00
0.000000000000000e+00 0.000000000000000e+00 0.000000000000000e+00

0.000000000000000e+00 0.000000000000000e+00 0.000000000000000e+00
0.000000000000000e+00 0.000000000000000e+00 0.000000000000000e+00
0.000000000000000e+00 0.000000000000000e+00 0.000000000000000e+00

0.000000000000000e+00 0.000000000000000e+00 0.000000000000000e+00
0.000000000000000e+00 0.000000000000000e+00 0.000000000000000e+00
0.000000000000000e+00 0.000000000000000e+00 0.000000000000000e+00

0.000000000000000e+00 0.000000000000000e+00 0.000000000000000e+00
0.000000000000000e+00 0.000000000000000e+00 0.000000000000000e+00
0.000000000000000e+00 0.000000000000000e+00 0.000000000000000e+00

0.000000000000000e+00 0.000000000000000e+00 0.000000000000000e+00
0.000000000000000e+00 0.000000000000000e+00 0.000000000000000e+00
0.000000000000000e+00 0.000000000000000e+00 0.000000000000000e+00

0.000000000000000e+00 0.000000000000000e+00 0.000000000000000e+00
0.000000000000000e+00 0.000000000000000e+00 0.000000000000000e+00
0.000000000000000e+00 0.000000000000000e+00 0.000000000000000e+00

0.000000000000000e+00 0.000000000000000e+00 0.000000000000000e+00
0.000000000000000e+00 0.000000000000000e+00 0.000000000000000e+00
0.000000000000000e+00 0.000000000000000e+00 0.000000000000000e+00

0.000000000000000e+00 0.000000000000000e+00 0.000000000000000e+00
0.000000000000000e+00 0.000000000000000e+00 0.000000000000000e+00
0.000000000000000e+00 0.000000000000000e+00 0.000000000000000e+00

0.000000000000000e+00 0.000000000000000e+00 0.000000000000000e+00
0.000000000000000e+00 0.000000000000000e+00 0.000000000000000e+00
0.000000000000000e+00 0.000000000000000e+00 0.000000000000000e+00

0.000000000000000e+00 0.000000000000000e+00 0.000000000000000e+00
0.000000000000000e+00 0.000000000000000e+00 0.000000000000000e+00
0.000000000000000e+00 0.000000000000000e+00 0.000000000000000e+00

0.000000000000000e+00 0.000000000000000e+00 0.000000000000000e+00
0.000000000000000e+00 0.000000000000000e+00 0.000000000000000e+00
0.000000000000000e+00 0.000000000000000e+00 0.000000000000000e+00

0.000000000000000e+00 0.000000000000000e+00 0.000000000000000e+00
0.000000000000000e+00 0.000000000000000e+00 0.000000000000000e+00
0.000000000000000e+00 0.000000000000000e+00 0.000000000000000e+00

0.000000000000000e+00 0.000000000000000e+00 0.000000000000000e+00
0.000000000000000e+00 0.000000000000000e+00 0.000000000000000e+00
0.000000000000000e+00 0.000000000000000e+00 0.000000000000000e+00

0.000000000000000e+00 0.000000000000000e+00 0.000000000000000e+00
0.000000000000000e+00 0.000000000000000e+00 0.000000000000000e+00
0.000000000000000e+00 0.000000000000000e+00 0.000000000000000e+00

0.000000000000000e+00 0.000000000000000e+00 0.000000000000000e+00
0.000000000000000e+00 0.000000000000000e+00 0.000000000000000e+00
0.000000000000000e+00 0.000000000000000e+00 0.000000000000000e+00

0.000000000000000e+00 0.000000000000000e+00 0.000000000000000e+00
0.000000000000000e+00 0.000000000000000e+00 0.000000000000000e+00
0.000000000000000e+00 0.000000000000000e+00 0.000000000000000e+00

0.000000000000000e+00 0.000000000000000e+00 0.000000000000000e+00
0.000000000000000e+00 0.000000000000000e+00 0.000000000000000e+00
0.000000000000000e+00 0.000000000000000e+00 0.000000000000000e+00

0.000000000000000e+00 0.000000000000000e+00 0.000000000000000e+00
0.000000000000000e+00 0.000000000000000e+00 0.000000000000000e+00
0.000000000000000e+00 0.000000000000000e+00 0.000000000000000e+00

0.000000000000000e+00 0.000000000000000e+00 0.000000000000000e+00
0.000000000000000e+00 0.000000000000000e+00 0.000000000000000e+00
0.000000000000000e+00 0.000000000000000e+00 0.000000000000000e+00

0.000000000000000e+00 0.000000000000000e+00 0.000000000000000e+00
0.000000000000000e+00 0.000000000000000e+00 0.000000000000000e+00
0.000000000000000e+00 0.000000000000000e+00 0.000000000000000e+00

0.000000000000000e+00 0.000000000000000e+00 0.000000000000000e+00
0.000000000000000e+00 0.000000000000000e+00 0.000000000000000e+00
0.000000000000000e+00 0.000000000000000e+00 0.000000000000000e+00

0.000000000000000e+00 0.000000000000000e+00 0.000000000000000e+00
0.000000000000000e+00 0.000000000000000e+00 0.000000000000000e+00
0.000000000000000e+00 0.000000000000000e+00 0.000000000000000e+00

0.000000000000000e+00 0.000000000000000e+00 0.000000000000000e+00
0.000000000000000e+00 0.000000000000000e+00 0.000000000000000e+00
0.000000000000000e+00 0.000000000000000e+00 0.000000000000000e+00

0.000000000000000e+00 0.000000000000000e+00 0.000000000000000e+00
0.000000000000000e+00 0.000000000000000e+00 0.000000000000000e+00
0.000000000000000e+00 0.000000000000000e+00 0.000000000000000e+00

0.000000000000000e+00 0.000000000000000e+00 0.000000000000000e+00
0.000000000000000e+00 0.000000000000000e+00 0.000000000000000e+00
0.000000000000000e+00 0.000000000000000e+00 0.000000000000000e+00

0.000000000000000e+00 0.000000000000000e+00 0.000000000000000e+00
0.000000000000000e+00 0.000000000000000e+00 0.000000000000000e+00
0.000000000000000e+00 0.000000000000000e+00 0.000000000000000e+00

0.000000000000000e+00 0.000000000000000e+00 0.000000000000000e+00
0.000000000000000e+00 0.000000000000000e+00 0.000000000000000e+00
0.000000000000000e+00 0.000000000000000e+00 0.000000000000000e+00

0.000000000000000e+00 0.000000000000000e+00 0.000000000000000e+00
0.000000000000000e+00 0.000000000000000e+00 0.000000000000000e+00
0.000000000000000e+00 0.000000000000000e+00 0.000000000000000e+00

0.000000000000000e+00 0.000000000000000e+00 0.000000000000000e+00
0.000000000000000e+00 0.000000000000000e+00 0.000000000000000e+00
0.000000000000000e+00 0.000000000000000e+00 0.000000000000000e+00

0.000000000000000e+00 0.000000000000000e+00 0.000000000000000e+00
0.000000000000000e+00 0.000000000000000e+00 0.000000000000000e+00
0.000000000000000e+00 0.000000000000000e+00 0.000000000000000e+00

0.000000000000000e+00 0.000000000000000e+00 0.000000000000000e+00
0.000000000000000e+00 0.000000000000000e+00 0.000000000000000e+00
0.000000000000000e+00 0.000000000000000e+00 0.000000000000000e+00

0.000000000000000e+00 0.000000000000000e+00 0.000000000000000e+00
0.000000000000000e+00 0.000000000000000e+00 0.000000000000000e+00
0.000000000000000e+00 0.000000000000000e+00 0.000000000000000e+00

0.000000000000000e+00 0.000000000000000e+00 0.000000000000000e+00
0.000000000000000e+00 0.000000000000000e+00 0.000000000000000e+00
0.000000000000000e+00 0.000000000000000e+00 0.000000000000000e+00

0.000000000000000e+00 0.000000000000000e+00 0.000000000000000e+00
0.000000000000000e+00 0.000000000000000e+00 0.000000000000000e+00
0.000000000000000e+00 0.000000000000000e+00 0.000000000000000e+00

0.000000000000000e+00 0.000000000000000e+00 0.000000000000000e+00
0.000000000000000e+00 0.000000000000000e+00 0.000000000000000e+00
0.000000000000000e+00 0.000000000000000e+00 0.000000000000000e+00

0.000000000000000e+00 0.000000000000000e+00 0.000000000000000e+00
0.000000000000000e+00 0.000000000000000e+00 0.000000000000000e+00
0.000000000000000e+00 0.000000000000000e+00 0.000000000000000e+00

0.000000000000000e+00 0.000000000000000e+00 0.000000000000000e+00
0.000000000000000e+00 0.000000000000000e+00 0.000000000000000e+00
0.000000000000000e+00 0.000000000000000e+00 0.000000000000000e+00

0.000000000000000e+00 0.000000000000000e+00 0.000000000000000e+00
0.000000000000000e+00 0.000000000000000e+00 0.000000000000000e+00
0.000000000000000e+00 0.000000000000000e+00 0.000000000000000e+00

0.000000000000000e+00 0.000000000000000e+00 0.000000000000000e+00
0.000000000000000e+00 0.000000000000000e+00 0.000000000000000e+00
0.000000000000000e+00 0.000000000000000e+00 0.000000000000000e+00

0.000000000000000e+00 0.000000000000000e+00 0.000000000000000e+00
0.000000000000000e+00 0.000000000000000e+00 0.000000000000000e+00
0.000000000000000e+00 0.000000000000000e+00 0.000000000000000e+00

0.000000000000000e+00 0.000000000000000e+00 0.000000000000000e+00
0.000000000000000e+00 0.000000000000000e+00 0.000000000000000e+00
0.000000000000000e+00 0.000000000000000e+00 0.000000000000000e+00

0.000000000000000e+00 0.000000000000000e+00 0.000000000000000e+00
0.000000000000000e+00 0.000000000000000e+00 0.000000000000000e+00
0.000000000000000e+00 0.000000000000000e+00 0.000000000000000e+00

0.000000000000000e+00 0.000000000000000e+00 0.000000000000000e+00
0.000000000000000e+00 0.000000000000000e+00 0.000000000000000e+00
0.000000000000000e+00 0.000000000000000e+00 0.000000000000000e+00

0.000000000000000e+00 0.000000000000000e+00 0.000000000000000e+00
0.000000000000000e+00 0.000000000000000e+00 0.000000000000000e+00
0.000000000000000e+00 0.000000000000000e+00 0.000000000000000e+00

0.000000000000000e+00 0.000000000000000e+00 0.000000000000000e+00
0.000000000000000e+00 0.000000000000000e+00 0.000000000000000e+00
0.000000000000000e+00 0.000000000000000e+00 0.000000000000000e+00

0.000000000000000e+00 0.000000000000000e+00 0.000000000000000e+00
0.000000000000000e+00 0.000000000000000e+00 0.000000000000000e+00
0.000000000000000e+00 0.000000000000000e+00 0.000000000000000e+00

0.000000000000000e+00 0.000000000000000e+00 0.000000000000000e+00
0.000000000000000e+00 0.000000000000000e+00 0.000000000000000e+00
0.000000000000000e+00 0.000000000000000e+00 0.000000000000000e+00

0.000000000000000e+00 0.000000000000000e+00 0.000000000000000e+00
0.000000000000000e+00 0.000000000000000e+00 0.000000000000000e+00
0.000000000000000e+00 0.000000000000000e+00 0.000000000000000e+00

0.000000000000000e+00 0.000000000000000e+00 0.000000000000000e+00
0.000000000000000e+00 0.000000000000000e+00 0.000000000000000e+00
0.000000000000000e+00 0.000000000000000e+00 0.000000000000000e+00

0.000000000000000e+00 0.000000000000000e+00 0.000000000000000e+00
0.000000000000000e+00 0.000000000000000e+00 0.000000000000000e+00
0.000000000000000e+00 0.000000000000000e+00 0.000000000000000e+00

0.000000000000000e+00 0.000000000000000e+00 0.000000000000000e+00
0.000000000000000e+00 0.000000000000000e+00 0.000000000000000e+00
0.000000000000000e+00 0.000000000000000e+00 0.000000000000000e+00

0.000000000000000e+00 0.000000000000000e+00 0.000000000000000e+00
0.000000000000000e+00 0.000000000000000e+00 0.000000000000000e+00
0.000000000000000e+00 0.000000000000000e+00 0.000000000000000e+00

0.000000000000000e+00 0.000000000000000e+00 0.000000000000000e+00
0.000000000000000e+00 0.000000000000000e+00 0.000000000000000e+00
0.000000000000000e+00 0.000000000000000e+00 0.000000000000000e+00

0.000000000000000e+00 0.000000000000000e+00 0.000000000000000e+00
0.000000000000000e+00 0.000000000000000e+00 0.000000000000000e+00
0.000000000000000e+00 0.000000000000000e+00 0.000000000000000e+00

0.000000000000000e+00 0.000000000000000e+00 0.000000000000000e+00
0.000000000000000e+00 0.000000000000000e+00 0.000000000000000e+00
0.000000000000000e+00 0.000000000000000e+00 0.000000000000000e+00

0.000000000000000e+00 0.000000000000000e+00 0.000000000000000e+00
0.000000000000000e+00 0.000000000000000e+00 0.000000000000000e+00
0.000000000000000e+00 0.000000000000000e+00 0.000000000000000e+00

0.000000000000000e+00 0.000000000000000e+00 0.000000000000000e+00
0.000000000000000e+00 0.000000000000000e+00 0.000000000000000e+00
0.000000000000000e+00 0.000000000000000e+00 0.000000000000000e+00

0.000000000000000e+00 0.000000000000000e+00 0.000000000000000e+00
0.000000000000000e+00 0.000000000000000e+00 0.000000000000000e+00
0.000000000000000e+00 0.000000000000000e+00 0.000000000000000e+00

0.000000000000000e+00 0.000000000000000e+00 0.000000000000000e+00
0.000000000000000e+00 0.000000000000000e+00 0.000000000000000e+00
0.000000000000000e+00 0.000000000000000e+00 0.000000000000000e+00

0.000000000000000e+00 0.000000000000000e+00 0.000000000000000e+00
0.000000000000000e+00 0.000000000000000e+00 0.000000000000000e+00
0.000000000000000e+00 0.000000000000000e+00 0.000000000000000e+00

0.000000000000000e+00 0.000000000000000e+00 0.000000000000000e+00
0.000000000000000e+00 0.000000000000000e+00 0.000000000000000e+00
0.000000000000000e+00 0.000000000000000e+00 0.000000000000000e+00

0.000000000000000e+00 0.000000000000000e+00 0.000000000000000e+00
0.000000000000000e+00 0.000000000000000e+00 0.000000000000000e+00
0.000000000000000e+00 0.000000000000000e+00 0.000000000000000e+00

0.000000000000000e+00 0.000000000000000e+00 0.000000000000000e+00
0.000000000000000e+00 0.000000000000000e+00 0.000000000000000e+00
0.000000000000000e+00 0.000000000000000e+00 0.000000000000000e+00

0.000000000000000e+00 0.000000000000000e+00 0.000000000000000e+00
0.000000000000000e+00 0.000000000000000e+00 0.000000000000000e+00
0.000000000000000e+00 0.000000000000000e+00 0.000000000000000e+00

0.000000000000000e+00 0.000000000000000e+00 0.000000000000000e+00
0.000000000000000e+00 0.000000000000000e+00 0.000000000000000e+00
0.000000000000000e+00 0.000000000000000e+00 0.000000000000000e+00

0.000000000000000e+00 0.000000000000000e+00 0.000000000000000e+00
0.000000000000000e+00 0.000000000000000e+00 0.000000000000000e+00
0.000000000000000e+00 0.000000000000000e+00 0.000000000000000e+00

0.000000000000000e+00 0.000000000000000e+00 0.000000000000000e+00
0.000000000000000e+00 0.000000000000000e+00 0.000000000000000e+00
0.000000000000000e+00 0.000000000000000e+00 0.000000000000000e+00

0.000000000000000e+00 0.000000000000000e+00 0.000000000000000e+00
0.000000000000000e+00 0.000000000000000e+00 0.000000000000000e+00
0.000000000000000e+00 0.000000000000000e+00 0.000000000000000e+00

0.000000000000000e+00 0.000000000000000e+00 0.000000000000000e+00
0.000000000000000e+00 0.000000000000000e+00 0.000000000000000e+00
0.000000000000000e+00 0.000000000000000e+00 0.000000000000000e+00

0.000000000000000e+00 0.000000000000000e+00 0.000000000000000e+00
0.000000000000000e+00 0.000000000000000e+00 0.000000000000000e+00
0.000000000000000e+00 0.000000000000000e+00 0.000000000000000e+00

0.000000000000000e+00 0.000000000000000e+00 0.000000000000000e+00
0.000000000000000e+00 0.000000000000000e+00 0.000000000000000e+00
0.000000000000000e+00 0.000000000000000e+00 0.000000000000000e+00

0.000000000000000e+00 0.000000000000000e+00 0.000000000000000e+00
0.000000000000000e+00 0.000000000000000e+00 0.000000000000000e+00
0.000000000000000e+00 0.000000000000000e+00 0.000000000000000e+00

0.000000000000000e+00 0.000000000000000e+00 0.000000000000000e+00
0.000000000000000e+00 0.000000000000000e+00 0.000000000000000e+00
0.000000000000000e+00 0.000000000000000e+00 0.000000000000000e+00

0.000000000000000e+00 0.000000000000000e+00 0.000000000000000e+00
0.000000000000000e+00 0.000000000000000e+00 0.000000000000000e+00
0.000000000000000e+00 0.000000000000000e+00 0.000000000000000e+00

0.000000000000000e+00 0.000000000000000e+00 0.000000000000000e+00
0.000000000000000e+00 0.000000000000000e+00 0.000000000000000e+00
0.000000000000000e+00 0.000000000000000e+00 0.000000000000000e+00

0.000000000000000e+00 0.000000000000000e+00 0.000000000000000e+00
0.000000000000000e+00 0.000000000000000e+00 0.000000000000000e+00
0.000000000000000e+00 0.000000000000000e+00 0.000000000000000e+00

0.000000000000000e+00 0.000000000000000e+00 0.000000000000000e+00
0.000000000000000e+00 0.000000000000000e+00 0.000000000000000e+00
0.000000000000000e+00 0.000000000000000e+00 0.000000000000000e+00

0.000000000000000e+00 0.000000000000000e+00 0.000000000000000e+00
0.000000000000000e+00 0.000000000000000e+00 0.000000000000000e+00
0.000000000000000e+00 0.000000000000000e+00 0.000000000000000e+00

0.000000000000000e+00 0.000000000000000e+00 0.000000000000000e+00
0.000000000000000e+00 0.000000000000000e+00 0.000000000000000e+00
0.000000000000000e+00 0.000000000000000e+00 0.000000000000000e+00

0.000000000000000e+00 0.000000000000000e+00 0.000000000000000e+00
0.000000000000000e+00 0.000000000000000e+00 0.000000000000000e+00
0.000000000000000e+00 0.000000000000000e+00 0.000000000000000e+00

0.000000000000000e+00 0.000000000000000e+00 0.000000000000000e+00
0.000000000000000e+00 0.000000000000000e+00 0.000000000000000e+00
0.000000000000000e+00 0.000000000000000e+00 0.000000000000000e+00

0.000000000000000e+00 0.000000000000000e+00 0.000000000000000e+00
0.000000000000000e+00 0.000000000000000e+00 0.000000000000000e+00
0.000000000000000e+00 0.000000000000000e+00 0.000000000000000e+00

0.000000000000000e+00 0.000000000000000e+00 0.000000000000000e+00
0.000000000000000e+00 0.000000000000000e+00 0.000000000000000e+00
0.000000000000000e+00 0.000000000000000e+00 0.000000000000000e+00

0.000000000000000e+00 0.000000000000000e+00 0.000000000000000e+00
0.000000000000000e+00 0.000000000000000e+00 0.000000000000000e+00
0.000000000000000e+00 0.000000000000000e+00 0.000000000000000e+00

0.000000000000000e+00 0.000000000000000e+00 0.000000000000000e+00
0.000000000000000e+00 0.000000000000000e+00 0.000000000000000e+00
0.000000000000000e+00 0.000000000000000e+00 0.000000000000000e+00

0.000000000000000e+00 0.000000000000000e+00 0.000000000000000e+00
0.000000000000000e+00 0.000000000000000e+00 0.000000000000000e+00
0.000000000000000e+00 0.000000000000000e+00 0.000000000000000e+00

0.000000000000000e+00 0.000000000000000e+00 0.000000000000000e+00
0.000000000000000e+00 0.000000000000000e+00 0.000000000000000e+00
0.000000000000000e+00 0.000000000000000e+00 0.000000000000000e+00

0.000000000000000e+00 0.000000000000000e+00 0.000000000000000e+00
0.000000000000000e+00 0.000000000000000e+00 0.000000000000000e+00
0.000000000000000e+00 0.000000000000000e+00 0.000000000000000e+00

0.000000000000000e+00 0.000000000000000e+00 0.000000000000000e+00
0.000000000000000e+00 0.000000000000000e+00 0.000000000000000e+00
0.000000000000000e+00 0.000000000000000e+00 0.000000000000000e+00

0.000000000000000e+00 0.000000000000000e+00 0.000000000000000e+00
0.000000000000000e+00 0.000000000000000e+00 0.000000000000000e+00
0.000000000000000e+00 0.000000000000000e+00 0.000000000000000e+00

0.000000000000000e+00 0.000000000000000e+00 0.000000000000000e+00
0.000000000000000e+00 0.000000000000000e+00 0.000000000000000e+00
0.000000000000000e+00 0.000000000000000e+00 0.000000000000000e+00

0.000000000000000e+00 0.000000000000000e+00 0.000000000000000e+00
0.000000000000000e+00 0.000000000000000e+00 0.000000000000000e+00
0.000000000000000e+00 0.000000000000000e+00 0.000000000000000e+00

0.000000000000000e+00 0.000000000000000e+00 0.000000000000000e+00
0.000000000000000e+00 0.000000000000000e+00 0.000000000000000e+00
0.000000000000000e+00 0.000000000000000e+00 0.000000000000000e+00

0.000000000000000e+00 0.000000000000000e+00 0.000000000000000e+00
0.000000000000000e+00 0.000000000000000e+00 0.000000000000000e+00
0.000000000000000e+00 0.000000000000000e+00 0.000000000000000e+00

0.000000000000000e+00 0.000000000000000e+00 0.000000000000000e+00
0.000000000000000e+00 0.000000000000000e+00 0.000000000000000e+00
0.000000000000000e+00 0.000000000000000e+00 0.000000000000000e+00

0.000000000000000e+00 0.000000000000000e+00 0.000000000000000e+00
0.000000000000000e+00 0.000000000000000e+00 0.000000000000000e+00
0.000000000000000e+00 0.000000000000000e+00 0.000000000000000e+00

0.000000000000000e+00 0.000000000000000e+00 0.000000000000000e+00
0.000000000000000e+00 0.000000000000000e+00 0.000000000000000e+00
0.000000000000000e+00 0.000000000000000e+00 0.000000000000000e+00

0.000000000000000e+00 0.000000000000000e+00 0.000000000000000e+00
0.000000000000000e+00 0.000000000000000e+00 0.000000000000000e+00
0.000000000000000e+00 0.000000000000000e+00 0.000000000000000e+00

0.000000000000000e+00 0.000000000000000e+00 0.000000000000000e+00
0.000000000000000e+00 0.000000000000000e+00 0.000000000000000e+00
0.000000000000000e+00 0.000000000000000e+00 0.000000000000000e+00

0.000000000000000e+00 0.000000000000000e+00 0.000000000000000e+00
0.000000000000000e+00 0.000000000000000e+00 0.000000000000000e+00
0.000000000000000e+00 0.000000000000000e+00 0.000000000000000e+00

0.000000000000000e+00 0.000000000000000e+00 0.000000000000000e+00
0.000000000000000e+00 0.000000000000000e+00 0.000000000000000e+00
0.000000000000000e+00 0.000000000000000e+00 0.000000000000000e+00

0.000000000000000e+00 0.000000000000000e+00 0.000000000000000e+00
0.000000000000000e+00 0.000000000000000e+00 0.000000000000000e+00
0.000000000000000e+00 0.000000000000000e+00 0.000000000000000e+00

0.000000000000000e+00 0.000000000000000e+00 0.000000000000000e+00
0.000000000000000e+00 0.000000000000000e+00 0.000000000000000e+00
0.000000000000000e+00 0.000000000000000e+00 0.000000000000000e+00

0.000000000000000e+00 0.000000000000000e+00 0.000000000000000e+00
0.000000000000000e+00 0.000000000000000e+00 0.000000000000000e+00
0.000000000000000e+00 0.000000000000000e+00 0.000000000000000e+00

0.000000000000000e+00 0.000000000000000e+00 0.000000000000000e+00
0.000000000000000e+00 0.000000000000000e+00 0.000000000000000e+00
0.000000000000000e+00 0.000000000000000e+00 0.000000000000000e+00

0.000000000000000e+00 0.000000000000000e+00 0.000000000000000e+00
0.000000000000000e+00 0.000000000000000e+00 0.000000000000000e+00
0.000000000000000e+00 0.000000000000000e+00 0.000000000000000e+00

0.000000000000000e+00 0.000000000000000e+00 0.000000000000000e+00
0.000000000000000e+00 0.000000000000000e+00 0.000000000000000e+00
0.000000000000000e+00 0.000000000000000e+00 0.000000000000000e+00

0.000000000000000e+00 0.000000000000000e+00 0.000000000000000e+00
0.000000000000000e+00 0.000000000000000e+00 0.000000000000000e+00
0.000000000000000e+00 0.000000000000000e+00 0.000000000000000e+00

0.000000000000000e+00 0.000000000000000e+00 0.000000000000000e+00
0.000000000000000e+00 0.000000000000000e+00 0.000000000000000e+00
0.000000000000000e+00 0.000000000000000e+00 0.000000000000000e+00

0.000000000000000e+00 0.000000000000000e+00 0.000000000000000e+00
0.000000000000000e+00 0.000000000000000e+00 0.000000000000000e+00
0.000000000000000e+00 0.000000000000000e+00 0.000000000000000e+00

0.000000000000000e+00 0.000000000000000e+00 0.000000000000000e+00
0.000000000000000e+00 0.000000000000000e+00 0.000000000000000e+00
0.000000000000000e+00 0.000000000000000e+00 0.000000000000000e+00

0.000000000000000e+00 0.000000000000000e+00 0.000000000000000e+00
0.000000000000000e+00 0.000000000000000e+00 0.000000000000000e+00
0.000000000000000e+00 0.000000000000000e+00 0.000000000000000e+00

0.000000000000000e+00 0.000000000000000e+00 0.000000000000000e+00
0.000000000000000e+00 0.000000000000000e+00 0.000000000000000e+00
0.000000000000000e+00 0.000000000000000e+00 0.000000000000000e+00

0.000000000000000e+00 0.000000000000000e+00 0.000000000000000e+00
0.000000000000000e+00 0.000000000000000e+00 0.000000000000000e+00
0.000000000000000e+00 0.000000000000000e+00 0.000000000000000e+00

0.000000000000000e+00 0.000000000000000e+00 0.000000000000000e+00
0.000000000000000e+00 0.000000000000000e+00 0.000000000000000e+00
0.000000000000000e+00 0.000000000000000e+00 0.000000000000000e+00

0.000000000000000e+00 0.000000000000000e+00 0.000000000000000e+00
0.000000000000000e+00 0.000000000000000e+00 0.000000000000000e+00
0.000000000000000e+00 0.000000000000000e+00 0.000000000000000e+00

0.000000000000000e+00 0.000000000000000e+00 0.000000000000000e+00
0.000000000000000e+00 0.000000000000000e+00 0.000000000000000e+00
0.000000000000000e+00 0.000000000000000e+00 0.000000000000000e+00

0.000000000000000e+00 0.000000000000000e+00 0.000000000000000e+00
0.000000000000000e+00 0.000000000000000e+00 0.000000000000000e+00
0.000000000000000e+00 0.000000000000000e+00 0.000000000000000e+00

0.000000000000000e+00 0.000000000000000e+00 0.000000000000000e+00
0.000000000000000e+00 0.000000000000000e+00 0.000000000000000e+00
0.000000000000000e+00 0.000000000000000e+00 0.000000000000000e+00

0.000000000000000e+00 0.000000000000000e+00 0.000000000000000e+00
0.000000000000000e+00 0.000000000000000e+00 0.000000000000000e+00
0.000000000000000e+00 0.000000000000000e+00 0.000000000000000e+00

0.000000000000000e+00 0.000000000000000e+00 0.000000000000000e+00
0.000000000000000e+00 0.000000000000000e+00 0.000000000000000e+00
0.000000000000000e+00 0.000000000000000e+00 0.000000000000000e+00

0.000000000000000e+00 0.000000000000000e+00 0.000000000000000e+00
0.000000000000000e+00 0.000000000000000e+00 0.000000000000000e+00
0.000000000000000e+00 0.000000000000000e+00 0.000000000000000e+00

0.000000000000000e+00 0.000000000000000e+00 0.000000000000000e+00
0.000000000000000e+00 0.000000000000000e+00 0.000000000000000e+00
0.000000000000000e+00 0.000000000000000e+00 0.000000000000000e+00

0.000000000000000e+00 0.000000000000000e+00 0.000000000000000e+00
0.000000000000000e+00 0.000000000000000e+00 0.000000000000000e+00
0.000000000000000e+00 0.000000000000000e+00 0.000000000000000e+00

0.000000000000000e+00 0.000000000000000e+00 0.000000000000000e+00
0.000000000000000e+00 0.000000000000000e+00 0.000000000000000e+00
0.000000000000000e+00 0.000000000000000e+00 0.000000000000000e+00

0.000000000000000e+00 0.000000000000000e+00 0.000000000000000e+00
0.000000000000000e+00 0.000000000000000e+00 0.000000000000000e+00
0.000000000000000e+00 0.000000000000000e+00 0.000000000000000e+00

0.000000000000000e+00 0.000000000000000e+00 0.000000000000000e+00
0.000000000000000e+00 0.000000000000000e+00 0.000000000000000e+00
0.000000000000000e+00 0.000000000000000e+00 0.000000000000000e+00

0.000000000000000e+00 0.000000000000000e+00 0.000000000000000e+00
0.000000000000000e+00 0.000000000000000e+00 0.000000000000000e+00
0.000000000000000e+00 0.000000000000000e+00 0.000000000000000e+00

0.000000000000000e+00 0.000000000000000e+00 0.000000000000000e+00
0.000000000000000e+00 0.000000000000000e+00 0.000000000000000e+00
0.000000000000000e+00 0.000000000000000e+00 0.000000000000000e+00

0.000000000000000e+00 0.000000000000000e+00 0.000000000000000e+00
0.000000000000000e+00 0.000000000000000e+00 0.000000000000000e+00
0.000000000000000e+00 0.000000000000000e+00 0.000000000000000e+00

0.000000000000000e+00 0.000000000000000e+00 0.000000000000000e+00
0.000000000000000e+00 0.000000000000000e+00 0.000000000000000e+00
0.000000000000000e+00 0.000000000000000e+00 0.000000000000000e+00

0.000000000000000e+00 0.000000000000000e+00 0.000000000000000e+00
0.000000000000000e+00 0.000000000000000e+00 0.000000000000000e+00
0.000000000000000e+00 0.000000000000000e+00 0.000000000000000e+00

0.000000000000000e+00 0.000000000000000e+00 0.000000000000000e+00
0.000000000000000e+00 0.000000000000000e+00 0.000000000000000e+00
0.000000000000000e+00 0.000000000000000e+00 0.000000000000000e+00

0.000000000000000e+00 0.000000000000000e+00 0.000000000000000e+00
0.000000000000000e+00 0.000000000000000e+00 0.000000000000000e+00
0.000000000000000e+00 0.000000000000000e+00 0.000000000000000e+00

0.000000000000000e+00 0.000000000000000e+00 0.000000000000000e+00
0.000000000000000e+00 0.000000000000000e+00 0.000000000000000e+00
0.000000000000000e+00 0.000000000000000e+00 0.000000000000000e+00

0.000000000000000e+00 0.000000000000000e+00 0.000000000000000e+00
0.000000000000000e+00 0.000000000000000e+00 0.000000000000000e+00
0.000000000000000e+00 0.000000000000000e+00 0.000000000000000e+00

0.000000000000000e+00 0.000000000000000e+00 0.000000000000000e+00
0.000000000000000e+00 0.000000000000000e+00 0.000000000000000e+00
0.000000000000000e+00 0.000000000000000e+00 0.000000000000000e+00

0.000000000000000e+00 0.000000000000000e+00 0.000000000000000e+00
0.000000000000000e+00 0.000000000000000e+00 0.000000000000000e+00
0.000000000000000e+00 0.000000000000000e+00 0.000000000000000e+00

0.000000000000000e+00 0.000000000000000e+00 0.000000000000000e+00
0.000000000000000e+00 0.000000000000000e+00 0.000000000000000e+00
0.000000000000000e+00 0.000000000000000e+00 0.000000000000000e+00

0.000000000000000e+00 0.000000000000000e+00 0.000000000000000e+00
0.000000000000000e+00 0.000000000000000e+00 0.000000000000000e+00
0.000000000000000e+00 0.000000000000000e+00 0.000000000000000e+00

0.000000000000000e+00 0.000000000000000e+00 0.000000000000000e+00
0.000000000000000e+00 0.000000000000000e+00 0.000000000000000e+00
0.000000000000000e+00 0.000000000000000e+00 0.000000000000000e+00

0.000000000000000e+00 0.000000000000000e+00 0.000000000000000e+00
0.000000000000000e+00 0.000000000000000e+00 0.000000000000000e+00
0.000000000000000e+00 0.000000000000000e+00 0.000000000000000e+00

0.000000000000000e+00 0.000000000000000e+00 0.000000000000000e+00
0.000000000000000e+00 0.000000000000000e+00 0.000000000000000e+00
0.000000000000000e+00 0.000000000000000e+00 0.000000000000000e+00

0.000000000000000e+00 0.000000000000000e+00 0.000000000000000e+00
0.000000000000000e+00 0.000000000000000e+00 0.000000000000000e+00
0.000000000000000e+00 0.000000000000000e+00 0.000000000000000e+00

0.000000000000000e+00 0.000000000000000e+00 0.000000000000000e+00
0.000000000000000e+00 0.000000000000000e+00 0.000000000000000e+00
0.000000000000000e+00 0.000000000000000e+00 0.000000000000000e+00

0.000000000000000e+00 0.000000000000000e+00 0.000000000000000e+00
0.000000000000000e+00 0.000000000000000e+00 0.000000000000000e+00
0.000000000000000e+00 0.000000000000000e+00 0.000000000000000e+00

0.000000000000000e+00 0.000000000000000e+00 0.000000000000000e+00
0.000000000000000e+00 0.000000000000000e+00 0.000000000000000e+00
0.000000000000000e+00 0.000000000000000e+00 0.000000000000000e+00

0.000000000000000e+00 0.000000000000000e+00 0.000000000000000e+00
0.000000000000000e+00 0.000000000000000e+00 0.000000000000000e+00
0.000000000000000e+00 0.000000000000000e+00 0.000000000000000e+00

0.000000000000000e+00 0.000000000000000e+00 0.000000000000000e+00
0.000000000000000e+00 0.000000000000000e+00 0.000000000000000e+00
0.000000000000000e+00 0.000000000000000e+00 0.000000000000000e+00

0.000000000000000e+00 0.000000000000000e+00 0.000000000000000e+00
0.000000000000000e+00 0.000000000000000e+00 0.000000000000000e+00
0.000000000000000e+00 0.000000000000000e+00 0.000000000000000e+00

0.000000000000000e+00 0.000000000000000e+00 0.000000000000000e+00
0.000000000000000e+00 0.000000000000000e+00 0.000000000000000e+00
0.000000000000000e+00 0.000000000000000e+00 0.000000000000000e+00

0.000000000000000e+00 0.000000000000000e+00 0.000000000000000e+00
0.000000000000000e+00 0.000000000000000e+00 0.000000000000000e+00
0.000000000000000e+00 0.000000000000000e+00 0.000000000000000e+00

0.000000000000000e+00 0.000000000000000e+00 0.000000000000000e+00
0.000000000000000e+00 0.000000000000000e+00 0.000000000000000e+00
0.000000000000000e+00 0.000000000000000e+00 0.000000000000000e+00

0.000000000000000e+00 0.000000000000000e+00 0.000000000000000e+00
0.000000000000000e+00 0.000000000000000e+00 0.000000000000000e+00
0.000000000000000e+00 0.000000000000000e+00 0.000000000000000e+00

0.000000000000000e+00 0.000000000000000e+00 0.000000000000000e+00
0.000000000000000e+00 0.000000000000000e+00 0.000000000000000e+00
0.000000000000000e+00 0.000000000000000e+00 0.000000000000000e+00

0.000000000000000e+00 0.000000000000000e+00 0.000000000000000e+00
0.000000000000000e+00 0.000000000000000e+00 0.000000000000000e+00
0.000000000000000e+00 0.000000000000000e+00 0.000000000000000e+00

0.000000000000000e+00 0.000000000000000e+00 0.000000000000000e+00
0.000000000000000e+00 0.000000000000000e+00 0.000000000000000e+00
0.000000000000000e+00 0.000000000000000e+00 0.000000000000000e+00

0.000000000000000e+00 0.000000000000000e+00 0.000000000000000e+00
0.000000000000000e+00 0.000000000000000e+00 0.000000000000000e+00
0.000000000000000e+00 0.000000000000000e+00 0.000000000000000e+00

0.000000000000000e+00 0.000000000000000e+00 0.000000000000000e+00
0.000000000000000e+00 0.000000000000000e+00 0.000000000000000e+00
0.000000000000000e+00 0.000000000000000e+00 0.000000000000000e+00

0.000000000000000e+00 0.000000000000000e+00 0.000000000000000e+00
0.000000000000000e+00 0.000000000000000e+00 0.000000000000000e+00
0.000000000000000e+00 0.000000000000000e+00 0.000000000000000e+00

0.000000000000000e+00 0.000000000000000e+00 0.000000000000000e+00
0.000000000000000e+00 0.000000000000000e+00 0.000000000000000e+00
0.000000000000000e+00 0.000000000000000e+00 0.000000000000000e+00

0.000000000000000e+00 0.000000000000000e+00 0.000000000000000e+00
0.000000000000000e+00 0.000000000000000e+00 0.000000000000000e+00
0.000000000000000e+00 0.000000000000000e+00 0.000000000000000e+00

0.000000000000000e+00 0.000000000000000e+00 0.000000000000000e+00
0.000000000000000e+00 0.000000000000000e+00 0.000000000000000e+00
0.000000000000000e+00 0.000000000000000e+00 0.000000000000000e+00

0.000000000000000e+00 0.000000000000000e+00 0.000000000000000e+00
0.000000000000000e+00 0.000000000000000e+00 0.000000000000000e+00
0.000000000000000e+00 0.000000000000000e+00 0.000000000000000e+00

0.000000000000000e+00 0.000000000000000e+00 0.000000000000000e+00
0.000000000000000e+00 0.000000000000000e+00 0.000000000000000e+00
0.000000000000000e+00 0.000000000000000e+00 0.000000000000000e+00

0.000000000000000e+00 0.000000000000000e+00 0.000000000000000e+00
0.000000000000000e+00 0.000000000000000e+00 0.000000000000000e+00
0.000000000000000e+00 0.000000000000000e+00 0.000000000000000e+00

0.000000000000000e+00 0.000000000000000e+00 0.000000000000000e+00
0.000000000000000e+00 0.000000000000000e+00 0.000000000000000e+00
0.000000000000000e+00 0.000000000000000e+00 0.000000000000000e+00

0.000000000000000e+00 0.000000000000000e+00 0.000000000000000e+00
0.000000000000000e+00 0.000000000000000e+00 0.000000000000000e+00
0.000000000000000e+00 0.000000000000000e+00 0.000000000000000e+00

0.000000000000000e+00 0.000000000000000e+00 0.000000000000000e+00
0.000000000000000e+00 0.000000000000000e+00 0.000000000000000e+00
0.000000000000000e+00 0.000000000000000e+00 0.000000000000000e+00

0.000000000000000e+00 0.000000000000000e+00 0.000000000000000e+00
0.000000000000000e+00 0.000000000000000e+00 0.000000000000000e+00
0.000000000000000e+00 0.000000000000000e+00 0.000000000000000e+00

0.000000000000000e+00 0.000000000000000e+00 0.000000000000000e+00
0.000000000000000e+00 0.000000000000000e+00 0.000000000000000e+00
0.000000000000000e+00 0.000000000000000e+00 0.000000000000000e+00

0.000000000000000e+00 0.000000000000000e+00 0.000000000000000e+00
0.000000000000000e+00 0.000000000000000e+00 0.000000000000000e+00
0.000000000000000e+00 0.000000000000000e+00 0.000000000000000e+00

0.000000000000000e+00 0.000000000000000e+00 0.000000000000000e+00
0.000000000000000e+00 0.000000000000000e+00 0.000000000000000e+00
0.000000000000000e+00 0.000000000000000e+00 0.000000000000000e+00

0.000000000000000e+00 0.000000000000000e+00 0.000000000000000e+00
0.000000000000000e+00 0.000000000000000e+00 0.000000000000000e+00
0.000000000000000e+00 0.000000000000000e+00 0.000000000000000e+00

0.000000000000000e+00 0.000000000000000e+00 0.000000000000000e+00
0.000000000000000e+00 0.000000000000000e+00 0.000000000000000e+00
0.000000000000000e+00 0.000000000000000e+00 0.000000000000000e+00

0.000000000000000e+00 0.000000000000000e+00 0.000000000000000e+00
0.000000000000000e+00 0.000000000000000e+00 0.000000000000000e+00
0.000000000000000e+00 0.000000000000000e+00 0.000000000000000e+00

0.000000000000000e+00 0.000000000000000e+00 0.000000000000000e+00
0.000000000000000e+00 0.000000000000000e+00 0.000000000000000e+00
0.000000000000000e+00 0.000000000000000e+00 0.000000000000000e+00

0.000000000000000e+00 0.000000000000000e+00 0.000000000000000e+00
0.000000000000000e+00 0.000000000000000e+00 0.000000000000000e+00
0.000000000000000e+00 0.000000000000000e+00 0.000000000000000e+00

0.000000000000000e+00 0.000000000000000e+00 0.000000000000000e+00
0.000000000000000e+00 0.000000000000000e+00 0.000000000000000e+00
0.000000000000000e+00 0.000000000000000e+00 0.000000000000000e+00

0.000000000000000e+00 0.000000000000000e+00 0.000000000000000e+00
0.000000000000000e+00 0.000000000000000e+00 0.000000000000000e+00
0.000000000000000e+00 0.000000000000000e+00 0.000000000000000e+00

0.000000000000000e+00 0.000000000000000e+00 0.000000000000000e+00
0.000000000000000e+00 0.000000000000000e+00 0.000000000000000e+00
0.000000000000000e+00 0.000000000000000e+00 0.000000000000000e+00

0.000000000000000e+00 0.000000000000000e+00 0.000000000000000e+00
0.000000000000000e+00 0.000000000000000e+00 0.000000000000000e+00
0.000000000000000e+00 0.000000000000000e+00 0.000000000000000e+00

0.000000000000000e+00 0.000000000000000e+00 0.000000000000000e+00
0.000000000000000e+00 0.000000000000000e+00 0.000000000000000e+00
0.000000000000000e+00 0.000000000000000e+00 0.000000000000000e+00

0.000000000000000e+00 0.000000000000000e+00 0.000000000000000e+00
0.000000000000000e+00 0.000000000000000e+00 0.000000000000000e+00
0.000000000000000e+00 0.000000000000000e+00 0.000000000000000e+00

0.000000000000000e+00 0.000000000000000e+00 0.000000000000000e+00
0.000000000000000e+00 0.000000000000000e+00 0.000000000000000e+00
0.000000000000000e+00 0.000000000000000e+00 0.000000000000000e+00

0.000000000000000e+00 0.000000000000000e+00 0.000000000000000e+00
0.000000000000000e+00 0.000000000000000e+00 0.000000000000000e+00
0.000000000000000e+00 0.000000000000000e+00 0.000000000000000e+00

0.000000000000000e+00 0.000000000000000e+00 0.000000000000000e+00
0.000000000000000e+00 0.000000000000000e+00 0.000000000000000e+00
0.000000000000000e+00 0.000000000000000e+00 0.000000000000000e+00

0.000000000000000e+00 0.000000000000000e+00 0.000000000000000e+00
0.000000000000000e+00 0.000000000000000e+00 0.000000000000000e+00
0.000000000000000e+00 0.000000000000000e+00 0.000000000000000e+00

0.000000000000000e+00 0.000000000000000e+00 0.000000000000000e+00
0.000000000000000e+00 0.000000000000000e+00 0.000000000000000e+00
0.000000000000000e+00 0.000000000000000e+00 0.000000000000000e+00

0.000000000000000e+00 0.000000000000000e+00 0.000000000000000e+00
0.000000000000000e+00 0.000000000000000e+00 0.000000000000000e+00
0.000000000000000e+00 0.000000000000000e+00 0.000000000000000e+00

0.000000000000000e+00 0.000000000000000e+00 0.000000000000000e+00
0.000000000000000e+00 0.000000000000000e+00 0.000000000000000e+00
0.000000000000000e+00 0.000000000000000e+00 0.000000000000000e+00

0.000000000000000e+00 0.000000000000000e+00 0.000000000000000e+00
0.000000000000000e+00 0.000000000000000e+00 0.000000000000000e+00
0.000000000000000e+00 0.000000000000000e+00 0.000000000000000e+00

0.000000000000000e+00 0.000000000000000e+00 0.000000000000000e+00
0.000000000000000e+00 0.000000000000000e+00 0.000000000000000e+00
0.000000000000000e+00 0.000000000000000e+00 0.000000000000000e+00

0.000000000000000e+00 0.000000000000000e+00 0.000000000000000e+00
0.000000000000000e+00 0.000000000000000e+00 0.000000000000000e+00
0.000000000000000e+00 0.000000000000000e+00 0.000000000000000e+00

0.000000000000000e+00 0.000000000000000e+00 0.000000000000000e+00
0.000000000000000e+00 0.000000000000000e+00 0.000000000000000e+00
0.000000000000000e+00 0.000000000000000e+00 0.000000000000000e+00

0.000000000000000e+00 0.000000000000000e+00 0.000000000000000e+00
0.000000000000000e+00 0.000000000000000e+00 0.000000000000000e+00
0.000000000000000e+00 0.000000000000000e+00 0.000000000000000e+00

0.000000000000000e+00 0.000000000000000e+00 0.000000000000000e+00
0.000000000000000e+00 0.000000000000000e+00 0.000000000000000e+00
0.000000000000000e+00 0.000000000000000e+00 0.000000000000000e+00

0.000000000000000e+00 0.000000000000000e+00 0.000000000000000e+00
0.000000000000000e+00 0.000000000000000e+00 0.000000000000000e+00
0.000000000000000e+00 0.000000000000000e+00 0.000000000000000e+00

0.000000000000000e+00 0.000000000000000e+00 0.000000000000000e+00
0.000000000000000e+00 0.000000000000000e+00 0.000000000000000e+00
0.000000000000000e+00 0.000000000000000e+00 0.000000000000000e+00

0.000000000000000e+00 0.000000000000000e+00 0.000000000000000e+00
0.000000000000000e+00 0.000000000000000e+00 0.000000000000000e+00
0.000000000000000e+00 0.000000000000000e+00 0.000000000000000e+00

0.000000000000000e+00 0.000000000000000e+00 0.000000000000000e+00
0.000000000000000e+00 0.000000000000000e+00 0.000000000000000e+00
0.000000000000000e+00 0.000000000000000e+00 0.000000000000000e+00

0.000000000000000e+00 0.000000000000000e+00 0.000000000000000e+00
0.000000000000000e+00 0.000000000000000e+00 0.000000000000000e+00
0.000000000000000e+00 0.000000000000000e+00 0.000000000000000e+00

0.000000000000000e+00 0.000000000000000e+00 0.000000000000000e+00
0.000000000000000e+00 0.000000000000000e+00 0.000000000000000e+00
0.000000000000000e+00 0.000000000000000e+00 0.000000000000000e+00

0.000000000000000e+00 0.000000000000000e+00 0.000000000000000e+00
0.000000000000000e+00 0.000000000000000e+00 0.000000000000000e+00
0.000000000000000e+00 0.000000000000000e+00 0.000000000000000e+00

0.000000000000000e+00 0.000000000000000e+00 0.000000000000000e+00
0.000000000000000e+00 0.000000000000000e+00 0.000000000000000e+00
0.000000000000000e+00 0.000000000000000e+00 0.000000000000000e+00

0.000000000000000e+00 0.000000000000000e+00 0.000000000000000e+00
0.000000000000000e+00 0.000000000000000e+00 0.000000000000000e+00
0.000000000000000e+00 0.000000000000000e+00 0.000000000000000e+00

0.000000000000000e+00 0.000000000000000e+00 0.000000000000000e+00
0.000000000000000e+00 0.000000000000000e+00 0.000000000000000e+00
0.000000000000000e+00 0.000000000000000e+00 0.000000000000000e+00

0.000000000000000e+00 0.000000000000000e+00 0.000000000000000e+00
0.000000000000000e+00 0.000000000000000e+00 0.000000000000000e+00
0.000000000000000e+00 0.000000000000000e+00 0.000000000000000e+00

0.000000000000000e+00 0.000000000000000e+00 0.000000000000000e+00
0.000000000000000e+00 0.000000000000000e+00 0.000000000000000e+00
0.000000000000000e+00 0.000000000000000e+00 0.000000000000000e+00

0.000000000000000e+00 0.000000000000000e+00 0.000000000000000e+00
0.000000000000000e+00 0.000000000000000e+00 0.000000000000000e+00
0.000000000000000e+00 0.000000000000000e+00 0.000000000000000e+00

0.000000000000000e+00 0.000000000000000e+00 0.000000000000000e+00
0.000000000000000e+00 0.000000000000000e+00 0.000000000000000e+00
0.000000000000000e+00 0.000000000000000e+00 0.000000000000000e+00

0.000000000000000e+00 0.000000000000000e+00 0.000000000000000e+00
0.000000000000000e+00 0.000000000000000e+00 0.000000000000000e+00
0.000000000000000e+00 0.000000000000000e+00 0.000000000000000e+00

0.000000000000000e+00 0.000000000000000e+00 0.000000000000000e+00
0.000000000000000e+00 0.000000000000000e+00 0.000000000000000e+00
0.000000000000000e+00 0.000000000000000e+00 0.000000000000000e+00

0.000000000000000e+00 0.000000000000000e+00 0.000000000000000e+00
0.000000000000000e+00 0.000000000000000e+00 0.000000000000000e+00
0.000000000000000e+00 0.000000000000000e+00 0.000000000000000e+00

0.000000000000000e+00 0.000000000000000e+00 0.000000000000000e+00
0.000000000000000e+00 0.000000000000000e+00 0.000000000000000e+00
0.000000000000000e+00 0.000000000000000e+00 0.000000000000000e+00

0.000000000000000e+00 0.000000000000000e+00 0.000000000000000e+00
0.000000000000000e+00 0.000000000000000e+00 0.000000000000000e+00
0.000000000000000e+00 0.000000000000000e+00 0.000000000000000e+00

0.000000000000000e+00 0.000000000000000e+00 0.000000000000000e+00
0.000000000000000e+00 0.000000000000000e+00 0.000000000000000e+00
0.000000000000000e+00 0.000000000000000e+00 0.000000000000000e+00

0.000000000000000e+00 0.000000000000000e+00 0.000000000000000e+00
0.000000000000000e+00 0.000000000000000e+00 0.000000000000000e+00
0.000000000000000e+00 0.000000000000000e+00 0.000000000000000e+00

0.000000000000000e+00 0.000000000000000e+00 0.000000000000000e+00
0.000000000000000e+00 0.000000000000000e+00 0.000000000000000e+00
0.000000000000000e+00 0.000000000000000e+00 0.000000000000000e+00

0.000000000000000e+00 0.000000000000000e+00 0.000000000000000e+00
0.000000000000000e+00 0.000000000000000e+00 0.000000000000000e+00
0.000000000000000e+00 0.000000000000000e+00 0.000000000000000e+00

0.000000000000000e+00 0.000000000000000e+00 0.000000000000000e+00
0.000000000000000e+00 0.000000000000000e+00 0.000000000000000e+00
0.000000000000000e+00 0.000000000000000e+00 0.000000000000000e+00

0.000000000000000e+00 0.000000000000000e+00 0.000000000000000e+00
0.000000000000000e+00 0.000000000000000e+00 0.000000000000000e+00
0.000000000000000e+00 0.000000000000000e+00 0.000000000000000e+00

0.000000000000000e+00 0.000000000000000e+00 0.000000000000000e+00
0.000000000000000e+00 0.000000000000000e+00 0.000000000000000e+00
0.000000000000000e+00 0.000000000000000e+00 0.000000000000000e+00

0.000000000000000e+00 0.000000000000000e+00 0.000000000000000e+00
0.000000000000000e+00 0.000000000000000e+00 0.000000000000000e+00
0.000000000000000e+00 0.000000000000000e+00 0.000000000000000e+00

0.000000000000000e+00 0.000000000000000e+00 0.000000000000000e+00
0.000000000000000e+00 0.000000000000000e+00 0.000000000000000e+00
0.000000000000000e+00 0.000000000000000e+00 0.000000000000000e+00

0.000000000000000e+00 0.000000000000000e+00 0.000000000000000e+00
0.000000000000000e+00 0.000000000000000e+00 0.000000000000000e+00
0.000000000000000e+00 0.000000000000000e+00 0.000000000000000e+00

0.000000000000000e+00 0.000000000000000e+00 0.000000000000000e+00
0.000000000000000e+00 0.000000000000000e+00 0.000000000000000e+00
0.000000000000000e+00 0.000000000000000e+00 0.000000000000000e+00

0.000000000000000e+00 0.000000000000000e+00 0.000000000000000e+00
0.000000000000000e+00 0.000000000000000e+00 0.000000000000000e+00
0.000000000000000e+00 0.000000000000000e+00 0.000000000000000e+00

0.000000000000000e+00 0.000000000000000e+00 0.000000000000000e+00
0.000000000000000e+00 0.000000000000000e+00 0.000000000000000e+00
0.000000000000000e+00 0.000000000000000e+00 0.000000000000000e+00

0.000000000000000e+00 0.000000000000000e+00 0.000000000000000e+00
0.000000000000000e+00 0.000000000000000e+00 0.000000000000000e+00
0.000000000000000e+00 0.000000000000000e+00 0.000000000000000e+00

0.000000000000000e+00 0.000000000000000e+00 0.000000000000000e+00
0.000000000000000e+00 0.000000000000000e+00 0.000000000000000e+00
0.000000000000000e+00 0.000000000000000e+00 0.000000000000000e+00

0.000000000000000e+00 0.000000000000000e+00 0.000000000000000e+00
0.000000000000000e+00 0.000000000000000e+00 0.000000000000000e+00
0.000000000000000e+00 0.000000000000000e+00 0.000000000000000e+00

0.000000000000000e+00 0.000000000000000e+00 0.000000000000000e+00
0.000000000000000e+00 0.000000000000000e+00 0.000000000000000e+00
0.000000000000000e+00 0.000000000000000e+00 0.000000000000000e+00

0.000000000000000e+00 0.000000000000000e+00 0.000000000000000e+00
0.000000000000000e+00 0.000000000000000e+00 0.000000000000000e+00
0.000000000000000e+00 0.000000000000000e+00 0.000000000000000e+00

0.000000000000000e+00 0.000000000000000e+00 0.000000000000000e+00
0.000000000000000e+00 0.000000000000000e+00 0.000000000000000e+00
0.000000000000000e+00 0.000000000000000e+00 0.000000000000000e+00

0.000000000000000e+00 0.000000000000000e+00 0.000000000000000e+00
0.000000000000000e+00 0.000000000000000e+00 0.000000000000000e+00
0.000000000000000e+00 0.000000000000000e+00 0.000000000000000e+00

0.000000000000000e+00 0.000000000000000e+00 0.000000000000000e+00
0.000000000000000e+00 0.000000000000000e+00 0.000000000000000e+00
0.000000000000000e+00 0.000000000000000e+00 0.000000000000000e+00

0.000000000000000e+00 0.000000000000000e+00 0.000000000000000e+00
0.000000000000000e+00 0.000000000000000e+00 0.000000000000000e+00
0.000000000000000e+00 0.000000000000000e+00 0.000000000000000e+00

0.000000000000000e+00 0.000000000000000e+00 0.000000000000000e+00
0.000000000000000e+00 0.000000000000000e+00 0.000000000000000e+00
0.000000000000000e+00 0.000000000000000e+00 0.000000000000000e+00

0.000000000000000e+00 0.000000000000000e+00 0.000000000000000e+00
0.000000000000000e+00 0.000000000000000e+00 0.000000000000000e+00
0.000000000000000e+00 0.000000000000000e+00 0.000000000000000e+00

0.000000000000000e+00 0.000000000000000e+00 0.000000000000000e+00
0.000000000000000e+00 0.000000000000000e+00 0.000000000000000e+00
0.000000000000000e+00 0.000000000000000e+00 0.000000000000000e+00

0.000000000000000e+00 0.000000000000000e+00 0.000000000000000e+00
0.000000000000000e+00 0.000000000000000e+00 0.000000000000000e+00
0.000000000000000e+00 0.000000000000000e+00 0.000000000000000e+00

0.000000000000000e+00 0.000000000000000e+00 0.000000000000000e+00
0.000000000000000e+00 0.000000000000000e+00 0.000000000000000e+00
0.000000000000000e+00 0.000000000000000e+00 0.000000000000000e+00

0.000000000000000e+00 0.000000000000000e+00 0.000000000000000e+00
0.000000000000000e+00 0.000000000000000e+00 0.000000000000000e+00
0.000000000000000e+00 0.000000000000000e+00 0.000000000000000e+00

0.000000000000000e+00 0.000000000000000e+00 0.000000000000000e+00
0.000000000000000e+00 0.000000000000000e+00 0.000000000000000e+00
0.000000000000000e+00 0.000000000000000e+00 0.000000000000000e+00

0.000000000000000e+00 0.000000000000000e+00 0.000000000000000e+00
0.000000000000000e+00 0.000000000000000e+00 0.000000000000000e+00
0.000000000000000e+00 0.000000000000000e+00 0.000000000000000e+00

0.000000000000000e+00 0.000000000000000e+00 0.000000000000000e+00
0.000000000000000e+00 0.000000000000000e+00 0.000000000000000e+00
0.000000000000000e+00 0.000000000000000e+00 0.000000000000000e+00

0.000000000000000e+00 0.000000000000000e+00 0.000000000000000e+00
0.000000000000000e+00 0.000000000000000e+00 0.000000000000000e+00
0.000000000000000e+00 0.000000000000000e+00 0.000000000000000e+00

0.000000000000000e+00 0.000000000000000e+00 0.000000000000000e+00
0.000000000000000e+00 0.000000000000000e+00 0.000000000000000e+00
0.000000000000000e+00 0.000000000000000e+00 0.000000000000000e+00

0.000000000000000e+00 0.000000000000000e+00 0.000000000000000e+00
0.000000000000000e+00 0.000000000000000e+00 0.000000000000000e+00
0.000000000000000e+00 0.000000000000000e+00 0.000000000000000e+00

0.000000000000000e+00 0.000000000000000e+00 0.000000000000000e+00
0.000000000000000e+00 0.000000000000000e+00 0.000000000000000e+00
0.000000000000000e+00 0.000000000000000e+00 0.000000000000000e+00

0.000000000000000e+00 0.000000000000000e+00 0.000000000000000e+00
0.000000000000000e+00 0.000000000000000e+00 0.000000000000000e+00
0.000000000000000e+00 0.000000000000000e+00 0.000000000000000e+00

0.000000000000000e+00 0.000000000000000e+00 0.000000000000000e+00
0.000000000000000e+00 0.000000000000000e+00 0.000000000000000e+00
0.000000000000000e+00 0.000000000000000e+00 0.000000000000000e+00

0.000000000000000e+00 0.000000000000000e+00 0.000000000000000e+00
0.000000000000000e+00 0.000000000000000e+00 0.000000000000000e+00
0.000000000000000e+00 0.000000000000000e+00 0.000000000000000e+00

0.000000000000000e+00 0.000000000000000e+00 0.000000000000000e+00
0.000000000000000e+00 0.000000000000000e+00 0.000000000000000e+00
0.000000000000000e+00 0.000000000000000e+00 0.000000000000000e+00

0.000000000000000e+00 0.000000000000000e+00 0.000000000000000e+00
0.000000000000000e+00 0.000000000000000e+00 0.000000000000000e+00
0.000000000000000e+00 0.000000000000000e+00 0.000000000000000e+00

0.000000000000000e+00 0.000000000000000e+00 0.000000000000000e+00
0.000000000000000e+00 0.000000000000000e+00 0.000000000000000e+00
0.000000000000000e+00 0.000000000000000e+00 0.000000000000000e+00

0.000000000000000e+00 0.000000000000000e+00 0.000000000000000e+00
0.000000000000000e+00 0.000000000000000e+00 0.000000000000000e+00
0.000000000000000e+00 0.000000000000000e+00 0.000000000000000e+00

0.000000000000000e+00 0.000000000000000e+00 0.000000000000000e+00
0.000000000000000e+00 0.000000000000000e+00 0.000000000000000e+00
0.000000000000000e+00 0.000000000000000e+00 0.000000000000000e+00

0.000000000000000e+00 0.000000000000000e+00 0.000000000000000e+00
0.000000000000000e+00 0.000000000000000e+00 0.000000000000000e+00
0.000000000000000e+00 0.000000000000000e+00 0.000000000000000e+00

0.000000000000000e+00 0.000000000000000e+00 0.000000000000000e+00
0.000000000000000e+00 0.000000000000000e+00 0.000000000000000e+00
0.000000000000000e+00 0.000000000000000e+00 0.000000000000000e+00

0.000000000000000e+00 0.000000000000000e+00 0.000000000000000e+00
0.000000000000000e+00 0.000000000000000e+00 0.000000000000000e+00
0.000000000000000e+00 0.000000000000000e+00 0.000000000000000e+00

0.000000000000000e+00 0.000000000000000e+00 0.000000000000000e+00
0.000000000000000e+00 0.000000000000000e+00 0.000000000000000e+00
0.000000000000000e+00 0.000000000000000e+00 0.000000000000000e+00

0.000000000000000e+00 0.000000000000000e+00 0.000000000000000e+00
0.000000000000000e+00 0.000000000000000e+00 0.000000000000000e+00
0.000000000000000e+00 0.000000000000000e+00 0.000000000000000e+00

0.000000000000000e+00 0.000000000000000e+00 0.000000000000000e+00
0.000000000000000e+00 0.000000000000000e+00 0.000000000000000e+00
0.000000000000000e+00 0.000000000000000e+00 0.000000000000000e+00

0.000000000000000e+00 0.000000000000000e+00 0.000000000000000e+00
0.000000000000000e+00 0.000000000000000e+00 0.000000000000000e+00
0.000000000000000e+00 0.000000000000000e+00 0.000000000000000e+00

0.000000000000000e+00 0.000000000000000e+00 0.000000000000000e+00
0.000000000000000e+00 0.000000000000000e+00 0.000000000000000e+00
0.000000000000000e+00 0.000000000000000e+00 0.000000000000000e+00

0.000000000000000e+00 0.000000000000000e+00 0.000000000000000e+00
0.000000000000000e+00 0.000000000000000e+00 0.000000000000000e+00
0.000000000000000e+00 0.000000000000000e+00 0.000000000000000e+00

0.000000000000000e+00 0.000000000000000e+00 0.000000000000000e+00
0.000000000000000e+00 0.000000000000000e+00 0.000000000000000e+00
0.000000000000000e+00 0.000000000000000e+00 0.000000000000000e+00

0.000000000000000e+00 0.000000000000000e+00 0.000000000000000e+00
0.000000000000000e+00 0.000000000000000e+00 0.000000000000000e+00
0.000000000000000e+00 0.000000000000000e+00 0.000000000000000e+00

0.000000000000000e+00 0.000000000000000e+00 0.000000000000000e+00
0.000000000000000e+00 0.000000000000000e+00 0.000000000000000e+00
0.000000000000000e+00 0.000000000000000e+00 0.000000000000000e+00

0.000000000000000e+00 0.000000000000000e+00 0.000000000000000e+00
0.000000000000000e+00 0.000000000000000e+00 0.000000000000000e+00
0.000000000000000e+00 0.000000000000000e+00 0.000000000000000e+00

0.000000000000000e+00 0.000000000000000e+00 0.000000000000000e+00
0.000000000000000e+00 0.000000000000000e+00 0.000000000000000e+00
0.000000000000000e+00 0.000000000000000e+00 0.000000000000000e+00

0.000000000000000e+00 0.000000000000000e+00 0.000000000000000e+00
0.000000000000000e+00 0.000000000000000e+00 0.000000000000000e+00
0.000000000000000e+00 0.000000000000000e+00 0.000000000000000e+00

0.000000000000000e+00 0.000000000000000e+00 0.000000000000000e+00
0.000000000000000e+00 0.000000000000000e+00 0.000000000000000e+00
0.000000000000000e+00 0.000000000000000e+00 0.000000000000000e+00

0.000000000000000e+00 0.000000000000000e+00 0.000000000000000e+00
0.000000000000000e+00 0.000000000000000e+00 0.000000000000000e+00
0.000000000000000e+00 0.000000000000000e+00 0.000000000000000e+00

0.000000000000000e+00 0.000000000000000e+00 0.000000000000000e+00
0.000000000000000e+00 0.000000000000000e+00 0.000000000000000e+00
0.000000000000000e+00 0.000000000000000e+00 0.000000000000000e+00

0.000000000000000e+00 0.000000000000000e+00 0.000000000000000e+00
0.000000000000000e+00 0.000000000000000e+00 0.000000000000000e+00
0.000000000000000e+00 0.000000000000000e+00 0.000000000000000e+00

0.000000000000000e+00 0.000000000000000e+00 0.000000000000000e+00
0.000000000000000e+00 0.000000000000000e+00 0.000000000000000e+00
0.000000000000000e+00 0.000000000000000e+00 0.000000000000000e+00

0.000000000000000e+00 0.000000000000000e+00 0.000000000000000e+00
0.000000000000000e+00 0.000000000000000e+00 0.000000000000000e+00
0.000000000000000e+00 0.000000000000000e+00 0.000000000000000e+00

0.000000000000000e+00 0.000000000000000e+00 0.000000000000000e+00
0.000000000000000e+00 0.000000000000000e+00 0.000000000000000e+00
0.000000000000000e+00 0.000000000000000e+00 0.000000000000000e+00

0.000000000000000e+00 0.000000000000000e+00 0.000000000000000e+00
0.000000000000000e+00 0.000000000000000e+00 0.000000000000000e+00
0.000000000000000e+00 0.000000000000000e+00 0.000000000000000e+00

0.000000000000000e+00 0.000000000000000e+00 0.000000000000000e+00
0.000000000000000e+00 0.000000000000000e+00 0.000000000000000e+00
0.000000000000000e+00 0.000000000000000e+00 0.000000000000000e+00

0.000000000000000e+00 0.000000000000000e+00 0.000000000000000e+00
0.000000000000000e+00 0.000000000000000e+00 0.000000000000000e+00
0.000000000000000e+00 0.000000000000000e+00 0.000000000000000e+00

0.000000000000000e+00 0.000000000000000e+00 0.000000000000000e+00
0.000000000000000e+00 0.000000000000000e+00 0.000000000000000e+00
0.000000000000000e+00 0.000000000000000e+00 0.000000000000000e+00

0.000000000000000e+00 0.000000000000000e+00 0.000000000000000e+00
0.000000000000000e+00 0.000000000000000e+00 0.000000000000000e+00
0.000000000000000e+00 0.000000000000000e+00 0.000000000000000e+00

0.000000000000000e+00 0.000000000000000e+00 0.000000000000000e+00
0.000000000000000e+00 0.000000000000000e+00 0.000000000000000e+00
0.000000000000000e+00 0.000000000000000e+00 0.000000000000000e+00

0.000000000000000e+00 0.000000000000000e+00 0.000000000000000e+00
0.000000000000000e+00 0.000000000000000e+00 0.000000000000000e+00
0.000000000000000e+00 0.000000000000000e+00 0.000000000000000e+00

0.000000000000000e+00 0.000000000000000e+00 0.000000000000000e+00
0.000000000000000e+00 0.000000000000000e+00 0.000000000000000e+00
0.000000000000000e+00 0.000000000000000e+00 0.000000000000000e+00

0.000000000000000e+00 0.000000000000000e+00 0.000000000000000e+00
0.000000000000000e+00 0.000000000000000e+00 0.000000000000000e+00
0.000000000000000e+00 0.000000000000000e+00 0.000000000000000e+00

0.000000000000000e+00 0.000000000000000e+00 0.000000000000000e+00
0.000000000000000e+00 0.000000000000000e+00 0.000000000000000e+00
0.000000000000000e+00 0.000000000000000e+00 0.000000000000000e+00

0.000000000000000e+00 0.000000000000000e+00 0.000000000000000e+00
0.000000000000000e+00 0.000000000000000e+00 0.000000000000000e+00
0.000000000000000e+00 0.000000000000000e+00 0.000000000000000e+00

0.000000000000000e+00 0.000000000000000e+00 0.000000000000000e+00
0.000000000000000e+00 0.000000000000000e+00 0.000000000000000e+00
0.000000000000000e+00 0.000000000000000e+00 0.000000000000000e+00

0.000000000000000e+00 0.000000000000000e+00 0.000000000000000e+00
0.000000000000000e+00 0.000000000000000e+00 0.000000000000000e+00
0.000000000000000e+00 0.000000000000000e+00 0.000000000000000e+00

0.000000000000000e+00 0.000000000000000e+00 0.000000000000000e+00
0.000000000000000e+00 0.000000000000000e+00 0.000000000000000e+00
0.000000000000000e+00 0.000000000000000e+00 0.000000000000000e+00

0.000000000000000e+00 0.000000000000000e+00 0.000000000000000e+00
0.000000000000000e+00 0.000000000000000e+00 0.000000000000000e+00
0.000000000000000e+00 0.000000000000000e+00 0.000000000000000e+00

0.000000000000000e+00 0.000000000000000e+00 0.000000000000000e+00
0.000000000000000e+00 0.000000000000000e+00 0.000000000000000e+00
0.000000000000000e+00 0.000000000000000e+00 0.000000000000000e+00

0.000000000000000e+00 0.000000000000000e+00 0.000000000000000e+00
0.000000000000000e+00 0.000000000000000e+00 0.000000000000000e+00
0.000000000000000e+00 0.000000000000000e+00 0.000000000000000e+00

0.000000000000000e+00 0.000000000000000e+00 0.000000000000000e+00
0.000000000000000e+00 0.000000000000000e+00 0.000000000000000e+00
0.000000000000000e+00 0.000000000000000e+00 0.000000000000000e+00

0.000000000000000e+00 0.000000000000000e+00 0.000000000000000e+00
0.000000000000000e+00 0.000000000000000e+00 0.000000000000000e+00
0.000000000000000e+00 0.000000000000000e+00 0.000000000000000e+00

0.000000000000000e+00 0.000000000000000e+00 0.000000000000000e+00
0.000000000000000e+00 0.000000000000000e+00 0.000000000000000e+00
0.000000000000000e+00 0.000000000000000e+00 0.000000000000000e+00

0.000000000000000e+00 0.000000000000000e+00 0.000000000000000e+00
0.000000000000000e+00 0.000000000000000e+00 0.000000000000000e+00
0.000000000000000e+00 0.000000000000000e+00 0.000000000000000e+00

0.000000000000000e+00 0.000000000000000e+00 0.000000000000000e+00
0.000000000000000e+00 0.000000000000000e+00 0.000000000000000e+00
0.000000000000000e+00 0.000000000000000e+00 0.000000000000000e+00

0.000000000000000e+00 0.000000000000000e+00 0.000000000000000e+00
0.000000000000000e+00 0.000000000000000e+00 0.000000000000000e+00
0.000000000000000e+00 0.000000000000000e+00 0.000000000000000e+00

0.000000000000000e+00 0.000000000000000e+00 0.000000000000000e+00
0.000000000000000e+00 0.000000000000000e+00 0.000000000000000e+00
0.000000000000000e+00 0.000000000000000e+00 0.000000000000000e+00

0.000000000000000e+00 0.000000000000000e+00 0.000000000000000e+00
0.000000000000000e+00 0.000000000000000e+00 0.000000000000000e+00
0.000000000000000e+00 0.000000000000000e+00 0.000000000000000e+00

0.000000000000000e+00 0.000000000000000e+00 0.000000000000000e+00
0.000000000000000e+00 0.000000000000000e+00 0.000000000000000e+00
0.000000000000000e+00 0.000000000000000e+00 0.000000000000000e+00

0.000000000000000e+00 0.000000000000000e+00 0.000000000000000e+00
0.000000000000000e+00 0.000000000000000e+00 0.000000000000000e+00
0.000000000000000e+00 0.000000000000000e+00 0.000000000000000e+00

0.000000000000000e+00 0.000000000000000e+00 0.000000000000000e+00
0.000000000000000e+00 0.000000000000000e+00 0.000000000000000e+00
0.000000000000000e+00 0.000000000000000e+00 0.000000000000000e+00

0.000000000000000e+00 0.000000000000000e+00 0.000000000000000e+00
0.000000000000000e+00 0.000000000000000e+00 0.000000000000000e+00
0.000000000000000e+00 0.000000000000000e+00 0.000000000000000e+00

0.000000000000000e+00 0.000000000000000e+00 0.000000000000000e+00
0.000000000000000e+00 0.000000000000000e+00 0.000000000000000e+00
0.000000000000000e+00 0.000000000000000e+00 0.000000000000000e+00

0.000000000000000e+00 0.000000000000000e+00 0.000000000000000e+00
0.000000000000000e+00 0.000000000000000e+00 0.000000000000000e+00
0.000000000000000e+00 0.000000000000000e+00 0.000000000000000e+00

0.000000000000000e+00 0.000000000000000e+00 0.000000000000000e+00
0.000000000000000e+00 0.000000000000000e+00 0.000000000000000e+00
0.000000000000000e+00 0.000000000000000e+00 0.000000000000000e+00

0.000000000000000e+00 0.000000000000000e+00 0.000000000000000e+00
0.000000000000000e+00 0.000000000000000e+00 0.000000000000000e+00
0.000000000000000e+00 0.000000000000000e+00 0.000000000000000e+00

0.000000000000000e+00 0.000000000000000e+00 0.000000000000000e+00
0.000000000000000e+00 0.000000000000000e+00 0.000000000000000e+00
0.000000000000000e+00 0.000000000000000e+00 0.000000000000000e+00

0.000000000000000e+00 0.000000000000000e+00 0.000000000000000e+00
0.000000000000000e+00 0.000000000000000e+00 0.000000000000000e+00
0.000000000000000e+00 0.000000000000000e+00 0.000000000000000e+00

0.000000000000000e+00 0.000000000000000e+00 0.000000000000000e+00
0.000000000000000e+00 0.000000000000000e+00 0.000000000000000e+00
0.000000000000000e+00 0.000000000000000e+00 0.000000000000000e+00

0.000000000000000e+00 0.000000000000000e+00 0.000000000000000e+00
0.000000000000000e+00 0.000000000000000e+00 0.000000000000000e+00
0.000000000000000e+00 0.000000000000000e+00 0.000000000000000e+00

0.000000000000000e+00 0.000000000000000e+00 0.000000000000000e+00
0.000000000000000e+00 0.000000000000000e+00 0.000000000000000e+00
0.000000000000000e+00 0.000000000000000e+00 0.000000000000000e+00

0.000000000000000e+00 0.000000000000000e+00 0.000000000000000e+00
0.000000000000000e+00 0.000000000000000e+00 0.000000000000000e+00
0.000000000000000e+00 0.000000000000000e+00 0.000000000000000e+00

0.000000000000000e+00 0.000000000000000e+00 0.000000000000000e+00
0.000000000000000e+00 0.000000000000000e+00 0.000000000000000e+00
0.000000000000000e+00 0.000000000000000e+00 0.000000000000000e+00

0.000000000000000e+00 0.000000000000000e+00 0.000000000000000e+00
0.000000000000000e+00 0.000000000000000e+00 0.000000000000000e+00
0.000000000000000e+00 0.000000000000000e+00 0.000000000000000e+00

0.000000000000000e+00 0.000000000000000e+00 0.000000000000000e+00
0.000000000000000e+00 0.000000000000000e+00 0.000000000000000e+00
0.000000000000000e+00 0.000000000000000e+00 0.000000000000000e+00

0.000000000000000e+00 0.000000000000000e+00 0.000000000000000e+00
0.000000000000000e+00 0.000000000000000e+00 0.000000000000000e+00
0.000000000000000e+00 0.000000000000000e+00 0.000000000000000e+00

0.000000000000000e+00 0.000000000000000e+00 0.000000000000000e+00
0.000000000000000e+00 0.000000000000000e+00 0.000000000000000e+00
0.000000000000000e+00 0.000000000000000e+00 0.000000000000000e+00

0.000000000000000e+00 0.000000000000000e+00 0.000000000000000e+00
0.000000000000000e+00 0.000000000000000e+00 0.000000000000000e+00
0.000000000000000e+00 0.000000000000000e+00 0.000000000000000e+00

0.000000000000000e+00 0.000000000000000e+00 0.000000000000000e+00
0.000000000000000e+00 0.000000000000000e+00 0.000000000000000e+00
0.000000000000000e+00 0.000000000000000e+00 0.000000000000000e+00

0.000000000000000e+00 0.000000000000000e+00 0.000000000000000e+00
0.000000000000000e+00 0.000000000000000e+00 0.000000000000000e+00
0.000000000000000e+00 0.000000000000000e+00 0.000000000000000e+00

0.000000000000000e+00 0.000000000000000e+00 0.000000000000000e+00
0.000000000000000e+00 0.000000000000000e+00 0.000000000000000e+00
0.000000000000000e+00 0.000000000000000e+00 0.000000000000000e+00

0.000000000000000e+00 0.000000000000000e+00 0.000000000000000e+00
0.000000000000000e+00 0.000000000000000e+00 0.000000000000000e+00
0.000000000000000e+00 0.000000000000000e+00 0.000000000000000e+00

0.000000000000000e+00 0.000000000000000e+00 0.000000000000000e+00
0.000000000000000e+00 0.000000000000000e+00 0.000000000000000e+00
0.000000000000000e+00 0.000000000000000e+00 0.000000000000000e+00

0.000000000000000e+00 0.000000000000000e+00 0.000000000000000e+00
0.000000000000000e+00 0.000000000000000e+00 0.000000000000000e+00
0.000000000000000e+00 0.000000000000000e+00 0.000000000000000e+00

0.000000000000000e+00 0.000000000000000e+00 0.000000000000000e+00
0.000000000000000e+00 0.000000000000000e+00 0.000000000000000e+00
0.000000000000000e+00 0.000000000000000e+00 0.000000000000000e+00

0.000000000000000e+00 0.000000000000000e+00 0.000000000000000e+00
0.000000000000000e+00 0.000000000000000e+00 0.000000000000000e+00
0.000000000000000e+00 0.000000000000000e+00 0.000000000000000e+00

0.000000000000000e+00 0.000000000000000e+00 0.000000000000000e+00
0.000000000000000e+00 0.000000000000000e+00 0.000000000000000e+00
0.000000000000000e+00 0.000000000000000e+00 0.000000000000000e+00

0.000000000000000e+00 0.000000000000000e+00 0.000000000000000e+00
0.000000000000000e+00 0.000000000000000e+00 0.000000000000000e+00
0.000000000000000e+00 0.000000000000000e+00 0.000000000000000e+00

0.000000000000000e+00 0.000000000000000e+00 0.000000000000000e+00
0.000000000000000e+00 0.000000000000000e+00 0.000000000000000e+00
0.000000000000000e+00 0.000000000000000e+00 0.000000000000000e+00

0.000000000000000e+00 0.000000000000000e+00 0.000000000000000e+00
0.000000000000000e+00 0.000000000000000e+00 0.000000000000000e+00
0.000000000000000e+00 0.000000000000000e+00 0.000000000000000e+00

0.000000000000000e+00 0.000000000000000e+00 0.000000000000000e+00
0.000000000000000e+00 0.000000000000000e+00 0.000000000000000e+00
0.000000000000000e+00 0.000000000000000e+00 0.000000000000000e+00

0.000000000000000e+00 0.000000000000000e+00 0.000000000000000e+00
0.000000000000000e+00 0.000000000000000e+00 0.000000000000000e+00
0.000000000000000e+00 0.000000000000000e+00 0.000000000000000e+00

0.000000000000000e+00 0.000000000000000e+00 0.000000000000000e+00
0.000000000000000e+00 0.000000000000000e+00 0.000000000000000e+00
0.000000000000000e+00 0.000000000000000e+00 0.000000000000000e+00

0.000000000000000e+00 0.000000000000000e+00 0.000000000000000e+00
0.000000000000000e+00 0.000000000000000e+00 0.000000000000000e+00
0.000000000000000e+00 0.000000000000000e+00 0.000000000000000e+00

0.000000000000000e+00 0.000000000000000e+00 0.000000000000000e+00
0.000000000000000e+00 0.000000000000000e+00 0.000000000000000e+00
0.000000000000000e+00 0.000000000000000e+00 0.000000000000000e+00

0.000000000000000e+00 0.000000000000000e+00 0.000000000000000e+00
0.000000000000000e+00 0.000000000000000e+00 0.000000000000000e+00
0.000000000000000e+00 0.000000000000000e+00 0.000000000000000e+00

0.000000000000000e+00 0.000000000000000e+00 0.000000000000000e+00
0.000000000000000e+00 0.000000000000000e+00 0.000000000000000e+00
0.000000000000000e+00 0.000000000000000e+00 0.000000000000000e+00

0.000000000000000e+00 0.000000000000000e+00 0.000000000000000e+00
0.000000000000000e+00 0.000000000000000e+00 0.000000000000000e+00
0.000000000000000e+00 0.000000000000000e+00 0.000000000000000e+00

0.000000000000000e+00 0.000000000000000e+00 0.000000000000000e+00
0.000000000000000e+00 0.000000000000000e+00 0.000000000000000e+00
0.000000000000000e+00 0.000000000000000e+00 0.000000000000000e+00

0.000000000000000e+00 0.000000000000000e+00 0.000000000000000e+00
0.000000000000000e+00 0.000000000000000e+00 0.000000000000000e+00
0.000000000000000e+00 0.000000000000000e+00 0.000000000000000e+00

0.000000000000000e+00 0.000000000000000e+00 0.000000000000000e+00
0.000000000000000e+00 0.000000000000000e+00 0.000000000000000e+00
0.000000000000000e+00 0.000000000000000e+00 0.000000000000000e+00

0.000000000000000e+00 0.000000000000000e+00 0.000000000000000e+00
0.000000000000000e+00 0.000000000000000e+00 0.000000000000000e+00
0.000000000000000e+00 0.000000000000000e+00 0.000000000000000e+00

0.000000000000000e+00 0.000000000000000e+00 0.000000000000000e+00
0.000000000000000e+00 0.000000000000000e+00 0.000000000000000e+00
0.000000000000000e+00 0.000000000000000e+00 0.000000000000000e+00

0.000000000000000e+00 0.000000000000000e+00 0.000000000000000e+00
0.000000000000000e+00 0.000000000000000e+00 0.000000000000000e+00
0.000000000000000e+00 0.000000000000000e+00 0.000000000000000e+00

0.000000000000000e+00 0.000000000000000e+00 0.000000000000000e+00
0.000000000000000e+00 0.000000000000000e+00 0.000000000000000e+00
0.000000000000000e+00 0.000000000000000e+00 0.000000000000000e+00

0.000000000000000e+00 0.000000000000000e+00 0.000000000000000e+00
0.000000000000000e+00 0.000000000000000e+00 0.000000000000000e+00
0.000000000000000e+00 0.000000000000000e+00 0.000000000000000e+00

0.000000000000000e+00 0.000000000000000e+00 0.000000000000000e+00
0.000000000000000e+00 0.000000000000000e+00 0.000000000000000e+00
0.000000000000000e+00 0.000000000000000e+00 0.000000000000000e+00

0.000000000000000e+00 0.000000000000000e+00 0.000000000000000e+00
0.000000000000000e+00 0.000000000000000e+00 0.000000000000000e+00
0.000000000000000e+00 0.000000000000000e+00 0.000000000000000e+00

0.000000000000000e+00 0.000000000000000e+00 0.000000000000000e+00
0.000000000000000e+00 0.000000000000000e+00 0.000000000000000e+00
0.000000000000000e+00 0.000000000000000e+00 0.000000000000000e+00

0.000000000000000e+00 0.000000000000000e+00 0.000000000000000e+00
0.000000000000000e+00 0.000000000000000e+00 0.000000000000000e+00
0.000000000000000e+00 0.000000000000000e+00 0.000000000000000e+00

0.000000000000000e+00 0.000000000000000e+00 0.000000000000000e+00
0.000000000000000e+00 0.000000000000000e+00 0.000000000000000e+00
0.000000000000000e+00 0.000000000000000e+00 0.000000000000000e+00

0.000000000000000e+00 0.000000000000000e+00 0.000000000000000e+00
0.000000000000000e+00 0.000000000000000e+00 0.000000000000000e+00
0.000000000000000e+00 0.000000000000000e+00 0.000000000000000e+00

0.000000000000000e+00 0.000000000000000e+00 0.000000000000000e+00
0.000000000000000e+00 0.000000000000000e+00 0.000000000000000e+00
0.000000000000000e+00 0.000000000000000e+00 0.000000000000000e+00

0.000000000000000e+00 0.000000000000000e+00 0.000000000000000e+00
0.000000000000000e+00 0.000000000000000e+00 0.000000000000000e+00
0.000000000000000e+00 0.000000000000000e+00 0.000000000000000e+00

0.000000000000000e+00 0.000000000000000e+00 0.000000000000000e+00
0.000000000000000e+00 0.000000000000000e+00 0.000000000000000e+00
0.000000000000000e+00 0.000000000000000e+00 0.000000000000000e+00

0.000000000000000e+00 0.000000000000000e+00 0.000000000000000e+00
0.000000000000000e+00 0.000000000000000e+00 0.000000000000000e+00
0.000000000000000e+00 0.000000000000000e+00 0.000000000000000e+00

0.000000000000000e+00 0.000000000000000e+00 0.000000000000000e+00
0.000000000000000e+00 0.000000000000000e+00 0.000000000000000e+00
0.000000000000000e+00 0.000000000000000e+00 0.000000000000000e+00

0.000000000000000e+00 0.000000000000000e+00 0.000000000000000e+00
0.000000000000000e+00 0.000000000000000e+00 0.000000000000000e+00
0.000000000000000e+00 0.000000000000000e+00 0.000000000000000e+00

0.000000000000000e+00 0.000000000000000e+00 0.000000000000000e+00
0.000000000000000e+00 0.000000000000000e+00 0.000000000000000e+00
0.000000000000000e+00 0.000000000000000e+00 0.000000000000000e+00

0.000000000000000e+00 0.000000000000000e+00 0.000000000000000e+00
0.000000000000000e+00 0.000000000000000e+00 0.000000000000000e+00
0.000000000000000e+00 0.000000000000000e+00 0.000000000000000e+00

0.000000000000000e+00 0.000000000000000e+00 0.000000000000000e+00
0.000000000000000e+00 0.000000000000000e+00 0.000000000000000e+00
0.000000000000000e+00 0.000000000000000e+00 0.000000000000000e+00

0.000000000000000e+00 0.000000000000000e+00 0.000000000000000e+00
0.000000000000000e+00 0.000000000000000e+00 0.000000000000000e+00
0.000000000000000e+00 0.000000000000000e+00 0.000000000000000e+00

0.000000000000000e+00 0.000000000000000e+00 0.000000000000000e+00
0.000000000000000e+00 0.000000000000000e+00 0.000000000000000e+00
0.000000000000000e+00 0.000000000000000e+00 0.000000000000000e+00

0.000000000000000e+00 0.000000000000000e+00 0.000000000000000e+00
0.000000000000000e+00 0.000000000000000e+00 0.000000000000000e+00
0.000000000000000e+00 0.000000000000000e+00 0.000000000000000e+00

0.000000000000000e+00 0.000000000000000e+00 0.000000000000000e+00
0.000000000000000e+00 0.000000000000000e+00 0.000000000000000e+00
0.000000000000000e+00 0.000000000000000e+00 0.000000000000000e+00

0.000000000000000e+00 0.000000000000000e+00 0.000000000000000e+00
0.000000000000000e+00 0.000000000000000e+00 0.000000000000000e+00
0.000000000000000e+00 0.000000000000000e+00 0.000000000000000e+00

0.000000000000000e+00 0.000000000000000e+00 0.000000000000000e+00
0.000000000000000e+00 0.000000000000000e+00 0.000000000000000e+00
0.000000000000000e+00 0.000000000000000e+00 0.000000000000000e+00

0.000000000000000e+00 0.000000000000000e+00 0.000000000000000e+00
0.000000000000000e+00 0.000000000000000e+00 0.000000000000000e+00
0.000000000000000e+00 0.000000000000000e+00 0.000000000000000e+00

0.000000000000000e+00 0.000000000000000e+00 0.000000000000000e+00
0.000000000000000e+00 0.000000000000000e+00 0.000000000000000e+00
0.000000000000000e+00 0.000000000000000e+00 0.000000000000000e+00

0.000000000000000e+00 0.000000000000000e+00 0.000000000000000e+00
0.000000000000000e+00 0.000000000000000e+00 0.000000000000000e+00
0.000000000000000e+00 0.000000000000000e+00 0.000000000000000e+00

0.000000000000000e+00 0.000000000000000e+00 0.000000000000000e+00
0.000000000000000e+00 0.000000000000000e+00 0.000000000000000e+00
0.000000000000000e+00 0.000000000000000e+00 0.000000000000000e+00

0.000000000000000e+00 0.000000000000000e+00 0.000000000000000e+00
0.000000000000000e+00 0.000000000000000e+00 0.000000000000000e+00
0.000000000000000e+00 0.000000000000000e+00 0.000000000000000e+00

0.000000000000000e+00 0.000000000000000e+00 0.000000000000000e+00
0.000000000000000e+00 0.000000000000000e+00 0.000000000000000e+00
0.000000000000000e+00 0.000000000000000e+00 0.000000000000000e+00

0.000000000000000e+00 0.000000000000000e+00 0.000000000000000e+00
0.000000000000000e+00 0.000000000000000e+00 0.000000000000000e+00
0.000000000000000e+00 0.000000000000000e+00 0.000000000000000e+00

0.000000000000000e+00 0.000000000000000e+00 0.000000000000000e+00
0.000000000000000e+00 0.000000000000000e+00 0.000000000000000e+00
0.000000000000000e+00 0.000000000000000e+00 0.000000000000000e+00

0.000000000000000e+00 0.000000000000000e+00 0.000000000000000e+00
0.000000000000000e+00 0.000000000000000e+00 0.000000000000000e+00
0.000000000000000e+00 0.000000000000000e+00 0.000000000000000e+00

0.000000000000000e+00 0.000000000000000e+00 0.000000000000000e+00
0.000000000000000e+00 0.000000000000000e+00 0.000000000000000e+00
0.000000000000000e+00 0.000000000000000e+00 0.000000000000000e+00

0.000000000000000e+00 0.000000000000000e+00 0.000000000000000e+00
0.000000000000000e+00 0.000000000000000e+00 0.000000000000000e+00
0.000000000000000e+00 0.000000000000000e+00 0.000000000000000e+00

0.000000000000000e+00 0.000000000000000e+00 0.000000000000000e+00
0.000000000000000e+00 0.000000000000000e+00 0.000000000000000e+00
0.000000000000000e+00 0.000000000000000e+00 0.000000000000000e+00

0.000000000000000e+00 0.000000000000000e+00 0.000000000000000e+00
0.000000000000000e+00 0.000000000000000e+00 0.000000000000000e+00
0.000000000000000e+00 0.000000000000000e+00 0.000000000000000e+00

0.000000000000000e+00 0.000000000000000e+00 0.000000000000000e+00
0.000000000000000e+00 0.000000000000000e+00 0.000000000000000e+00
0.000000000000000e+00 0.000000000000000e+00 0.000000000000000e+00

0.000000000000000e+00 0.000000000000000e+00 0.000000000000000e+00
0.000000000000000e+00 0.000000000000000e+00 0.000000000000000e+00
0.000000000000000e+00 0.000000000000000e+00 0.000000000000000e+00

0.000000000000000e+00 0.000000000000000e+00 0.000000000000000e+00
0.000000000000000e+00 0.000000000000000e+00 0.000000000000000e+00
0.000000000000000e+00 0.000000000000000e+00 0.000000000000000e+00

0.000000000000000e+00 0.000000000000000e+00 0.000000000000000e+00
0.000000000000000e+00 0.000000000000000e+00 0.000000000000000e+00
0.000000000000000e+00 0.000000000000000e+00 0.000000000000000e+00

0.000000000000000e+00 0.000000000000000e+00 0.000000000000000e+00
0.000000000000000e+00 0.000000000000000e+00 0.000000000000000e+00
0.000000000000000e+00 0.000000000000000e+00 0.000000000000000e+00

0.000000000000000e+00 0.000000000000000e+00 0.000000000000000e+00
0.000000000000000e+00 0.000000000000000e+00 0.000000000000000e+00
0.000000000000000e+00 0.000000000000000e+00 0.000000000000000e+00

0.000000000000000e+00 0.000000000000000e+00 0.000000000000000e+00
0.000000000000000e+00 0.000000000000000e+00 0.000000000000000e+00
0.000000000000000e+00 0.000000000000000e+00 0.000000000000000e+00

0.000000000000000e+00 0.000000000000000e+00 0.000000000000000e+00
0.000000000000000e+00 0.000000000000000e+00 0.000000000000000e+00
0.000000000000000e+00 0.000000000000000e+00 0.000000000000000e+00

0.000000000000000e+00 0.000000000000000e+00 0.000000000000000e+00
0.000000000000000e+00 0.000000000000000e+00 0.000000000000000e+00
0.000000000000000e+00 0.000000000000000e+00 0.000000000000000e+00

0.000000000000000e+00 0.000000000000000e+00 0.000000000000000e+00
0.000000000000000e+00 0.000000000000000e+00 0.000000000000000e+00
0.000000000000000e+00 0.000000000000000e+00 0.000000000000000e+00

0.000000000000000e+00 0.000000000000000e+00 0.000000000000000e+00
0.000000000000000e+00 0.000000000000000e+00 0.000000000000000e+00
0.000000000000000e+00 0.000000000000000e+00 0.000000000000000e+00

0.000000000000000e+00 0.000000000000000e+00 0.000000000000000e+00
0.000000000000000e+00 0.000000000000000e+00 0.000000000000000e+00
0.000000000000000e+00 0.000000000000000e+00 0.000000000000000e+00

0.000000000000000e+00 0.000000000000000e+00 0.000000000000000e+00
0.000000000000000e+00 0.000000000000000e+00 0.000000000000000e+00
0.000000000000000e+00 0.000000000000000e+00 0.000000000000000e+00

0.000000000000000e+00 0.000000000000000e+00 0.000000000000000e+00
0.000000000000000e+00 0.000000000000000e+00 0.000000000000000e+00
0.000000000000000e+00 0.000000000000000e+00 0.000000000000000e+00

0.000000000000000e+00 0.000000000000000e+00 0.000000000000000e+00
0.000000000000000e+00 0.000000000000000e+00 0.000000000000000e+00
0.000000000000000e+00 0.000000000000000e+00 0.000000000000000e+00

0.000000000000000e+00 0.000000000000000e+00 0.000000000000000e+00
0.000000000000000e+00 0.000000000000000e+00 0.000000000000000e+00
0.000000000000000e+00 0.000000000000000e+00 0.000000000000000e+00

0.000000000000000e+00 0.000000000000000e+00 0.000000000000000e+00
0.000000000000000e+00 0.000000000000000e+00 0.000000000000000e+00
0.000000000000000e+00 0.000000000000000e+00 0.000000000000000e+00

0.000000000000000e+00 0.000000000000000e+00 0.000000000000000e+00
0.000000000000000e+00 0.000000000000000e+00 0.000000000000000e+00
0.000000000000000e+00 0.000000000000000e+00 0.000000000000000e+00

0.000000000000000e+00 0.000000000000000e+00 0.000000000000000e+00
0.000000000000000e+00 0.000000000000000e+00 0.000000000000000e+00
0.000000000000000e+00 0.000000000000000e+00 0.000000000000000e+00

0.000000000000000e+00 0.000000000000000e+00 0.000000000000000e+00
0.000000000000000e+00 0.000000000000000e+00 0.000000000000000e+00
0.000000000000000e+00 0.000000000000000e+00 0.000000000000000e+00

0.000000000000000e+00 0.000000000000000e+00 0.000000000000000e+00
0.000000000000000e+00 0.000000000000000e+00 0.000000000000000e+00
0.000000000000000e+00 0.000000000000000e+00 0.000000000000000e+00

0.000000000000000e+00 0.000000000000000e+00 0.000000000000000e+00
0.000000000000000e+00 0.000000000000000e+00 0.000000000000000e+00
0.000000000000000e+00 0.000000000000000e+00 0.000000000000000e+00

0.000000000000000e+00 0.000000000000000e+00 0.000000000000000e+00
0.000000000000000e+00 0.000000000000000e+00 0.000000000000000e+00
0.000000000000000e+00 0.000000000000000e+00 0.000000000000000e+00

0.000000000000000e+00 0.000000000000000e+00 0.000000000000000e+00
0.000000000000000e+00 0.000000000000000e+00 0.000000000000000e+00
0.000000000000000e+00 0.000000000000000e+00 0.000000000000000e+00

0.000000000000000e+00 0.000000000000000e+00 0.000000000000000e+00
0.000000000000000e+00 0.000000000000000e+00 0.000000000000000e+00
0.000000000000000e+00 0.000000000000000e+00 0.000000000000000e+00

0.000000000000000e+00 0.000000000000000e+00 0.000000000000000e+00
0.000000000000000e+00 0.000000000000000e+00 0.000000000000000e+00
0.000000000000000e+00 0.000000000000000e+00 0.000000000000000e+00

0.000000000000000e+00 0.000000000000000e+00 0.000000000000000e+00
0.000000000000000e+00 0.000000000000000e+00 0.000000000000000e+00
0.000000000000000e+00 0.000000000000000e+00 0.000000000000000e+00

0.000000000000000e+00 0.000000000000000e+00 0.000000000000000e+00
0.000000000000000e+00 0.000000000000000e+00 0.000000000000000e+00
0.000000000000000e+00 0.000000000000000e+00 0.000000000000000e+00

0.000000000000000e+00 0.000000000000000e+00 0.000000000000000e+00
0.000000000000000e+00 0.000000000000000e+00 0.000000000000000e+00
0.000000000000000e+00 0.000000000000000e+00 0.000000000000000e+00

0.000000000000000e+00 0.000000000000000e+00 0.000000000000000e+00
0.000000000000000e+00 0.000000000000000e+00 0.000000000000000e+00
0.000000000000000e+00 0.000000000000000e+00 0.000000000000000e+00

0.000000000000000e+00 0.000000000000000e+00 0.000000000000000e+00
0.000000000000000e+00 0.000000000000000e+00 0.000000000000000e+00
0.000000000000000e+00 0.000000000000000e+00 0.000000000000000e+00

0.000000000000000e+00 0.000000000000000e+00 0.000000000000000e+00
0.000000000000000e+00 0.000000000000000e+00 0.000000000000000e+00
0.000000000000000e+00 0.000000000000000e+00 0.000000000000000e+00

0.000000000000000e+00 0.000000000000000e+00 0.000000000000000e+00
0.000000000000000e+00 0.000000000000000e+00 0.000000000000000e+00
0.000000000000000e+00 0.000000000000000e+00 0.000000000000000e+00

0.000000000000000e+00 0.000000000000000e+00 0.000000000000000e+00
0.000000000000000e+00 0.000000000000000e+00 0.000000000000000e+00
0.000000000000000e+00 0.000000000000000e+00 0.000000000000000e+00

0.000000000000000e+00 0.000000000000000e+00 0.000000000000000e+00
0.000000000000000e+00 0.000000000000000e+00 0.000000000000000e+00
0.000000000000000e+00 0.000000000000000e+00 0.000000000000000e+00

0.000000000000000e+00 0.000000000000000e+00 0.000000000000000e+00
0.000000000000000e+00 0.000000000000000e+00 0.000000000000000e+00
0.000000000000000e+00 0.000000000000000e+00 0.000000000000000e+00

0.000000000000000e+00 0.000000000000000e+00 0.000000000000000e+00
0.000000000000000e+00 0.000000000000000e+00 0.000000000000000e+00
0.000000000000000e+00 0.000000000000000e+00 0.000000000000000e+00

0.000000000000000e+00 0.000000000000000e+00 0.000000000000000e+00
0.000000000000000e+00 0.000000000000000e+00 0.000000000000000e+00
0.000000000000000e+00 0.000000000000000e+00 0.000000000000000e+00

0.000000000000000e+00 0.000000000000000e+00 0.000000000000000e+00
0.000000000000000e+00 0.000000000000000e+00 0.000000000000000e+00
0.000000000000000e+00 0.000000000000000e+00 0.000000000000000e+00

0.000000000000000e+00 0.000000000000000e+00 0.000000000000000e+00
0.000000000000000e+00 0.000000000000000e+00 0.000000000000000e+00
0.000000000000000e+00 0.000000000000000e+00 0.000000000000000e+00

0.000000000000000e+00 0.000000000000000e+00 0.000000000000000e+00
0.000000000000000e+00 0.000000000000000e+00 0.000000000000000e+00
0.000000000000000e+00 0.000000000000000e+00 0.000000000000000e+00

0.000000000000000e+00 0.000000000000000e+00 0.000000000000000e+00
0.000000000000000e+00 0.000000000000000e+00 0.000000000000000e+00
0.000000000000000e+00 0.000000000000000e+00 0.000000000000000e+00

0.000000000000000e+00 0.000000000000000e+00 0.000000000000000e+00
0.000000000000000e+00 0.000000000000000e+00 0.000000000000000e+00
0.000000000000000e+00 0.000000000000000e+00 0.000000000000000e+00

0.000000000000000e+00 0.000000000000000e+00 0.000000000000000e+00
0.000000000000000e+00 0.000000000000000e+00 0.000000000000000e+00
0.000000000000000e+00 0.000000000000000e+00 0.000000000000000e+00

0.000000000000000e+00 0.000000000000000e+00 0.000000000000000e+00
0.000000000000000e+00 0.000000000000000e+00 0.000000000000000e+00
0.000000000000000e+00 0.000000000000000e+00 0.000000000000000e+00

0.000000000000000e+00 0.000000000000000e+00 0.000000000000000e+00
0.000000000000000e+00 0.000000000000000e+00 0.000000000000000e+00
0.000000000000000e+00 0.000000000000000e+00 0.000000000000000e+00

0.000000000000000e+00 0.000000000000000e+00 0.000000000000000e+00
0.000000000000000e+00 0.000000000000000e+00 0.000000000000000e+00
0.000000000000000e+00 0.000000000000000e+00 0.000000000000000e+00

0.000000000000000e+00 0.000000000000000e+00 0.000000000000000e+00
0.000000000000000e+00 0.000000000000000e+00 0.000000000000000e+00
0.000000000000000e+00 0.000000000000000e+00 0.000000000000000e+00

0.000000000000000e+00 0.000000000000000e+00 0.000000000000000e+00
0.000000000000000e+00 0.000000000000000e+00 0.000000000000000e+00
0.000000000000000e+00 0.000000000000000e+00 0.000000000000000e+00

0.000000000000000e+00 0.000000000000000e+00 0.000000000000000e+00
0.000000000000000e+00 0.000000000000000e+00 0.000000000000000e+00
0.000000000000000e+00 0.000000000000000e+00 0.000000000000000e+00

0.000000000000000e+00 0.000000000000000e+00 0.000000000000000e+00
0.000000000000000e+00 0.000000000000000e+00 0.000000000000000e+00
0.000000000000000e+00 0.000000000000000e+00 0.000000000000000e+00

0.000000000000000e+00 0.000000000000000e+00 0.000000000000000e+00
0.000000000000000e+00 0.000000000000000e+00 0.000000000000000e+00
0.000000000000000e+00 0.000000000000000e+00 0.000000000000000e+00

0.000000000000000e+00 0.000000000000000e+00 0.000000000000000e+00
0.000000000000000e+00 0.000000000000000e+00 0.000000000000000e+00
0.000000000000000e+00 0.000000000000000e+00 0.000000000000000e+00

0.000000000000000e+00 0.000000000000000e+00 0.000000000000000e+00
0.000000000000000e+00 0.000000000000000e+00 0.000000000000000e+00
0.000000000000000e+00 0.000000000000000e+00 0.000000000000000e+00

0.000000000000000e+00 0.000000000000000e+00 0.000000000000000e+00
0.000000000000000e+00 0.000000000000000e+00 0.000000000000000e+00
0.000000000000000e+00 0.000000000000000e+00 0.000000000000000e+00

0.000000000000000e+00 0.000000000000000e+00 0.000000000000000e+00
0.000000000000000e+00 0.000000000000000e+00 0.000000000000000e+00
0.000000000000000e+00 0.000000000000000e+00 0.000000000000000e+00

0.000000000000000e+00 0.000000000000000e+00 0.000000000000000e+00
0.000000000000000e+00 0.000000000000000e+00 0.000000000000000e+00
0.000000000000000e+00 0.000000000000000e+00 0.000000000000000e+00

0.000000000000000e+00 0.000000000000000e+00 0.000000000000000e+00
0.000000000000000e+00 0.000000000000000e+00 0.000000000000000e+00
0.000000000000000e+00 0.000000000000000e+00 0.000000000000000e+00

0.000000000000000e+00 0.000000000000000e+00 0.000000000000000e+00
0.000000000000000e+00 0.000000000000000e+00 0.000000000000000e+00
0.000000000000000e+00 0.000000000000000e+00 0.000000000000000e+00

0.000000000000000e+00 0.000000000000000e+00 0.000000000000000e+00
0.000000000000000e+00 0.000000000000000e+00 0.000000000000000e+00
0.000000000000000e+00 0.000000000000000e+00 0.000000000000000e+00

0.000000000000000e+00 0.000000000000000e+00 0.000000000000000e+00
0.000000000000000e+00 0.000000000000000e+00 0.000000000000000e+00
0.000000000000000e+00 0.000000000000000e+00 0.000000000000000e+00

0.000000000000000e+00 0.000000000000000e+00 0.000000000000000e+00
0.000000000000000e+00 0.000000000000000e+00 0.000000000000000e+00
0.000000000000000e+00 0.000000000000000e+00 0.000000000000000e+00

0.000000000000000e+00 0.000000000000000e+00 0.000000000000000e+00
0.000000000000000e+00 0.000000000000000e+00 0.000000000000000e+00
0.000000000000000e+00 0.000000000000000e+00 0.000000000000000e+00

0.000000000000000e+00 0.000000000000000e+00 0.000000000000000e+00
0.000000000000000e+00 0.000000000000000e+00 0.000000000000000e+00
0.000000000000000e+00 0.000000000000000e+00 0.000000000000000e+00

0.000000000000000e+00 0.000000000000000e+00 0.000000000000000e+00
0.000000000000000e+00 0.000000000000000e+00 0.000000000000000e+00
0.000000000000000e+00 0.000000000000000e+00 0.000000000000000e+00

0.000000000000000e+00 0.000000000000000e+00 0.000000000000000e+00
0.000000000000000e+00 0.000000000000000e+00 0.000000000000000e+00
0.000000000000000e+00 0.000000000000000e+00 0.000000000000000e+00

0.000000000000000e+00 0.000000000000000e+00 0.000000000000000e+00
0.000000000000000e+00 0.000000000000000e+00 0.000000000000000e+00
0.000000000000000e+00 0.000000000000000e+00 0.000000000000000e+00

0.000000000000000e+00 0.000000000000000e+00 0.000000000000000e+00
0.000000000000000e+00 0.000000000000000e+00 0.000000000000000e+00
0.000000000000000e+00 0.000000000000000e+00 0.000000000000000e+00

0.000000000000000e+00 0.000000000000000e+00 0.000000000000000e+00
0.000000000000000e+00 0.000000000000000e+00 0.000000000000000e+00
0.000000000000000e+00 0.000000000000000e+00 0.000000000000000e+00

0.000000000000000e+00 0.000000000000000e+00 0.000000000000000e+00
0.000000000000000e+00 0.000000000000000e+00 0.000000000000000e+00
0.000000000000000e+00 0.000000000000000e+00 0.000000000000000e+00

0.000000000000000e+00 0.000000000000000e+00 0.000000000000000e+00
0.000000000000000e+00 0.000000000000000e+00 0.000000000000000e+00
0.000000000000000e+00 0.000000000000000e+00 0.000000000000000e+00

0.000000000000000e+00 0.000000000000000e+00 0.000000000000000e+00
0.000000000000000e+00 0.000000000000000e+00 0.000000000000000e+00
0.000000000000000e+00 0.000000000000000e+00 0.000000000000000e+00

0.000000000000000e+00 0.000000000000000e+00 0.000000000000000e+00
0.000000000000000e+00 0.000000000000000e+00 0.000000000000000e+00
0.000000000000000e+00 0.000000000000000e+00 0.000000000000000e+00

0.000000000000000e+00 0.000000000000000e+00 0.000000000000000e+00
0.000000000000000e+00 0.000000000000000e+00 0.000000000000000e+00
0.000000000000000e+00 0.000000000000000e+00 0.000000000000000e+00

0.000000000000000e+00 0.000000000000000e+00 0.000000000000000e+00
0.000000000000000e+00 0.000000000000000e+00 0.000000000000000e+00
0.000000000000000e+00 0.000000000000000e+00 0.000000000000000e+00

0.000000000000000e+00 0.000000000000000e+00 0.000000000000000e+00
0.000000000000000e+00 0.000000000000000e+00 0.000000000000000e+00
0.000000000000000e+00 0.000000000000000e+00 0.000000000000000e+00

0.000000000000000e+00 0.000000000000000e+00 0.000000000000000e+00
0.000000000000000e+00 0.000000000000000e+00 0.000000000000000e+00
0.000000000000000e+00 0.000000000000000e+00 0.000000000000000e+00

0.000000000000000e+00 0.000000000000000e+00 0.000000000000000e+00
0.000000000000000e+00 0.000000000000000e+00 0.000000000000000e+00
0.000000000000000e+00 0.000000000000000e+00 0.000000000000000e+00

0.000000000000000e+00 0.000000000000000e+00 0.000000000000000e+00
0.000000000000000e+00 0.000000000000000e+00 0.000000000000000e+00
0.000000000000000e+00 0.000000000000000e+00 0.000000000000000e+00

0.000000000000000e+00 0.000000000000000e+00 0.000000000000000e+00
0.000000000000000e+00 0.000000000000000e+00 0.000000000000000e+00
0.000000000000000e+00 0.000000000000000e+00 0.000000000000000e+00

0.000000000000000e+00 0.000000000000000e+00 0.000000000000000e+00
0.000000000000000e+00 0.000000000000000e+00 0.000000000000000e+00
0.000000000000000e+00 0.000000000000000e+00 0.000000000000000e+00

0.000000000000000e+00 0.000000000000000e+00 0.000000000000000e+00
0.000000000000000e+00 0.000000000000000e+00 0.000000000000000e+00
0.000000000000000e+00 0.000000000000000e+00 0.000000000000000e+00

0.000000000000000e+00 0.000000000000000e+00 0.000000000000000e+00
0.000000000000000e+00 0.000000000000000e+00 0.000000000000000e+00
0.000000000000000e+00 0.000000000000000e+00 0.000000000000000e+00

0.000000000000000e+00 0.000000000000000e+00 0.000000000000000e+00
0.000000000000000e+00 0.000000000000000e+00 0.000000000000000e+00
0.000000000000000e+00 0.000000000000000e+00 0.000000000000000e+00

0.000000000000000e+00 0.000000000000000e+00 0.000000000000000e+00
0.000000000000000e+00 0.000000000000000e+00 0.000000000000000e+00
0.000000000000000e+00 0.000000000000000e+00 0.000000000000000e+00

0.000000000000000e+00 0.000000000000000e+00 0.000000000000000e+00
0.000000000000000e+00 0.000000000000000e+00 0.000000000000000e+00
0.000000000000000e+00 0.000000000000000e+00 0.000000000000000e+00

0.000000000000000e+00 0.000000000000000e+00 0.000000000000000e+00
0.000000000000000e+00 0.000000000000000e+00 0.000000000000000e+00
0.000000000000000e+00 0.000000000000000e+00 0.000000000000000e+00

0.000000000000000e+00 0.000000000000000e+00 0.000000000000000e+00
0.000000000000000e+00 0.000000000000000e+00 0.000000000000000e+00
0.000000000000000e+00 0.000000000000000e+00 0.000000000000000e+00

0.000000000000000e+00 0.000000000000000e+00 0.000000000000000e+00
0.000000000000000e+00 0.000000000000000e+00 0.000000000000000e+00
0.000000000000000e+00 0.000000000000000e+00 0.000000000000000e+00

0.000000000000000e+00 0.000000000000000e+00 0.000000000000000e+00
0.000000000000000e+00 0.000000000000000e+00 0.000000000000000e+00
0.000000000000000e+00 0.000000000000000e+00 0.000000000000000e+00

0.000000000000000e+00 0.000000000000000e+00 0.000000000000000e+00
0.000000000000000e+00 0.000000000000000e+00 0.000000000000000e+00
0.000000000000000e+00 0.000000000000000e+00 0.000000000000000e+00

0.000000000000000e+00 0.000000000000000e+00 0.000000000000000e+00
0.000000000000000e+00 0.000000000000000e+00 0.000000000000000e+00
0.000000000000000e+00 0.000000000000000e+00 0.000000000000000e+00

0.000000000000000e+00 0.000000000000000e+00 0.000000000000000e+00
0.000000000000000e+00 0.000000000000000e+00 0.000000000000000e+00
0.000000000000000e+00 0.000000000000000e+00 0.000000000000000e+00

0.000000000000000e+00 0.000000000000000e+00 0.000000000000000e+00
0.000000000000000e+00 0.000000000000000e+00 0.000000000000000e+00
0.000000000000000e+00 0.000000000000000e+00 0.000000000000000e+00

0.000000000000000e+00 0.000000000000000e+00 0.000000000000000e+00
0.000000000000000e+00 0.000000000000000e+00 0.000000000000000e+00
0.000000000000000e+00 0.000000000000000e+00 0.000000000000000e+00

0.000000000000000e+00 0.000000000000000e+00 0.000000000000000e+00
0.000000000000000e+00 0.000000000000000e+00 0.000000000000000e+00
0.000000000000000e+00 0.000000000000000e+00 0.000000000000000e+00

0.000000000000000e+00 0.000000000000000e+00 0.000000000000000e+00
0.000000000000000e+00 0.000000000000000e+00 0.000000000000000e+00
0.000000000000000e+00 0.000000000000000e+00 0.000000000000000e+00

0.000000000000000e+00 0.000000000000000e+00 0.000000000000000e+00
0.000000000000000e+00 0.000000000000000e+00 0.000000000000000e+00
0.000000000000000e+00 0.000000000000000e+00 0.000000000000000e+00

0.000000000000000e+00 0.000000000000000e+00 0.000000000000000e+00
0.000000000000000e+00 0.000000000000000e+00 0.000000000000000e+00
0.000000000000000e+00 0.000000000000000e+00 0.000000000000000e+00

0.000000000000000e+00 0.000000000000000e+00 0.000000000000000e+00
0.000000000000000e+00 0.000000000000000e+00 0.000000000000000e+00
0.000000000000000e+00 0.000000000000000e+00 0.000000000000000e+00

0.000000000000000e+00 0.000000000000000e+00 0.000000000000000e+00
0.000000000000000e+00 0.000000000000000e+00 0.000000000000000e+00
0.000000000000000e+00 0.000000000000000e+00 0.000000000000000e+00

0.000000000000000e+00 0.000000000000000e+00 0.000000000000000e+00
0.000000000000000e+00 0.000000000000000e+00 0.000000000000000e+00
0.000000000000000e+00 0.000000000000000e+00 0.000000000000000e+00

0.000000000000000e+00 0.000000000000000e+00 0.000000000000000e+00
0.000000000000000e+00 0.000000000000000e+00 0.000000000000000e+00
0.000000000000000e+00 0.000000000000000e+00 0.000000000000000e+00

0.000000000000000e+00 0.000000000000000e+00 0.000000000000000e+00
0.000000000000000e+00 0.000000000000000e+00 0.000000000000000e+00
0.000000000000000e+00 0.000000000000000e+00 0.000000000000000e+00

0.000000000000000e+00 0.000000000000000e+00 0.000000000000000e+00
0.000000000000000e+00 0.000000000000000e+00 0.000000000000000e+00
0.000000000000000e+00 0.000000000000000e+00 0.000000000000000e+00

0.000000000000000e+00 0.000000000000000e+00 0.000000000000000e+00
0.000000000000000e+00 0.000000000000000e+00 0.000000000000000e+00
0.000000000000000e+00 0.000000000000000e+00 0.000000000000000e+00

0.000000000000000e+00 0.000000000000000e+00 0.000000000000000e+00
0.000000000000000e+00 0.000000000000000e+00 0.000000000000000e+00
0.000000000000000e+00 0.000000000000000e+00 0.000000000000000e+00

0.000000000000000e+00 0.000000000000000e+00 0.000000000000000e+00
0.000000000000000e+00 0.000000000000000e+00 0.000000000000000e+00
0.000000000000000e+00 0.000000000000000e+00 0.000000000000000e+00

0.000000000000000e+00 0.000000000000000e+00 0.000000000000000e+00
0.000000000000000e+00 0.000000000000000e+00 0.000000000000000e+00
0.000000000000000e+00 0.000000000000000e+00 0.000000000000000e+00

0.000000000000000e+00 0.000000000000000e+00 0.000000000000000e+00
0.000000000000000e+00 0.000000000000000e+00 0.000000000000000e+00
0.000000000000000e+00 0.000000000000000e+00 0.000000000000000e+00

0.000000000000000e+00 0.000000000000000e+00 0.000000000000000e+00
0.000000000000000e+00 0.000000000000000e+00 0.000000000000000e+00
0.000000000000000e+00 0.000000000000000e+00 0.000000000000000e+00

0.000000000000000e+00 0.000000000000000e+00 0.000000000000000e+00
0.000000000000000e+00 0.000000000000000e+00 0.000000000000000e+00
0.000000000000000e+00 0.000000000000000e+00 0.000000000000000e+00

0.000000000000000e+00 0.000000000000000e+00 0.000000000000000e+00
0.000000000000000e+00 0.000000000000000e+00 0.000000000000000e+00
0.000000000000000e+00 0.000000000000000e+00 0.000000000000000e+00

0.000000000000000e+00 0.000000000000000e+00 0.000000000000000e+00
0.000000000000000e+00 0.000000000000000e+00 0.000000000000000e+00
0.000000000000000e+00 0.000000000000000e+00 0.000000000000000e+00

0.000000000000000e+00 0.000000000000000e+00 0.000000000000000e+00
0.000000000000000e+00 0.000000000000000e+00 0.000000000000000e+00
0.000000000000000e+00 0.000000000000000e+00 0.000000000000000e+00

0.000000000000000e+00 0.000000000000000e+00 0.000000000000000e+00
0.000000000000000e+00 0.000000000000000e+00 0.000000000000000e+00
0.000000000000000e+00 0.000000000000000e+00 0.000000000000000e+00

0.000000000000000e+00 0.000000000000000e+00 0.000000000000000e+00
0.000000000000000e+00 0.000000000000000e+00 0.000000000000000e+00
0.000000000000000e+00 0.000000000000000e+00 0.000000000000000e+00

0.000000000000000e+00 0.000000000000000e+00 0.000000000000000e+00
0.000000000000000e+00 0.000000000000000e+00 0.000000000000000e+00
0.000000000000000e+00 0.000000000000000e+00 0.000000000000000e+00

0.000000000000000e+00 0.000000000000000e+00 0.000000000000000e+00
0.000000000000000e+00 0.000000000000000e+00 0.000000000000000e+00
0.000000000000000e+00 0.000000000000000e+00 0.000000000000000e+00

0.000000000000000e+00 0.000000000000000e+00 0.000000000000000e+00
0.000000000000000e+00 0.000000000000000e+00 0.000000000000000e+00
0.000000000000000e+00 0.000000000000000e+00 0.000000000000000e+00

0.000000000000000e+00 0.000000000000000e+00 0.000000000000000e+00
0.000000000000000e+00 0.000000000000000e+00 0.000000000000000e+00
0.000000000000000e+00 0.000000000000000e+00 0.000000000000000e+00

0.000000000000000e+00 0.000000000000000e+00 0.000000000000000e+00
0.000000000000000e+00 0.000000000000000e+00 0.000000000000000e+00
0.000000000000000e+00 0.000000000000000e+00 0.000000000000000e+00

0.000000000000000e+00 0.000000000000000e+00 0.000000000000000e+00
0.000000000000000e+00 0.000000000000000e+00 0.000000000000000e+00
0.000000000000000e+00 0.000000000000000e+00 0.000000000000000e+00

0.000000000000000e+00 0.000000000000000e+00 0.000000000000000e+00
0.000000000000000e+00 0.000000000000000e+00 0.000000000000000e+00
0.000000000000000e+00 0.000000000000000e+00 0.000000000000000e+00

0.000000000000000e+00 0.000000000000000e+00 0.000000000000000e+00
0.000000000000000e+00 0.000000000000000e+00 0.000000000000000e+00
0.000000000000000e+00 0.000000000000000e+00 0.000000000000000e+00

0.000000000000000e+00 0.000000000000000e+00 0.000000000000000e+00
0.000000000000000e+00 0.000000000000000e+00 0.000000000000000e+00
0.000000000000000e+00 0.000000000000000e+00 0.000000000000000e+00

0.000000000000000e+00 0.000000000000000e+00 0.000000000000000e+00
0.000000000000000e+00 0.000000000000000e+00 0.000000000000000e+00
0.000000000000000e+00 0.000000000000000e+00 0.000000000000000e+00

 1.165605569042559e-17 -1.337479610400905e-19 -1.032639300063872e+00
-1.337479610400905e-19 -2.347760710730741e-17  4.125455857495204e-01
-1.032639300063872e+00  4.125455857495204e-01  9.675364031894815e-18

 1.130539195829465e-17 -1.050204510502267e-19 -1.013638242794379e+00
-1.050204510502267e-19 -1.335480285673789e-17  3.994099507242127e-01
-1.013638242794379e+00  3.994099507242127e-01  8.875503318423498e-18

 1.170819511467459e-17 -2.329476342675613e-20 -1.033766817665186e+00
-2.329476342675613e-20  4.903699830932307e-17  4.039094022517775e-01
-1.033766817665186e+00  4.039094022517775e-01  9.913015636328189e-18

 1.144720783118967e-17 -3.586982348110634e-20 -1.022658618558266e+00
-3.586982348110634e-20  3.634691849378660e-17  4.155524750888021e-01
-1.022658618558266e+00  4.155524750888021e-01  9.235222124216633e-18

 9.117912401302652e-18  4.364823800864523e-20 -9.266120691619176e-01
 4.364823800864523e-20  1.805584970565835e-17  4.823594460389521e-01
-9.266120691619176e-01  4.823594460389521e-01  2.438905689563589e-18

 1.087276615100816e-17 -1.133846552078806e-19 -9.907824434749944e-01
-1.133846552078806e-19  4.391996765559327e-17  3.657742801654739e-01
-9.907824434749944e-01  3.657742801654739e-01  8.231940538090527e-18

 1.065468654918281e-17 -5.935745807778277e-20 -9.837430210774885e-01
-5.935745807778277e-20 -4.245696564924230e-18  3.717004367281781e-01
-9.837430210774885e-01  3.717004367281781e-01  7.554900023696029e-18

 1.129769959057092e-17 -3.490653795954338e-19 -1.011091020098166e+00
-3.490653795954338e-19 -1.145680458590760e-16  4.367412977877547e-01
-1.011091020098166e+00  4.367412977877547e-01  8.780685265542661e-18

 1.154731651088656e-17 -1.613286560708610e-19 -1.023890850710994e+00
-1.613286560708610e-19 -5.545835507701269e-17  4.212244643285266e-01
-1.023890850710994e+00  4.212244643285266e-01  9.448497123257017e-18

 1.133794176586069e-17  2.294352962287664e-20 -1.013495313569263e+00
 2.294352962287664e-20  7.560812751032537e-17  4.058029935779145e-01
-1.013495313569263e+00  4.058029935779145e-01  9.013683721059810e-18

 1.114462628371202e-17 -1.491080835039283e-19 -1.003611317620949e+00
-1.491080835039283e-19 -3.268270292412439e-17  3.923561099480856e-01
-1.003611317620949e+00  3.923561099480856e-01  8.653518637572290e-18

 1.111875097488656e-17 -9.025715556609125e-20 -1.001236114683847e+00
-9.025715556609125e-20 -2.594224319445529e-17  4.058899180752937e-01
-1.001236114683847e+00  4.058899180752937e-01  8.535955503272231e-18

 1.128695821995233e-17 -1.327176239357998e-19 -1.005983234936505e+00
-1.327176239357998e-19 -8.370576149568113e-17  4.058752730712275e-01
-1.005983234936505e+00  4.058752730712275e-01  9.015448325603234e-18

 1.097525973851241e-17 -1.046231717381331e-20 -9.906513878129586e-01
-1.046231717381331e-20 -3.847766286501120e-17  4.040913480547528e-01
-9.906513878129586e-01  4.040913480547528e-01  8.185454567329640e-18

 1.098163691980818e-17  2.456995998563751e-20 -9.928392841496498e-01
 2.456995998563751e-20 -1.720654033839784e-17  3.843700633417892e-01
-9.928392841496498e-01  3.843700633417892e-01  8.256567747836672e-18

 1.101657975308531e-17  3.522128508655511e-20 -9.993685630972311e-01
 3.522128508655511e-20 -1.971058190770952e-17  3.955597116167853e-01
-9.993685630972311e-01  3.955597116167853e-01  8.174046478472337e-18

 1.142166747436515e-17 -4.050360133506458e-21 -1.023197438916053e+00
-4.050360133506458e-21 -4.354081950526415e-17  4.196322297286503e-01
-1.023197438916053e+00  4.196322297286503e-01  8.946768083700861e-18

 1.155533724465308e-17 -1.287502041965911e-21 -1.031539895312035e+00
-1.287502041965911e-21 -7.108067756095303e-18  4.077219394620957e-01
-1.031539895312035e+00  4.077219394620957e-01  9.315031550716363e-18

 1.247860390730346e-17 -4.022439046469737e-20 -1.067901189908506e+00
-4.022439046469737e-20 -4.537723816284424e-17  3.636872661385579e-01
-1.067901189908506e+00  3.636872661385579e-01  1.216636133199484e-17

 1.147352394197668e-17  2.148306389618753e-20 -1.027642502553193e+00
 2.148306389618753e-20  1.034165186956446e-16  4.118348120458734e-01
-1.027642502553193e+00  4.118348120458734e-01  9.025855240842388e-18

 1.134939207984812e-17  2.958344435836880e-20 -1.023024967989301e+00
 2.958344435836880e-20  9.393457286970752e-17  4.245416105607398e-01
-1.023024967989301e+00  4.245416105607398e-01  8.783211505319453e-18

 1.144567360105000e-17 -8.128587038147969e-20 -1.020331061673187e+00
-8.128587038147969e-20  2.402043305164358e-17  3.817232761327596e-01
-1.020331061673187e+00  3.817232761327596e-01  9.480179153405051e-18

 1.135201696992202e-17 -7.679546383554336e-20 -1.014645535458319e+00
-7.679546383554336e-20  3.774036394982870e-17  3.822782915443980e-01
-1.014645535458319e+00  3.822782915443980e-01  9.300036908836525e-18

 1.079131105320320e-17 -7.318612696582257e-21 -9.915082184339772e-01
-7.318612696582257e-21 -8.418138830042991e-18  4.303573115153220e-01
-9.915082184339772e-01  4.303573115153220e-01  7.492898089213954e-18

 1.089879291076517e-17 -4.945975753003727e-20 -9.918232465058183e-01
-4.945975753003727e-20  4.314407879995753e-17  4.087036819335286e-01
-9.918232465058183e-01  4.087036819335286e-01  8.057122103155326e-18

 1.059882748347246e-17 -7.187626721917065e-20 -9.745162615542250e-01
-7.187626721917065e-20  2.863792415135407e-17  4.004044718795441e-01
-9.745162615542250e-01  4.004044718795441e-01  7.431564186803337e-18

 1.041977598361471e-17 -3.549623565593721e-20 -9.640090968300116e-01
-3.549623565593721e-20  2.008411763889635e-17  4.136255033379248e-01
-9.640090968300116e-01  4.136255033379248e-01  6.978565557388346e-18

 1.025170958202812e-17  1.988954312018087e-21 -9.551748955163289e-01
 1.988954312018087e-21 -4.354392482810289e-18  4.185987775990127e-01
-9.551748955163289e-01  4.185987775990127e-01  6.588961007022509e-18

 9.944308357252451e-18 -9.774889592535652e-21 -9.413016887483598e-01
-9.774889592535652e-21  4.607466741024397e-18  4.243742676085482e-01
-9.413016887483598e-01  4.243742676085482e-01  5.811139686013579e-18

 9.358568989099093e-18 -5.527163556963329e-20 -9.133965833736241e-01
-5.527163556963329e-20  1.149996615099880e-17  4.102196599775840e-01
-9.133965833736241e-01  4.102196599775840e-01  4.444344842505267e-18

 1.100839433085740e-17 -7.295989416479603e-20 -9.791815500155507e-01
-7.295989416479603e-20  2.190344342593330e-17  3.305311326837444e-01
-9.791815500155507e-01  3.305311326837444e-01  9.638849976946591e-18

 9.639710681850961e-18 -1.970358913100563e-20 -9.259476577135424e-01
-1.970358913100563e-20  1.088582082058586e-17  3.861550436310823e-01
-9.259476577135424e-01  3.861550436310823e-01  5.397680178299282e-18

 9.911551908123197e-18 -1.317389868497177e-19 -9.402235397877116e-01
-1.317389868497177e-19  4.973766321861899e-17  4.215381339133597e-01
-9.402235397877116e-01  4.215381339133597e-01  5.791427226646882e-18

 1.049018708600571e-17 -9.100773240034986e-20 -9.686149782781324e-01
-9.100773240034986e-20  2.499729019018989e-17  4.218665566431145e-01
-9.686149782781324e-01  4.218665566431145e-01  7.209509163581828e-18

 1.062770705586059e-17 -6.861073296467895e-20 -9.768085531566582e-01
-6.861073296467895e-20  1.667379378075713e-17  4.167045509519879e-01
-9.768085531566582e-01  4.167045509519879e-01  7.501676136585585e-18

 1.090479626453221e-17 -6.593797710869708e-20 -9.908056094259219e-01
-6.593797710869708e-20  3.020031340349317e-17  3.957367701859195e-01
-9.908056094259219e-01  3.957367701859195e-01  8.403455348363401e-18

 1.083057513979556e-17  3.079269230981998e-20 -9.886467235523649e-01
 3.079269230981998e-20 -7.027885009068770e-17  4.061012561621079e-01
-9.886467235523649e-01  4.061012561621079e-01  7.992382677336909e-18

 1.084581209738408e-17 -4.083584616622539e-20 -9.920711814166294e-01
-4.083584616622539e-20 -1.302365450951538e-17  4.104063967228598e-01
-9.920711814166294e-01  4.104063967228598e-01  8.075085078081402e-18

 1.090942725401280e-17 -6.091049902997616e-20 -9.953285749651506e-01
-6.091049902997616e-20  1.820505480780137e-17  4.090738114912350e-01
-9.953285749651506e-01  4.090738114912350e-01  8.157268095405087e-18

 1.096798873679542e-17  6.853160840746886e-21 -9.997913955161447e-01
 6.853160840746886e-21 -5.954832504225715e-17  4.009776010296452e-01
-9.997913955161447e-01  4.009776010296452e-01  8.449551561849642e-18

 1.067368579405923e-17 -5.670742478786379e-20 -9.887946124217769e-01
-5.670742478786379e-20  1.456457946248395e-17  4.176451631123919e-01
-9.887946124217769e-01  4.176451631123919e-01  7.495291529215201e-18

 1.081454271041240e-17 -8.234672526629435e-20 -9.960420319759765e-01
-8.234672526629435e-20  5.142313599083648e-17  4.134909560290255e-01
-9.960420319759765e-01  4.134909560290255e-01  7.911826403378250e-18

 1.093970768042996e-17 -3.940495449147892e-20 -1.002466239698317e+00
-3.940495449147892e-20 -1.099541607697930e-17  4.114095791248959e-01
-1.002466239698317e+00  4.114095791248959e-01  8.274178745623481e-18

 1.133710296267781e-17 -2.813391142359497e-20 -1.019210060084768e+00
-2.813391142359497e-20 -2.559293083988849e-17  4.006295965591663e-01
-1.019210060084768e+00  4.006295965591663e-01  9.400434998060759e-18

 1.117655501017013e-17 -1.442772171525402e-20 -1.012678889983077e+00
-1.442772171525402e-20 -2.873648586760370e-17  4.076951531066039e-01
-1.012678889983077e+00  4.076951531066039e-01  8.876521606402183e-18

 1.084496541086853e-17 -4.621731835367087e-20 -1.000675984985024e+00
-4.621731835367087e-20  6.964165389864426e-18  4.133722425408111e-01
-1.000675984985024e+00  4.133722425408111e-01  8.016836476327503e-18

 1.086109508368600e-17 -5.957712832515388e-20 -1.002360713381558e+00
-5.957712832515388e-20  2.876529383922894e-17  4.144897096860496e-01
-1.002360713381558e+00  4.144897096860496e-01  8.070483904402727e-18

 1.094326773151659e-17 -1.765905472912818e-20 -1.006175754025405e+00
-1.765905472912818e-20 -4.492332361677052e-17  4.166579054291398e-01
-1.006175754025405e+00  4.166579054291398e-01  8.229216013384208e-18

 1.105750490429162e-17 -7.482436110041860e-20 -1.011911092811517e+00
-7.482436110041860e-20  6.237524262621669e-17  4.091709041320464e-01
-1.011911092811517e+00  4.091709041320464e-01  8.665973087995386e-18

 1.091472625177472e-17 -7.430747459231986e-20 -1.006925689131764e+00
-7.430747459231986e-20  7.741027331132852e-17  4.140582095234198e-01
-1.006925689131764e+00  4.140582095234198e-01  8.239315217473181e-18

 1.103731951887351e-17 -3.164931317483605e-20 -1.013043316917960e+00
-3.164931317483605e-20  1.118509550137885e-18  4.143101756458585e-01
-1.013043316917960e+00  4.143101756458585e-01  8.579948353549825e-18

 1.082556340436415e-17 -3.791579704077331e-20 -1.005854355639383e+00
-3.791579704077331e-20  2.680257883554018e-17  4.243237573524545e-01
-1.005854355639383e+00  4.243237573524545e-01  7.940092749592997e-18

 1.109947567663010e-17 -4.481816354526912e-20 -1.015935593507276e+00
-4.481816354526912e-20  4.047182780763949e-17  3.936031379354404e-01
-1.015935593507276e+00  3.936031379354404e-01  8.833561092855988e-18

 1.116512376443334e-17 -2.869171137877423e-20 -1.021527944981810e+00
-2.869171137877423e-20  5.866812773125630e-17  3.835920644162709e-01
-1.021527944981810e+00  3.835920644162709e-01  9.124915700147941e-18

 1.145384207606324e-17 -3.391419482671344e-20 -1.037219637102489e+00
-3.391419482671344e-20  3.839643381157908e-17  4.405212705060835e-01
-1.037219637102489e+00  4.405212705060835e-01  9.471003090978515e-18

 1.101209011352617e-17 -1.616087198292731e-21 -1.020014675690330e+00
-1.616087198292731e-21  5.001654872962291e-17  4.437072432988178e-01
-1.020014675690330e+00  4.437072432988178e-01  8.176498355710786e-18

 1.101554383687701e-17 -3.015170197941082e-20 -1.015632074089809e+00
-3.015170197941082e-20 -5.495515301847284e-17  3.873607090761527e-01
-1.015632074089809e+00  3.873607090761527e-01  8.745168684148129e-18

 1.098907513397998e-17 -3.616929669268164e-20 -1.017522028850590e+00
-3.616929669268164e-20  3.204496794358142e-17  4.087105880032841e-01
-1.017522028850590e+00  4.087105880032841e-01  8.571150913667411e-18

 1.081299636883838e-17  3.782366637748791e-20 -1.011815880314125e+00
 3.782366637748791e-20 -6.738349707251620e-17  4.397933903096467e-01
-1.011815880314125e+00  4.397933903096467e-01  7.795726953603580e-18

 1.091139795863955e-17 -2.443704587824785e-20 -1.017278156733507e+00
-2.443704587824785e-20  4.041906247546054e-17  4.335924740136851e-01
-1.017278156733507e+00  4.335924740136851e-01  8.174049594970907e-18

 1.129287124181140e-17 -3.005085208579654e-21 -1.030939367691151e+00
-3.005085208579654e-21 -1.537822406458883e-17  3.983033938005267e-01
-1.030939367691151e+00  3.983033938005267e-01  9.421378759182833e-18

 1.113167331123063e-17  4.385419257719013e-20 -1.026133403044288e+00
 4.385419257719013e-20 -6.282059173005062e-17  3.992769340271603e-01
-1.026133403044288e+00  3.992769340271603e-01  9.076632781370366e-18

 1.080118292891222e-17  5.702418629007635e-21 -1.014062157402114e+00
 5.702418629007635e-21 -3.194833532486226e-17  4.370944107102295e-01
-1.014062157402114e+00  4.370944107102295e-01  7.874167224729934e-18

 1.096147267384690e-17 -8.664117624301542e-20 -1.021330101414574e+00
-8.664117624301542e-20  7.978442597407884e-17  4.300501944101136e-01
-1.021330101414574e+00  4.300501944101136e-01  8.473301909064581e-18

 1.091928673324855e-17 -7.376661877676590e-20 -1.017351577093746e+00
-7.376661877676590e-20  2.116950105932875e-17  4.083257029035490e-01
-1.017351577093746e+00  4.083257029035490e-01  8.590478870352903e-18

 1.070423880959883e-17 -8.211964193880797e-20 -1.008693396063440e+00
-8.211964193880797e-20  3.208936805464704e-17  4.097721216448691e-01
-1.008693396063440e+00  4.097721216448691e-01  8.052789331094495e-18

 1.016316354828159e-17 -4.692694002259406e-20 -9.872840163264883e-01
-4.692694002259406e-20  1.050914165682173e-18  4.429288197628757e-01
-9.872840163264883e-01  4.429288197628757e-01  6.380123264002396e-18

 1.055286870433560e-17  1.230462046634415e-20 -1.002441762150454e+00
 1.230462046634415e-20 -4.873223396112606e-17  4.274217881490706e-01
-1.002441762150454e+00  4.274217881490706e-01  7.597737045776600e-18

 1.130253424289091e-17 -1.017827187035387e-19 -1.033096971527533e+00
-1.017827187035387e-19  3.271896362746312e-17  3.959632195273232e-01
-1.033096971527533e+00  3.959632195273232e-01  9.931841342382100e-18

 1.055662234579160e-17 -4.245057775029696e-20 -1.002973358922498e+00
-4.245057775029696e-20 -1.207788770234363e-17  4.236810378250832e-01
-1.002973358922498e+00  4.236810378250832e-01  7.720737960267548e-18

 1.063331969122278e-17 -3.513995969673828e-20 -1.006308914625721e+00
-3.513995969673828e-20 -2.936978898741060e-17  4.237043088268378e-01
-1.006308914625721e+00  4.237043088268378e-01  7.982519663920408e-18

 1.066594135632583e-17 -2.287340226729533e-21 -1.007037229694145e+00
-2.287340226729533e-21 -6.354889571624468e-17  4.233751918969199e-01
-1.007037229694145e+00  4.233751918969199e-01  8.060575874514959e-18

 1.071803074057751e-17 -8.900559117730523e-20 -1.009051972214668e+00
-8.900559117730523e-20  2.014628207187111e-17  4.166773648032119e-01
-1.009051972214668e+00  4.166773648032119e-01  8.361196519506473e-18

 1.060395424452970e-17 -8.630609876820272e-20 -1.003782745710914e+00
-8.630609876820272e-20  1.526759115778656e-17  4.213407270494052e-01
-1.003782745710914e+00  4.213407270494052e-01  8.064613244064699e-18

 1.057065891303823e-17 -4.070777730314091e-20 -1.001010377701403e+00
-4.070777730314091e-20 -2.057280348898803e-17  4.172669838455672e-01
-1.001010377701403e+00  4.172669838455672e-01  8.099034024215625e-18

 1.043684834089109e-17 -3.432153298465427e-20 -9.938085222733555e-01
-3.432153298465427e-20 -2.065396255507747e-17  4.190874163567684e-01
-9.938085222733555e-01  4.190874163567684e-01  7.796485354443283e-18

 1.039143766162264e-17  2.007798084584020e-20 -9.911116135676602e-01
 2.007798084584020e-20 -6.152735358159807e-17  4.174189452849509e-01
-9.911116135676602e-01  4.174189452849509e-01  7.767550952396815e-18

 1.021511419598231e-17 -2.574346919797224e-20 -9.838976621997282e-01
-2.574346919797224e-20 -2.417450433594952e-17  4.222898545914293e-01
-9.838976621997282e-01  4.222898545914293e-01  7.320595576197143e-18

 9.985587022525464e-18 -9.827484620644725e-20 -9.739175064084191e-01
-9.827484620644725e-20  3.703712733301884e-17  4.187209122521323e-01
-9.739175064084191e-01  4.187209122521323e-01  6.792015507487326e-18

 1.079610407124939e-17  1.651546493391903e-20 -1.006311007827816e+00
 1.651546493391903e-20 -3.534686962797935e-17  3.821499761708991e-01
-1.006311007827816e+00  3.821499761708991e-01  9.328221252167360e-18

 1.016714091365800e-17 -1.009153718030167e-19 -9.819274387590137e-01
-1.009153718030167e-19  5.115882618062482e-17  4.099609375179967e-01
-9.819274387590137e-01  4.099609375179967e-01  7.361649728310529e-18

 1.015026063529830e-17 -5.640932681372863e-20 -9.835240699252404e-01
-5.640932681372863e-20  1.838336622150857e-17  4.194057385919154e-01
-9.835240699252404e-01  4.194057385919154e-01  7.252105245317927e-18

 1.026546440702671e-17 -5.934348567753491e-20 -9.919159215684468e-01
-5.934348567753491e-20  1.945292260855885e-17  4.284941220222556e-01
-9.919159215684468e-01  4.284941220222556e-01  7.448465178195160e-18

 1.030482227921609e-17  5.009608742216983e-21 -9.958819663940696e-01
 5.009608742216983e-21 -3.983035877091319e-17  4.297226122511012e-01
-9.958819663940696e-01  4.297226122511012e-01  7.484351884792403e-18

 1.057094136533770e-17 -1.041980708542734e-19 -1.009742257279302e+00
-1.041980708542734e-19  8.174258102427698e-17  4.084397958087581e-01
-1.009742257279302e+00  4.084397958087581e-01  8.376733548413783e-18

 1.074935421394166e-17 -1.643054546900282e-20 -1.019442653080516e+00
-1.643054546900282e-20  2.889755967810996e-18  4.082192523315888e-01
-1.019442653080516e+00  4.082192523315888e-01  8.770074128840582e-18

 1.052622427496011e-17 -3.145856776870704e-20 -1.014610382063350e+00
-3.145856776870704e-20 -1.228828611295542e-17  4.332333799405740e-01
-1.014610382063350e+00  4.332333799405740e-01  8.018155125820365e-18

 1.060175842914237e-17 -1.212123234209491e-19 -1.020154996500026e+00
-1.212123234209491e-19  1.017409172388757e-16  4.295922195341364e-01
-1.020154996500026e+00  4.295922195341364e-01  8.153868658093135e-18

 1.066143046973166e-17 -1.792319778183051e-19 -1.026745389631228e+00
-1.792319778183051e-19  1.781410247860020e-16  4.146659754280422e-01
-1.026745389631228e+00  4.146659754280422e-01  8.515706658052075e-18

 1.081738573173372e-17 -1.378605107176612e-19 -1.036033606601213e+00
-1.378605107176612e-19  1.189612818663400e-16  4.162279596412653e-01
-1.036033606601213e+00  4.162279596412653e-01  8.924920762115362e-18

 1.091509000953500e-17 -7.466847503143011e-20 -1.043008940354617e+00
-7.466847503143011e-20 -8.759325615828177e-18  4.220221152290395e-01
-1.043008940354617e+00  4.220221152290395e-01  9.154173511283501e-18

 1.093246844302594e-17 -1.449642301588423e-19 -1.046574497409711e+00
-1.449642301588423e-19  9.062600225292094e-17  4.341758342679347e-01
-1.046574497409711e+00  4.341758342679347e-01  9.153214206699019e-18

 1.079318332080437e-17 -7.532704807089962e-20 -1.041114634647234e+00
-7.532704807089962e-20 -8.164150017594120e-17  4.370783164284004e-01
-1.041114634647234e+00  4.370783164284004e-01  8.761108265005109e-18

 1.086040549127821e-17 -1.321408429329183e-19 -1.044566618253642e+00
-1.321408429329183e-19  4.347907383027784e-17  4.299019718068868e-01
-1.044566618253642e+00  4.299019718068868e-01  9.063335807167678e-18

 1.061640387319515e-17 -1.790582322424453e-19 -1.033096798787646e+00
-1.790582322424453e-19  1.106523154565430e-16  4.284049095579927e-01
-1.033096798787646e+00  4.284049095579927e-01  8.601430400090083e-18

 1.048431928492637e-17 -1.428209807898298e-19 -1.025672992738324e+00
-1.428209807898298e-19 -9.602415540141059e-18  4.316483579706371e-01
-1.025672992738324e+00  4.316483579706371e-01  8.313408975375779e-18

 1.041515911688122e-17 -1.178865565765850e-19 -1.022207227879799e+00
-1.178865565765850e-19 -7.701061124857349e-17  4.272123617194891e-01
-1.022207227879799e+00  4.272123617194891e-01  8.312465175598545e-18

 1.042225032461873e-17 -2.002670520997121e-19 -1.021455963578422e+00
-2.002670520997121e-19  1.721049271731285e-16  4.216509761654518e-01
-1.021455963578422e+00  4.216509761654518e-01  8.467156008927059e-18

 1.045557839441428e-17 -1.412307243419928e-19 -1.021861006662944e+00
-1.412307243419928e-19 -5.830106587064801e-17  4.230157870223906e-01
-1.021861006662944e+00  4.230157870223906e-01  8.660550762340848e-18

 1.011226014712305e-17 -1.337176794055019e-19 -1.006136002500757e+00
-1.337176794055019e-19 -5.931732508706341e-17  4.437005172412383e-01
-1.006136002500757e+00  4.437005172412383e-01  7.693616618841724e-18

 1.038527692366389e-17 -1.827818648398703e-19 -1.014294562867242e+00
-1.827818648398703e-19  7.049395682116096e-17  4.030425315269752e-01
-1.014294562867242e+00  4.030425315269752e-01  8.912068146965804e-18

 1.019480593645310e-17 -1.948266901919925e-19 -1.004882095191302e+00
-1.948266901919925e-19  1.029787992583289e-16  3.952788336683932e-01
-1.004882095191302e+00  3.952788336683932e-01  8.567725344549018e-18

 9.933333175750616e-18 -1.567397003065109e-19 -9.912352674862334e-01
-1.567397003065109e-19 -1.459773228172437e-17  4.211476958531324e-01
-9.912352674862334e-01  4.211476958531324e-01  7.851500523053972e-18

 9.898427778739375e-18 -1.388599434459400e-19 -9.858935905154536e-01
-1.388599434459400e-19  1.078567381925228e-16  4.128994066749147e-01
-9.858935905154536e-01  4.128994066749147e-01  7.988425199879584e-18

 1.003165153218515e-17 -8.752946061125367e-20 -9.890476463451471e-01
-8.752946061125367e-20 -7.720565276520087e-17  3.987810698297776e-01
-9.890476463451471e-01  3.987810698297776e-01  8.551642677715326e-18

 9.744071115584582e-18 -8.507975622238586e-20 -9.762261316732406e-01
-8.507975622238586e-20  1.639821708269874e-16  4.123721184736131e-01
-9.762261316732406e-01  4.123721184736131e-01  7.661432639502716e-18

 9.628349893780271e-18 -5.216829528237980e-20 -9.717159166223516e-01
-5.216829528237980e-20  6.201658964998988e-18  4.107353178383064e-01
-9.717159166223516e-01  4.107353178383064e-01  7.455354431986404e-18

 9.774689577679796e-18 -5.940998801188779e-20 -9.779124929333661e-01
-5.940998801188779e-20  8.383692236405174e-17  3.905783353672856e-01
-9.779124929333661e-01  3.905783353672856e-01  8.049726149478684e-18

 9.545579282797505e-18 -3.101027297513034e-20 -9.704932969320067e-01
-3.101027297513034e-20  2.437965200096792e-17  4.029669442759627e-01
-9.704932969320067e-01  4.029669442759627e-01  7.388631603652353e-18

 9.569190010360325e-18 -2.508508493412894e-20 -9.742568924463209e-01
-2.508508493412894e-20  2.421258743463040e-17  4.024960521000558e-01
-9.742568924463209e-01  4.024960521000558e-01  7.446992447272257e-18

 9.720190381290087e-18 -5.539069994525315e-20 -9.829193902787240e-01
-5.539069994525315e-20  1.521256076068640e-16  3.951530566381699e-01
-9.829193902787240e-01  3.951530566381699e-01  7.956095279256495e-18

 9.645188152958139e-18 -1.477589474254529e-20 -9.825731482007497e-01
-1.477589474254529e-20 -6.771982086092675e-17  4.012294431711381e-01
-9.825731482007497e-01  4.012294431711381e-01  7.736569528833900e-18

 9.598424867258610e-18 -4.935085576520974e-20 -9.837190067343684e-01
-4.935085576520974e-20  6.756422630788555e-17  4.080836203905812e-01
-9.837190067343684e-01  4.080836203905812e-01  7.610959026139309e-18

 9.499457100893638e-18 -7.852294151803475e-20 -9.810827208475120e-01
-7.852294151803475e-20  1.420647002076267e-16  4.083486436867383e-01
-9.810827208475120e-01  4.083486436867383e-01  7.397058910925295e-18

 9.533828911385969e-18 -4.997484976144514e-20 -9.839998650698484e-01
-4.997484976144514e-20 -7.465912267800235e-18  4.036228531582550e-01
-9.839998650698484e-01  4.036228531582550e-01  7.565258929101239e-18

 9.480399401759976e-18 -8.242469381881002e-20 -9.847784840337415e-01
-8.242469381881002e-20  6.704948842011774e-17  4.069873426194002e-01
-9.847784840337415e-01  4.069873426194002e-01  7.539397358758965e-18

 9.556447939935227e-18 -7.197350180610938e-20 -9.895669279183217e-01
-7.197350180610938e-20 -2.263433243863423e-17  4.098593645783380e-01
-9.895669279183217e-01  4.098593645783380e-01  7.750145093793475e-18

 9.509035004127215e-18 -9.392639032187747e-20 -9.896801684786436e-01
-9.392639032187747e-20  7.759077986566425e-17  4.074175113614460e-01
-9.896801684786436e-01  4.074175113614460e-01  7.817929585416279e-18

 9.528054445443866e-18 -6.758968964436505e-20 -9.902028408972764e-01
-6.758968964436505e-20 -8.327944627555178e-17  4.053902133446172e-01
-9.902028408972764e-01  4.053902133446172e-01  7.868786454680814e-18

 9.459631167184719e-18 -7.078438843091908e-20 -9.894165956741803e-01
-7.078438843091908e-20 -3.422315819216880e-17  4.046180349349597e-01
-9.894165956741803e-01  4.046180349349597e-01  7.859829966130579e-18

 9.430638549696317e-18 -6.710246674493175e-20 -9.884732247930584e-01
-6.710246674493175e-20 -5.780792835120426e-17  4.072797167469548e-01
-9.884732247930584e-01  4.072797167469548e-01  7.751045781039457e-18

 9.406474218341124e-18 -8.360289170282932e-20 -9.895897613688530e-01
-8.360289170282932e-20  5.118477979999107e-17  4.041281296140766e-01
-9.895897613688530e-01  4.041281296140766e-01  7.894960568417211e-18

 9.364470377937350e-18 -8.940752841031922e-20 -9.888447986416866e-01
-8.940752841031922e-20  8.356782722563109e-17  4.038916768221319e-01
-9.888447986416866e-01  4.038916768221319e-01  7.860440394997492e-18

 9.356802513107931e-18 -6.195239983155347e-20 -9.901763960363142e-01
-6.195239983155347e-20 -5.842918981136466e-17  4.028347046106550e-01
-9.901763960363142e-01  4.028347046106550e-01  7.929309550541561e-18

 9.330698266957958e-18 -1.875320696051241e-20 -9.910858646095883e-01
-1.875320696051241e-20 -2.385635669284208e-16  4.017149853402804e-01
-9.910858646095883e-01  4.017149853402804e-01  8.009240617790841e-18

 9.249540009687262e-18 -7.009270543312025e-20 -9.903510404078441e-01
-7.009270543312025e-20 -1.596887723964426e-17  4.009462081333803e-01
-9.903510404078441e-01  4.009462081333803e-01  7.989796322748141e-18

 9.161083636744065e-18 -4.297427650883831e-20 -9.883934987571175e-01
-4.297427650883831e-20 -1.154806723356263e-16  4.002305175087456e-01
-9.883934987571175e-01  4.002305175087456e-01  7.912493958243557e-18

 9.076362196125203e-18 -6.675442576851762e-20 -9.855271405712389e-01
-6.675442576851762e-20 -3.555740116245898e-17  4.021626708386797e-01
-9.855271405712389e-01  4.021626708386797e-01  7.738917306525211e-18

 9.033180422248646e-18 -7.907065118114720e-20 -9.850409539622690e-01
-7.907065118114720e-20 -2.152661832800141e-17  3.992590177990029e-01
-9.850409539622690e-01  3.992590177990029e-01  7.822078417257261e-18

 8.924147397965454e-18 -1.246620974400195e-19 -9.815348043336550e-01
-1.246620974400195e-19  6.950717175489318e-17  4.016902451677154e-01
-9.815348043336550e-01  4.016902451677154e-01  7.662190393527907e-18

 8.775626042573758e-18 -1.356359335597361e-19 -9.760877037410802e-01
-1.356359335597361e-19  5.575576904789651e-17  4.027359833299144e-01
-9.760877037410802e-01  4.027359833299144e-01  7.500358306197212e-18

 8.478748274233551e-18 -1.438635574792318e-19 -9.632866280549508e-01
-1.438635574792318e-19  5.522850383002851e-17  4.082573958885475e-01
-9.632866280549508e-01  4.082573958885475e-01  6.914795810300998e-18

 8.079129251579910e-18 -8.001036843928508e-20 -9.468210275410645e-01
-8.001036843928508e-20 -3.974367425257156e-17  4.158203185566138e-01
-9.468210275410645e-01  4.158203185566138e-01  6.030966851997798e-18

 7.621432964305803e-18 -1.863363016073866e-19 -9.280955447173274e-01
-1.863363016073866e-19  6.537343815274017e-17  4.206870713829243e-01
-9.280955447173274e-01  4.206870713829243e-01  4.959873082703202e-18

 7.408355112081592e-18 -1.753197500123456e-19 -9.185666210839760e-01
-1.753197500123456e-19  1.352322801336223e-17  3.907157697319878e-01
-9.185666210839760e-01  3.907157697319878e-01  4.856124885662430e-18

 9.432033202607888e-18 -1.383573121122174e-19 -1.002192398686938e+00
-1.383573121122174e-19  2.095113557945530e-17  3.083736125460139e-01
-1.002192398686938e+00  3.083736125460139e-01  1.116597636863451e-17

 7.440033613027473e-18 -1.816750636235221e-19 -9.234499576107835e-01
-1.816750636235221e-19  4.363360674461604e-17  3.968900808779232e-01
-9.234499576107835e-01  3.968900808779232e-01  5.060994410338039e-18

 7.702197693318556e-18 -1.363840809108456e-19 -9.385612193337116e-01
-1.363840809108456e-19 -6.891347202281117e-17  4.231569234440568e-01
-9.385612193337116e-01  4.231569234440568e-01  5.728027766254603e-18

 7.940725023358134e-18 -1.655421663722210e-19 -9.542347203279331e-01
-1.655421663722210e-19 -3.367153031252668e-17  4.101136006285440e-01
-9.542347203279331e-01  4.101136006285440e-01  6.588216066546778e-18

 8.190672505509390e-18 -2.079107844989752e-19 -9.672934855400669e-01
-2.079107844989752e-19  3.570862662302663e-17  4.016936892671695e-01
-9.672934855400669e-01  4.016936892671695e-01  7.381036912437216e-18

 8.069339041774231e-18 -1.984670145614291e-19 -9.661079595057033e-01
-1.984670145614291e-19  1.608177779174787e-17  4.100060789966479e-01
-9.661079595057033e-01  4.100060789966479e-01  7.191755535666968e-18

 7.950598510841623e-18 -2.259097747616703e-19 -9.640255242588611e-01
-2.259097747616703e-19  1.224301742256995e-16  4.095524563736103e-01
-9.640255242588611e-01  4.095524563736103e-01  6.998779141405270e-18

 8.015686640915093e-18 -1.615335669534395e-19 -9.699970407298842e-01
-1.615335669534395e-19  2.336793375069207e-17  3.953731170502175e-01
-9.699970407298842e-01  3.953731170502175e-01  7.492388757915426e-18

 7.607656885493919e-18 -1.115643119422958e-19 -9.555238030938840e-01
-1.115643119422958e-19 -1.282046519028917e-16  4.193846188554706e-01
-9.555238030938840e-01  4.193846188554706e-01  6.286966941973693e-18

 7.919078564319105e-18 -1.559418269271694e-19 -9.723752410680724e-01
-1.559418269271694e-19  1.201807418485007e-16  4.083779279276952e-01
-9.723752410680724e-01  4.083779279276952e-01  7.369042705788973e-18

 8.131644599872940e-18 -1.214258391743196e-19 -9.862166332569678e-01
-1.214258391743196e-19  1.255643547758204e-16  3.936482427826448e-01
-9.862166332569678e-01  3.936482427826448e-01  8.112923179143024e-18

 7.904451081290425e-18 -9.294025517904095e-20 -9.807791985730581e-01
-9.294025517904095e-20  4.236239175809237e-17  4.004392191308484e-01
-9.807791985730581e-01  4.004392191308484e-01  7.568358160420430e-18

 7.772071051001539e-18 -4.922012326782745e-20 -9.829741302047618e-01
-4.922012326782745e-20 -9.185040350950282e-17  4.070554875441245e-01
-9.829741302047618e-01  4.070554875441245e-01  7.252633544501214e-18

 7.737557539949643e-18 -9.333430273823260e-20 -9.917831633247859e-01
-9.333430273823260e-20  2.163708288959374e-16  4.184001782698145e-01
-9.917831633247859e-01  4.184001782698145e-01  7.161117650732028e-18

 7.727406167616584e-18 -5.163274222106943e-20 -1.002044024608689e+00
-5.163274222106943e-20 -3.642172351594959e-17  4.206736305826588e-01
-1.002044024608689e+00  4.206736305826588e-01  7.221298915131055e-18

 7.913962549296001e-18 -4.355347248226131e-20 -1.018091066469918e+00
-4.355347248226131e-20 -3.631793221063046e-17  4.075227948541406e-01
-1.018091066469918e+00  4.075227948541406e-01  7.880925257095710e-18

 7.569570309756193e-18 -2.009859707241093e-20 -1.016102640459770e+00
-2.009859707241093e-20 -1.688923522890607e-16  4.188398444303035e-01
-1.016102640459770e+00  4.188398444303035e-01  6.860741501341422e-18

 8.424732374818077e-18  1.117475715325936e-20 -1.067636588609983e+00
 1.117475715325936e-20  8.924253333240674e-17  3.947736568106661e-01
-1.067636588609983e+00  3.947736568106661e-01  9.357654572962820e-18

 8.593860218109230e-18 -1.391432337638069e-19 -1.093268208091085e+00
-1.391432337638069e-19 -2.566689366519657e-16  4.285762901776501e-01
-1.093268208091085e+00  4.285762901776501e-01  9.511385195466853e-18

 1.028101781349840e-17 -1.335318422047253e-20 -1.198948932975047e+00
-1.335318422047253e-20  1.535092773915824e-16  4.326975643373732e-01
-1.198948932975047e+00  4.326975643373732e-01  1.417535392632597e-17

 7.022799544061136e-18 -1.816493816612343e-19 -1.099743138574402e+00
-1.816493816612343e-19 -2.376326064579772e-16  5.864102232010970e-01
-1.099743138574402e+00  5.864102232010970e-01  4.709238998539122e-18

 1.606277769889168e-17 -2.903030063151811e-19 -1.456322929697701e+00
-2.903030063151811e-19 -1.451302945478957e-16  2.300177403491223e-01
-1.456322929697701e+00  2.300177403491223e-01  3.187933551390540e-17

 1.041640197981775e-17 -2.660773215585056e-19 -1.234064580176195e+00
-2.660773215585056e-19  5.796709846416288e-17  4.426760351257435e-01
-1.234064580176195e+00  4.426760351257435e-01  1.532106308937247e-17

 4.193538573790257e-18 -4.166888274070991e-19 -9.880561925876600e-01
-4.166888274070991e-19 -1.699565733293952e-16  6.764488956709920e-01
-9.880561925876600e-01  6.764488956709920e-01 -2.980705029085632e-18

 1.197868374249289e-17 -7.639650184119070e-19 -1.286768568949014e+00
-7.639650184119070e-19  5.459804961601094e-17  3.760132060915732e-01
-1.286768568949014e+00  3.760132060915732e-01  2.052569400064525e-17

 7.325084610505397e-18 -5.939105825093622e-19 -1.099396278429881e+00
-5.939105825093622e-19 -1.233500878574090e-16  4.647801830437206e-01
-1.099396278429881e+00  4.647801830437206e-01  7.952822777118603e-18

 7.028214847903731e-18 -5.457091290970881e-19 -1.088535402164927e+00
-5.457091290970881e-19 -2.230283982548876e-17  4.797393198926866e-01
-1.088535402164927e+00  4.797393198926866e-01  7.897344798648522e-18

 6.576152773009263e-18 -5.235597986429793e-19 -1.072998564440015e+00
-5.235597986429793e-19  7.508435914124164e-17  5.062380949713666e-01
-1.072998564440015e+00  5.062380949713666e-01  7.083995863685157e-18

 6.143857067644989e-18 -6.410168153928019e-19 -1.054557200583011e+00
-6.410168153928019e-19 -9.618915713087634e-17  4.496867194583802e-01
-1.054557200583011e+00  4.496867194583802e-01  7.098775510599167e-18

 5.592893582824317e-18 -7.155604014345324e-19 -1.045402664132837e+00
-7.155604014345324e-19  3.814049560289983e-17  4.619968723088885e-01
-1.045402664132837e+00  4.619968723088885e-01  6.669431448816906e-18

 5.409235667458224e-18 -8.100210597242574e-19 -1.052378161337676e+00
-8.100210597242574e-19  1.824623383706908e-16  4.578672400939057e-01
-1.052378161337676e+00  4.578672400939057e-01  7.139771201901893e-18

 5.176670271521316e-18 -8.509400684360943e-19 -1.052343638142452e+00
-8.509400684360943e-19  1.395059454180683e-16  4.560901409260715e-01
-1.052343638142452e+00  4.560901409260715e-01  7.175538171204415e-18

 4.761608472615017e-18 -9.339150204043406e-19 -1.049868188387633e+00
-9.339150204043406e-19  2.338577303762379e-16  4.490634833178687e-01
-1.049868188387633e+00  4.490634833178687e-01  7.137140048088935e-18

 4.266397229872672e-18 -1.017716651779543e-18 -1.044345752289234e+00
-1.017716651779543e-18  2.290373947620585e-16  4.475768116589622e-01
-1.044345752289234e+00  4.475768116589622e-01  6.884416356967254e-18

 3.784878595910788e-18 -1.092985555947809e-18 -1.038724002270290e+00
-1.092985555947809e-18  2.243093650919657e-16  4.432026252151038e-01
-1.038724002270290e+00  4.432026252151038e-01  6.688564900843237e-18

 3.103554092268357e-18 -1.262267627558194e-18 -1.034039809790080e+00
-1.262267627558194e-18 -1.298523891363378e-16  4.410103797973520e-01
-1.034039809790080e+00  4.410103797973520e-01  6.522418051623893e-18

 2.467070264180583e-18 -1.268239172360768e-18 -1.030502883167264e+00
-1.268239172360768e-18  2.531145994182329e-16  4.282023083023034e-01
-1.030502883167264e+00  4.282023083023034e-01  6.396437369289992e-18

 1.909563727366158e-18 -1.587902396542623e-18 -1.035645555895260e+00
-1.587902396542623e-18 -3.132624959947808e-16  4.270739912144559e-01
-1.035645555895260e+00  4.270739912144559e-01  6.581287582482334e-18

 1.396057339360255e-18 -1.646500729534703e-18 -1.039960789426614e+00
-1.646500729534703e-18 -1.532583616872404e-16  4.307293560513407e-01
-1.039960789426614e+00  4.307293560513407e-01  6.553997004168990e-18

 1.094589488251662e-18 -1.819823758765907e-18 -1.053809543396043e+00
-1.819823758765907e-18 -2.479818306918528e-16  4.162619545777420e-01
-1.053809543396043e+00  4.162619545777420e-01  7.289696468443287e-18

-5.088663423079875e-19 -1.972738514146252e-18 -1.038939098997899e+00
-1.972738514146252e-18  1.404113164684211e-16  4.113667724970050e-01
-1.038939098997899e+00  4.113667724970050e-01  5.831450887653018e-18

-1.617673313262862e-18 -2.364877757794791e-18 -1.060048689348867e+00
-2.364877757794791e-18  2.533627985465023e-16  4.090296492778802e-01
-1.060048689348867e+00  4.090296492778802e-01  6.415233556514560e-18

-3.302508864757884e-18 -3.226986622006124e-18 -1.070712435341885e+00
-3.226986622006124e-18 -1.712307354934364e-16  3.932034581319061e-01
-1.070712435341885e+00  3.932034581319061e-01  6.799890341917213e-18

-7.507758389480839e-18 -2.874528404526070e-18 -1.003750071638978e+00
-2.874528404526070e-18 -2.151612346258448e-16  4.968187463313659e-01
-1.003750071638978e+00  4.968187463313659e-01  1.160736477924553e-18

-8.801144481476507e-18 -4.800058564129730e-18 -9.582888048330331e-01
-4.800058564129730e-18 -2.165799371330131e-17  4.159603790561389e-01
-9.582888048330331e-01  4.159603790561389e-01  6.955231666254485e-19

-5.143963174754029e-18 -7.304380903446181e-18 -1.098287734761154e+00
-7.304380903446181e-18 -1.008938562748690e-17  2.162761321373340e-01
-1.098287734761154e+00  2.162761321373340e-01  1.297071946824364e-17

-1.345350699835611e-17 -6.465512557763837e-18 -8.471046385485280e-01
-6.465512557763837e-18  9.484455235732161e-18  4.353631995392960e-01
-8.471046385485280e-01  4.353631995392960e-01 -5.926027684309744e-18

-1.467495540005179e-17 -7.014316081560161e-18 -9.131830896308194e-01
-7.014316081560161e-18 -6.314494756238249e-18  4.681382083224369e-01
-9.131830896308194e-01  4.681382083224369e-01 -2.788432684194215e-18

-1.668573414193828e-17 -8.883203031948151e-18 -9.275027346577366e-01
-8.883203031948151e-18 -3.506704218822238e-17  3.424307165533365e-01
-9.275027346577366e-01  3.424307165533365e-01 -1.003179580205328e-18

-1.817540032562144e-17 -9.609540194885524e-18 -9.478172687466544e-01
-9.609540194885524e-18 -4.976637018443072e-17  2.810750495956593e-01
-9.478172687466544e-01  2.810750495956593e-01 -3.337189663572751e-19

-2.228642654416052e-17 -1.068398093757427e-17 -9.043736061709029e-01
-1.068398093757427e-17 -5.190291997745144e-18  4.874417213887107e-01
-9.043736061709029e-01  4.874417213887107e-01 -5.706961557974941e-18

-2.650227731433783e-17 -1.272176399741294e-17 -9.266288946443874e-01
-1.272176399741294e-17 -3.759730964580826e-17  4.062154150027870e-01
-9.266288946443874e-01  4.062154150027870e-01 -6.154735970217569e-18

-3.245010514524588e-17 -1.519853510624754e-17 -9.711675781642767e-01
-1.519853510624754e-17 -8.180666470181377e-17  4.081354488783623e-01
-9.711675781642767e-01  4.081354488783623e-01 -6.698300455208192e-18

-4.387842780647645e-17 -2.073684055143473e-17 -1.002566807789122e+00
-2.073684055143473e-17  5.033759283673681e-17  4.019301368159326e-01
-1.002566807789122e+00  4.019301368159326e-01 -9.809180708580729e-18

-5.590084389930472e-17 -2.483881805096497e-17 -9.924555817551969e-01
-2.483881805096497e-17  1.777299698150691e-16  4.720991708922577e-01
-9.924555817551969e-01  4.720991708922577e-01 -1.569384717519117e-17

-5.851391312062957e-17 -2.892709761508486e-17 -1.236210700043335e+00
-2.892709761508486e-17  4.479811526198482e-17  2.890790413162851e-01
-1.236210700043335e+00  2.890790413162851e-01 -1.766790133831815e-18

-6.266338292102046e-17 -3.096496054808735e-17 -1.273487665226558e+00
-3.096496054808735e-17 -1.022131215585933e-16  2.705960419278343e-01
-1.273487665226558e+00  2.705960419278343e-01 -9.201682666011417e-19

-7.644460588053301e-17 -3.358952121568146e-17 -1.055961371647169e+00
-3.358952121568146e-17 -7.933339813511947e-17  5.316432330448025e-01
-1.055961371647169e+00  5.316432330448025e-01 -2.026987900889772e-17

-9.000473215844961e-17 -4.350555987727762e-17 -1.057036624675752e+00
-4.350555987727762e-17 -1.299183902424322e-16  4.169035740221802e-01
-1.057036624675752e+00  4.169035740221802e-01 -2.818393371255784e-17

-1.265910091750416e-16 -6.665147601498537e-17 -1.025759170896122e+00
-6.665147601498537e-17 -2.830446456762706e-16  3.618859637167960e-01
-1.025759170896122e+00  3.618859637167960e-01 -3.361342193662917e-17

-1.584427186076101e-16 -8.150310074458388e-17 -8.896123064210975e-01
-8.150310074458388e-17 -1.904990462560630e-16  5.044386785359362e-01
-8.896123064210975e-01  5.044386785359362e-01 -5.247876525181958e-17

-1.764506959445983e-16 -9.607965697292694e-17 -1.055390708457656e+00
-9.607965697292694e-17 -3.376549949232927e-16  3.424740711590447e-01
-1.055390708457656e+00  3.424740711590447e-01 -4.598607801271010e-17

-1.938523920879733e-16 -1.071987019705568e-16 -1.105135236652344e+00
-1.071987019705568e-16 -3.977379299207178e-16  2.846534564919314e-01
-1.105135236652344e+00  2.846534564919314e-01 -4.764140492050137e-17

-2.284978429642140e-16 -1.214807160910194e-16 -9.012560597070725e-01
-1.214807160910194e-16 -1.848278476078092e-16  5.007167100087573e-01
-9.012560597070725e-01  5.007167100087573e-01 -7.223273641737787e-17

-2.887824349851169e-16 -1.543121782485745e-16 -1.017506152540625e+00
-1.543121782485745e-16 -2.215984637460687e-16  4.221826669219614e-01
-1.017506152540625e+00  4.221826669219614e-01 -8.319327295738358e-17

-4.176878337839012e-16 -2.172188157944748e-16 -1.057399044196975e+00
-2.172188157944748e-16 -1.658212999967593e-16  4.337831499943040e-01
-1.057399044196975e+00  4.337831499943040e-01 -1.191977789517807e-16

-5.986163527747645e-16 -3.035865766263654e-16 -1.055403214315127e+00
-3.035865766263654e-16 -3.111559602021333e-16  4.163020056327307e-01
-1.055403214315127e+00  4.163020056327307e-01 -1.710307234925508e-16

-8.899320566599869e-16 -4.260379244289609e-16 -1.048631056213635e+00
-4.260379244289609e-16 -5.019145939436299e-16  4.221868862417620e-01
-1.048631056213635e+00  4.221868862417620e-01 -2.548196093744104e-16

-1.333518418248209e-15 -5.786321708476034e-16 -1.041876938618720e+00
-5.786321708476034e-16 -3.429718540676132e-16  4.234775513809886e-01
-1.041876938618720e+00  4.234775513809886e-01 -3.850031627517980e-16

-2.029043242033530e-15 -7.479435068641549e-16 -1.039164903269559e+00
-7.479435068641549e-16 -7.324505136270365e-16  4.195751443179631e-01
-1.039164903269559e+00  4.195751443179631e-01 -6.005541075730992e-16

-2.636755542327115e-15 -8.343677496697659e-16 -1.009179655253895e+00
-8.343677496697659e-16 -1.533161186660480e-15  4.482239060128418e-01
-1.009179655253895e+00  4.482239060128418e-01 -8.045902002289963e-16

-3.360740016595852e-15 -8.856088898737376e-16 -1.026781907247128e+00
-8.856088898737376e-16 -1.947237600777583e-15  4.231881171901598e-01
-1.026781907247128e+00  4.231881171901598e-01 -1.064696197551392e-15

-4.747431917663775e-15 -8.097423727629768e-16 -1.020998417838177e+00
-8.097423727629768e-16 -1.838239409171959e-15  4.267362111731239e-01
-1.020998417838177e+00  4.267362111731239e-01 -1.634978091789526e-15

-7.003778660014489e-15 -5.151356864690146e-16 -1.014353033186634e+00
-5.151356864690146e-16 -1.897746436495871e-15  4.286932876737403e-01
-1.014353033186634e+00  4.286932876737403e-01 -2.683177419577705e-15

-9.652740280544774e-15  5.246716196393198e-17 -1.023228824510617e+00
 5.246716196393198e-17 -2.288521796103678e-15  4.098621065055360e-01
-1.023228824510617e+00  4.098621065055360e-01 -4.088915899417004e-15

-1.416325150331277e-14  1.330150806234014e-15 -9.986673162565702e-01
 1.330150806234014e-15 -2.679961539902948e-15  4.312225307758970e-01
-9.986673162565702e-01  4.312225307758970e-01 -6.631212425016126e-15

 1.552989795773821e-14  2.524040029863729e-14 -1.005231197487909e+00
 2.524040029863729e-14  3.101477246156463e-14  4.266560038351905e-01
-1.005231197487909e+00  4.266560038351905e-01 -1.890267803293887e-15

-6.425724692714218e-13 -1.539145948610357e-13 -1.007007059175608e+00
-1.539145948610357e-13 -2.784800824598328e-13  4.310131181287976e-01
-1.007007059175608e+00  4.310131181287976e-01 -2.116106148030154e-13

 1.973223204833638e-14  3.891181232750814e-15 -1.012074462930621e+00
 3.891181232750814e-15  2.410005016339830e-14  4.203806723402012e-01
-1.012074462930621e+00  4.203806723402012e-01 -3.948329067646373e-15

-7.383252988900956e-15 -1.178376939810640e-14 -1.012163596822871e+00
-1.178376939810640e-14 -6.732195201797312e-17  4.208816815671634e-01
-1.012163596822871e+00  4.208816815671634e-01 -8.287734747628297e-15

-6.489183965983389e-13 -1.504588314536878e-13 -1.012681305611390e+00
-1.504588314536878e-13 -3.229146322381495e-13  4.216266282449459e-01
-1.012681305611390e+00  4.216266282449459e-01 -1.597913634203558e-13

-4.057364730657354e-15 -9.056956496702650e-15 -1.013373800520628e+00
-9.056956496702650e-15  8.988841735995843e-16  4.206058653985240e-01
-1.013373800520628e+00  4.206058653985240e-01 -4.557366025286608e-15

-3.172959452655124e-15 -7.172483060209060e-15 -1.012502147351473e+00
-7.172483060209060e-15  1.565413122675906e-15  4.205865938383596e-01
-1.012502147351473e+00  4.205865938383596e-01 -3.352720260063456e-15

-2.640647613409317e-15 -4.498860317777593e-15 -1.012407716639479e+00
-4.498860317777593e-15  1.645563175750185e-15  4.209795840664112e-01
-1.012407716639479e+00  4.209795840664112e-01 -2.050633140606385e-15

-1.939779061245261e-15 -2.096658629527372e-15 -1.012803757418575e+00
-2.096658629527372e-15  1.231198773892111e-15  4.207422374270737e-01
-1.012803757418575e+00  4.207422374270737e-01 -1.085889150006517e-15

-1.395034317317373e-15 -1.010829244601276e-15 -1.014127485346815e+00
-1.010829244601276e-15  7.578826987663286e-16  4.207875371302064e-01
-1.014127485346815e+00  4.207875371302064e-01 -6.451557601367314e-16

-9.713425639746783e-16 -4.789271822986899e-16 -1.016227426738816e+00
-4.789271822986899e-16  4.496701247292516e-16  4.202439395224587e-01
-1.016227426738816e+00  4.202439395224587e-01 -3.980408739882547e-16

-6.690318522686991e-16 -2.245321636685862e-16 -1.019884713188859e+00
-2.245321636685862e-16  2.449225511588823e-16  4.196325627695360e-01
-1.019884713188859e+00  4.196325627695360e-01 -2.533811952274122e-16

-4.691649950366083e-16 -1.073041343010153e-16 -1.022758292761399e+00
-1.073041343010153e-16  1.358772768348057e-16  4.226970635053938e-01
-1.022758292761399e+00  4.226970635053938e-01 -1.685590400217152e-16

-3.497861135717584e-16 -5.796887202127631e-17 -1.016954268151575e+00
-5.796887202127631e-17  1.095332702248627e-16  4.182505282923495e-01
-1.016954268151575e+00  4.182505282923495e-01 -1.219135572169862e-16

-2.331773733701849e-16 -2.942728126089097e-17 -1.019110708457115e+00
-2.942728126089097e-17  1.152433430720986e-17  4.152106711418938e-01
-1.019110708457115e+00  4.152106711418938e-01 -9.224255087553036e-17

-2.046890404596590e-16 -1.470174348565844e-17 -1.034102953950533e+00
-1.470174348565844e-17 -2.628853262209908e-17  4.215564604692750e-01
-1.034102953950533e+00  4.215564604692750e-01 -6.645419967185889e-17

-1.712916561220771e-16 -8.555781540077181e-18 -1.033659539594795e+00
-8.555781540077181e-18  1.241358320790830e-17  4.274008223456114e-01
-1.033659539594795e+00  4.274008223456114e-01 -5.441808705938873e-17

-1.413883266436240e-16 -4.144291696348753e-18 -1.031831269114997e+00
-4.144291696348753e-18 -4.682236532123906e-17  4.064464214603268e-01
-1.031831269114997e+00  4.064464214603268e-01 -4.353532342185784e-17

-1.133545706263697e-16 -1.032422962973649e-18 -1.026846418062001e+00
-1.032422962973649e-18 -1.092247700155546e-17  4.222877155856450e-01
-1.026846418062001e+00  4.222877155856450e-01 -3.386145757394392e-17

-9.376903496313712e-17  8.249636442851059e-19 -1.029258835654488e+00
 8.249636442851059e-19 -1.479631889593541e-17  4.040839550637069e-01
-1.029258835654488e+00  4.040839550637069e-01 -2.647329661958497e-17

-7.781811138182731e-17  1.844846719714567e-18 -1.006794027691200e+00
 1.844846719714567e-18 -1.515518888347076e-17  4.498724812531002e-01
-1.006794027691200e+00  4.498724812531002e-01 -2.238452544010167e-17

-6.573265924403946e-17  2.193015089542932e-18 -9.955742651787612e-01
 2.193015089542932e-18 -2.311587771914721e-18  3.801602990221688e-01
-9.955742651787612e-01  3.801602990221688e-01 -1.754665298797475e-17

-5.807656680852533e-17  2.397512608509245e-18 -9.857506162146740e-01
 2.397512608509245e-18 -8.440230793250514e-18  3.453505755989251e-01
-9.857506162146740e-01  3.453505755989251e-01 -1.518286290199421e-17

-4.692311134754099e-17  2.368798049668263e-18 -1.006001963058560e+00
 2.368798049668263e-18 -3.677091571801246e-18  4.385471051648740e-01
-1.006001963058560e+00  4.385471051648740e-01 -1.109686196451663e-17

-3.731733107756397e-17  2.372757812190769e-18 -1.023721227574761e+00
 2.372757812190769e-18 -1.080554653277565e-17  4.041676907916329e-01
-1.023721227574761e+00  4.041676907916329e-01 -6.861723038782851e-18

-2.977487036820179e-17  2.228937211492487e-18 -1.031982988070430e+00
 2.228937211492487e-18 -1.922043380306854e-17  4.035732456338256e-01
-1.031982988070430e+00  4.035732456338256e-01 -3.850603822078965e-18

-2.488290672758301e-17  2.079259884552673e-18 -1.023635974356404e+00
 2.079259884552673e-18 -1.559553177365450e-17  4.255105629130491e-01
-1.023635974356404e+00  4.255105629130491e-01 -2.739915962315094e-18

-2.218241196787572e-17  2.012195475409172e-18 -9.935436718744063e-01
 2.012195475409172e-18  1.537525715212238e-18  4.218064086355038e-01
-9.935436718744063e-01  4.218064086355038e-01 -3.143515675669272e-18

-1.963181532608416e-17  1.918917135508148e-18 -9.603495921639881e-01
 1.918917135508148e-18 -9.262605820238708e-18  3.922663612592133e-01
-9.603495921639881e-01  3.922663612592133e-01 -3.459148106224796e-18

-1.563198912802006e-17  1.887156506238440e-18 -1.046997708599302e+00
 1.887156506238440e-18  1.929680251911866e-17  3.146560908662700e-01
-1.046997708599302e+00  3.146560908662700e-01  3.594440120106656e-18

-1.628288086355441e-17  1.664351314426313e-18 -9.622937601220788e-01
 1.664351314426313e-18 -8.372436687170514e-18  4.355932615336437e-01
-9.622937601220788e-01  4.355932615336437e-01 -2.643325178854803e-18

-1.396447296083898e-17  1.471521461087695e-18 -9.809165838508714e-01
 1.471521461087695e-18 -1.826257643645664e-17  4.342186225161837e-01
-9.809165838508714e-01  4.342186225161837e-01 -9.784276281454537e-19

-1.107759944128471e-17  1.427976182249895e-18 -1.019854507459334e+00
 1.427976182249895e-18 -2.318206783434555e-17  3.968154322623589e-01
-1.019854507459334e+00  3.968154322623589e-01  2.375415004248748e-18

-8.117112376842471e-18  1.188251654123784e-18 -1.013390932166192e+00
 1.188251654123784e-18 -5.954802915838378e-18  3.991770170204774e-01
-1.013390932166192e+00  3.991770170204774e-01  2.972051973745334e-18

-6.715989030205427e-18  1.080395315494431e-18 -9.870336873889756e-01
 1.080395315494431e-18 -1.868129001917477e-17  4.323212437277679e-01
-9.870336873889756e-01  4.323212437277679e-01  1.736965945558918e-18

-5.487990341076565e-18  1.048166227908331e-18 -9.882798323590026e-01
 1.048166227908331e-18  6.753846453901987e-18  4.114670455480783e-01
-9.882798323590026e-01  4.114670455480783e-01  2.548336802844321e-18

-3.632459416944640e-18  9.030761567523212e-19 -1.003457926396786e+00
 9.030761567523212e-19  2.800914152348633e-19  4.053981431750550e-01
-1.003457926396786e+00  4.053981431750550e-01  4.119244723729953e-18

-2.145986953197210e-18  8.486248952583909e-19 -1.009017372787974e+00
 8.486248952583909e-19  3.107841959955349e-18  4.084047689926641e-01
-1.009017372787974e+00  4.084047689926641e-01  4.973452199171467e-18

-1.645689384938897e-18  7.666082499728268e-19 -9.915793130050029e-01
 7.666082499728268e-19 -4.353493581201120e-18  3.931292974598810e-01
-9.915793130050029e-01  3.931292974598810e-01  4.483624318634481e-18

-1.829424430347160e-18  7.580919473500078e-19 -9.566328746505011e-01
 7.580919473500078e-19  5.014712309673106e-17  4.316055067439037e-01
-9.566328746505011e-01  4.316055067439037e-01  2.147454918189604e-18

-9.263978843766135e-19  6.713734897647544e-19 -9.577524232797567e-01
 6.713734897647544e-19 -2.974358184325209e-17  4.098697847405752e-01
-9.577524232797567e-01  4.098697847405752e-01  2.712138985830857e-18

 3.960779923619195e-19  6.073899859449032e-19 -9.829843844630344e-01
 6.073899859449032e-19 -2.883712962225270e-17  4.043730019160985e-01
-9.829843844630344e-01  4.043730019160985e-01  4.318791560270346e-18

 1.097200027545178e-18  5.077697979256005e-19 -9.945177988686317e-01
 5.077697979256005e-19 -3.591660228989057e-18  4.203705402573372e-01
-9.945177988686317e-01  4.203705402573372e-01  4.862415046024030e-18

 1.527612420214343e-18  4.296975302590077e-19 -9.997558286210848e-01
 4.296975302590077e-19  5.295593131800571e-18  4.390185707191900e-01
-9.997558286210848e-01  4.390185707191900e-01  4.967349262033495e-18

 2.561969465329268e-18  3.926462906201489e-19 -1.019409739863947e+00
 3.926462906201489e-19 -1.299785417169325e-17  4.155510423289749e-01
-1.019409739863947e+00  4.155510423289749e-01  6.442017524964253e-18

 2.896091682395497e-18  3.393934936479907e-19 -1.010906513894410e+00
 3.393934936479907e-19 -1.259089470979897e-17  4.168035776451755e-01
-1.010906513894410e+00  4.168035776451755e-01  6.074342074151449e-18

 3.329840464889283e-18  3.147659713457849e-19 -1.013524515156442e+00
 3.147659713457849e-19 -2.048454326560746e-18  4.093685040760496e-01
-1.013524515156442e+00  4.093685040760496e-01  6.480783264742773e-18

 3.527466530928824e-18  2.808189860946649e-19 -1.009704874362423e+00
 2.808189860946649e-19 -2.326055053412625e-17  4.137512402065671e-01
-1.009704874362423e+00  4.137512402065671e-01  6.299061035559611e-18

 4.077541594060911e-18  2.535888691397450e-19 -1.010121591429259e+00
 2.535888691397450e-19  8.716867095069450e-18  4.165229226343795e-01
-1.010121591429259e+00  4.165229226343795e-01  6.530670090771947e-18

 4.468540317708326e-18  2.135915296887324e-19 -1.009851444617602e+00
 2.135915296887324e-19  1.561460973114086e-17  4.168330512554142e-01
-1.009851444617602e+00  4.168330512554142e-01  6.620061355234067e-18

 4.732488380523216e-18  1.805014668629087e-19 -1.010202677890752e+00
 1.805014668629087e-19 -3.095999876603737e-17  4.142638555004279e-01
-1.010202677890752e+00  4.142638555004279e-01  6.789898745302747e-18

 5.047768027266926e-18  1.417983751462587e-19 -1.009966683929786e+00
 1.417983751462587e-19 -1.227412413656091e-17  4.150342266536436e-01
-1.009966683929786e+00  4.150342266536436e-01  6.890899530945219e-18

 5.384024583251648e-18  1.574481248250450e-19 -1.011777685278810e+00
 1.574481248250450e-19  8.114616357809545e-18  4.127559950855736e-01
-1.011777685278810e+00  4.127559950855736e-01  7.138304966511900e-18

 5.402482293110756e-18  1.318562884957136e-19 -1.005138201152267e+00
 1.318562884957136e-19  9.676796866186684e-18  4.158897327647087e-01
-1.005138201152267e+00  4.158897327647087e-01  6.762847581593529e-18

 5.545839381831114e-18  1.238390255083576e-19 -1.006015402860430e+00
 1.238390255083576e-19  2.980542832575417e-17  4.138794613418326e-01
-1.006015402860430e+00  4.138794613418326e-01  6.855229556433225e-18

 5.811635082142724e-18  1.271900588004544e-19 -1.006213175061042e+00
 1.271900588004544e-19  3.389580303735083e-17  4.141628410120154e-01
-1.006213175061042e+00  4.141628410120154e-01  6.990748202330477e-18

 6.177898490681688e-18  1.079423491675309e-19 -1.012277679459690e+00
 1.079423491675309e-19  6.834530344616606e-18  4.077047551519156e-01
-1.012277679459690e+00  4.077047551519156e-01  7.542720201021285e-18

 6.297142925957660e-18  8.888937258637056e-20 -1.011830178827062e+00
 8.888937258637056e-20 -6.178910639477363e-18  4.105212969133467e-01
-1.011830178827062e+00  4.105212969133467e-01  7.508337647787477e-18

 6.447236587339539e-18  7.193248012427088e-20 -1.008185862238665e+00
 7.193248012427088e-20  6.755831515425423e-18  4.095100140584346e-01
-1.008185862238665e+00  4.095100140584346e-01  7.396606834365443e-18

 6.611861276642579e-18  9.281964760326165e-20 -1.006798926117004e+00
 9.281964760326165e-20  1.063296734832801e-17  4.107837446681177e-01
-1.006798926117004e+00  4.107837446681177e-01  7.352406344625069e-18

 6.688813682000508e-18  4.519766593602258e-20 -1.002764425970765e+00
 4.519766593602258e-20 -2.012040268629121e-17  4.133930617537560e-01
-1.002764425970765e+00  4.133930617537560e-01  7.194915475363430e-18

 6.807217195880373e-18  3.578516005228284e-20 -9.987409006647557e-01
 3.578516005228284e-20  7.482400093147361e-18  4.137706274016211e-01
-9.987409006647557e-01  4.137706274016211e-01  7.033774757292090e-18

 7.038383232175249e-18  3.580106389555129e-20 -1.002001118292478e+00
 3.580106389555129e-20 -1.288078794981160e-17  4.093454771980214e-01
-1.002001118292478e+00  4.093454771980214e-01  7.336285926109017e-18

 7.222156421007938e-18  2.295700125873903e-20 -1.004944144742485e+00
 2.295700125873903e-20  2.618568859661655e-17  4.046372779917413e-01
-1.004944144742485e+00  4.046372779917413e-01  7.647110800970042e-18

 7.201048545326816e-18  6.639676222520137e-21 -9.986081040986993e-01
 6.639676222520137e-21 -1.972464064994742e-17  4.161908649911664e-01
-9.986081040986993e-01  4.161908649911664e-01  7.176808882445035e-18

 7.462573007316528e-18 -3.395944709636359e-21 -1.001698230173115e+00
-3.395944709636359e-21  1.481116062982660e-17  4.066519041755182e-01
-1.001698230173115e+00  4.066519041755182e-01  7.619061289481412e-18

 7.514027533896737e-18 -8.956106638456347e-21 -9.956937144729561e-01
-8.956106638456347e-21  1.478949190845732e-17  4.098788130010278e-01
-9.956937144729561e-01  4.098788130010278e-01  7.394955503204048e-18

 7.927649826119171e-18  1.871121544002811e-20 -1.005312370770547e+00
 1.871121544002811e-20  4.753066376835230e-17  3.940210048556818e-01
-1.005312370770547e+00  3.940210048556818e-01  8.290297190688263e-18

 7.718144621121456e-18 -1.424451025573993e-20 -9.937339023332546e-01
-1.424451025573993e-20  1.880922666767421e-18  4.020886511286351e-01
-9.937339023332546e-01  4.020886511286351e-01  7.552437252672877e-18

 7.771004377734066e-18 -8.438161129427453e-21 -9.919268983432902e-01
-8.438161129427453e-21  3.416209159427262e-17  3.998347455898187e-01
-9.919268983432902e-01  3.998347455898187e-01  7.495512022159117e-18

 7.894433598174727e-18 -1.551133975306080e-20 -9.928088513990118e-01
-1.551133975306080e-20 -7.320101291423319e-18  4.087295103431537e-01
-9.928088513990118e-01  4.087295103431537e-01  7.502356455626586e-18

 8.230058491924593e-18 -5.990649972975474e-21 -1.001585249506004e+00
-5.990649972975474e-21 -8.861379651917531e-19  4.011402401876533e-01
-1.001585249506004e+00  4.011402401876533e-01  8.240898501477525e-18

 8.301155408490825e-18  1.663070726483417e-20 -1.000399314854291e+00
 1.663070726483417e-20  1.391711112636571e-17  3.934780732079709e-01
-1.000399314854291e+00  3.934780732079709e-01  8.323403203872949e-18

 8.127754136736378e-18  6.319878400138545e-21 -9.899081496106205e-01
 6.319878400138545e-21  1.506859820473764e-17  3.972423291953997e-01
-9.899081496106205e-01  3.972423291953997e-01  7.648626891423382e-18

 7.750752545756918e-18  3.064037372415098e-20 -9.706060300228767e-01
 3.064037372415098e-20  2.870401364951731e-17  4.127492977012425e-01
-9.706060300228767e-01  4.127492977012425e-01  6.286568933918143e-18

 7.944037527902266e-18 -1.523980231431267e-21 -9.764497714587614e-01
-1.523980231431267e-21  1.826159933614161e-17  4.045223577523761e-01
-9.764497714587614e-01  4.045223577523761e-01  6.748862537338198e-18

 8.289186110978622e-18 -8.680153278851488e-21 -9.869189004991055e-01
-8.680153278851488e-21 -9.438267301746329e-18  3.997989242274371e-01
-9.869189004991055e-01  3.997989242274371e-01  7.518672457599147e-18

 8.775500952444108e-18  1.764608346178706e-20 -1.002798645290754e+00
 1.764608346178706e-20  3.771908168519516e-17  3.923251304028970e-01
-1.002798645290754e+00  3.923251304028970e-01  8.645893991975662e-18

 8.722872625931151e-18 -9.187346280708089e-21 -9.994335776633958e-01
-9.187346280708089e-21 -1.063490023199417e-18  3.939625688520239e-01
-9.994335776633958e-01  3.939625688520239e-01  8.440664770522711e-18

 8.558411579053091e-18 -3.531943236413172e-20 -9.885038089877408e-01
-3.531943236413172e-20 -1.310225180384661e-17  3.883241869182614e-01
-9.885038089877408e-01  3.883241869182614e-01  7.905050579735607e-18

 8.176537635020407e-18 -3.120707668368140e-20 -9.696805618012224e-01
-3.120707668368140e-20 -9.933555455549787e-18  4.085199789485752e-01
-9.696805618012224e-01  4.085199789485752e-01  6.578544387842708e-18

 8.038886719329105e-18  2.023466123652386e-20 -9.604654547945383e-01
 2.023466123652386e-20  4.969362632154395e-17  4.167430995920351e-01
-9.604654547945383e-01  4.167430995920351e-01  5.978374616566963e-18

 8.620549714469868e-18 -1.009162177177945e-19 -9.797300923361393e-01
-1.009162177177945e-19 -1.913071012915659e-17  3.796183300753233e-01
-9.797300923361393e-01  3.796183300753233e-01  7.791636983420561e-18

 8.649318357609855e-18 -1.749410346805302e-20 -9.772605011073214e-01
-1.749410346805302e-20  2.477097441588143e-17  3.896859803662192e-01
-9.772605011073214e-01  3.896859803662192e-01  7.584410516088645e-18

 8.562430187129881e-18  6.271061634622631e-21 -9.722841233939785e-01
 6.271061634622631e-21  3.702770167243986e-17  4.023003143668971e-01
-9.722841233939785e-01  4.023003143668971e-01  7.229967384511990e-18

 8.708463138760147e-18 -1.164156103870999e-20 -9.737937639940780e-01
-1.164156103870999e-20  3.014740728476149e-17  3.923880001352178e-01
-9.737937639940780e-01  3.923880001352178e-01  7.545887462847169e-18

 9.035657469081885e-18  6.248098120715819e-20 -9.824390231375092e-01
 6.248098120715819e-20  7.519601395409444e-17  3.862048671468646e-01
-9.824390231375092e-01  3.862048671468646e-01  8.462762793676965e-18

 8.427054767140229e-18 -3.938448795001106e-20 -9.508242221650806e-01
-3.938448795001106e-20 -4.685052026393119e-17  4.180728242019301e-01
-9.508242221650806e-01  4.180728242019301e-01  6.623899175394118e-18

 6.417404165141699e-18 -1.945073106692173e-19 -8.553457488970998e-01
-1.945073106692173e-19 -4.779208466237346e-17  4.218838530141329e-01
-8.553457488970998e-01  4.218838530141329e-01  1.311214611315938e-18

 1.005806644974569e-17 -3.626398677587823e-19 -9.937559076532287e-01
-3.626398677587823e-19 -1.714427417701229e-17  2.499401896268696e-01
-9.937559076532287e-01  2.499401896268696e-01  1.262410636717350e-17

 7.509660120257843e-18 -2.508865755579281e-19 -8.933606290590983e-01
-2.508865755579281e-19 -4.667314739789826e-17  3.442925365750741e-01
-8.933606290590983e-01  3.442925365750741e-01  4.871947580510062e-18

 6.390976237291337e-18 -5.231459203380658e-20 -8.471746972269746e-01
-5.231459203380658e-20  3.159150758631694e-17  4.395023629954961e-01
-8.471746972269746e-01  4.395023629954961e-01  9.484751043376914e-19

 7.922273476253248e-18 -2.114235307923558e-19 -9.116337274738393e-01
-2.114235307923558e-19 -4.983629001586510e-17  3.959401344072451e-01
-9.116337274738393e-01  3.959401344072451e-01  5.214765989134541e-18

 8.170099768934773e-18 -4.373291777162946e-20 -9.242515279531089e-01
-4.373291777162946e-20  2.808452813138382e-17  4.013949343842963e-01
-9.242515279531089e-01  4.013949343842963e-01  5.640886230112240e-18

 8.617440489343647e-18 -9.435296614562431e-20 -9.437856177150999e-01
-9.435296614562431e-20  2.475775448728747e-17  4.076653075296334e-01
-9.437856177150999e-01  4.076653075296334e-01  6.557819651957915e-18

 8.979432420699234e-18 -1.465369603246056e-19 -9.614785585038326e-01
-1.465369603246056e-19 -3.780571905410570e-18  4.014654223246763e-01
-9.614785585038326e-01  4.014654223246763e-01  7.376862013158559e-18

 9.548568410679146e-18 -1.229254216242013e-19 -9.866601568155760e-01
-1.229254216242013e-19 -5.068764800416807e-19  3.803425889372226e-01
-9.866601568155760e-01  3.803425889372226e-01  8.834079485188747e-18

 9.555371186715262e-18 -1.062413301135252e-19 -9.877433174120267e-01
-1.062413301135252e-19  8.958393141307291e-18  3.995676902251384e-01
-9.877433174120267e-01  3.995676902251384e-01  8.592841508451905e-18

 8.619962542374929e-18 -3.293572124489605e-20 -9.495764626474009e-01
-3.293572124489605e-20  2.693486475610943e-17  4.312754844104596e-01
-9.495764626474009e-01  4.312754844104596e-01  5.668456216484663e-18

 9.740684353517230e-18 -1.560335985150444e-19 -9.932715165987420e-01
-1.560335985150444e-19 -4.192953179319237e-17  3.367029464161916e-01
-9.932715165987420e-01  3.367029464161916e-01  9.354018058274477e-18

 9.768881173134653e-18  3.308355942868413e-20 -9.937913719319925e-01
 3.308355942868413e-20  7.742726957840323e-17  3.576116213934740e-01
-9.937913719319925e-01  3.576116213934740e-01  9.196145151781884e-18

 7.996543895692602e-18 -2.546650689070957e-19 -9.197508809476898e-01
-2.546650689070957e-19 -1.074494362053468e-17  4.767715248896645e-01
-9.197508809476898e-01  4.767715248896645e-01  3.413611954020293e-18

 9.852731884445599e-18 -1.395075723875509e-19 -9.953101860427650e-01
-1.395075723875509e-19  4.696369813654320e-18  3.835601420574679e-01
-9.953101860427650e-01  3.835601420574679e-01  9.049942054948872e-18

 9.174412838902639e-18 -1.402932465964454e-19 -9.627531510047427e-01
-1.402932465964454e-19 -6.494388681035369e-18  3.887631503656417e-01
-9.627531510047427e-01  3.887631503656417e-01  7.055480614886818e-18

 9.499093765364414e-18 -7.447237967297753e-20 -9.735912599528209e-01
-7.447237967297753e-20  2.991868166583563e-17  3.842105112642784e-01
-9.735912599528209e-01  3.842105112642784e-01  7.805281671306706e-18

 9.645520900621029e-18 -1.002100950369142e-19 -9.782587799204294e-01
-1.002100950369142e-19  1.417237431462315e-17  4.018836309526267e-01
-9.782587799204294e-01  4.018836309526267e-01  7.928024118119666e-18

 9.671938708047993e-18 -5.129291087762984e-20 -9.787001069906428e-01
-5.129291087762984e-20  3.257016566282724e-17  4.040478219352857e-01
-9.787001069906428e-01  4.040478219352857e-01  7.958509349130029e-18

 9.984144344524801e-18 -1.623584850572154e-19 -9.870596969121159e-01
-1.623584850572154e-19 -2.135629475040942e-17  3.759779155401459e-01
-9.870596969121159e-01  3.759779155401459e-01  8.916466908777392e-18

 9.721018839686879e-18 -1.122800908415611e-19 -9.740560529615053e-01
-1.122800908415611e-19  6.841922588117874e-18  3.759586192692331e-01
-9.740560529615053e-01  3.759586192692331e-01  8.269946167896396e-18

 9.489916221198922e-18 -8.896465019887259e-20 -9.611676864821848e-01
-8.896465019887259e-20  1.478458938389562e-17  3.879877072627342e-01
-9.611676864821848e-01  3.879877072627342e-01  7.480546757130880e-18

 9.547161161304891e-18 -1.311987536322112e-19 -9.604306419568960e-01
-1.311987536322112e-19 -2.173782050970025e-17  3.946560673043774e-01
-9.604306419568960e-01  3.946560673043774e-01  7.700152514050942e-18

 9.458544998127816e-18 -6.690754912535272e-20 -9.499373921647449e-01
-6.690754912535272e-20  1.238289248513317e-17  3.848383831504887e-01
-9.499373921647449e-01  3.848383831504887e-01  7.671087093000155e-18

 7.990135549236768e-18  2.572914952455028e-20 -8.863175683773215e-01
 2.572914952455028e-20  5.603808734065457e-17  4.124534005703927e-01
-8.863175683773215e-01  4.124534005703927e-01  3.512487741443672e-18

 7.986305808575093e-18 -1.478903696164438e-19 -8.809805930333575e-01
-1.478903696164438e-19  1.792962895575393e-17  3.761415070623426e-01
-8.809805930333575e-01  3.761415070623426e-01  3.826349720869717e-18

 1.029085767178523e-17 -2.436893048809722e-19 -9.738321824845020e-01
-2.436893048809722e-19 -3.163921218316374e-17  2.753944350786883e-01
-9.738321824845020e-01  2.753944350786883e-01  1.087982275244125e-17

 7.908567994805670e-18 -1.281184538813425e-19 -8.768938882942370e-01
-1.281184538813425e-19  1.776713892281327e-17  4.241288590672615e-01
-8.768938882942370e-01  4.241288590672615e-01  3.149849305603106e-18

 8.938014599375617e-18 -7.919342119480782e-21 -9.221380785444040e-01
-7.919342119480782e-21  5.391703405750027e-17  3.964355215332642e-01
-9.221380785444040e-01  3.964355215332642e-01  5.904512814713380e-18

 9.760271173915082e-18 -1.402092005869943e-21 -9.586966897605508e-01
-1.402092005869943e-21  3.877774098588214e-17  3.543831567248771e-01
-9.586966897605508e-01  3.543831567248771e-01  8.259691846586547e-18

 9.517191382461250e-18 -2.037657635238308e-19 -9.479522526128296e-01
-2.037657635238308e-19 -2.069174904417884e-17  4.000684167331510e-01
-9.479522526128296e-01  4.000684167331510e-01  7.051252521396725e-18

 9.737563272867059e-18 -1.349362062098572e-19 -9.593306409536383e-01
-1.349362062098572e-19  1.334664677288219e-17  4.162062980758281e-01
-9.593306409536383e-01  4.162062980758281e-01  7.506380506742701e-18

 9.439033835329396e-18 -6.297262748467264e-20 -9.469522450624871e-01
-6.297262748467264e-20  2.189769130055805e-17  4.101745116891731e-01
-9.469522450624871e-01  4.101745116891731e-01  6.557571840595507e-18

 1.012704491325223e-17 -1.718709158582925e-20 -9.735225321133757e-01
-1.718709158582925e-20  5.331426189511303e-17  3.358111202774289e-01
-9.735225321133757e-01  3.358111202774289e-01  9.016799730544824e-18

 1.027578910733031e-17 -1.084921940983968e-20 -9.787698157516496e-01
-1.084921940983968e-20  4.274664677684013e-17  3.506849147052595e-01
-9.787698157516496e-01  3.506849147052595e-01  9.172570491340124e-18

 9.672262916346387e-18 -1.268503738380175e-19 -9.546531103585892e-01
-1.268503738380175e-19  4.870849673451235e-18  4.271571484115687e-01
-9.546531103585892e-01  4.271571484115687e-01  6.993216776872237e-18

 1.022266324823858e-17 -2.142462512334323e-19 -9.747768658576969e-01
-2.142462512334323e-19 -5.232237533480715e-17  3.841806948060605e-01
-9.747768658576969e-01  3.841806948060605e-01  8.779782588037580e-18

 9.966452198901531e-18 -1.642171012341737e-19 -9.615961493055704e-01
-1.642171012341737e-19 -5.035435022450290e-18  3.748419884181204e-01
-9.615961493055704e-01  3.748419884181204e-01  8.211466182803517e-18

 9.090067201393017e-18 -2.025764247481589e-19 -9.213789498731050e-01
-2.025764247481589e-19 -2.308148365398368e-17  3.855759991126486e-01
-9.213789498731050e-01  3.855759991126486e-01  5.814530579424569e-18

 1.038631608558870e-17 -2.674740968120486e-19 -9.709102790311139e-01
-2.674740968120486e-19 -2.926728365256289e-17  3.244017822338896e-01
-9.709102790311139e-01  3.244017822338896e-01  9.896195788711030e-18

 8.701802196384909e-18 -9.661620502516660e-20 -9.030574601471223e-01
-9.661620502516660e-20  1.642843322210850e-17  4.017321251673494e-01
-9.030574601471223e-01  4.017321251673494e-01  4.656897706808244e-18

 9.200355430155984e-18  5.571511494943503e-20 -9.242568098292007e-01
 5.571511494943503e-20  6.171958074736414e-17  3.711355242844231e-01
-9.242568098292007e-01  3.711355242844231e-01  6.099639646864149e-18

 9.743229876186376e-18 -1.514316600169869e-19 -9.487738036443056e-01
-1.514316600169869e-19 -2.642666756948931e-17  3.614248877396571e-01
-9.487738036443056e-01  3.614248877396571e-01  7.499400386716798e-18

 8.933477700079744e-18 -2.020368631576069e-19 -9.145200613800167e-01
-2.020368631576069e-19  1.294029345971336e-18  4.413814684966816e-01
-9.145200613800167e-01  4.413814684966816e-01  4.603182320745643e-18

 9.745486883786447e-18 -2.792869054626574e-19 -9.506924976488953e-01
-2.792869054626574e-19 -4.921831281906622e-17  4.230048204603538e-01
-9.506924976488953e-01  4.230048204603538e-01  6.857765379207649e-18

 1.056630512912565e-17 -7.515661439552493e-20 -9.841397714913099e-01
-7.515661439552493e-20  3.913296061935623e-17  3.703924178521916e-01
-9.841397714913099e-01  3.703924178521916e-01  9.346761628905559e-18

 9.927627349379180e-18 -1.437924380812441e-19 -9.586356475784351e-01
-1.437924380812441e-19 -6.132549911812238e-18  3.910633218938052e-01
-9.586356475784351e-01  3.910633218938052e-01  7.466935784860023e-18

 9.817214103340935e-18 -1.324670376782343e-19 -9.525456788519621e-01
-1.324670376782343e-19 -1.286259497686199e-18  3.920593636690560e-01
-9.525456788519621e-01  3.920593636690560e-01  7.089640192540152e-18

 9.843642582958091e-18 -8.159236796548617e-20 -9.530391149906592e-01
-8.159236796548617e-20  3.135449570174764e-17  3.871270103763553e-01
-9.530391149906592e-01  3.871270103763553e-01  7.261607646276042e-18

 9.673828872146858e-18 -1.135099624794329e-19 -9.449991410595586e-01
-1.135099624794329e-19  2.043344421515977e-17  4.092992175728021e-01
-9.449991410595586e-01  4.092992175728021e-01  6.620616713577180e-18

 9.644587482720243e-18 -1.301842726899810e-19 -9.438565831223011e-01
-1.301842726899810e-19 -2.611713578700961e-18  4.166329933891876e-01
-9.438565831223011e-01  4.166329933891876e-01  6.542046368973932e-18

 9.244119053328160e-18 -1.307644131946044e-19 -9.230441510578005e-01
-1.307644131946044e-19  6.350859915196607e-18  3.865542491023511e-01
-9.230441510578005e-01  3.865542491023511e-01  5.713401378786467e-18

 1.098174274072584e-17 -1.256751796926167e-20 -9.932486793649612e-01
-1.256751796926167e-20  5.931939376371326e-17  2.950334844684059e-01
-9.932486793649612e-01  2.950334844684059e-01  1.125826248227306e-17

 8.636626570032838e-18 -1.383626458697572e-19 -8.970409616366942e-01
-1.383626458697572e-19  1.949899146166095e-17  4.105337571232170e-01
-8.970409616366942e-01  4.105337571232170e-01  3.680801384264430e-18

 9.195626006102510e-18 -6.257609935016305e-20 -9.277064093072003e-01
-6.257609935016305e-20  2.142463878716239e-17  4.131616387809508e-01
-9.277064093072003e-01  4.131616387809508e-01  5.328287246868856e-18

 1.007295242951534e-17 -7.288395477435769e-20 -9.692469182874961e-01
-7.288395477435769e-20  1.471894372314601e-17  3.854943329649630e-01
-9.692469182874961e-01  3.854943329649630e-01  7.748790176203469e-18

 8.845328979829800e-18  3.352515498713114e-19 -9.769749923263157e-01
 3.352515498713114e-19 -1.618838118902209e-17  4.321189989300515e-01
-9.769749923263157e-01  4.321189989300515e-01  7.555529187432557e-18

 3.973277934861892e-18  2.420558975455331e-18 -9.925272227240548e-01
 2.420558975455331e-18 -1.168745446212226e-17  4.225977561227757e-01
-9.925272227240548e-01  4.225977561227757e-01  8.372138109984957e-18

 1.735812741450627e-17 -2.757847114460971e-18 -9.963332914395098e-01
-2.757847114460971e-18  2.235231856266070e-17  3.834864999530942e-01
-9.963332914395098e-01  3.834864999530942e-01  8.862265267808236e-18

 1.244284805197049e-17 -9.604370809079435e-19 -9.774253057407151e-01
-9.604370809079435e-19  2.844342718994357e-17  3.953464862987763e-01
-9.774253057407151e-01  3.953464862987763e-01  7.493648739512947e-18

 1.260302925161228e-17 -9.662524142030035e-19 -9.857363891337997e-01
-9.662524142030035e-19  3.211469674933675e-17  4.009604690842498e-01
-9.857363891337997e-01  4.009604690842498e-01  7.824039535141144e-18

 1.052052889317369e-17 -9.169842392026525e-20 -9.957444842644297e-01
-9.169842392026525e-20  1.055112215864742e-17  4.029657141924434e-01
-9.957444842644297e-01  4.029657141924434e-01  8.300131633815103e-18

 1.040392631798504e-17 -1.308606485734232e-20 -1.002046331811457e+00
-1.308606485734232e-20  7.111344118187891e-18  4.100777036528664e-01
-1.002046331811457e+00  4.100777036528664e-01  8.484513699708993e-18

 1.078470717275875e-17 -1.205467417416025e-19 -1.004163363370860e+00
-1.205467417416025e-19  1.746192652082144e-17  4.021600026021752e-01
-1.004163363370860e+00  4.021600026021752e-01  8.527314169476557e-18

 1.067020025397731e-17 -1.097652320610101e-19 -1.002180441130751e+00
-1.097652320610101e-19  8.674088344220726e-18  4.075334653261893e-01
-1.002180441130751e+00  4.075334653261893e-01  8.237892725977808e-18

 1.083803735199710e-17 -1.119917632221045e-19 -1.008542617276668e+00
-1.119917632221045e-19  3.330416419314284e-17  4.072365108229032e-01
-1.008542617276668e+00  4.072365108229032e-01  8.643159240870993e-18

 1.079669189209949e-17 -1.178214482185159e-19 -1.007128974101027e+00
-1.178214482185159e-19  1.803221199625821e-17  4.109979247908323e-01
-1.007128974101027e+00  4.109979247908323e-01  8.439254061105886e-18

 1.089224780065927e-17 -1.136519681217722e-19 -1.009916153689126e+00
-1.136519681217722e-19  1.269162522897147e-17  4.047142031289065e-01
-1.009916153689126e+00  4.047142031289065e-01  8.628436630806171e-18

 1.097841303838383e-17 -1.256548754272682e-19 -1.014158578853462e+00
-1.256548754272682e-19  1.094628362263623e-17  4.011516134088710e-01
-1.014158578853462e+00  4.011516134088710e-01  8.945467531747131e-18

 1.106554714942512e-17 -1.036675123616871e-19 -1.017129230161688e+00
-1.036675123616871e-19  2.226126571076992e-17  4.091837399322018e-01
-1.017129230161688e+00  4.091837399322018e-01  9.029776916624149e-18

 1.077990802735610e-17 -9.210598937900840e-20 -1.005523756901517e+00
-9.210598937900840e-20  8.774791484172564e-18  4.189816744474411e-01
-1.005523756901517e+00  4.189816744474411e-01  8.192203841473372e-18

 1.100400157557622e-17 -9.977775321177027e-20 -1.012943315317836e+00
-9.977775321177027e-20  2.109711014624193e-17  3.975128949129868e-01
-1.012943315317836e+00  3.975128949129868e-01  8.926598042495354e-18

 1.093757547954172e-17 -9.786514657967076e-20 -1.009225893859924e+00
-9.786514657967076e-20  4.670407781017807e-18  4.012976140687290e-01
-1.009225893859924e+00  4.012976140687290e-01  8.734282139117313e-18

 1.112967841019168e-17 -8.606720696439643e-20 -1.015555158820098e+00
-8.606720696439643e-20  2.465397108255483e-17  4.085909007089211e-01
-1.015555158820098e+00  4.085909007089211e-01  9.105570392797069e-18

 1.093453686809649e-17 -7.774555129437081e-20 -1.007465041588543e+00
-7.774555129437081e-20 -3.983076753227145e-18  4.118884058327557e-01
-1.007465041588543e+00  4.118884058327557e-01  8.597302172072223e-18

 1.087248402723616e-17 -7.319322463488268e-20 -1.002763547111317e+00
-7.319322463488268e-20 -2.245070220726745e-18  3.973661276286501e-01
-1.002763547111317e+00  3.973661276286501e-01  8.555472308878136e-18

 1.102439855344278e-17 -8.916158302985063e-20 -1.007182705227819e+00
-8.916158302985063e-20  3.384080402197070e-17  3.916886509479929e-01
-1.007182705227819e+00  3.916886509479929e-01  9.024279152863941e-18

 1.088638317093948e-17 -6.001817374686902e-20 -9.984221242564437e-01
-6.001817374686902e-20  1.849051363875658e-17  4.034804092966065e-01
-9.984221242564437e-01  4.034804092966065e-01  8.571412107605643e-18

 1.061649059447747e-17 -2.084059375717278e-20 -9.841213584118450e-01
-2.084059375717278e-20  1.245689938404652e-17  4.188881356495744e-01
-9.841213584118450e-01  4.188881356495744e-01  7.808973625689167e-18

 9.545649179387385e-18 -1.560534019937825e-20 -9.345253862444383e-01
-1.560534019937825e-20  1.291342951073012e-17  3.923818301939625e-01
-9.345253862444383e-01  3.923818301939625e-01  5.105831027111548e-18

 1.080554294315439e-17  5.264611540237038e-19 -9.968887626535028e-01
 5.264611540237038e-19  3.189522557417929e-17  2.974832062422810e-01
-9.968887626535028e-01  2.974832062422810e-01  8.465405434535995e-18

 1.559539696847921e-17  7.751401702660976e-19 -1.198781190856735e+00
 7.751401702660976e-19  3.023562072144962e-17  1.842102555485129e-01
-1.198781190856735e+00  1.842102555485129e-01  2.200253469150717e-17

 6.583597932417906e-18 -2.627950359323784e-19 -8.155683325342199e-01
-2.627950359323784e-19  2.440589050091367e-17  6.465846975338012e-01
-8.155683325342199e-01  6.465846975338012e-01 -4.626451412172996e-18

 5.005183881017588e-18 -6.790736510248680e-20 -7.583449145800110e-01
-6.790736510248680e-20 -8.827174473062763e-18  7.104352594603045e-01
-7.583449145800110e-01  7.104352594603045e-01 -9.257470450760761e-18

 1.306971403701695e-17 -4.904539351798466e-19 -1.071181971393384e+00
-4.904539351798466e-19  3.727120876631614e-17  3.219802715112432e-01
-1.071181971393384e+00  3.219802715112432e-01  1.472955090918879e-17

 1.011947047497333e-17 -6.509737746174955e-20 -9.614575843486872e-01
-6.509737746174955e-20  7.483186412372405e-18  4.181643338190006e-01
-9.614575843486872e-01  4.181643338190006e-01  6.213400883228356e-18

 1.031572699260268e-17  2.004342498742960e-20 -9.720524941758738e-01
 2.004342498742960e-20  1.290446776561626e-17  4.228456929249118e-01
-9.720524941758738e-01  4.228456929249118e-01  6.718732353164522e-18

 1.005247997208887e-17 -8.010540237705021e-21 -9.634640346290768e-01
-8.010540237705021e-21 -1.737410879832526e-17  4.088560367356125e-01
-9.634640346290768e-01  4.088560367356125e-01  6.005744366359308e-18

 1.085500166629058e-17  7.382775948504050e-20 -1.003810532075364e+00
 7.382775948504050e-20  3.428637253301751e-17  3.810158130022456e-01
-1.003810532075364e+00  3.810158130022456e-01  8.139107316057420e-18

 1.076525630666381e-17 -9.605608473767010e-20 -1.003419704982909e+00
-9.605608473767010e-20  1.517789918241713e-17  4.616230419014050e-01
-1.003419704982909e+00  4.616230419014050e-01  7.141552140230678e-18

 1.190014248826054e-17 -1.194761195065508e-20 -1.058888008331442e+00
-1.194761195065508e-20  2.773545515976924e-17  4.471311198534720e-01
-1.058888008331442e+00  4.471311198534720e-01  1.018821213422679e-17

 1.173884181012846e-17 -4.133002219149258e-20 -1.053706655358566e+00
-4.133002219149258e-20  1.361205129893171e-17  4.189205517617898e-01
-1.053706655358566e+00  4.189205517617898e-01  9.866188472486918e-18

 1.173136559687308e-17 -1.312837950731187e-19 -1.053629637292764e+00
-1.312837950731187e-19  2.619242681978939e-17  3.977618195833919e-01
-1.053629637292764e+00  3.977618195833919e-01  1.005869870491185e-17

 1.079344460283157e-17 -9.631274961725267e-20 -1.018563122704617e+00
-9.631274961725267e-20  2.037705503927496e-17  4.400929179945115e-01
-1.018563122704617e+00  4.400929179945115e-01  7.232495317299590e-18

 1.086339143142430e-17 -1.815698144744049e-19 -1.025323446904570e+00
-1.815698144744049e-19  1.485489065162074e-17  4.486421888133339e-01
-1.025323446904570e+00  4.486421888133339e-01  7.340552319643402e-18

 1.112276437459712e-17 -2.328266620272411e-19 -1.040451090428053e+00
-2.328266620272411e-19  2.508912167741213e-17  4.535249981991033e-01
-1.040451090428053e+00  4.535249981991033e-01  8.007099307822999e-18

 1.126784310529119e-17 -2.378718238605320e-19 -1.048337800767417e+00
-2.378718238605320e-19  3.783099404582646e-17  4.563464700565065e-01
-1.048337800767417e+00  4.563464700565065e-01  8.382636559449398e-18

 1.102105998926355e-17 -2.738359491105616e-19 -1.038458334607095e+00
-2.738359491105616e-19 -3.996610887365210e-18  4.705017846099991e-01
-1.038458334607095e+00  4.705017846099991e-01  7.631048712650141e-18

 1.113451403977856e-17 -2.208764925834208e-19 -1.043243612032543e+00
-2.208764925834208e-19 -5.867537298685785e-18  4.384437068878932e-01
-1.043243612032543e+00  4.384437068878932e-01  8.147489169397603e-18

 1.099395056765493e-17 -1.105332186115039e-19 -1.040597335827932e+00
-1.105332186115039e-19  1.061084256320507e-17  4.293725613553355e-01
-1.040597335827932e+00  4.293725613553355e-01  7.625270873543767e-18

 1.537341871683290e-17  1.779612202164383e-19 -1.227416031319617e+00
 1.779612202164383e-19  1.810759364796483e-17  2.969998857676392e-01
-1.227416031319617e+00  2.969998857676392e-01  2.016242351267937e-17

 9.969207553012226e-18 -6.401323064019664e-19 -9.944813422613495e-01
-6.401323064019664e-19 -1.813285682365672e-17  5.777328506939645e-01
-9.944813422613495e-01  5.777328506939645e-01  3.866184445845412e-18

 9.206087385807088e-18 -7.937678575093729e-19 -9.641305391421882e-01
-7.937678575093729e-19 -2.714048611628531e-17  6.400450156741632e-01
-9.641305391421882e-01  6.400450156741632e-01  1.385573226772790e-18

 1.319048916857924e-17 -3.468703291300165e-19 -1.128051057706231e+00
-3.468703291300165e-19  1.408809187129654e-17  4.293166222954556e-01
-1.128051057706231e+00  4.293166222954556e-01  1.356648946185792e-17

 1.215607612364726e-17 -2.906708535851824e-19 -1.080689451107271e+00
-2.906708535851824e-19 -1.470259460516403e-17  4.030567728855078e-01
-1.080689451107271e+00  4.030567728855078e-01  1.094522137747971e-17

 1.286486408885896e-17 -2.010927920869727e-19 -1.106203242089559e+00
-2.010927920869727e-19  1.532930282868470e-17  3.471702305386581e-01
-1.106203242089559e+00  3.471702305386581e-01  1.335031304020815e-17

 1.214860662427340e-17 -2.868395371844618e-19 -1.073957897893633e+00
-2.868395371844618e-19  3.046107977435336e-18  4.360689939011873e-01
-1.073957897893633e+00  4.360689939011873e-01  1.079710844133762e-17

 1.237795165623483e-17 -7.572723385327535e-20 -1.079350504488507e+00
-7.572723385327535e-20  4.180589643347217e-17  4.413951881900648e-01
-1.079350504488507e+00  4.413951881900648e-01  1.150800321005185e-17

 1.011806838267827e-17 -2.736168914237955e-19 -9.645101168546396e-01
-2.736168914237955e-19 -4.011985636916296e-18  4.168918799623376e-01
-9.645101168546396e-01  4.168918799623376e-01  5.989339030742283e-18

 1.030553759982256e-17 -1.828610512293838e-19 -9.641711799255817e-01
-1.828610512293838e-19  2.510600433245274e-17  4.132719380294295e-01
-9.641711799255817e-01  4.132719380294295e-01  6.729357704787678e-18

 1.137539235652885e-17 -1.479722007749817e-19 -1.003444883896994e+00
-1.479722007749817e-19  1.347168750892462e-17  4.276708140441122e-01
-1.003444883896994e+00  4.276708140441122e-01  9.577675371131812e-18

 1.036807981076995e-17 -1.878980163387703e-19 -9.486095171358158e-01
-1.878980163387703e-19  3.243376319893123e-17  3.677839856688538e-01
-9.486095171358158e-01  3.677839856688538e-01  7.504258897484508e-18

 9.132263559749726e-18 -9.684325498851289e-20 -8.953454384238755e-01
-9.684325498851289e-20  2.989893014944217e-18  4.571765904183995e-01
-8.953454384238755e-01  4.571765904183995e-01  3.601146045384989e-18

 7.218787232181183e-18  1.981582761815160e-20 -8.179501663070406e-01
 1.981582761815160e-20  3.088398555184806e-17  5.415285167280989e-01
-8.179501663070406e-01  5.415285167280989e-01 -2.199256909449895e-18

 1.034955278909890e-17 -2.125119996644154e-19 -9.365003999542298e-01
-2.125119996644154e-19  3.472331193652854e-17  3.755158035650772e-01
-9.365003999542298e-01  3.755158035650772e-01  7.706201455201441e-18

 9.368591794654570e-18 -7.543507430565779e-20 -8.976419051720320e-01
-7.543507430565779e-20  8.360855082955196e-18  3.491143309565172e-01
-8.976419051720320e-01  3.491143309565172e-01  5.144478895778868e-18

 9.375412254960062e-18 -1.633795344017991e-20 -9.023192915374292e-01
-1.633795344017991e-20 -1.172322038083828e-17  3.957157774838919e-01
-9.023192915374292e-01  3.957157774838919e-01  4.655900466226401e-18

 1.059946294346434e-17 -1.420447643565074e-19 -9.571835501974374e-01
-1.420447643565074e-19 -1.643358064989683e-18  4.186293972997634e-01
-9.571835501974374e-01  4.186293972997634e-01  7.598151543653450e-18

 1.119667550955243e-17 -5.909864539041388e-20 -9.915560857299758e-01
-5.909864539041388e-20  9.584508114228043e-18  3.931008082617246e-01
-9.915560857299758e-01  3.931008082617246e-01  9.015029954640254e-18

 1.110897325699701e-17 -6.867755750494485e-20 -9.944997369054525e-01
-6.867755750494485e-20 -9.276948264202469e-18  3.936094642380316e-01
-9.944997369054525e-01  3.936094642380316e-01  8.610871424764217e-18

 1.085860806012117e-17  3.458419333499608e-21 -9.887203726361460e-01
 3.458419333499608e-21  4.193882257875441e-17  4.075331186540426e-01
-9.887203726361460e-01  4.075331186540426e-01  7.727770592305924e-18

 1.117301681997941e-17 -8.344255050441163e-20 -1.002849037016448e+00
-8.344255050441163e-20 -2.789565036578540e-17  3.891790967404001e-01
-1.002849037016448e+00  3.891790967404001e-01  8.645910524850389e-18

 1.124280539998688e-17  3.009541705275930e-20 -1.021004320173456e+00
 3.009541705275930e-20  1.267988838593532e-17  4.431452291814170e-01
-1.021004320173456e+00  4.431452291814170e-01  8.383527311777637e-18

 1.070313826157576e-17 -9.919599036976165e-21 -9.956426298306753e-01
-9.919599036976165e-21  1.357687237095455e-17  4.404425649969265e-01
-9.956426298306753e-01  4.404425649969265e-01  7.079908323611865e-18

 1.141650035709848e-17  7.971555806509804e-20 -1.028421618759494e+00
 7.971555806509804e-20  1.400192230458668e-17  4.239602933909432e-01
-1.028421618759494e+00  4.239602933909432e-01  9.068544865885385e-18

 1.104453815859236e-17  8.784867221347686e-20 -1.009910556648304e+00
 8.784867221347686e-20  1.343866756645271e-17  4.405999479776228e-01
-1.009910556648304e+00  4.405999479776228e-01  7.831943247184782e-18

 1.141946455697311e-17  7.901158084302942e-20 -1.021470909210841e+00
 7.901158084302942e-20  1.339318334330311e-17  4.153114602955630e-01
-1.021470909210841e+00  4.153114602955630e-01  9.115646135018599e-18

 1.123241091356061e-17  8.989626768310834e-20 -1.009407292938880e+00
 8.989626768310834e-20  1.419857787584120e-17  4.213756213821009e-01
-1.009407292938880e+00  4.213756213821009e-01  8.675817043450988e-18

 1.146217189452208e-17 -7.694129197927902e-20 -1.007009544860639e+00
-7.694129197927902e-20  1.162572534454360e-17  4.241967805623781e-01
-1.007009544860639e+00  4.241967805623781e-01  8.665247667357218e-18

 1.172351452454004e-17 -2.247609568986521e-19 -1.002251742451905e+00
-2.247609568986521e-19  1.312443462809648e-17  4.288872847742289e-01
-1.002251742451905e+00  4.288872847742289e-01  8.451019974375031e-18

-2.034360311710072e-17  1.192351994727673e-17 -9.970078143718124e-01
 1.192351994727673e-17  7.910543854469684e-18  4.309367413265331e-01
-9.970078143718124e-01  4.309367413265331e-01  8.056217520331584e-18

-1.956406883733884e-16  7.895928518589010e-17 -9.928729120425512e-01
 7.895928518589010e-17 -1.857164420973358e-17  4.312196560178017e-01
-9.928729120425512e-01  4.312196560178017e-01  7.493257220593180e-18

-1.339186118145479e-18  4.786546708594289e-18 -1.023767142389874e+00
 4.786546708594289e-18  1.269370612945469e-17  4.263640250839417e-01
-1.023767142389874e+00  4.263640250839417e-01  8.894890531292429e-18

-7.726745861985235e-19  4.757459428454015e-18 -1.052994518539639e+00
 4.757459428454015e-18  1.212310814760906e-17  4.521146509598251e-01
-1.052994518539639e+00  4.521146509598251e-01  1.011876182200123e-17

 1.260764210036461e-17 -5.725201055513347e-19 -1.040167599570212e+00
-5.725201055513347e-19  1.291023161003459e-17  4.556609736565686e-01
-1.040167599570212e+00  4.556609736565686e-01  9.281952088028128e-18

 1.106000852350438e-17 -9.224171856531726e-20 -1.012083830692682e+00
-9.224171856531726e-20  1.398703022862748e-17  4.150409769048655e-01
-1.012083830692682e+00  4.150409769048655e-01  7.744749043633504e-18

 1.106718731664981e-17 -1.270181007572844e-19 -1.015389710123809e+00
-1.270181007572844e-19  1.355873555909476e-17  4.325109386225642e-01
-1.015389710123809e+00  4.325109386225642e-01  7.921939687571663e-18

 1.072065260038638e-17 -1.490588394772790e-19 -1.008147558884593e+00
-1.490588394772790e-19  1.176907777879897e-17  4.931766526372814e-01
-1.008147558884593e+00  4.931766526372814e-01  6.736845589443278e-18

 1.150564162612058e-17 -3.125526209405159e-19 -1.018996572904942e+00
-3.125526209405159e-19  1.214468296956698e-17  4.682001094960074e-01
-1.018996572904942e+00  4.682001094960074e-01  7.510648201363592e-18

 9.869810561564474e-18  5.116490395539355e-19 -1.057693377281111e+00
 5.116490395539355e-19  1.471916308293761e-17  4.143100830579144e-01
-1.057693377281111e+00  4.143100830579144e-01  1.030985867827263e-17

 1.325762699088189e-17 -7.624318102890665e-19 -1.030473733882764e+00
-7.624318102890665e-19  1.360276074502523e-17  4.511365451595287e-01
-1.030473733882764e+00  4.511365451595287e-01  7.983535971971429e-18

 3.754454828517425e-17 -8.025407082426212e-18 -1.040626338217621e+00
-8.025407082426212e-18  1.503695401690381e-17  4.658046407287320e-01
-1.040626338217621e+00  4.658046407287320e-01  8.214483353799966e-18

 3.777946976265014e-17 -8.000676091551604e-18 -1.053893855032936e+00
-8.000676091551604e-18  1.546710223486811e-17  4.544829652890502e-01
-1.053893855032936e+00  4.544829652890502e-01  8.813096444055004e-18

 1.232275617839704e-16 -3.381578244961746e-17 -1.046657305109836e+00
-3.381578244961746e-17  2.275367769818570e-17  4.734022724174231e-01
-1.046657305109836e+00  4.734022724174231e-01  8.001694788315856e-18

 1.802616387133134e-17 -2.114922215574399e-18 -1.044472057339057e+00
-2.114922215574399e-18  1.338250603721049e-17  4.593256570370046e-01
-1.044472057339057e+00  4.593256570370046e-01  7.974577342774569e-18

 1.138869909821989e-17 -4.806362155961381e-20 -1.040241087823442e+00
-4.806362155961381e-20  1.311013971578655e-17  4.618889822004926e-01
-1.040241087823442e+00  4.618889822004926e-01  7.664683792091763e-18

 1.192355915828294e-17 -3.070948483049053e-20 -1.072541697163458e+00
-3.070948483049053e-20  1.487396112535053e-17  4.368107421211894e-01
-1.072541697163458e+00  4.368107421211894e-01  1.003299567190131e-17

 1.108737717094355e-17  7.315655428292695e-20 -1.066543315787719e+00
 7.315655428292695e-20  1.234837658725590e-17  4.472894692937792e-01
-1.066543315787719e+00  4.472894692937792e-01  9.499443039017849e-18

 3.286656016200011e-18  1.135463280368228e-18 -1.055540035369140e+00
 1.135463280368228e-18  1.274994457768833e-17  4.491730898958505e-01
-1.055540035369140e+00  4.491730898958505e-01  8.814236739118874e-18

-1.268155943118199e-17  3.297756875095626e-18 -1.058378660604874e+00
 3.297756875095626e-18  1.298868791167113e-17  4.393535157753619e-01
-1.058378660604874e+00  4.393535157753619e-01  9.159301146004051e-18

 4.999889972796684e-17 -5.053486294491052e-18 -1.047379205412352e+00
-5.053486294491052e-18  1.566821523496107e-17  4.389535456335268e-01
-1.047379205412352e+00  4.389535456335268e-01  8.546132651401658e-18

 6.951561234059636e-18  6.054620471783012e-19 -1.034248085853201e+00
 6.054620471783012e-19  9.731108373877590e-18  4.942460565275135e-01
-1.034248085853201e+00  4.942460565275135e-01  7.012591905608177e-18

 9.571948130678604e-18  2.750438870976665e-19 -1.036200055957481e+00
 2.750438870976665e-19  1.162396713043970e-17  4.924569672958861e-01
-1.036200055957481e+00  4.924569672958861e-01  7.245215737617551e-18

 1.149818808097492e-17  1.396277711962756e-19 -1.055640041074588e+00
 1.396277711962756e-19  1.490605403568543e-17  4.239162058729690e-01
-1.055640041074588e+00  4.239162058729690e-01  9.317553325997036e-18

 1.149345683582580e-17  8.157189836303756e-20 -1.045148327926515e+00
 8.157189836303756e-20  1.578034182569558e-17  4.257358585887869e-01
-1.045148327926515e+00  4.257358585887869e-01  8.790265126047228e-18

 1.137282651982778e-17  1.001501680169797e-19 -1.046508754846979e+00
 1.001501680169797e-19  1.368326698454443e-17  4.522740134335759e-01
-1.046508754846979e+00  4.522740134335759e-01  8.486347500204540e-18

 1.187402169189938e-17  1.318679556969686e-19 -1.069456742064719e+00
 1.318679556969686e-19  1.548233031278976e-17  4.461725468175786e-01
-1.069456742064719e+00  4.461725468175786e-01  9.910941606618763e-18

 1.200991916329452e-17  1.046212318103648e-19 -1.074479648690646e+00
 1.046212318103648e-19  1.502154500081764e-17  4.332967029537484e-01
-1.074479648690646e+00  4.332967029537484e-01  1.032779229242096e-17

 1.118404201236498e-17  8.230942993327429e-20 -1.040762957407751e+00
 8.230942993327429e-20  1.173174357923535e-17  4.731941057364653e-01
-1.040762957407751e+00  4.731941057364653e-01  7.751429458774997e-18

 1.209522583650324e-17  7.990529034240419e-20 -1.078098800261569e+00
 7.990529034240419e-20  1.403799456641435e-17  4.423204534814218e-01
-1.078098800261569e+00  4.423204534814218e-01  1.059299873534475e-17

 1.155754435044658e-17  8.334126622351208e-20 -1.054620031675509e+00
 8.334126622351208e-20  1.429636341611127e-17  4.441012323903456e-01
-1.054620031675509e+00  4.441012323903456e-01  9.154676229741942e-18

 1.156149944177436e-17  1.085544640527250e-19 -1.053034747227658e+00
 1.085544640527250e-19  1.561480843498107e-17  4.251963794826853e-01
-1.053034747227658e+00  4.251963794826853e-01  9.390775491364999e-18

 1.116821175836444e-17  7.337346316805173e-20 -1.035634800646043e+00
 7.337346316805173e-20  1.341876873412477e-17  4.467210805853939e-01
-1.035634800646043e+00  4.467210805853939e-01  8.246062797612921e-18

 1.114943128064370e-17  5.430506690555960e-20 -1.033860587433034e+00
 5.430506690555960e-20  1.285455374300321e-17  4.406564243827500e-01
-1.033860587433034e+00  4.406564243827500e-01  8.271551450543045e-18

 1.126046900886727e-17  3.722528908274742e-20 -1.040032719802406e+00
 3.722528908274742e-20  1.182756500596212e-17  4.442727083802140e-01
-1.040032719802406e+00  4.442727083802140e-01  8.579749379910041e-18

 1.141725055741530e-17  9.263683066952305e-20 -1.047932475087376e+00
 9.263683066952305e-20  1.556633701159342e-17  4.337512410665538e-01
-1.047932475087376e+00  4.337512410665538e-01  9.078433757871232e-18

 1.130207037273238e-17  1.095828220638832e-19 -1.045112764028164e+00
 1.095828220638832e-19  1.569479421836311e-17  4.416288989815240e-01
-1.045112764028164e+00  4.416288989815240e-01  8.713270043582079e-18

 1.160880947897590e-17  5.869380236245810e-20 -1.058652437347824e+00
 5.869380236245810e-20  1.378902242930673e-17  4.324280269047244e-01
-1.058652437347824e+00  4.324280269047244e-01  9.607857395660885e-18

 1.197435735488222e-17  6.444115278168171e-21 -1.076279202276929e+00
 6.444115278168171e-21  1.087187205751220e-17  4.237397495554076e-01
-1.076279202276929e+00  4.237397495554076e-01  1.077808118906867e-17

 1.102916568742481e-17  7.505041119378898e-20 -1.035261945973296e+00
 7.505041119378898e-20  1.287246201383503e-17  4.689713483609691e-01
-1.035261945973296e+00  4.689713483609691e-01  7.590257919955775e-18

 1.085935227469531e-17  1.483134257642132e-19 -1.035529464435072e+00
 1.483134257642132e-19  1.428050875723729e-17  4.770185962105302e-01
-1.035529464435072e+00  4.770185962105302e-01  7.488276080052498e-18

 1.182341443152849e-17  9.680695851246905e-20 -1.067493423234034e+00
 9.680695851246905e-20  1.566265421782608e-17  4.391332012878713e-01
-1.067493423234034e+00  4.391332012878713e-01  1.002259285996826e-17

 1.169060576331175e-17  1.248194763908879e-19 -1.067298748867542e+00
 1.248194763908879e-19  1.571752722223141e-17  4.268595614163367e-01
-1.067298748867542e+00  4.268595614163367e-01  1.021928735212484e-17

 1.201077786567146e-17 -5.987768248750465e-20 -1.045562877127778e+00
-5.987768248750465e-20  1.683149940063679e-17  4.444316061162627e-01
-1.045562877127778e+00  4.444316061162627e-01  8.754283012716156e-18

 6.861593456595245e-18  1.186985721529661e-18 -1.043059556561573e+00
 1.186985721529661e-18  1.303159607544943e-17  4.341206750670177e-01
-1.043059556561573e+00  4.341206750670177e-01  8.874833776155990e-18

 6.677204162273761e-18  1.180788075144270e-18 -1.034243200630485e+00
 1.180788075144270e-18  1.285409875827082e-17  4.361654984380709e-01
-1.034243200630485e+00  4.361654984380709e-01  8.420271578280680e-18

 2.543262220788974e-16 -6.246827194196156e-17 -1.035652579557178e+00
-6.246827194196156e-17  2.920563787324011e-17  4.378493450693853e-01
-1.035652579557178e+00  4.378493450693853e-01  8.514675035892642e-18

 1.398765850951225e-17 -5.945177968727092e-19 -1.042811341912418e+00
-5.945177968727092e-19  1.729218745907157e-17  4.324088145219759e-01
-1.042811341912418e+00  4.324088145219759e-01  8.928212393501344e-18

 1.213152710268193e-17 -1.267028957610872e-19 -1.052947583598987e+00
-1.267028957610872e-19  1.392999950037502e-17  4.240553781101790e-01
-1.052947583598987e+00  4.240553781101790e-01  9.597410554443345e-18

 1.131764667528249e-17  1.843417726786223e-19 -1.070050064569572e+00
 1.843417726786223e-19  1.353054693270069e-17  4.299141340805470e-01
-1.070050064569572e+00  4.299141340805470e-01  1.056191871059453e-17

 1.068058204566037e-17  9.027129001604565e-20 -1.027936679901218e+00
 9.027129001604565e-20  1.324615772705167e-17  4.781015490278047e-01
-1.027936679901218e+00  4.781015490278047e-01  7.341666337182457e-18

 1.119285995789948e-17 -1.138631295049624e-20 -1.037714393413749e+00
-1.138631295049624e-20  1.192468480912963e-17  4.591446961059380e-01
-1.037714393413749e+00  4.591446961059380e-01  8.259250486170781e-18

 1.283598339786288e-17  1.152458155115618e-19 -1.108133604147325e+00
 1.152458155115618e-19  1.859769948830341e-17  3.848362602814723e-01
-1.108133604147325e+00  3.848362602814723e-01  1.366823190518149e-17

 1.168321798471009e-17  1.443425743754407e-19 -1.055921342966238e+00
 1.443425743754407e-19  2.104820509414496e-17  4.289618790120187e-01
-1.055921342966238e+00  4.289618790120187e-01  9.988120405688736e-18

 1.048042598166895e-17 -5.247925897303383e-20 -1.010207531471397e+00
-5.247925897303383e-20  8.071453216060017e-18  4.732850452766796e-01
-1.010207531471397e+00  4.732850452766796e-01  6.679034971871813e-18

 1.122699472346700e-17  1.356791234136104e-20 -1.037591454139051e+00
 1.356791234136104e-20  1.208675689323529e-17  4.289560537601732e-01
-1.037591454139051e+00  4.289560537601732e-01  9.165649257319270e-18

 1.088889910716238e-17  2.111504415923216e-20 -1.020833000923379e+00
 2.111504415923216e-20  1.126643711112572e-17  4.248661579499296e-01
-1.020833000923379e+00  4.248661579499296e-01  8.445285831055111e-18

 1.018937766977678e-17  3.860285392184071e-20 -9.880644351455370e-01
 3.860285392184071e-20  1.216321011873479e-17  4.489063288140485e-01
-9.880644351455370e-01  4.489063288140485e-01  6.599771629615165e-18

 9.528521287638930e-18  6.059451139354390e-20 -9.576895886873253e-01
 6.059451139354390e-20  1.224572367492426e-17  4.362074833278907e-01
-9.576895886873253e-01  4.362074833278907e-01  5.035792334780600e-18

 9.990903670485397e-18 -3.547514678013659e-19 -9.707754067939131e-01
-3.547514678013659e-19  1.552956195088606e-17  4.192232724830398e-01
-9.707754067939131e-01  4.192232724830398e-01  6.057414421512352e-18

 4.578047586352418e-18  5.410572161138620e-19 -7.885245448592139e-01
 5.410572161138620e-19  6.961108878965391e-18  7.869040830972123e-01
-7.885245448592139e-01  7.869040830972123e-01 -9.847001668703604e-18

 7.990877656004523e-18 -2.068610055594209e-19 -9.099537074209629e-01
-2.068610055594209e-19  3.462726135445871e-18  6.556384965734876e-01
-9.099537074209629e-01  6.556384965734876e-01 -3.502800334242824e-19

 1.068506843296744e-17  2.477360389809197e-19 -1.020150166804378e+00
 2.477360389809197e-19  9.105338597378060e-18  3.307013967205331e-01
-1.020150166804378e+00  3.307013967205331e-01  8.371063608314954e-18

 1.071638654046988e-17  1.977187177145490e-19 -1.021733011253753e+00
 1.977187177145490e-19  1.333473398437917e-17  4.416979788268477e-01
-1.021733011253753e+00  4.416979788268477e-01  8.074858825209224e-18

 1.160259890699657e-17  1.060098332021941e-19 -1.056585344257589e+00
 1.060098332021941e-19  1.389767289144383e-17  4.218541989070486e-01
-1.056585344257589e+00  4.218541989070486e-01  1.063413004285579e-17

 1.062855662862198e-17 -6.211972040105255e-21 -1.015889267145604e+00
-6.211972040105255e-21  8.028147133085495e-18  4.669703917416493e-01
-1.015889267145604e+00  4.669703917416493e-01  7.726977772566953e-18

 1.103604376233500e-17  1.664259434492354e-19 -1.029890984360440e+00
 1.664259434492354e-19  1.736570196486641e-17  3.944026610972235e-01
-1.029890984360440e+00  3.944026610972235e-01  9.485374167475365e-18

 1.031539567593313e-17 -4.267485370631415e-21 -9.980195419277460e-01
-4.267485370631415e-21  9.353231865969784e-18  4.094769074119745e-01
-9.980195419277460e-01  4.094769074119745e-01  7.561478809138066e-18

 1.052168535332500e-17 -1.479456350982665e-20 -1.008396474397484e+00
-1.479456350982665e-20  8.673529074086466e-18  4.317024009191043e-01
-1.008396474397484e+00  4.317024009191043e-01  8.012960660969752e-18

 1.088371582776022e-17 -3.552560088482312e-20 -1.028246548524431e+00
-3.552560088482312e-20  1.020447675949000e-17  4.282810055208407e-01
-1.028246548524431e+00  4.282810055208407e-01  9.071770643289120e-18

 1.085048473399617e-17 -1.388963350163482e-19 -1.032634996306662e+00
-1.388963350163482e-19  6.102825271261874e-18  4.383242164865710e-01
-1.032634996306662e+00  4.383242164865710e-01  8.906505045517518e-18

 1.081573573473412e-17 -1.219322091780091e-20 -1.036602881187721e+00
-1.219322091780091e-20  1.527297896442840e-17  4.333762297654508e-01
-1.036602881187721e+00  4.333762297654508e-01  8.863427086432375e-18

 1.070502677186933e-17 -2.855278957499941e-19 -1.038330594604441e+00
-2.855278957499941e-19 -1.597651904470875e-18  4.541828355311084e-01
-1.038330594604441e+00  4.541828355311084e-01  8.426095250923240e-18

 1.058959105124339e-17 -4.517229610706109e-20 -1.034983315802301e+00
-4.517229610706109e-20  1.213167015011614e-17  4.448013493010470e-01
-1.034983315802301e+00  4.448013493010470e-01  8.192289314480893e-18

 1.067123003623093e-17 -9.577425398657447e-20 -1.038724179258785e+00
-9.577425398657447e-20  8.508123456174651e-18  4.173531506834305e-01
-1.038724179258785e+00  4.173531506834305e-01  8.629093148002763e-18

 1.052433266166530e-17  1.254281490694024e-21 -1.034616227586415e+00
 1.254281490694024e-21  1.249404817910197e-17  4.480808265168998e-01
-1.034616227586415e+00  4.480808265168998e-01  7.960403425080333e-18

 1.089148165238292e-17  5.923191722781582e-20 -1.050246470976534e+00
 5.923191722781582e-20  1.532883323049362e-17  4.428274440015825e-01
-1.050246470976534e+00  4.428274440015825e-01  8.970334876561782e-18

 1.091427423289514e-17  6.941739254129210e-20 -1.050869930437035e+00
 6.941739254129210e-20  1.557476706010574e-17  4.352419377915115e-01
-1.050869930437035e+00  4.352419377915115e-01  9.101930138180035e-18

 1.232724224668132e-17 -2.365141137881915e-19 -1.043480392701486e+00
-2.365141137881915e-19  1.071001306525907e-17  4.334356056565321e-01
-1.043480392701486e+00  4.334356056565321e-01  8.803069609150136e-18

 1.285854459963702e-17 -2.936608314408062e-19 -1.040032575785830e+00
-2.936608314408062e-19  1.235023621212569e-17  4.319938760340206e-01
-1.040032575785830e+00  4.319938760340206e-01  8.796485363442000e-18

 5.083095958958950e-17 -6.235425085349270e-18 -1.016105684077593e+00
-6.235425085349270e-18  8.103473011378013e-18  4.544315614725020e-01
-1.016105684077593e+00  4.544315614725020e-01  7.184146355268796e-18

 4.358322730139931e-17 -4.888617884091944e-18 -1.026542181250522e+00
-4.888617884091944e-18  2.066085581295338e-17  4.031339156627367e-01
-1.026542181250522e+00  4.031339156627367e-01  8.476015597378450e-18

 7.567378274623084e-18  4.118745111831181e-19 -1.069416808614313e+00
 4.118745111831181e-19  4.121045845709392e-18  3.737991205121203e-01
-1.069416808614313e+00  3.737991205121203e-01  1.166528190981254e-17

 2.646533021960923e-17 -2.559127760932998e-18 -9.823029544435246e-01
-2.559127760932998e-18  4.899842610069525e-18  4.848920084832565e-01
-9.823029544435246e-01  4.848920084832565e-01  4.554374232898575e-18

 1.012999715098094e-17 -6.353279662540441e-20 -1.016788575231654e+00
-6.353279662540441e-20  7.882443471861535e-20  4.822214101000957e-01
-1.016788575231654e+00  4.822214101000957e-01  6.897184721252155e-18

 1.086504246967994e-17 -1.067873998501739e-19 -1.053872847409924e+00
-1.067873998501739e-19  1.987862011862769e-19  4.132102464668654e-01
-1.053872847409924e+00  4.132102464668654e-01  1.013510629600253e-17

 1.052313485342162e-17  1.241259436853004e-19 -1.041296112745840e+00
 1.241259436853004e-19  1.403815671678583e-17  4.005455983283298e-01
-1.041296112745840e+00  4.005455983283298e-01  9.607831710847174e-18

 1.026890747903042e-17 -5.086754303118910e-20 -1.022029274963445e+00
-5.086754303118910e-20  4.117259326564736e-18  4.222058567670933e-01
-1.022029274963445e+00  4.222058567670933e-01  8.438468312705258e-18

 1.024344505872667e-17 -5.326675574359989e-20 -1.017904494188128e+00
-5.326675574359989e-20  3.917862295832319e-18  4.204991221523928e-01
-1.017904494188128e+00  4.204991221523928e-01  8.536485070202862e-18

 9.745484951981669e-18 -9.021892255298617e-20 -9.929557472041637e-01
-9.021892255298617e-20  1.505102489089739e-18  4.272300808915628e-01
-9.929557472041637e-01  4.272300808915628e-01  7.428892418810584e-18

 9.377963244165325e-18  9.538683543973919e-20 -9.731241811817127e-01
 9.538683543973919e-20  1.530579853931451e-17  3.786404621183176e-01
-9.731241811817127e-01  3.786404621183176e-01  7.023165480977706e-18

 1.037987352373841e-17  2.174050428637634e-19 -1.012672215061637e+00
 2.174050428637634e-19  2.698593299015427e-17  3.689213563468043e-01
-1.012672215061637e+00  3.689213563468043e-01  9.897314741740032e-18

 7.115089961737072e-18  4.285696113749947e-19 -8.871746022378437e-01
 4.285696113749947e-19  1.963209377009214e-17  5.195159825191367e-01
-8.871746022378437e-01  5.195159825191367e-01 -2.087914604436825e-19

 8.626830640516933e-18  4.789316465712261e-19 -9.477793893856734e-01
 4.789316465712261e-19  2.942406203685109e-17  4.785155111135829e-01
-9.477793893856734e-01  4.785155111135829e-01  4.275368948865218e-18

 9.779114893049772e-18 -4.389639919130603e-19 -9.929600460274673e-01
-4.389639919130603e-19 -2.102461952895858e-17  3.832894824958573e-01
-9.929600460274673e-01  3.832894824958573e-01  8.290940411113368e-18

 9.542490155111111e-18  2.319906962290677e-19 -9.846187755336501e-01
 2.319906962290677e-19  2.083621639418279e-17  4.050000391680045e-01
-9.846187755336501e-01  4.050000391680045e-01  7.513990616881525e-18

 9.712596232690912e-18  2.999058331656131e-19 -9.936913300256769e-01
 2.999058331656131e-19  2.365571359411478e-17  4.137006706834478e-01
-9.936913300256769e-01  4.137006706834478e-01  7.950649987787188e-18

 1.020828444231753e-17  1.638174829093937e-19 -1.013803057644746e+00
 1.638174829093937e-19  1.709824039786363e-17  3.917725658022598e-01
-1.013803057644746e+00  3.917725658022598e-01  9.541075559093730e-18

 1.000550067400396e-17 -2.116918712667641e-19 -1.005471586075237e+00
-2.116918712667641e-19 -7.907124477446690e-18  3.979698999060818e-01
-1.005471586075237e+00  3.979698999060818e-01  9.128018305287847e-18

 9.832668084232056e-18 -2.349023258599364e-19 -9.953799266217978e-01
-2.349023258599364e-19 -8.000962412689940e-18  3.956492337041022e-01
-9.953799266217978e-01  3.956492337041022e-01  8.898813142100973e-18

 9.124653331163001e-18 -3.965552127668071e-20 -9.623250793189722e-01
-3.965552127668071e-20  5.963569693118554e-18  4.003729828104826e-01
-9.623250793189722e-01  4.003729828104826e-01  7.427158977679811e-18

 7.682584781954637e-18  3.399578363722728e-19 -9.005431412284498e-01
 3.399578363722728e-19  3.338697534716190e-17  4.270205187722054e-01
-9.005431412284498e-01  4.270205187722054e-01  3.741633055285917e-18

 1.058184006950358e-17  1.091581796360795e-19 -1.019249136166045e+00
 1.091581796360795e-19  2.390668510585321e-17  3.026350423167723e-01
-1.019249136166045e+00  3.026350423167723e-01  1.280739208128718e-17

 9.196917259216745e-18  9.761896993277282e-20 -9.646739909367134e-01
 9.761896993277282e-20  2.270624466417216e-17  3.797780241458159e-01
-9.646739909367134e-01  3.797780241458159e-01  8.535251715060852e-18

 5.537405946470349e-18 -1.764711917411507e-21 -8.189278523295541e-01
-1.764711917411507e-21  1.753091783557963e-17  5.496161099419138e-01
-8.189278523295541e-01  5.496161099419138e-01 -2.582771412174418e-18

 1.041224047530903e-17 -1.074016416948376e-19 -1.023197620021269e+00
-1.074016416948376e-19  9.437997543705386e-18  3.038563407179148e-01
-1.023197620021269e+00  3.038563407179148e-01  1.254585429431807e-17

 9.476040863743169e-18  1.686289730475039e-20 -9.860100304872578e-01
 1.686289730475039e-20  2.661866644014996e-17  3.248351159973191e-01
-9.860100304872578e-01  3.248351159973191e-01  9.756793570846950e-18

 8.058587418801624e-18 -1.682574862618355e-19 -9.458893501230283e-01
-1.682574862618355e-19 -6.082311221994792e-18  4.631516812172354e-01
-9.458893501230283e-01  4.631516812172354e-01  4.793504088392127e-18

 9.503254669974492e-18  3.196620529358318e-20 -1.010946737292017e+00
 3.196620529358318e-20  1.752080750875515e-17  4.325963857414725e-01
-1.010946737292017e+00  4.325963857414725e-01  8.847784799761570e-18

 9.647490611272356e-18  1.052628905673929e-19 -1.024557692175039e+00
 1.052628905673929e-19  2.763213199935129e-17  4.158729325520544e-01
-1.024557692175039e+00  4.158729325520544e-01  9.372163827460642e-18

 9.302416937949930e-18  9.090066470998667e-20 -1.016594848204890e+00
 9.090066470998667e-20  2.712561083318216e-17  4.302528902040464e-01
-1.016594848204890e+00  4.302528902040464e-01  8.394665598378664e-18

 8.763584313683709e-18  5.227445594177444e-19 -9.999440242753159e-01
 5.227445594177444e-19  5.410322415860991e-17  4.252902181735576e-01
-9.999440242753159e-01  4.252902181735576e-01  7.146896697695127e-18

 8.715316315924140e-18 -7.692025234331654e-20 -1.002424122405673e+00
-7.692025234331654e-20  1.395225362660715e-17  4.116171671526609e-01
-1.002424122405673e+00  4.116171671526609e-01  7.240330805447660e-18

 8.951516567142982e-18 -4.141714638369945e-19 -1.019775745615912e+00
-4.141714638369945e-19 -7.683068103437338e-18  4.240422347414922e-01
-1.019775745615912e+00  4.240422347414922e-01  7.857518923999680e-18

 9.392991191205560e-18  3.993081189498911e-19 -1.048578786212048e+00
 3.993081189498911e-19  4.398483308184559e-17  4.608071894770812e-01
-1.048578786212048e+00  4.608071894770812e-01  8.751630184441879e-18

 9.094641094137067e-18 -2.699691081531897e-19 -1.040791585009588e+00
-2.699691081531897e-19  1.243748199486626e-18  4.839484307447700e-01
-1.040791585009588e+00  4.839484307447700e-01  7.879978909843434e-18

 9.912287425864656e-18 -4.065066718605830e-19 -1.076671531649372e+00
-4.065066718605830e-19 -1.004563598065990e-17  4.105172853582185e-01
-1.076671531649372e+00  4.105172853582185e-01  1.075397751932795e-17

 8.849954153014887e-18 -2.123893871908801e-19 -1.037112211127308e+00
-2.123893871908801e-19  3.277565301148447e-18  4.376385839842361e-01
-1.037112211127308e+00  4.376385839842361e-01  7.930349063532277e-18

 8.908641810277373e-18 -6.740016863571020e-20 -1.045633362322496e+00
-6.740016863571020e-20  1.335756762321808e-17  4.347404703628707e-01
-1.045633362322496e+00  4.347404703628707e-01  8.353497064906091e-18

 8.742649983420846e-18 -7.922855632509639e-20 -1.043926805577377e+00
-7.922855632509639e-20  1.164539637442603e-17  4.523364023414236e-01
-1.043926805577377e+00  4.523364023414236e-01  7.942839441240217e-18

 8.833767363026084e-18 -8.979677596082235e-19 -1.052401733551011e+00
-8.979677596082235e-19 -4.550358683184284e-17  4.372805119791611e-01
-1.052401733551011e+00  4.372805119791611e-01  8.478227634023056e-18

 8.703902230713409e-18 -4.449718260355145e-20 -1.049936434976157e+00
-4.449718260355145e-20  1.093906793569262e-17  4.434483106169969e-01
-1.049936434976157e+00  4.434483106169969e-01  8.284719165083367e-18

 8.337852919335352e-18 -2.609700836001520e-19 -1.037090572847471e+00
-2.609700836001520e-19 -6.607767109177934e-18  4.369022805180747e-01
-1.037090572847471e+00  4.369022805180747e-01  7.651697614396536e-18

 8.164363773886046e-18  3.146936651674303e-19 -1.030674594725084e+00
 3.146936651674303e-19  2.985552228556098e-17  4.327847350627989e-01
-1.030674594725084e+00  4.327847350627989e-01  7.526944406683938e-18

 7.749386614746396e-18 -1.151986321922161e-19 -1.015196101158371e+00
-1.151986321922161e-19 -1.517695062711379e-18  4.334635815548097e-01
-1.015196101158371e+00  4.334635815548097e-01  6.914580680947179e-18

 7.679854002967753e-18 -3.289454914306465e-19 -1.017382945647268e+00
-3.289454914306465e-19 -1.903724344854128e-17  4.574591027570386e-01
-1.017382945647268e+00  4.574591027570386e-01  7.149506203197287e-18

 7.079190551908950e-18 -5.656232324162519e-19 -9.947635162292650e-01
-5.656232324162519e-19 -3.499507428074235e-17  4.555678000058354e-01
-9.947635162292650e-01  4.555678000058354e-01  5.908157094470256e-18

 6.254608048739360e-18  5.098869970044861e-19 -9.646854317041703e-01
 5.098869970044861e-19  3.879273434035095e-17  4.260679795531681e-01
-9.646854317041703e-01  4.260679795531681e-01  4.379287093214034e-18

 7.412436574326771e-18  4.765309822407534e-20 -1.023907882006768e+00
 4.765309822407534e-20  1.821897181045853e-17  3.982155088746906e-01
-1.023907882006768e+00  3.982155088746906e-01  8.126940688626072e-18

 7.282378338507836e-18  1.566616305130157e-18 -1.037786577489676e+00
 1.566616305130157e-18  1.078490682431186e-16  4.580109613706082e-01
-1.037786577489676e+00  4.580109613706082e-01  7.439752547984973e-18

 6.534028868619988e-18  1.153973878377275e-18 -1.015097135994955e+00
 1.153973878377275e-18  7.342979282417900e-17  5.144940282288308e-01
-1.015097135994955e+00  5.144940282288308e-01  5.105067217501630e-18

 8.921153644899427e-18 -7.936513078722606e-20 -1.112133071120109e+00
-7.936513078722606e-20 -3.584573860661534e-18  4.230504236279026e-01
-1.112133071120109e+00  4.230504236279026e-01  1.262997807804233e-17

 7.411142888040552e-18 -2.665400192422856e-19 -1.052291968531409e+00
-2.665400192422856e-19 -1.399558001738864e-17  4.174076699169270e-01
-1.052291968531409e+00  4.174076699169270e-01  9.048445353354978e-18

 6.189583500965972e-18 -2.893982905646131e-20 -1.006798871945294e+00
-2.893982905646131e-20  5.035718507420344e-19  4.098098547297404e-01
-1.006798871945294e+00  4.098098547297404e-01  6.580074693105794e-18

 5.730848266419789e-18 -5.582140639770868e-20 -9.947036741484421e-01
-5.582140639770868e-20 -4.512236432392978e-19  4.267321588976946e-01
-9.947036741484421e-01  4.267321588976946e-01  5.867659393640325e-18

 5.598703765754133e-18  3.055863981536495e-19 -1.003341328590351e+00
 3.055863981536495e-19  2.569804335617887e-17  4.306112684987103e-01
-1.003341328590351e+00  4.306112684987103e-01  6.281921935842374e-18

 5.489744252025194e-18  8.921725855172935e-19 -1.009621778796649e+00
 8.921725855172935e-19  6.970256976574127e-17  4.277387534010646e-01
-1.009621778796649e+00  4.277387534010646e-01  6.513247146519671e-18

 5.298546474626715e-18 -8.314554858658952e-19 -1.013849384648626e+00
-8.314554858658952e-19 -5.926951286915499e-17  4.192618202927970e-01
-1.013849384648626e+00  4.192618202927970e-01  6.736041082930163e-18

 5.218345313309470e-18 -6.658960534405586e-19 -1.021105635602716e+00
-6.658960534405586e-19 -4.806711750887974e-17  4.220718901877178e-01
-1.021105635602716e+00  4.220718901877178e-01  6.997618994364870e-18

 5.154113562741070e-18  1.324084729372613e-18 -1.028231940170216e+00
 1.324084729372613e-18  1.051943459321085e-16  4.265792808230875e-01
-1.028231940170216e+00  4.265792808230875e-01  7.212648667307049e-18

 4.738145647779119e-18  3.493745307590778e-19 -1.029748915773374e+00
 3.493745307590778e-19  3.039738126245463e-17  4.208761341323945e-01
-1.029748915773374e+00  4.208761341323945e-01  7.157353479835819e-18

 4.272726295642898e-18  8.644424582611012e-19 -1.029442355413413e+00
 8.644424582611012e-19  7.224621755692770e-17  4.158010969468751e-01
-1.029442355413413e+00  4.158010969468751e-01  7.002092576933415e-18

 3.991761674670639e-18  8.715159796980316e-19 -1.036682546997179e+00
 8.715159796980316e-19  7.170662136352546e-17  4.233272230099937e-01
-1.036682546997179e+00  4.233272230099937e-01  7.187812215798929e-18

 3.291939476845260e-18  1.502522121906514e-18 -1.031717877690880e+00
 1.502522121906514e-18  1.234780279173709e-16  4.172518557970893e-01
-1.031717877690880e+00  4.172518557970893e-01  6.827340120399369e-18

 2.480943328814863e-18 -5.753139194543679e-21 -1.022365204303922e+00
-5.753139194543679e-21  7.625327271425718e-19  4.197441644595470e-01
-1.022365204303922e+00  4.197441644595470e-01  6.143567083477591e-18

 2.024545834439773e-18  4.433696703793176e-19 -1.023901133028906e+00
 4.433696703793176e-19  3.810195679170799e-17  4.127215611031533e-01
-1.023901133028906e+00  4.127215611031533e-01  6.213909536863997e-18

 1.530148829643808e-18  2.120313888545434e-19 -1.030102232482187e+00
 2.120313888545434e-19  1.913387660359553e-17  4.223438525606442e-01
-1.030102232482187e+00  4.223438525606442e-01  6.325035143393515e-18

 8.510416072169918e-19  4.038764032407147e-19 -1.028469507090120e+00
 4.038764032407147e-19  3.591105598407873e-17  4.254164037829025e-01
-1.028469507090120e+00  4.254164037829025e-01  6.005118238504550e-18

-3.155593935475819e-19 -7.914115028414560e-19 -1.023349173916255e+00
-7.914115028414560e-19 -6.341154194445507e-17  4.155170859459504e-01
-1.023349173916255e+00  4.155170859459504e-01  5.467898686460929e-18

-1.223334630812565e-18 -1.123745315681245e-18 -1.019450865486854e+00
-1.123745315681245e-18 -9.100556535410014e-17  4.295572517631412e-01
-1.019450865486854e+00  4.295572517631412e-01  4.803308445903668e-18

-1.820197172474119e-18 -1.146547364701252e-18 -1.029431520311242e+00
-1.146547364701252e-18 -9.363539486454858e-17  4.169866233222222e-01
-1.029431520311242e+00  4.169866233222222e-01  5.307932536026873e-18

-3.025770951942571e-18 -8.629254968024610e-19 -1.020068057682442e+00
-8.629254968024610e-19 -7.068416220327845e-17  4.278356253484893e-01
-1.020068057682442e+00  4.278356253484893e-01  4.300076349772639e-18

-4.008301515759520e-18 -1.102027832314497e-19 -1.016135813193818e+00
-1.102027832314497e-19 -1.169082599131451e-17  4.228465040243254e-01
-1.016135813193818e+00  4.228465040243254e-01  3.930420818744192e-18

-5.522440456591679e-18 -6.940495877038012e-20 -1.005361381630071e+00
-6.940495877038012e-20 -1.248999573300502e-17  4.201766639597828e-01
-1.005361381630071e+00  4.201766639597828e-01  2.916122934430542e-18

-6.854573633122328e-18 -5.466997593311958e-19 -1.004220946540021e+00
-5.466997593311958e-19 -5.393143697050645e-17  4.213215628472938e-01
-1.004220946540021e+00  4.213215628472938e-01  2.438890774626451e-18

-8.044718799056710e-18  2.457894120019624e-18 -1.011895995487402e+00
 2.457894120019624e-18  1.856456678063059e-16  4.255414571157310e-01
-1.011895995487402e+00  4.255414571157310e-01  2.491383929401728e-18

-1.026283870849049e-17 -7.510465516029770e-19 -9.740451167595022e-01
-7.510465516029770e-19 -7.188923707770162e-17  4.731300651568030e-01
-9.740451167595022e-01  4.731300651568030e-01 -7.042920105102057e-19

-1.115125060201511e-17  9.137273576643738e-19 -9.828994028940160e-01
 9.137273576643738e-19  5.170496767688897e-17  4.317596287415685e-01
-9.828994028940160e-01  4.317596287415685e-01 -1.192807731567446e-19

-1.356410503121018e-17 -1.378851803676611e-18 -9.698496252917098e-01
-1.378851803676611e-18 -1.357795586092180e-16  4.104143302109757e-01
-9.698496252917098e-01  4.104143302109757e-01 -1.456841885030044e-18

-1.531473401668961e-17 -1.513009687112251e-19 -9.933451912257534e-01
-1.513009687112251e-19 -4.099988073029115e-17  4.367225916857407e-01
-9.933451912257534e-01  4.367225916857407e-01 -1.132174301695207e-18

-1.749615665231005e-17 -9.208333081570774e-19 -1.002652363495816e+00
-9.208333081570774e-19 -1.026290142041626e-16  4.545618138087036e-01
-1.002652363495816e+00  4.545618138087036e-01 -1.605474576199123e-18

-2.021482284084747e-17  7.202870351869919e-19 -1.003001587034378e+00
 7.202870351869919e-19  1.916334907042428e-17  4.019830573559631e-01
-1.003001587034378e+00  4.019830573559631e-01 -2.190788428637648e-18

-2.425979725610575e-17 -2.571491895661236e-18 -9.900474357067890e-01
-2.571491895661236e-18 -2.421458663843774e-16  4.288308567289607e-01
-9.900474357067890e-01  4.288308567289607e-01 -4.674793666595670e-18

-2.690855418732072e-17 -6.556436775322806e-19 -9.958445889690843e-01
-6.556436775322806e-19 -9.105015709317980e-17  4.484940109634912e-01
-9.958445889690843e-01  4.484940109634912e-01 -5.666928322771630e-18

-2.898208883728981e-17  8.162991207097836e-19 -1.035086258457460e+00
 8.162991207097836e-19  3.002686550493978e-17  4.108903116234850e-01
-1.035086258457460e+00  4.108903116234850e-01 -3.910273139357009e-18

-3.547061607146189e-17 -2.524683624488435e-19 -1.020320384136998e+00
-2.524683624488435e-19 -5.241015370037690e-17  4.188071029905196e-01
-1.020320384136998e+00  4.188071029905196e-01 -7.169665960132354e-18

-4.295192073601479e-17  1.383001853832720e-18 -1.018530107029993e+00
 1.383001853832720e-18  8.834189784673206e-17  4.149024994596303e-01
-1.018530107029993e+00  4.149024994596303e-01 -9.854514544805679e-18

-5.417595046693301e-17 -3.467692924446524e-19 -1.016492760294445e+00
-3.467692924446524e-19 -2.279649129465254e-17  4.163537842653363e-01
-1.016492760294445e+00  4.163537842653363e-01 -1.381974449461296e-17

-6.380644847471652e-17 -9.531825312925671e-20 -1.000720045414068e+00
-9.531825312925671e-20  2.447641062636384e-17  4.098142904149993e-01
-1.000720045414068e+00  4.098142904149993e-01 -1.799819569112694e-17

-7.041214896839188e-17 -8.721323696271513e-19 -1.010361116737203e+00
-8.721323696271513e-19 -6.463141783416804e-18  3.927086379250557e-01
-1.010361116737203e+00  3.927086379250557e-01 -1.958286254861577e-17

-8.282919717376067e-17 -3.044130642328260e-18 -1.028066573554589e+00
-3.044130642328260e-18 -1.025560850877464e-16  4.189801684061265e-01
-1.028066573554589e+00  4.189801684061265e-01 -2.319495895378389e-17

-9.900162712837232e-17 -2.728246362570153e-18 -1.019120544376655e+00
-2.728246362570153e-18  3.938128350586085e-17  4.199908824858147e-01
-1.019120544376655e+00  4.199908824858147e-01 -2.918153912322277e-17

-1.252310191763931e-16 -4.681446513077830e-18 -9.841041054118909e-01
-4.681446513077830e-18  1.274449104626492e-16  4.137943383336639e-01
-9.841041054118909e-01  4.137943383336639e-01 -3.977836639395971e-17

-1.662183407737138e-16 -1.712465332318409e-17 -8.779996801264325e-01
-1.712465332318409e-17 -3.049052529590073e-16  4.231980883619718e-01
-8.779996801264325e-01  4.231980883619718e-01 -5.997537692993553e-17

-2.065346502204336e-16 -2.367743099060723e-17 -8.159607045761372e-01
-2.367743099060723e-17 -1.226919071438602e-16  4.081274542314908e-01
-8.159607045761372e-01  4.081274542314908e-01 -7.797368424338692e-17

-2.286889400057436e-16 -2.814064565382555e-17 -9.034155468715624e-01
-2.814064565382555e-17  3.887362141633968e-17  3.710224783762065e-01
-9.034155468715624e-01  3.710224783762065e-01 -8.088286891364012e-17

-2.641647603479565e-16 -4.275239779940780e-17 -8.765588476179305e-01
-4.275239779940780e-17 -4.283647452456858e-16  4.591707797404069e-01
-8.765588476179305e-01  4.591707797404069e-01 -9.720329391963677e-17

-3.026908936336952e-16 -4.571128198105369e-17 -9.325873554050707e-01
-4.571128198105369e-17  2.930303390589275e-16  4.287128029146627e-01
-9.325873554050707e-01  4.287128029146627e-01 -1.091121452189748e-16

-3.753200638763918e-16 -7.638115466733885e-17 -1.026801167864221e+00
-7.638115466733885e-17 -2.575870081392930e-16  4.138709178880998e-01
-1.026801167864221e+00  4.138709178880998e-01 -1.313342136986724e-16

-4.829506804325947e-16 -1.428722574933735e-16 -9.737750041103787e-01
-1.428722574933735e-16  4.578453826217327e-16  4.048222274881043e-01
-9.737750041103787e-01  4.048222274881043e-01 -1.890107857022731e-16

-6.470626803948878e-16 -2.099763766387649e-16 -9.395079357248709e-01
-2.099763766387649e-16  3.177601093342357e-17  3.526628833138644e-01
-9.395079357248709e-01  3.526628833138644e-01 -2.476009498492764e-16

-8.908902514040627e-16 -3.729170809117206e-16 -1.002118192218500e+00
-3.729170809117206e-16  3.758979096644571e-16  4.276235305505584e-01
-1.002118192218500e+00  4.276235305505584e-01 -3.555039889548023e-16

-1.173191121375377e-15 -6.251969048893500e-16 -1.036628380361954e+00
-6.251969048893500e-16  5.705666731191214e-16  4.123772226428051e-01
-1.036628380361954e+00  4.123772226428051e-01 -5.132386947380939e-16

-1.658443451899679e-15 -1.137255970467826e-15 -1.046441922093090e+00
-1.137255970467826e-15  1.163204491429936e-15  4.134896935550216e-01
-1.046441922093090e+00  4.134896935550216e-01 -7.529891318869017e-16

-2.055322834633899e-15 -1.744767545547533e-15 -1.045130697143885e+00
-1.744767545547533e-15  9.024896243099268e-16  3.998632493486291e-01
-1.045130697143885e+00  3.998632493486291e-01 -1.018879072135173e-15

-2.701604786445776e-15 -2.992762151169171e-15 -1.027891100137939e+00
-2.992762151169171e-15  1.165994146952169e-15  4.167181164074061e-01
-1.027891100137939e+00  4.167181164074061e-01 -1.548441812160928e-15

-4.269771819742652e-15 -6.961647772858237e-15 -1.026398937329961e+00
-6.961647772858237e-15  1.464546093238253e-15  4.215310905026490e-01
-1.026398937329961e+00  4.215310905026490e-01 -3.366715256989069e-15

-8.036142170434232e-15 -1.247669436612367e-14 -1.029641156480685e+00
-1.247669436612367e-14  2.731812813359900e-16  4.260879332333604e-01
-1.029641156480685e+00  4.260879332333604e-01 -7.440566154973525e-15

-8.534746662773046e-15 -9.174510090087487e-15 -1.030003166916574e+00
-9.174510090087487e-15  1.051147771134013e-14  4.300357369073807e-01
-1.030003166916574e+00  4.300357369073807e-01 -1.290351371033410e-14

 1.221359814968296e-13  3.114453008325283e-14 -1.032912099989378e+00
 3.114453008325283e-14  7.691199297801032e-14  4.258788268766941e-01
-1.032912099989378e+00  4.258788268766941e-01  2.792210388162203e-14

-6.197171463268584e-13 -1.381595979188697e-13 -1.033177543635258e+00
-1.381595979188697e-13 -3.070599278435691e-13  4.276966145867096e-01
-1.033177543635258e+00  4.276966145867096e-01 -1.522240974625106e-13

-1.109531492820503e-14  1.735202339655717e-14 -1.046069040198442e+00
 1.735202339655717e-14  1.950986225480236e-14  4.271254768683222e-01
-1.046069040198442e+00  4.271254768683222e-01 -1.052291808256318e-14

-6.560502466924178e-13 -1.366296681290372e-13 -1.038547704782442e+00
-1.366296681290372e-13 -3.137906881486367e-13  4.344296655353151e-01
-1.038547704782442e+00  4.344296655353151e-01 -1.670123061805740e-13

-1.616601115639959e-14  3.691840543670411e-16 -1.061755772262174e+00
 3.691840543670411e-16 -4.379264956589955e-15  4.400628246940757e-01
-1.061755772262174e+00  4.400628246940757e-01 -6.993674658172385e-15

-1.005490486467951e-14 -8.332828407513327e-16 -1.090086125825042e+00
-8.332828407513327e-16 -3.309804606894980e-15  4.059993698393221e-01
-1.090086125825042e+00  4.059993698393221e-01 -3.889225325764414e-15

-7.194285823465285e-15 -1.228788310687453e-15 -1.102046917317169e+00
-1.228788310687453e-15 -2.739391168013778e-15  3.962109717483884e-01
-1.102046917317169e+00  3.962109717483884e-01 -2.547118717464747e-15

-4.325478690974551e-15 -1.255814985216138e-15 -1.070620917708530e+00
-1.255814985216138e-15 -2.166725798633451e-15  4.536546628167157e-01
-1.070620917708530e+00  4.536546628167157e-01 -1.392154683947332e-15

-2.977854063921373e-15 -1.102493548351203e-15 -1.052216796233227e+00
-1.102493548351203e-15 -1.582180747675309e-15  4.047171456399029e-01
-1.052216796233227e+00  4.047171456399029e-01 -9.227841182283681e-16

-2.257893490304393e-15 -9.552255299612389e-16 -1.048421751824461e+00
-9.552255299612389e-16 -1.261651606739526e-15  3.729940371336471e-01
-1.048421751824461e+00  3.729940371336471e-01 -7.108261531691504e-16

-1.526711213818787e-15 -7.307878712080807e-16 -9.003535563943772e-01
-7.307878712080807e-16 -1.038865761650905e-15  5.286262341718165e-01
-9.003535563943772e-01  5.286262341718165e-01 -4.630692581864355e-16

-1.229634702059508e-15 -6.207357041724776e-16 -1.083694522665069e+00
-6.207357041724776e-16 -7.396923745347948e-16  2.655030446605282e-01
-1.083694522665069e+00  2.655030446605282e-01 -3.593455373320765e-16

-1.141407424601940e-15 -5.873364288340146e-16 -1.186291464523110e+00
-5.873364288340146e-16 -6.380505917829222e-16  1.428513506290924e-01
-1.186291464523110e+00  1.428513506290924e-01 -3.254542533179081e-16

-8.470693932869053e-16 -4.504090615155758e-16 -8.695613462679037e-01
-4.504090615155758e-16 -6.298324571761906e-16  4.439455653467570e-01
-8.695613462679037e-01  4.439455653467570e-01 -2.730578606005639e-16

-6.100799140460359e-16 -3.389592179590377e-16 -9.251507827233865e-01
-3.389592179590377e-16 -5.806872286351269e-16  4.425877330792214e-01
-9.251507827233865e-01  4.425877330792214e-01 -1.858502917032611e-16

-4.188783127539162e-16 -2.331552578558525e-16 -9.615164001181189e-01
-2.331552578558525e-16 -4.766741309882355e-16  4.318701408391712e-01
-9.615164001181189e-01  4.318701408391712e-01 -1.282083322382304e-16

-3.198154552149838e-16 -1.749923465721735e-16 -9.741150788126175e-01
-1.749923465721735e-16 -4.025846071911362e-16  4.355852826006075e-01
-9.741150788126175e-01  4.355852826006075e-01 -9.859686440528724e-17

-2.698630589450984e-16 -1.457059179873956e-16 -9.826982921942056e-01
-1.457059179873956e-16 -3.574075760230596e-16  4.263097945924363e-01
-9.826982921942056e-01  4.263097945924363e-01 -8.327630188051321e-17

-2.302338095354973e-16 -1.226311423451298e-16 -1.009588402789765e+00
-1.226311423451298e-16 -3.169482815686236e-16  4.020438755531998e-01
-1.009588402789765e+00  4.020438755531998e-01 -6.964488547156471e-17

-1.909765044310046e-16 -9.756313038215094e-17 -1.013765761807060e+00
-9.756313038215094e-17 -2.808490806903053e-16  4.426564507797983e-01
-1.013765761807060e+00  4.426564507797983e-01 -5.843493627718535e-17

-1.592228117110831e-16 -7.868175825782571e-17 -1.029323458830800e+00
-7.868175825782571e-17 -2.450269893003982e-16  4.428178453232332e-01
-1.029323458830800e+00  4.428178453232332e-01 -4.795271131856825e-17

-1.356994342715218e-16 -6.599996041307236e-17 -1.035042424528382e+00
-6.599996041307236e-17 -2.121484327746995e-16  4.170638451654790e-01
-1.035042424528382e+00  4.170638451654790e-01 -3.993220270529230e-17

-1.137737886530651e-16 -5.384640467100824e-17 -1.037408881701664e+00
-5.384640467100824e-17 -1.820451751251728e-16  4.076791905774771e-01
-1.037408881701664e+00  4.076791905774771e-01 -3.268494827535123e-17

-9.738757377565667e-17 -4.355446926284648e-17 -1.019406774748705e+00
-4.355446926284648e-17 -1.622409260701079e-16  4.635671782937560e-01
-1.019406774748705e+00  4.635671782937560e-01 -2.927077293042011e-17

-8.381829228740256e-17 -3.686484566876184e-17 -1.047813795950769e+00
-3.686484566876184e-17 -1.417084781638935e-16  4.297160119501529e-01
-1.047813795950769e+00  4.297160119501529e-01 -2.279892011127916e-17

-7.164560329822582e-17 -3.050113617080175e-17 -1.043438191955386e+00
-3.050113617080175e-17 -1.234799048602121e-16  4.494284835761644e-01
-1.043438191955386e+00  4.494284835761644e-01 -1.927833193582134e-17

-6.382551992048580e-17 -2.602083958831967e-17 -1.017715369392403e+00
-2.602083958831967e-17 -1.122470857138967e-16  4.893059333176857e-01
-1.017715369392403e+00  4.893059333176857e-01 -1.856192317860419e-17

-5.466682664884943e-17 -2.299925502893310e-17 -1.050377042440506e+00
-2.299925502893310e-17 -9.394717476704791e-17  4.042136390665894e-01
-1.050377042440506e+00  4.042136390665894e-01 -1.285216946780177e-17

-4.787760244363532e-17 -1.926404313029430e-17 -1.046257460287785e+00
-1.926404313029430e-17 -8.462599842502801e-17  4.515912038824518e-01
-1.046257460287785e+00  4.515912038824518e-01 -1.170781363164277e-17

-3.812569121697888e-17 -1.485392815929583e-17 -1.118406493218445e+00
-1.485392815929583e-17 -7.125778433762042e-17  4.705742808616966e-01
-1.118406493218445e+00  4.705742808616966e-01 -5.771066375948665e-18

-2.878395976124069e-17 -1.116679300412820e-17 -1.160965057341233e+00
-1.116679300412820e-17 -5.570092849860004e-17  4.793668827913093e-01
-1.160965057341233e+00  4.793668827913093e-01 -1.805912608122256e-18

-2.214999873988873e-17 -9.129692876295258e-18 -1.203497109691072e+00
-9.129692876295258e-18 -4.406299552252489e-17  4.626217030390791e-01
-1.203497109691072e+00  4.626217030390791e-01  2.036181063307509e-18

-2.309735505870669e-17 -7.855160330200594e-18 -1.074740139690264e+00
-7.855160330200594e-18 -4.579251608195248e-17  6.163486614437619e-01
-1.074740139690264e+00  6.163486614437619e-01 -7.756758501470278e-18

-1.565695687855718e-17 -7.767839311627004e-18 -1.305232021675279e+00
-7.767839311627004e-18 -3.397187642977820e-17  3.974027897323250e-01
-1.305232021675279e+00  3.974027897323250e-01  1.022444977957840e-17

-1.642109945206778e-17 -6.704270959757170e-18 -1.215429511061613e+00
-6.704270959757170e-18 -3.611338835284765e-17  5.195746141407576e-01
-1.215429511061613e+00  5.195746141407576e-01  3.255569917809054e-18

-1.994732999752808e-17 -5.933124592946920e-18 -1.036967869587665e+00
-5.933124592946920e-18 -4.224146951615313e-17  7.192318353662476e-01
-1.036967869587665e+00  7.192318353662476e-01 -1.012185924076048e-17

-1.271456620503193e-17 -5.972059516976892e-18 -1.227144015757067e+00
-5.972059516976892e-18 -2.968899344772020e-17  4.828835747843693e-01
-1.227144015757067e+00  4.828835747843693e-01  6.221425073888207e-18

-1.236960967920527e-17 -5.533750790148298e-18 -1.135088213502829e+00
-5.533750790148298e-18 -2.519308523210166e-17  4.368483105083946e-01
-1.135088213502829e+00  4.368483105083946e-01  2.357916369347211e-18

-1.089210537399444e-17 -5.163149152081663e-18 -1.101634344858948e+00
-5.163149152081663e-18 -2.207008280002752e-17  4.349887701950891e-01
-1.101634344858948e+00  4.349887701950891e-01  2.040231712117172e-18

-1.010751579411258e-17 -4.563046082844489e-18 -1.074610391182865e+00
-4.563046082844489e-18 -2.307952268205928e-17  5.175083697355677e-01
-1.074610391182865e+00  5.175083697355677e-01  2.661151789909266e-19

-7.558286499683489e-18 -4.204644494207690e-18 -1.114765938143479e+00
-4.204644494207690e-18 -1.941630899171778e-17  4.847604391885224e-01
-1.114765938143479e+00  4.847604391885224e-01  4.305619599638960e-18

-6.348326118680871e-18 -3.732221020520420e-18 -1.076782518734710e+00
-3.732221020520420e-18 -1.548296184230933e-17  4.524402011838575e-01
-1.076782518734710e+00  4.524402011838575e-01  3.504000293058908e-18

-5.511703744990946e-18 -3.379462682356446e-18 -1.048922229750568e+00
-3.379462682356446e-18 -1.356666038711742e-17  4.561234807079607e-01
-1.048922229750568e+00  4.561234807079607e-01  2.607604134662452e-18

-5.085782857321173e-18 -3.172823070751309e-18 -1.038517632971357e+00
-3.172823070751309e-18 -1.339885931691439e-17  4.779233631049333e-01
-1.038517632971357e+00  4.779233631049333e-01  2.088381856906534e-18

-3.716826328782263e-18 -3.003469820427509e-18 -1.068651596289893e+00
-3.003469820427509e-18 -1.152017966299031e-17  4.560542289174329e-01
-1.068651596289893e+00  4.560542289174329e-01  4.593466724539144e-18

-2.993566114848940e-18 -2.725150875419098e-18 -1.057926035708013e+00
-2.725150875419098e-18 -1.024062892469660e-17  4.617270395615176e-01
-1.057926035708013e+00  4.617270395615176e-01  4.266987292351554e-18

-2.015733896955252e-18 -2.523693973633562e-18 -1.064958533559037e+00
-2.523693973633562e-18 -8.232929884297410e-18  4.429909169534041e-01
-1.064958533559037e+00  4.429909169534041e-01  5.246613835099480e-18

-1.324280798600068e-18 -2.302844617503161e-18 -1.059924657324006e+00
-2.302844617503161e-18 -7.161853322022453e-18  4.486585059613614e-01
-1.059924657324006e+00  4.486585059613614e-01  5.201364651710140e-18

-2.480544602380254e-19 -2.035930858479620e-18 -1.066408474704511e+00
-2.035930858479620e-18 -5.709360982853385e-18  4.506896965056145e-01
-1.066408474704511e+00  4.506896965056145e-01  5.933425900904155e-18

 3.813051829518779e-19 -1.877812245484169e-18 -1.065741501789933e+00
-1.877812245484169e-18 -4.692520187728150e-18  4.508619091553209e-01
-1.065741501789933e+00  4.508619091553209e-01  6.107550777461349e-18

 8.590778655193787e-19 -1.740371597717522e-18 -1.063283197042411e+00
-1.740371597717522e-18 -3.728073364855568e-18  4.457798645347061e-01
-1.063283197042411e+00  4.457798645347061e-01  6.262512525652889e-18

 1.374160865222842e-18 -1.595067388581146e-18 -1.058590600356676e+00
-1.595067388581146e-18 -2.467570511817715e-18  4.344393976010471e-01
-1.058590600356676e+00  4.344393976010471e-01  6.393681949384710e-18

 1.839166859998491e-18 -1.467396731068980e-18 -1.054372477775545e+00
-1.467396731068980e-18 -1.579425054577700e-18  4.314675195152166e-01
-1.054372477775545e+00  4.314675195152166e-01  6.492056514553441e-18

 2.339658751990436e-18 -1.332319331335812e-18 -1.052194978188943e+00
-1.332319331335812e-18 -1.075516537955398e-18  4.387418438094772e-01
-1.052194978188943e+00  4.387418438094772e-01  6.611159313998994e-18

 2.941116529693565e-18 -1.221628975606918e-18 -1.054575256373689e+00
-1.221628975606918e-18 -1.078897623044435e-19  4.333895817374900e-01
-1.054575256373689e+00  4.333895817374900e-01  7.194608408770065e-18

 3.449030003362821e-18 -1.120328755535530e-18 -1.049983831481866e+00
-1.120328755535530e-18  9.105067953723899e-19  4.299581013138476e-01
-1.049983831481866e+00  4.299581013138476e-01  7.373807713482674e-18

 3.860778585030432e-18 -1.042568105781650e-18 -1.044868578052523e+00
-1.042568105781650e-18  1.721129353646944e-18  4.295717822523064e-01
-1.044868578052523e+00  4.295717822523064e-01  7.415160302999469e-18

 4.365354535211228e-18 -9.822526214159667e-19 -1.046572620425878e+00
-9.822526214159667e-19  2.657033889144826e-18  4.255395772748077e-01
-1.046572620425878e+00  4.255395772748077e-01  7.766406785289941e-18

 4.755781617125069e-18 -9.482749363087332e-19 -1.047651099952952e+00
-9.482749363087332e-19  2.820519332859684e-18  4.381251559688684e-01
-1.047651099952952e+00  4.381251559688684e-01  7.897130976427562e-18

 4.897714305316585e-18 -9.324717243052638e-19 -1.038503878753384e+00
-9.324717243052638e-19  2.932916455664031e-18  4.478387934029196e-01
-1.038503878753384e+00  4.478387934029196e-01  7.478768863550335e-18

 4.587275898567065e-18 -8.377483800345343e-19 -1.005475765823534e+00
-8.377483800345343e-19  3.614836151785862e-18  4.363320369715506e-01
-1.005475765823534e+00  4.363320369715506e-01  5.760416944087708e-18

 5.130820743468985e-18 -7.888186993970140e-19 -1.010835257103830e+00
-7.888186993970140e-19  4.331447033086729e-18  4.349065898123074e-01
-1.010835257103830e+00  4.349065898123074e-01  6.246539554226600e-18

 6.105777770843774e-18 -7.179046357287613e-19 -1.038244609130321e+00
-7.179046357287613e-19  4.973020476284047e-18  4.389661233587988e-01
-1.038244609130321e+00  4.389661233587988e-01  7.836874521647084e-18

 6.425020451397660e-18 -6.462355729686858e-19 -1.036281923299524e+00
-6.462355729686858e-19  5.673414250861993e-18  4.343094881506998e-01
-1.036281923299524e+00  4.343094881506998e-01  7.795700340665340e-18

 6.560444965173043e-18 -5.933431662039229e-19 -1.031279480069570e+00
-5.933431662039229e-19  6.035530192654999e-18  4.296016802888161e-01
-1.031279480069570e+00  4.296016802888161e-01  7.695877136815840e-18

 6.657657842973730e-18 -5.640662733737795e-19 -1.025249407298991e+00
-5.640662733737795e-19  6.085912072490099e-18  4.336751159461055e-01
-1.025249407298991e+00  4.336751159461055e-01  7.459687178981846e-18

 6.723851107324315e-18 -5.224510857292213e-19 -1.017124588230720e+00
-5.224510857292213e-19  6.284192274292752e-18  4.308713572351496e-01
-1.017124588230720e+00  4.308713572351496e-01  7.250964450633688e-18

 6.935677868400724e-18 -4.503099945155607e-19 -1.012099993168788e+00
-4.503099945155607e-19  7.205497477009215e-18  4.099027628544125e-01
-1.012099993168788e+00  4.099027628544125e-01  7.389899003204299e-18

 7.268589041985987e-18 -4.629594853795910e-19 -1.016058368451247e+00
-4.629594853795910e-19  6.208807561488252e-18  4.407619114604576e-01
-1.016058368451247e+00  4.407619114604576e-01  7.625131070276766e-18

 7.588679322229106e-18 -5.005379147748828e-19 -1.017850924579941e+00
-5.005379147748828e-19  5.977391389605792e-18  4.482363609884421e-01
-1.017850924579941e+00  4.482363609884421e-01  8.280543438420237e-18

 6.769431608919131e-18 -3.967758323832734e-19 -9.681061992636952e-01
-3.967758323832734e-19  5.939261549418367e-18  4.320520010059454e-01
-9.681061992636952e-01  4.320520010059454e-01  6.088738384231572e-18

 7.909187371700666e-18 -2.927180547670379e-19 -1.001346957487013e+00
-2.927180547670379e-19  8.113227248361793e-18  3.642674498336410e-01
-1.001346957487013e+00  3.642674498336410e-01  9.700482409963028e-18

 4.004206194547202e-18 -1.162138598551061e-18 -8.122997017759191e-01
-1.162138598551061e-18 -3.108256519400558e-19  6.058407041584062e-01
-8.122997017759191e-01  6.058407041584062e-01 -1.669232961693100e-18

 1.389485011209457e-18 -1.138640010040237e-18 -6.908307004377087e-01
-1.138640010040237e-18 -7.628736919830462e-19  5.954061321003014e-01
-6.908307004377087e-01  5.954061321003014e-01 -8.614096904206731e-18

 1.201346942204692e-18 -6.116408207642271e-19 -6.847184583772284e-01
-6.116408207642271e-19  6.113190185754123e-18  3.878568844082087e-01
-6.847184583772284e-01  3.878568844082087e-01 -1.035529152931916e-17

 1.358093389092863e-17 -3.235624916613716e-18 -1.120963618387653e+00
-3.235624916613716e-18  2.145765449272450e-17  9.962979779805448e-02
-1.120963618387653e+00  9.962979779805448e-02  1.897256528496292e-17

 6.684109661179373e-18 -2.424653271115903e-18 -8.714103377087232e-01
-2.424653271115903e-18  9.072375922050268e-18  4.145404474661860e-01
-8.714103377087232e-01  4.145404474661860e-01  2.057761721684457e-18

-4.834558844598887e-18  3.980605450535849e-18 -5.775551625574158e-01
 3.980605450535849e-18 -8.781400629905786e-18  6.861630428634944e-01
-5.775551625574158e-01  6.861630428634944e-01 -2.032833756146165e-17

 7.274967806197876e-18  2.462340436819628e-18 -1.040275076890856e+00
 2.462340436819628e-18  2.535958866830114e-18  4.788843781642901e-01
-1.040275076890856e+00  4.788843781642901e-01  8.857848722442500e-18

 1.143043972250175e-17  5.434496693227176e-19 -1.169075661262133e+00
 5.434496693227176e-19  9.430503427741050e-18  3.943072052233919e-01
-1.169075661262133e+00  3.943072052233919e-01  1.726820247034751e-17

 1.116746209170726e-17 -4.766473478564311e-20 -1.144261967103783e+00
-4.766473478564311e-20  1.109355148810445e-17  3.787818434478432e-01
-1.144261967103783e+00  3.787818434478432e-01  1.577513027339036e-17

 9.904740723316944e-18 -2.148730706938156e-19 -1.088790172970114e+00
-2.148730706938156e-19  1.048175329447754e-17  4.038899845662618e-01
-1.088790172970114e+00  4.038899845662618e-01  1.183946887577656e-17

 9.264355040573335e-18 -2.114298793635835e-19 -1.058563244925595e+00
-2.114298793635835e-19  1.037548862502169e-17  4.097848163771538e-01
-1.058563244925595e+00  4.097848163771538e-01  9.851656371439739e-18

 8.854553230811317e-18 -1.723285796908282e-19 -1.039795805671382e+00
-1.723285796908282e-19  9.723215267436838e-18  4.287285409839117e-01
-1.039795805671382e+00  4.287285409839117e-01  8.479745166751943e-18

 8.796220599766090e-18 -1.480450413841459e-19 -1.035314769597524e+00
-1.480450413841459e-19  9.717074371294527e-18  4.343348979468122e-01
-1.035314769597524e+00  4.343348979468122e-01  8.071166129183280e-18

 8.743239835767810e-18 -1.374114146152795e-19 -1.032064458794773e+00
-1.374114146152795e-19  9.733927976469682e-18  4.401971740479300e-01
-1.032064458794773e+00  4.401971740479300e-01  7.655805874798389e-18

 9.329779395880808e-18 -1.747036884398023e-19 -1.056491571908326e+00
-1.747036884398023e-19  1.092907104199412e-17  4.249106868278608e-01
-1.056491571908326e+00  4.249106868278608e-01  8.975957059307504e-18

 9.407059710370396e-18 -4.370951282782176e-20 -1.067876294165824e+00
-4.370951282782176e-20  9.217636784390893e-18  4.810198146397956e-01
-1.067876294165824e+00  4.810198146397956e-01  8.405784847085916e-18

 9.753908416147731e-18 -7.233002309767487e-20 -1.082678692880220e+00
-7.233002309767487e-20  9.493386348349668e-18  4.825094129694947e-01
-1.082678692880220e+00  4.825094129694947e-01  9.080773001932465e-18

 1.198767413301836e-17 -8.860261183553482e-20 -1.171885773562385e+00
-8.860261183553482e-20  1.336467321749684e-17  3.858464199887953e-01
-1.171885773562385e+00  3.858464199887953e-01  1.587367798278471e-17

 9.485621147610211e-18 -9.901407653350608e-20 -1.069996759795481e+00
-9.901407653350608e-20  9.641973453143734e-18  4.820537232054828e-01
-1.069996759795481e+00  4.820537232054828e-01  8.167453510591482e-18

 9.021089315159046e-18 -1.189894375348132e-19 -1.050910312381550e+00
-1.189894375348132e-19  8.801956611354088e-18  5.062493737702063e-01
-1.050910312381550e+00  5.062493737702063e-01  6.680186552835095e-18

 1.004365842224133e-17 -7.255705953641322e-20 -1.089334779810500e+00
-7.255705953641322e-20  1.102166920995361e-17  4.436519882358474e-01
-1.089334779810500e+00  4.436519882358474e-01  9.901165249525386e-18

 9.672788170620089e-18 -4.190671445004174e-20 -1.070758762138581e+00
-4.190671445004174e-20  1.106494117594466e-17  4.388183076270062e-01
-1.070758762138581e+00  4.388183076270062e-01  8.815745932418728e-18

 9.437077506596111e-18 -3.226978961859442e-20 -1.057866450908780e+00
-3.226978961859442e-20  1.028801034265551e-17  4.578609083306689e-01
-1.057866450908780e+00  4.578609083306689e-01  7.864820566233402e-18

 9.591185944213030e-18  9.608101692767166e-21 -1.062017969107727e+00
 9.608101692767166e-21  1.034834139348791e-17  4.548906254462489e-01
-1.062017969107727e+00  4.548906254462489e-01  8.137024933170729e-18

 9.785333899694506e-18  8.897707156805926e-20 -1.064212953884760e+00
 8.897707156805926e-20  1.054034835605777e-17  4.488622262983019e-01
-1.064212953884760e+00  4.488622262983019e-01  8.434301304520403e-18

 9.960481630477416e-18  1.551899183984188e-19 -1.063144717617525e+00
 1.551899183984188e-19  1.092215712169447e-17  4.365532789149283e-01
-1.063144717617525e+00  4.365532789149283e-01  8.834684722090034e-18

 1.005626896044458e-17  1.982725571180126e-19 -1.057434310329537e+00
 1.982725571180126e-19  1.132928340054233e-17  4.252704616860393e-01
-1.057434310329537e+00  4.252704616860393e-01  9.091309799185149e-18

 1.022227976385928e-17  2.390285087109003e-19 -1.055783485457435e+00
 2.390285087109003e-19  1.145237021772843e-17  4.219497102854980e-01
-1.055783485457435e+00  4.219497102854980e-01  9.442743685966904e-18

 1.027398311065190e-17  2.400784848419530e-19 -1.053539778017085e+00
 2.400784848419530e-19  1.152976927880811e-17  4.209100758206121e-01
-1.053539778017085e+00  4.209100758206121e-01  9.654891148077013e-18

 1.020682436914342e-17  2.393420513852511e-19 -1.047217254419296e+00
 2.393420513852511e-19  1.144374474720965e-17  4.233254405719045e-01
-1.047217254419296e+00  4.233254405719045e-01  9.448740889296231e-18

 1.017944987450134e-17  2.274863573316255e-19 -1.043387589277835e+00
 2.274863573316255e-19  1.153742795323340e-17  4.231296130561466e-01
-1.043387589277835e+00  4.231296130561466e-01  9.381056333113117e-18

 1.046656431584719e-17  1.994467319450270e-19 -1.050598516967534e+00
 1.994467319450270e-19  1.217600445375705e-17  4.071510217670014e-01
-1.050598516967534e+00  4.071510217670014e-01  1.030191267878909e-17

 1.030273283631708e-17  1.815085709983988e-19 -1.041731577141280e+00
 1.815085709983988e-19  1.213916507152849e-17  4.108220664606411e-01
-1.041731577141280e+00  4.108220664606411e-01  9.824220434788603e-18

 1.038678271727421e-17  1.463318009146887e-19 -1.042503027477692e+00
 1.463318009146887e-19  1.238409712929287e-17  4.051227115100856e-01
-1.042503027477692e+00  4.051227115100856e-01  1.009245037795762e-17

 1.054515183897571e-17  1.242170746019765e-19 -1.047036673564850e+00
 1.242170746019765e-19  1.255182155725061e-17  4.032594964329763e-01
-1.047036673564850e+00  4.032594964329763e-01  1.048256738086467e-17

 1.061987366474332e-17  8.530024710170627e-20 -1.048231147060088e+00
 8.530024710170627e-20  1.232911903968615e-17  4.123497057857565e-01
-1.048231147060088e+00  4.123497057857565e-01  1.060946675748606e-17

 1.059574950210781e-17 -6.900509250348716e-20 -1.042524969763947e+00
-6.900509250348716e-20  1.109230957128073e-17  4.463523561460079e-01
-1.042524969763947e+00  4.463523561460079e-01  1.044896327718254e-17

 8.801630284209510e-18  5.651923842263449e-20 -9.623031881106211e-01
 5.651923842263449e-20  1.092490241910500e-17  4.269154589092828e-01
-9.623031881106211e-01  4.269154589092828e-01  5.815991261042428e-18

 8.074761055661548e-18 -3.485775592503806e-20 -9.293724168564138e-01
-3.485775592503806e-20  9.503045587943880e-18  4.623217250614222e-01
-9.293724168564138e-01  4.623217250614222e-01  3.597719217347288e-18

 1.096795715380625e-17 -1.436275694042269e-19 -1.050407580995039e+00
-1.436275694042269e-19  1.372560889642089e-17  3.707467278754527e-01
-1.050407580995039e+00  3.707467278754527e-01  1.185743450783058e-17

 1.085218265471672e-17 -1.476075511555881e-19 -1.049030847022240e+00
-1.476075511555881e-19  1.374627787818367e-17  3.768373831214618e-01
-1.049030847022240e+00  3.768373831214618e-01  1.126294972182863e-17

 8.903366770130988e-18  7.327496329507520e-20 -9.799494107938224e-01
 7.327496329507520e-20  9.628626741366340e-18  4.818831949974404e-01
-9.799494107938224e-01  4.818831949974404e-01  4.931009604885288e-18

 1.012714345749682e-17  7.542408069434489e-20 -1.034578320703078e+00
 7.542408069434489e-20  1.010826100190484e-17  4.789545755384105e-01
-1.034578320703078e+00  4.789545755384105e-01  8.140539575941428e-18

 8.225614730662377e-18  6.888543269154252e-20 -9.597770843139924e-01
 6.888543269154252e-20  7.146583933691751e-18  5.578406032649527e-01
-9.597770843139924e-01  5.578406032649527e-01  2.183808260002011e-18

 1.097840481183797e-17 -1.988753220024415e-20 -1.070422599391132e+00
-1.988753220024415e-20  1.110362175820761e-17  4.637531505168657e-01
-1.070422599391132e+00  4.637531505168657e-01  1.043190183710527e-17

 1.079007776656187e-17 -3.682508322938487e-20 -1.062206784516806e+00
-3.682508322938487e-20  1.222901040998104e-17  4.347402187622471e-01
-1.062206784516806e+00  4.347402187622471e-01  1.000697339296140e-17

 1.051485464444369e-17 -5.897828063777251e-21 -1.050151069534066e+00
-5.897828063777251e-21  1.267061494016550e-17  4.203579789172793e-01
-1.050151069534066e+00  4.203579789172793e-01  9.289450052557777e-18

 1.011554133396209e-17 -1.035563184568249e-20 -1.032490298756902e+00
-1.035563184568249e-20  1.176532682908645e-17  4.451391953952965e-01
-1.032490298756902e+00  4.451391953952965e-01  7.923224810121567e-18

 1.024308061037623e-17  2.805169596643881e-21 -1.038297139396538e+00
 2.805169596643881e-21  1.179589777806276e-17  4.471104254867898e-01
-1.038297139396538e+00  4.471104254867898e-01  8.164654497208076e-18

 1.043543227579687e-17  2.540265633852390e-20 -1.047261335887874e+00
 2.540265633852390e-20  1.195835243990279e-17  4.497994367457362e-01
-1.047261335887874e+00  4.497994367457362e-01  8.482491709247746e-18

 1.063067985159935e-17  3.817533710117900e-20 -1.056302232645607e+00
 3.817533710117900e-20  1.232372581629021e-17  4.459499328630805e-01
-1.056302232645607e+00  4.459499328630805e-01  8.886392926265131e-18

 1.081321108648369e-17  5.946124742132440e-20 -1.063523978992435e+00
 5.946124742132440e-20  1.277606315317583e-17  4.402377657048511e-01
-1.063523978992435e+00  4.402377657048511e-01  9.286460876359443e-18

 1.072021602355764e-17  7.467383995690400e-20 -1.059211321765876e+00
 7.467383995690400e-20  1.262675530143188e-17  4.478388394208636e-01
-1.059211321765876e+00  4.478388394208636e-01  8.816060369765548e-18

 1.158301704872692e-17  5.973173526260155e-20 -1.093624192856797e+00
 5.973173526260155e-20  1.387188791868120e-17  4.193266181903684e-01
-1.093624192856797e+00  4.193266181903684e-01  1.133384097221429e-17

 1.197197309375525e-17  8.446845814005763e-20 -1.108750292626413e+00
 8.446845814005763e-20  1.385705185991445e-17  4.238659998964996e-01
-1.108750292626413e+00  4.238659998964996e-01  1.226400390834266e-17

 1.058256121887699e-17  1.227718814421592e-19 -1.053274904988304e+00
 1.227718814421592e-19  1.112807979427160e-17  4.948595800992754e-01
-1.053274904988304e+00  4.948595800992754e-01  7.876088416519186e-18

 1.181432189661986e-17  8.981270258699417e-20 -1.100066648319880e+00
 8.981270258699417e-20  1.297453156723617e-17  4.503149256437887e-01
-1.100066648319880e+00  4.503149256437887e-01  1.167826258966175e-17

 1.162358370001078e-17  5.489338812092505e-20 -1.089499563282331e+00
 5.489338812092505e-20  1.310959003163928e-17  4.478263908422307e-01
-1.089499563282331e+00  4.478263908422307e-01  1.121767458389768e-17

 1.178914485852400e-17  8.654899233273017e-20 -1.092438098419367e+00
 8.654899233273017e-20  1.448972327236135e-17  4.066974702452334e-01
-1.092438098419367e+00  4.066974702452334e-01  1.201987892080027e-17

 1.165134853627494e-17  6.080458338345820e-20 -1.083280371537763e+00
 6.080458338345820e-20  1.417678134457955e-17  4.149681177827688e-01
-1.083280371537763e+00  4.149681177827688e-01  1.165420169585282e-17

 1.043108087254215e-17 -2.804320314487962e-20 -1.030185966475821e+00
-2.804320314487962e-20  1.240469563153951e-17  4.594841962034257e-01
-1.030185966475821e+00  4.594841962034257e-01  8.184892619845903e-18

 1.032370563739073e-17 -1.147619784600930e-19 -1.033492101427690e+00
-1.147619784600930e-19  1.223789587383597e-17  4.737851731673137e-01
-1.033492101427690e+00  4.737851731673137e-01  7.720681899310186e-18

 1.060803022229759e-17 -1.615563259905358e-19 -1.057739021583583e+00
-1.615563259905358e-19  1.242820237004995e-17  4.829790538906684e-01
-1.057739021583583e+00  4.829790538906684e-01  8.130715571590818e-18

 1.172128271564907e-17 -1.207361940615192e-19 -1.121485209815676e+00
-1.207361940615192e-19  1.330618837196091e-17  4.768185801912779e-01
-1.121485209815676e+00  4.768185801912779e-01  1.060132563556973e-17

 1.189715870296806e-17 -8.602100895807661e-20 -1.136207397641914e+00
-8.602100895807661e-20  1.212824650109154e-17  5.210959759584411e-01
-1.136207397641914e+00  5.210959759584411e-01  1.033170722608107e-17

 1.379925966302895e-17  2.720373316894259e-20 -1.209639522345121e+00
 2.720373316894259e-20  1.569805316409099e-17  4.203072356313787e-01
-1.209639522345121e+00  4.203072356313787e-01  1.620151926960167e-17

 1.374245850617337e-17  2.349408678748657e-20 -1.206075781210772e+00
 2.349408678748657e-20  1.596487118643497e-17  4.105662887947981e-01
-1.206075781210772e+00  4.105662887947981e-01  1.615646846516034e-17

 1.190100948965963e-17  3.823871428837755e-21 -1.128467103578222e+00
 3.823871428837755e-21  1.339786945943289e-17  4.744988419631549e-01
-1.128467103578222e+00  4.744988419631549e-01  1.059154387390532e-17

 1.171051874594782e-17  4.798097327218837e-20 -1.112951303553419e+00
 4.798097327218837e-20  1.342983507213025e-17  4.628278656842261e-01
-1.112951303553419e+00  4.628278656842261e-01  1.022800457700564e-17

 1.155435983544076e-17  8.555474394396476e-20 -1.098944326466189e+00
 8.555474394396476e-20  1.357694403524023e-17  4.507160834958142e-01
-1.098944326466189e+00  4.507160834958142e-01  9.953649877207445e-18

 1.113110835260809e-17  7.307919971773863e-20 -1.074122991788286e+00
 7.307919971773863e-20  1.269791004587491e-17  4.688871153763388e-01
-1.074122991788286e+00  4.688871153763388e-01  8.745102428616019e-18

 1.103208902659622e-17  7.973475528346017e-20 -1.064083624186462e+00
 7.973475528346017e-20  1.286447094556140e-17  4.588944723465391e-01
-1.064083624186462e+00  4.588944723465391e-01  8.636325638832913e-18

 1.103280420354704e-17  6.746857623587308e-20 -1.060073841295307e+00
 6.746857623587308e-20  1.273321399705018e-17  4.631398561432367e-01
-1.060073841295307e+00  4.631398561432367e-01  8.607947622680198e-18

 1.122835526599664e-17  5.330885170863878e-20 -1.067138846112607e+00
 5.330885170863878e-20  1.305895431171517e-17  4.563793142674915e-01
-1.067138846112607e+00  4.563793142674915e-01  9.148430933145485e-18

 1.121048911832793e-17  4.597198625123111e-20 -1.066622143501902e+00
 4.597198625123111e-20  1.291814565522046e-17  4.636460163995817e-01
-1.066622143501902e+00  4.636460163995817e-01  8.980856834833437e-18

 1.133802313417220e-17  2.594911013629422e-20 -1.072142741614565e+00
 2.594911013629422e-20  1.339631421620380e-17  4.557498347332130e-01
-1.072142741614565e+00  4.557498347332130e-01  9.255831315893712e-18

 1.267367745170367e-17  9.499200945525190e-21 -1.126906621664336e+00
 9.499200945525190e-21  1.543087131914404e-17  4.058471264034834e-01
-1.126906621664336e+00  4.058471264034834e-01  1.330102971087247e-17

 1.209715228724549e-17  1.706550088147138e-20 -1.104576636801209e+00
 1.706550088147138e-20  1.387658802917488e-17  4.465977698614366e-01
-1.104576636801209e+00  4.465977698614366e-01  1.135512728584701e-17

 1.001103048370816e-17  3.409250771603717e-20 -1.022905227899167e+00
 3.409250771603717e-20  1.040671118896667e-17  5.396486855219246e-01
-1.022905227899167e+00  5.396486855219246e-01  4.838234448285926e-18

 1.108136091458046e-17  1.489963297204255e-20 -1.065710582242772e+00
 1.489963297204255e-20  1.196187383868478e-17  5.005753497504148e-01
-1.065710582242772e+00  5.005753497504148e-01  8.097088382386259e-18

 1.284702916653636e-17  3.690321305027594e-20 -1.137571927553849e+00
 3.690321305027594e-20  1.484077762804683e-17  4.256694954315544e-01
-1.137571927553849e+00  4.256694954315544e-01  1.351278399000545e-17

 1.174706102231064e-17  1.154454017000031e-20 -1.091828424622363e+00
 1.154454017000031e-20  1.361861490331763e-17  4.568063937396985e-01
-1.091828424622363e+00  4.568063937396985e-01  1.018378916289250e-17

 1.155761488861329e-17  4.779294093065082e-21 -1.084957956676477e+00
 4.779294093065082e-21  1.331824259381447e-17  4.630016710133191e-01
-1.084957956676477e+00  4.630016710133191e-01  9.734484820222510e-18

 1.180667653942941e-17 -7.351937153496671e-20 -1.076156967349742e+00
-7.351937153496671e-20  1.308859118331401e-17  4.632129740155145e-01
-1.076156967349742e+00  4.632129740155145e-01  9.231766907345294e-18

 1.164141192811804e-17 -5.674160592662237e-20 -1.068910106946503e+00
-5.674160592662237e-20  1.321983212603141e-17  4.540101025278109e-01
-1.068910106946503e+00  4.540101025278109e-01  8.820108075773939e-18

 6.504012856194554e-18  9.269345243392769e-19 -1.079633385351626e+00
 9.269345243392769e-19  1.250542385830818e-17  4.690508786627509e-01
-1.079633385351626e+00  4.690508786627509e-01  9.271753791384420e-18

-4.932006448935792e-17  1.132481787131252e-17 -1.094445179695897e+00
 1.132481787131252e-17  1.171173533543785e-17  4.293741967300584e-01
-1.094445179695897e+00  4.293741967300584e-01  1.064864134253299e-17

 2.992326011503329e-17 -3.379867612976287e-18 -1.057974837545772e+00
-3.379867612976287e-18  1.243862084696424e-17  4.732937332853639e-01
-1.057974837545772e+00  4.732937332853639e-01  8.264682976380609e-18

 1.081047464409918e-17  4.250373936782051e-19 -1.095994694270611e+00
 4.250373936782051e-19  1.334846334364740e-17  4.179863133676086e-01
-1.095994694270611e+00  4.179863133676086e-01  1.190525809897349e-17

 1.192087196042400e-17 -8.187141659607137e-20 -1.018617383442822e+00
-8.187141659607137e-20  1.111774528314574e-17  4.663356946407909e-01
-1.018617383442822e+00  4.663356946407909e-01  6.965536859395331e-18

 8.376493482422679e-18  2.253340099046431e-19 -9.271272184682051e-01
 2.253340099046431e-19  9.035578382774763e-18  5.043887931879378e-01
-9.271272184682051e-01  5.043887931879378e-01  1.202941249133267e-18

 1.321260302018977e-17  3.719333210522595e-19 -1.089887027407104e+00
 3.719333210522595e-19  1.685702938156739e-17  2.853680877601860e-01
-1.089887027407104e+00  2.853680877601860e-01  1.414369537721704e-17

 9.357126061456219e-18  3.603150706121889e-19 -9.576024073851942e-01
 3.603150706121889e-19  1.234990507069482e-17  4.012859088914633e-01
-9.576024073851942e-01  4.012859088914633e-01  4.974378471234694e-18

 9.158376599528660e-18  3.243406614453440e-19 -9.327306222670040e-01
 3.243406614453440e-19  1.022464345405438e-17  4.538222513565847e-01
-9.327306222670040e-01  4.538222513565847e-01  3.290011235105232e-18

 1.017743416145163e-17  2.927473444085642e-19 -9.683730861231894e-01
 2.927473444085642e-19  1.164191680646933e-17  4.226450633959695e-01
-9.683730861231894e-01  4.226450633959695e-01  6.191651822371814e-18

 1.037896260435731e-17  3.329455224070753e-19 -9.772818650845129e-01
 3.329455224070753e-19  1.186622122190342e-17  4.175185021749192e-01
-9.772818650845129e-01  4.175185021749192e-01  6.947788952626644e-18

 1.092374217706248e-17  3.943857923942226e-19 -9.993435217496570e-01
 3.943857923942226e-19  1.199342998638055e-17  4.183731841034488e-01
-9.993435217496570e-01  4.183731841034488e-01  8.396603096304357e-18

 1.072039284312310e-17  3.408825541720521e-19 -9.868725550788888e-01
 3.408825541720521e-19  1.231044586116346e-17  4.146866817931198e-01
-9.868725550788888e-01  4.146866817931198e-01  7.878984590828189e-18

 1.010555677685617e-17  2.370095311901502e-19 -9.562226790161799e-01
 2.370095311901502e-19  1.289854753072113e-17  3.990904830386927e-01
-9.562226790161799e-01  3.990904830386927e-01  6.328704739289665e-18

 1.227787231655208e-17 -1.777261151922833e-19 -1.036549421174778e+00
-1.777261151922833e-19  1.685089875407862e-17  3.200069020453510e-01
-1.036549421174778e+00  3.200069020453510e-01  1.262406210047104e-17

 1.079435322834778e-17  4.203261078365049e-19 -9.945817583973775e-01
 4.203261078365049e-19  1.226684238574183e-17  4.234608095526911e-01
-9.945817583973775e-01  4.234608095526911e-01  7.809238566592399e-18

 1.124874240353797e-17  6.212037346851649e-19 -1.019957316604112e+00
 6.212037346851649e-19  1.073932650839499e-17  4.624444403053931e-01
-1.019957316604112e+00  4.624444403053931e-01  8.715590766479198e-18

 1.172606490267513e-17  2.512409598498218e-19 -1.024627619031942e+00
 2.512409598498218e-19  1.372751558710266e-17  3.886872661918295e-01
-1.024627619031942e+00  3.886872661918295e-01  1.063763825738056e-17

 9.650582279563017e-18  2.639924195890084e-19 -9.275558807908076e-01
 2.639924195890084e-19  1.299725911613535e-17  3.859803596683604e-01
-9.275558807908076e-01  3.859803596683604e-01  5.384778159448728e-18

 9.118692826828534e-18  2.378759393046534e-19 -9.011626591449504e-01
 2.378759393046534e-19  1.158641028554909e-17  4.195811541594752e-01
-9.011626591449504e-01  4.195811541594752e-01  3.778567746993889e-18

 9.325328819104841e-18  2.446323435996288e-19 -9.107639539765180e-01
 2.446323435996288e-19  1.157847770309088e-17  4.229163297401155e-01
-9.107639539765180e-01  4.229163297401155e-01  4.353182208437679e-18

 1.111196048637924e-17  1.463897967450034e-19 -9.837164801726964e-01
 1.463897967450034e-19  1.402338314120218e-17  3.750929536260303e-01
-9.837164801726964e-01  3.750929536260303e-01  9.506392515312015e-18

 1.001655931270768e-17  2.585362484612679e-19 -9.466322645374122e-01
 2.585362484612679e-19  9.344737439135901e-18  4.984471914783840e-01
-9.466322645374122e-01  4.984471914783840e-01  5.659750383073223e-18

 9.426921139828450e-18  1.037774443563119e-19 -9.194871402364526e-01
 1.037774443563119e-19  1.248596710009159e-17  4.223736792663428e-01
-9.194871402364526e-01  4.223736792663428e-01  4.533728267795287e-18

 1.329593637315231e-17  2.363593568939884e-21 -1.075484714167534e+00
 2.363593568939884e-21  2.120174892687445e-17  2.014621560430966e-01
-1.075484714167534e+00  2.014621560430966e-01  1.655820417975780e-17

 9.408548073447996e-18 -6.402550761369063e-20 -9.244978914351524e-01
-6.402550761369063e-20  1.361375691762453e-17  4.083899630458396e-01
-9.244978914351524e-01  4.083899630458396e-01  4.298197287166608e-18

 1.431173457000316e-17 -1.245994692675812e-18 -1.116455026063530e+00
-1.245994692675812e-18  2.020052984887832e-17  3.263237963500940e-01
-1.116455026063530e+00  3.263237963500940e-01  1.609585917606793e-17

 1.162929146820873e-17  1.182417818878134e-18 -1.097184035311110e+00
 1.182417818878134e-18  8.752944943701966e-18  5.853024631203413e-01
-1.097184035311110e+00  5.853024631203413e-01  9.961187889136835e-18

 1.222692096801909e-17 -3.020192446895094e-19 -1.097007053833994e+00
-3.020192446895094e-19  7.281934623726253e-18  6.785297925053254e-01
-1.097007053833994e+00  6.785297925053254e-01  1.153935913910597e-17

 1.208104354915903e-17  5.277578847920617e-19 -1.071245754590528e+00
 5.277578847920617e-19  1.684938842699157e-17  3.415779559367320e-01
-1.071245754590528e+00  3.415779559367320e-01  1.071293916113435e-17

 1.042649671347660e-17  1.085423587350614e-20 -9.760473159353537e-01
 1.085423587350614e-20  1.318239989902829e-17  4.209900879558661e-01
-9.760473159353537e-01  4.209900879558661e-01  6.949951093296960e-18

 9.785138439806247e-18  3.222976463094432e-20 -9.426729883357052e-01
 3.222976463094432e-20  1.237872835199101e-17  4.227360538473057e-01
-9.426729883357052e-01  4.227360538473057e-01  5.499073003869145e-18

 8.866356461693416e-18 -1.556831596507876e-20 -8.978832086806892e-01
-1.556831596507876e-20  1.119684868972727e-17  4.452765113942527e-01
-8.978832086806892e-01  4.452765113942527e-01  3.091087631151879e-18

 9.003326129926126e-18 -3.460161277704301e-20 -9.010485469917896e-01
-3.460161277704301e-20  1.174964879063328e-17  4.218566827651104e-01
-9.010485469917896e-01  4.218566827651104e-01  3.684838606193160e-18

 9.008585272598988e-18 -4.153276849332620e-20 -9.041123096529978e-01
-4.153276849332620e-20  1.051327161104719e-17  4.622126378430527e-01
-9.041123096529978e-01  4.622126378430527e-01  3.257637560829175e-18

 1.013619358571772e-17 -4.346248455583882e-20 -9.525823457939969e-01
-4.346248455583882e-20  1.173463574927792e-17  4.300444321385058e-01
-9.525823457939969e-01  4.300444321385058e-01  6.394842569410791e-18

 9.924024564374601e-18 -5.115687468768383e-21 -9.475077879226937e-01
-5.115687468768383e-21  1.151314591106851e-17  4.430843888340646e-01
-9.475077879226937e-01  4.430843888340646e-01  5.581533965034426e-18

 9.831210689402618e-18  1.298166346465463e-20 -9.452922208911815e-01
 1.298166346465463e-20  1.118503329518406e-17  4.492100379360622e-01
-9.452922208911815e-01  4.492100379360622e-01  5.072898566438748e-18

 1.061889550224079e-17  2.644611959652974e-20 -9.813193700012302e-01
 2.644611959652974e-20  1.226428246645401e-17  4.245468920549539e-01
-9.813193700012302e-01  4.245468920549539e-01  7.340152536063289e-18

 1.093026787869200e-17  6.358280993056998e-20 -9.964603452383938e-01
 6.358280993056998e-20  1.289132357603436e-17  4.181240017432559e-01
-9.964603452383938e-01  4.181240017432559e-01  8.097153016296298e-18

 1.075066591272293e-17  6.940611577132744e-20 -9.887784711063989e-01
 6.940611577132744e-20  1.274477121447964e-17  4.172187989145840e-01
-9.887784711063989e-01  4.172187989145840e-01  7.542131660813382e-18

 1.047855759506695e-17  8.098128385644933e-20 -9.787189733429769e-01
 8.098128385644933e-20  1.254651161493649e-17  4.266714238711639e-01
-9.787189733429769e-01  4.266714238711639e-01  6.664496943779219e-18

 1.090089187366086e-17  1.028030616263956e-19 -9.971128905569600e-01
 1.028030616263956e-19  1.290169034454095e-17  4.211863879212223e-01
-9.971128905569600e-01  4.211863879212223e-01  7.840075793706909e-18

 1.087197774198018e-17  1.231585658585382e-19 -9.970482039865649e-01
 1.231585658585382e-19  1.290893924953583e-17  4.274349460701194e-01
-9.970482039865649e-01  4.274349460701194e-01  7.664238254072283e-18

 1.092086785317151e-17  1.087980275266390e-19 -9.993604776112219e-01
 1.087980275266390e-19  1.305223178586139e-17  4.168064082181816e-01
-9.993604776112219e-01  4.168064082181816e-01  7.841656280551990e-18

 1.093798226530922e-17  1.333344922525805e-19 -1.001533140594670e+00
 1.333344922525805e-19  1.284570110316416e-17  4.291979010697510e-01
-1.001533140594670e+00  4.291979010697510e-01  7.736810017306938e-18

 1.106883993064031e-17  1.195614726375944e-19 -1.008582540074356e+00
 1.195614726375944e-19  1.339156648808515e-17  4.214763677232869e-01
-1.008582540074356e+00  4.214763677232869e-01  8.107243696252713e-18

 1.112601735124376e-17  1.400898420252993e-19 -1.014655592936266e+00
 1.400898420252993e-19  1.313122246493827e-17  4.352637816134555e-01
-1.014655592936266e+00  4.352637816134555e-01  8.113521460847709e-18

 1.093077084730847e-17  1.058141843863567e-19 -1.009649275246947e+00
 1.058141843863567e-19  1.355387083436876e-17  4.324349440510540e-01
-1.009649275246947e+00  4.324349440510540e-01  7.538289060735638e-18

 1.114005954300107e-17  1.058815288089934e-19 -1.029082082042831e+00
 1.058815288089934e-19  1.362506770066941e-17  4.469187629866314e-01
-1.029082082042831e+00  4.469187629866314e-01  7.781569412016880e-18

 1.262791607458856e-17 -1.620965966178467e-19 -1.095633556366109e+00
-1.620965966178467e-19  1.512013758029268e-17  3.893161531421659e-01
-1.095633556366109e+00  3.893161531421659e-01  1.191555038856067e-17

 1.352302545779405e-17 -4.036810520030941e-20 -1.144932245388023e+00
-4.036810520030941e-20  1.957165400489379e-17  3.880409524255670e-01
-1.144932245388023e+00  3.880409524255670e-01  1.403266029670141e-17

 1.441300382122413e-17  2.936033967550305e-19 -1.207663317541183e+00
 2.936033967550305e-19  1.752810348720117e-17  4.289120113203845e-01
-1.207663317541183e+00  4.289120113203845e-01  1.577109203617948e-17

 1.817273583220437e-17 -3.870202215354769e-19 -1.358518430205727e+00
-3.870202215354769e-19  2.422852410491591e-17  3.579304296044411e-01
-1.358518430205727e+00  3.579304296044411e-01  2.644104540538228e-17

 1.166604260589171e-17 -2.525312093854549e-18 -1.065268473320011e+00
-2.525312093854549e-18  7.724822452084460e-18  8.208385738622203e-01
-1.065268473320011e+00  8.208385738622203e-01  1.071120833955106e-17

 1.328968087513837e-17 -2.055784714580508e-19 -1.133323941712659e+00
-2.055784714580508e-19  1.581502132543869e-17  4.411681526542814e-01
-1.133323941712659e+00  4.411681526542814e-01  1.341760467947296e-17

 1.623862412018540e-17  3.190683223269742e-18 -1.289735946904396e+00
 3.190683223269742e-18  2.480029549038844e-17  1.631679264284601e-02
-1.289735946904396e+00  1.631679264284601e-02  1.874324036682603e-17

 6.675640660697472e-18  5.962551927418088e-19 -8.412415784084267e-01
 5.962551927418088e-19  9.677632540345811e-18  4.858989233004688e-01
-8.412415784084267e-01  4.858989233004688e-01 -4.641906499719795e-18

 9.644677210135977e-18 -9.508267598086108e-20 -9.479515744512425e-01
-9.508267598086108e-20  1.039127573623642e-17  4.895874952798155e-01
-9.479515744512425e-01  4.895874952798155e-01  4.244004107530307e-18

 1.037540973272625e-17 -8.546597651224064e-20 -9.802865227770464e-01
-8.546597651224064e-20  1.118070949466418e-17  4.639717039780765e-01
-9.802865227770464e-01  4.639717039780765e-01  6.234531519288177e-18

-2.537812480489836e-17 -3.012702723259268e-20  1.043311133767460e+00
-3.012702723259268e-20 -1.401133064411421e-17  4.210588267111512e-01
 1.043311133767460e+00  4.210588267111512e-01 -3.565124078548764e-17

-2.501235579421715e-17 -2.203208492690312e-20  1.024176128581191e+00
-2.203208492690312e-20 -4.351740957573914e-18  3.959519594685539e-01
 1.024176128581191e+00  3.959519594685539e-01 -3.497054316620745e-17

-2.445921759265706e-17  8.188979395442258e-21  9.936343926749129e-01
 8.188979395442258e-21 -6.911561957257375e-18  3.973408859278350e-01
 9.936343926749129e-01  3.973408859278350e-01 -3.385801710109432e-17

-2.491768576395219e-17 -1.060066401215094e-19  1.023961025109615e+00
-1.060066401215094e-19 -2.236685935449727e-17  3.834647249493246e-01
 1.023961025109615e+00  3.834647249493246e-01 -3.491657022572870e-17

-2.450792297799414e-17 -9.514804901850718e-20  9.985386847035798e-01
-9.514804901850718e-20 -1.223327244051789e-17  3.927570621173818e-01
 9.985386847035798e-01  3.927570621173818e-01 -3.396235711474717e-17

-2.437959649507008e-17 -7.076064493857358e-20  9.866393504582748e-01
-7.076064493857358e-20 -2.545587811528722e-17  4.394855707103105e-01
 9.866393504582748e-01  4.394855707103105e-01 -3.350558749121750e-17

-2.362771908041313e-17 -1.485496657316261e-19  9.545443458934335e-01
-1.485496657316261e-19 -2.895250939582411e-17  3.726402094174506e-01
 9.545443458934335e-01  3.726402094174506e-01 -3.227715970253836e-17

-2.417980118426563e-17 -4.935719424888709e-20  1.003571343973170e+00
-4.935719424888709e-20 -1.652195986312108e-17  3.386050882646323e-01
 1.003571343973170e+00  3.386050882646323e-01 -3.388406082573007e-17

-2.428361127307822e-17 -1.794433350342444e-19  9.770549376341492e-01
-1.794433350342444e-19 -2.368474061441488e-17  4.501639325295043e-01
 9.770549376341492e-01  4.501639325295043e-01 -3.326204732224889e-17

-2.425977587357332e-17 -1.255761535644493e-19  9.603161789898360e-01
-1.255761535644493e-19  2.478059555914294e-18  4.966427024293589e-01
 9.603161789898360e-01  4.966427024293589e-01 -3.267077023845709e-17

-2.453879710979941e-17 -1.356901485980793e-19  1.005126949130675e+00
-1.356901485980793e-19 -8.178715292133009e-18  3.976423185269820e-01
 1.005126949130675e+00  3.976423185269820e-01 -3.413455399235889e-17

-2.498089631216411e-17 -1.737859010119431e-19  1.033873699784289e+00
-1.737859010119431e-19 -2.468255220354700e-17  4.189872308135779e-01
 1.033873699784289e+00  4.189872308135779e-01 -3.517638763657325e-17

-2.321445751401826e-17 -2.052773670905659e-19  9.279825916479061e-01
-2.052773670905659e-19  1.035565825594343e-17  4.249874672538540e-01
 9.279825916479061e-01  4.249874672538540e-01 -3.134699818740622e-17

-2.159417995389314e-17 -2.684018125289330e-20  8.258264112373392e-01
-2.684018125289330e-20  4.075693430446841e-17  4.584097469329971e-01
 8.258264112373392e-01  4.584097469329971e-01 -2.741114171402842e-17

-2.397868440087554e-17  1.180598829694368e-18  1.112619239185078e+00
 1.180598829694368e-18 -2.104925570365412e-17  1.009994303329726e-01
 1.112619239185078e+00  1.009994303329726e-01 -3.228110854120364e-17

-2.502509720384571e-17 -8.297307894745085e-20  1.039753675575340e+00
-8.297307894745085e-20  3.463412756440812e-17  3.872358541197391e-01
 1.039753675575340e+00  3.872358541197391e-01 -3.502972822182230e-17

-2.396045255458005e-17 -1.918021966480971e-18  7.310012539951267e-01
-1.918021966480971e-18 -1.536481886426092e-17  9.109992585603889e-01
 7.310012539951267e-01  9.109992585603889e-01 -3.289751837867003e-17

-2.798827344541498e-17 -5.132825295239400e-19  1.197609201210782e+00
-5.132825295239400e-19 -4.300606910554268e-17  3.977259787934529e-01
 1.197609201210782e+00  3.977259787934529e-01 -4.202634216195805e-17

-2.601256393448692e-17 -3.047109809365847e-19  1.089054924845929e+00
-3.047109809365847e-19 -1.082166157117764e-17  3.554737795474709e-01
 1.089054924845929e+00  3.554737795474709e-01 -3.721386738810650e-17

-2.514927221882665e-17 -2.714449977197499e-19  1.031208954951824e+00
-2.714449977197499e-19 -2.539048666607866e-18  3.938513241894088e-01
 1.031208954951824e+00  3.938513241894088e-01 -3.501364803003327e-17

-2.470477296757045e-17 -2.471224234809107e-19  9.955251019260098e-01
-2.471224234809107e-19 -8.706089449676489e-18  4.406144613650776e-01
 9.955251019260098e-01  4.406144613650776e-01 -3.372817549326396e-17

-2.476188483167811e-17 -2.773530850229597e-19  1.010479313671611e+00
-2.773530850229597e-19 -5.661454694984658e-18  4.223158544576078e-01
 1.010479313671611e+00  4.223158544576078e-01 -3.425235582197765e-17

-2.471592973643099e-17 -2.778500264271869e-19  1.011230877256909e+00
-2.778500264271869e-19 -1.315742321880480e-17  4.195086176496690e-01
 1.011230877256909e+00  4.195086176496690e-01 -3.428979607514327e-17

-2.460013083138200e-17 -2.800128507151477e-19  1.007608177700350e+00
-2.800128507151477e-19 -3.179468455491990e-17  4.133768323350408e-01
 1.007608177700350e+00  4.133768323350408e-01 -3.415994900223546e-17

-2.458243671864735e-17 -2.735852550624385e-19  1.011000681468704e+00
-2.735852550624385e-19  6.458356144890994e-18  4.063018872673854e-01
 1.011000681468704e+00  4.063018872673854e-01 -3.429420385016516e-17

-2.435598241448574e-17 -2.729562878057676e-19  9.935305177580163e-01
-2.729562878057676e-19 -2.671009341592191e-17  4.161599452069298e-01
 9.935305177580163e-01  4.161599452069298e-01 -3.369581949712313e-17

-2.407353706933204e-17 -2.598072188440153e-19  9.708781345784271e-01
-2.598072188440153e-19 -2.339318576571092e-17  4.332277026375564e-01
 9.708781345784271e-01  4.332277026375564e-01 -3.290028687428188e-17

-2.418200144435998e-17 -2.415412562709384e-19  9.850992096369711e-01
-2.415412562709384e-19 -9.377805627016615e-18  4.102087448626466e-01
 9.850992096369711e-01  4.102087448626466e-01 -3.343526786696138e-17

-2.423590743266310e-17 -2.269832363252299e-19  9.875252747311136e-01
-2.269832363252299e-19  1.171661244632094e-17  4.110548261931402e-01
 9.875252747311136e-01  4.110548261931402e-01 -3.357115754593146e-17

-2.430964316788167e-17 -1.937401485312993e-19  9.931086620513760e-01
-1.937401485312993e-19 -3.674943603812319e-17  4.084566566218494e-01
 9.931086620513760e-01  4.084566566218494e-01 -3.379858948879862e-17

-2.422113812766420e-17 -1.461919001857430e-19  9.858557568023216e-01
-1.461919001857430e-19 -2.200992294240073e-17  4.062745825582347e-01
 9.858557568023216e-01  4.062745825582347e-01 -3.359286634010442e-17

-2.421359126994522e-17 -1.019510798865139e-19  9.825305683872554e-01
-1.019510798865139e-19 -6.773832807754635e-18  4.016057139374913e-01
 9.825305683872554e-01  4.016057139374913e-01 -3.350198404093781e-17

-2.417039173634015e-17 -7.492763729944736e-20  9.787836976642686e-01
-7.492763729944736e-20  4.772379930017899e-18  4.058768271014906e-01
 9.787836976642686e-01  4.058768271014906e-01 -3.339538221128932e-17

-2.425921609537828e-17 -3.134978467329368e-20  9.836255951355298e-01
-3.134978467329368e-20 -2.050306031017578e-17  3.997751374803094e-01
 9.836255951355298e-01  3.997751374803094e-01 -3.357611451511236e-17

-2.433393531781916e-17 -2.426026683582610e-20  9.803346863605750e-01
-2.426026683582610e-20 -1.094962083871542e-17  4.087432868614260e-01
 9.803346863605750e-01  4.087432868614260e-01 -3.346960034156617e-17

-2.431581549055124e-17 -3.143931706922533e-20  9.829377345218362e-01
-3.143931706922533e-20 -1.772107529290635e-17  4.067446181766204e-01
 9.829377345218362e-01  4.067446181766204e-01 -3.355218392884326e-17

-2.436552977017594e-17 -2.555944500085521e-20  9.851826118513826e-01
-2.555944500085521e-20  4.766445121843237e-18  4.003215460337410e-01
 9.851826118513826e-01  4.003215460337410e-01 -3.361145034033560e-17

-2.444212901183356e-17 -1.744084247061031e-20  9.884833577952301e-01
-1.744084247061031e-20 -4.268857272828407e-17  3.980000039525965e-01
 9.884833577952301e-01  3.980000039525965e-01 -3.371963717494850e-17

-2.441378601173773e-17 -2.091050831764350e-20  9.850200912281254e-01
-2.091050831764350e-20 -1.507735712232030e-17  4.078929113395711e-01
 9.850200912281254e-01  4.078929113395711e-01 -3.359507029058745e-17

-2.451383368693130e-17 -1.761195999590160e-20  9.906616587894781e-01
-1.761195999590160e-20  4.251224635074996e-19  4.100400204514804e-01
 9.906616587894781e-01  4.100400204514804e-01 -3.379369012978954e-17

-2.440281686177642e-17 -2.066101471324088e-20  9.786346916181066e-01
-2.066101471324088e-20 -5.353396111810201e-18  4.202261089674900e-01
 9.786346916181066e-01  4.202261089674900e-01 -3.335806425952353e-17

-2.459563367017492e-17 -3.568490906188593e-20  9.963515622401790e-01
-3.568490906188593e-20 -9.163847928461124e-18  4.005945848261071e-01
 9.963515622401790e-01  4.005945848261071e-01 -3.396603520488434e-17

-2.459785947795082e-17 -4.834673817402832e-20  9.931461998699906e-01
-4.834673817402832e-20 -9.838553049519189e-18  4.088003090424302e-01
 9.931461998699906e-01  4.088003090424302e-01 -3.385082528905967e-17

-2.464268023995064e-17 -5.818361383127651e-20  9.953213861715745e-01
-5.818361383127651e-20 -1.565514575908664e-17  4.126007023284132e-01
 9.953213861715745e-01  4.126007023284132e-01 -3.392841598474080e-17

-2.461275061213538e-17 -5.400937853759737e-20  9.904777415725796e-01
-5.400937853759737e-20 -9.867081660463084e-18  4.150996253083696e-01
 9.904777415725796e-01  4.150996253083696e-01 -3.375539357449811e-17

-2.466292057673394e-17 -7.266514647808924e-20  9.934150808073298e-01
-7.266514647808924e-20  7.094258769863349e-18  4.149985971674808e-01
 9.934150808073298e-01  4.149985971674808e-01 -3.385921507602361e-17

-2.481985348560728e-17 -7.830152527619334e-20  1.004599195433012e+00
-7.830152527619334e-20 -4.874588408411390e-18  4.137623638427606e-01
 1.004599195433012e+00  4.137623638427606e-01 -3.425657650737175e-17

-2.485364423074573e-17 -7.881646042188995e-20  1.006201710851537e+00
-7.881646042188995e-20 -2.316013011578325e-17  4.131442084025622e-01
 1.006201710851537e+00  4.131442084025622e-01 -3.430873101844026e-17

-2.484070001243170e-17 -8.945886352531027e-20  1.004841839503877e+00
-8.945886352531027e-20 -4.777107426277217e-18  4.113293768425450e-01
 1.004841839503877e+00  4.113293768425450e-01 -3.425651719705414e-17

-2.474430979162926e-17 -8.412624077670742e-20  9.967824764762041e-01
-8.412624077670742e-20 -2.340586282802639e-17  4.185795758436110e-01
 9.967824764762041e-01  4.185795758436110e-01 -3.395702377407648e-17

-2.483376233670399e-17 -7.914431318333976e-20  1.002435157246620e+00
-7.914431318333976e-20 -8.294348968625778e-18  4.131480601143688e-01
 1.002435157246620e+00  4.131480601143688e-01 -3.414703707669760e-17

-2.484927890930940e-17 -9.313274111849406e-20  9.968308990639266e-01
-9.313274111849406e-20  4.099131351139946e-18  4.255896177028041e-01
 9.968308990639266e-01  4.255896177028041e-01 -3.395884394970074e-17

-2.493032743713993e-17 -7.304255861714695e-20  1.006443772700864e+00
-7.304255861714695e-20 -3.604281501100802e-17  4.184087182874617e-01
 1.006443772700864e+00  4.184087182874617e-01 -3.429685699327826e-17

-2.491549687702502e-17 -8.894079410349339e-20  1.003706375071329e+00
-8.894079410349339e-20 -1.833538619132838e-17  4.231523094877299e-01
 1.003706375071329e+00  4.231523094877299e-01 -3.420185297321247e-17

-2.503334399511396e-17 -1.166871412424785e-19  1.012648529621873e+00
-1.166871412424785e-19  5.580983681949357e-18  4.126191530346564e-01
 1.012648529621873e+00  4.126191530346564e-01 -3.451253717036524e-17

-2.503645649108218e-17 -1.127434494260171e-19  1.010840150938814e+00
-1.127434494260171e-19 -2.293799336331888e-17  4.184380995791086e-01
 1.010840150938814e+00  4.184380995791086e-01 -3.444421564203616e-17

-2.510421227196147e-17 -1.133543091011681e-19  1.013472033188597e+00
-1.133543091011681e-19 -1.123189644351513e-17  4.177436203502442e-01
 1.013472033188597e+00  4.177436203502442e-01 -3.453611393095044e-17

-2.523961866728304e-17 -1.219558557720625e-19  1.014334616685997e+00
-1.219558557720625e-19 -2.559493199936770e-17  4.398746700752580e-01
 1.014334616685997e+00  4.398746700752580e-01 -3.460074262186802e-17

-2.519865292678469e-17 -1.338503306384363e-19  1.014305966417472e+00
-1.338503306384363e-19 -1.313843668658241e-17  4.331007578567226e-01
 1.014305966417472e+00  4.331007578567226e-01 -3.458050468242033e-17

-2.513107810227436e-17 -1.387504926257889e-19  1.015517199271992e+00
-1.387504926257889e-19 -2.104541523271239e-17  4.042221503616520e-01
 1.015517199271992e+00  4.042221503616520e-01 -3.456262251234240e-17

-2.545970537443087e-17 -1.535643668500136e-19  1.035914491328303e+00
-1.535643668500136e-19 -2.099406295273061e-17  4.056864954662660e-01
 1.035914491328303e+00  4.056864954662660e-01 -3.532612277016621e-17

-2.547034565349022e-17 -1.644402231938560e-19  1.023949238868587e+00
-1.644402231938560e-19 -5.556113769406215e-18  4.481898081519518e-01
 1.023949238868587e+00  4.481898081519518e-01 -3.499616532025637e-17

-2.561614257915172e-17 -1.453231799092576e-19  1.039781765104619e+00
-1.453231799092576e-19 -4.546643166848387e-18  4.146537316624209e-01
 1.039781765104619e+00  4.146537316624209e-01 -3.551647117951892e-17

-2.550910218281914e-17 -1.523786666613586e-19  1.032302325839675e+00
-1.523786666613586e-19 -1.123287558561970e-17  4.066804524681766e-01
 1.032302325839675e+00  4.066804524681766e-01 -3.523233267165879e-17

-2.535014392968909e-17 -1.628342742348263e-19  1.011483831937714e+00
-1.628342742348263e-19 -2.477320258442107e-17  4.392553778545287e-01
 1.011483831937714e+00  4.392553778545287e-01 -3.454983256151784e-17

-2.581316251155717e-17 -1.805449634976905e-19  1.046671213366006e+00
-1.805449634976905e-19  8.330921598932330e-19  4.269177160240448e-01
 1.046671213366006e+00  4.269177160240448e-01 -3.582601292156047e-17

-2.571936903440368e-17 -1.559445260039888e-19  1.036526640490588e+00
-1.559445260039888e-19 -1.426994752578705e-17  4.320114822419246e-01
 1.036526640490588e+00  4.320114822419246e-01 -3.546215833458641e-17

-2.571232101545881e-17 -1.529039042464398e-19  1.045631778442491e+00
-1.529039042464398e-19 -2.171941956234206e-17  3.997787512739933e-01
 1.045631778442491e+00  3.997787512739933e-01 -3.576115734021506e-17

-2.550925859594797e-17 -1.352803782980247e-19  1.025112957338280e+00
-1.352803782980247e-19 -2.919184795314414e-17  4.247234175247125e-01
 1.025112957338280e+00  4.247234175247125e-01 -3.505452401092664e-17

-2.555568703045557e-17 -1.163105357300131e-19  1.029132899108419e+00
-1.163105357300131e-19 -3.346361366649490e-17  4.239330177687853e-01
 1.029132899108419e+00  4.239330177687853e-01 -3.520339365461989e-17

-2.541668823562817e-17 -1.053810302388356e-19  1.022797126873491e+00
-1.053810302388356e-19 -3.350546848582942e-17  4.171535894184012e-01
 1.022797126873491e+00  4.171535894184012e-01 -3.496982879459689e-17

-2.534916006040679e-17 -9.825669090608335e-20  1.021438629180328e+00
-9.825669090608335e-20 -2.894868009963585e-17  4.093352261846999e-01
 1.021438629180328e+00  4.093352261846999e-01 -3.490752278523584e-17

-2.528672547137894e-17 -1.086444951342692e-19  1.014253023275620e+00
-1.086444951342692e-19 -7.233599230116471e-20  4.223019365288876e-01
 1.014253023275620e+00  4.223019365288876e-01 -3.466326955014716e-17

-2.510101528904135e-17 -1.013836615398826e-19  1.000452236346258e+00
-1.013836615398826e-19 -1.511647184815631e-17  4.375138846657792e-01
 1.000452236346258e+00  4.375138846657792e-01 -3.415575553672533e-17

-2.505366326923013e-17 -1.193054520224114e-19  1.008024480634486e+00
-1.193054520224114e-19 -1.040125400821996e-17  3.944790999916079e-01
 1.008024480634486e+00  3.944790999916079e-01 -3.439886492415547e-17

-2.498039653129481e-17 -1.107810558628743e-19  1.003414278327007e+00
-1.107810558628743e-19 -1.002090086326935e-17  3.911748992921759e-01
 1.003414278327007e+00  3.911748992921759e-01 -3.421852406362141e-17

-2.478286411334931e-17 -9.094376905579943e-20  9.815252055502987e-01
-9.094376905579943e-20 -1.416899671173779e-17  4.284906271642601e-01
 9.815252055502987e-01  4.284906271642601e-01 -3.347118734729851e-17

-2.506132815162928e-17 -8.286165787081105e-20  1.002840681268882e+00
-8.286165787081105e-20 -3.201392997210017e-17  4.215698753909309e-01
 1.002840681268882e+00  4.215698753909309e-01 -3.425862622166817e-17

-2.477447103788913e-17 -5.248661044550142e-20  9.780407551249308e-01
-5.248661044550142e-20 -2.677597186666344e-17  4.400918373987868e-01
 9.780407551249308e-01  4.400918373987868e-01 -3.336872715968354e-17

-2.505108802196358e-17 -6.918056392159754e-20  1.009076153917113e+00
-6.918056392159754e-20 -1.918888410673005e-17  3.829587998276047e-01
 1.009076153917113e+00  3.829587998276047e-01 -3.446808487148438e-17

-2.510189986529332e-17 -8.104815370194288e-20  1.018298683446121e+00
-8.104815370194288e-20 -4.082572522642935e-18  3.691890837338794e-01
 1.018298683446121e+00  3.691890837338794e-01 -3.479199426454544e-17

-2.452883671623668e-17 -5.193733996411992e-20  9.585317205416567e-01
-5.193733996411992e-20 -2.261089558395964e-18  4.479484172631009e-01
 9.585317205416567e-01  4.479484172631009e-01 -3.271078559426676e-17

-2.480408013303534e-17 -5.099322391129190e-20  9.813064886673941e-01
-5.099322391129190e-20 -2.536492218489353e-17  4.184073405307375e-01
 9.813064886673941e-01  4.184073405307375e-01 -3.351572102558593e-17

-2.487400085180770e-17 -6.172480760143056e-20  9.889027695317755e-01
-6.172480760143056e-20 -1.519824700322981e-17  4.010131392980043e-01
 9.889027695317755e-01  4.010131392980043e-01 -3.378427676140443e-17

-2.506138013377875e-17 -5.621473524270270e-20  9.885071237465491e-01
-5.621473524270270e-20  1.897803262299835e-18  4.341095002045076e-01
 9.885071237465491e-01  4.341095002045076e-01 -3.384529528682612e-17

-2.520511846165660e-17 -3.616779604866220e-21  9.912375480877982e-01
-3.616779604866220e-21  4.760341432624511e-18  4.314979361094570e-01
 9.912375480877982e-01  4.314979361094570e-01 -3.394295514143163e-17

-2.525496215268258e-17 -4.970568666615710e-21  1.001633411671578e+00
-4.970568666615710e-21 -6.908561868013048e-18  4.037296427907537e-01
 1.001633411671578e+00  4.037296427907537e-01 -3.428507594609692e-17

-2.566115145066720e-17  7.259621443454523e-21  1.025606897074799e+00
 7.259621443454523e-21 -2.398455818136256e-17  3.926477141679642e-01
 1.025606897074799e+00  3.926477141679642e-01 -3.514158699951094e-17

-2.570228298789245e-17 -4.669285186316697e-21  1.007607854550085e+00
-4.669285186316697e-21  3.326165584183218e-18  4.388271180498993e-01
 1.007607854550085e+00  4.388271180498993e-01 -3.461822689646649e-17

-2.608969482154650e-17 -4.605718982523581e-21  1.036574061205515e+00
-4.605718982523581e-21 -1.414239762641764e-17  4.225812436812404e-01
 1.036574061205515e+00  4.225812436812404e-01 -3.566688281854703e-17

-2.682206384908937e-17  8.648267479991931e-21  1.078793816250774e+00
 8.648267479991931e-21 -1.611065184170916e-17  4.116192793256710e-01
 1.078793816250774e+00  4.116192793256710e-01 -3.723783750052908e-17

-2.672487252247095e-17  1.930362721063578e-20  1.069513734718188e+00
 1.930362721063578e-20 -4.419151685846434e-18  4.108520130207002e-01
 1.069513734718188e+00  4.108520130207002e-01 -3.687393818376549e-17

-2.650037523027269e-17 -5.870184011009661e-20  1.061725569871820e+00
-5.870184011009661e-20 -6.320274736341652e-18  3.870634872960181e-01
 1.061725569871820e+00  3.870634872960181e-01 -3.655533560560612e-17

-2.631584510932951e-17 -7.840665233948237e-21  1.038334720522919e+00
-7.840665233948237e-21 -3.504209812603663e-17  4.297390133190889e-01
 1.038334720522919e+00  4.297390133190889e-01 -3.571266345678485e-17

-2.634942683303099e-17  2.933846024346534e-20  1.047569601708968e+00
 2.933846024346534e-20 -1.648598294387698e-17  4.212792886537730e-01
 1.047569601708968e+00  4.212792886537730e-01 -3.601343282432237e-17

-2.606323682179461e-17 -5.737421352997203e-20  1.034066021471546e+00
-5.737421352997203e-20 -7.000925562563495e-18  4.119128727058667e-01
 1.034066021471546e+00  4.119128727058667e-01 -3.548300699284155e-17

-2.579931529622064e-17 -4.648367195466412e-20  1.018192064332984e+00
-4.648367195466412e-20  4.630409619383443e-18  4.115078787088277e-01
 1.018192064332984e+00  4.115078787088277e-01 -3.489103943847674e-17

-2.550207185815408e-17 -4.380309094889207e-20  9.992455709075048e-01
-4.380309094889207e-20 -1.527866978856427e-17  4.169478413359480e-01
 9.992455709075048e-01  4.169478413359480e-01 -3.418271543447892e-17

-2.548908129351180e-17 -3.824896519829053e-20  9.996060970273901e-01
-3.824896519829053e-20 -7.767466106287343e-18  4.093760022203075e-01
 9.996060970273901e-01  4.093760022203075e-01 -3.417658145001252e-17

-2.557935026577910e-17 -5.380296993381332e-20  1.005972101674726e+00
-5.380296993381332e-20 -1.519086867158405e-17  4.087023709910675e-01
 1.005972101674726e+00  4.087023709910675e-01 -3.440804070726925e-17

-2.570107961506343e-17 -5.549622767669087e-20  1.011706953279472e+00
-5.549622767669087e-20  2.151230111568213e-17  4.153378993099126e-01
 1.011706953279472e+00  4.153378993099126e-01 -3.463316990013854e-17

-2.582782205540662e-17 -3.428063474249637e-20  1.022387669497945e+00
-3.428063474249637e-20 -2.234051030134502e-17  4.021803532445776e-01
 1.022387669497945e+00  4.021803532445776e-01 -3.502470728635516e-17

-2.590492849626274e-17 -5.968312757452538e-20  1.024727730328452e+00
-5.968312757452538e-20 -2.009301997194519e-17  4.186305357535833e-01
 1.024727730328452e+00  4.186305357535833e-01 -3.511046885662105e-17

-2.555415067762991e-17 -6.202072051081910e-21  1.001553001721960e+00
-6.202072051081910e-21 -1.709997173076552e-17  4.329375303703429e-01
 1.001553001721960e+00  4.329375303703429e-01 -3.422898803296242e-17

-2.563677314919330e-17 -5.316076414111317e-20  1.030305325551341e+00
-5.316076414111317e-20 -5.718185794951561e-18  3.622014929527428e-01
 1.030305325551341e+00  3.622014929527428e-01 -3.526028251177497e-17

-2.529407976766906e-17  2.772226863991823e-20  1.009388288043472e+00
 2.772226863991823e-20  1.206683614556367e-18  3.886550755293762e-01
 1.009388288043472e+00  3.886550755293762e-01 -3.442191326268541e-17

-2.390353537707446e-17  2.900733777445743e-19  9.028449897491103e-01
 2.900733777445743e-19  1.033202105840547e-17  4.917173106006647e-01
 9.028449897491103e-01  4.917173106006647e-01 -3.041208015778414e-17

-2.340844096454108e-17  2.247481632973023e-19  9.470572614277895e-01
 2.247481632973023e-19  6.746281230163128e-17  2.107786451065735e-01
 9.470572614277895e-01  2.107786451065735e-01 -3.110313059608891e-17

-2.461816159755574e-17  2.103154587697182e-19  1.042722523395984e+00
 2.103154587697182e-19 -4.008594548385336e-17  1.926922715685221e-01
 1.042722523395984e+00  1.926922715685221e-01 -3.417339496421643e-17

-2.276032905558162e-17 -7.057754233008113e-19  7.598673798726499e-01
-7.057754233008113e-19  4.712418896449413e-18  6.470772059030809e-01
 7.598673798726499e-01  6.470772059030809e-01 -2.766978714530428e-17

-2.491705511285294e-17 -1.528485347418997e-19  9.718523712503764e-01
-1.528485347418997e-19 -3.654942201400449e-17  4.120846681859067e-01
 9.718523712503764e-01  4.120846681859067e-01 -3.322930458849600e-17

-2.498864252955497e-17 -8.506680713484854e-20  9.736190847287961e-01
-8.506680713484854e-20 -3.045755023610334e-18  3.983241669281218e-01
 9.736190847287961e-01  3.983241669281218e-01 -3.315742079889640e-17

-2.510845148614851e-17 -5.025460945654014e-20  9.840872777321911e-01
-5.025460945654014e-20  2.220163922296755e-17  3.815172145300078e-01
 9.840872777321911e-01  3.815172145300078e-01 -3.351051574169330e-17

-2.511515796932345e-17 -8.092064379417816e-20  9.738810290380975e-01
-8.092064379417816e-20 -8.387016251882408e-19  3.966988818844149e-01
 9.738810290380975e-01  3.966988818844149e-01 -3.316898204794828e-17

-2.580412604195921e-17 -7.880612214785867e-20  1.015086096370272e+00
-7.880612214785867e-20 -1.094762878412181e-17  3.878177504822414e-01
 1.015086096370272e+00  3.878177504822414e-01 -3.469656108473177e-17

-2.571483267390312e-17 -8.771703431631857e-20  9.819854343509106e-01
-8.771703431631857e-20 -1.072448161871446e-17  4.694036463777822e-01
 9.819854343509106e-01  4.694036463777822e-01 -3.367391100525911e-17

-2.593316055069500e-17 -8.158229946042922e-20  1.007853847209156e+00
-8.158229946042922e-20  2.409355958206518e-18  4.149240447612620e-01
 1.007853847209156e+00  4.149240447612620e-01 -3.452143204240122e-17

-2.625034988026482e-17 -6.064751595754468e-20  1.046085994838312e+00
-6.064751595754468e-20  4.130831558087415e-17  3.436046687697132e-01
 1.046085994838312e+00  3.436046687697132e-01 -3.584065965972723e-17

-2.582866719365556e-17 -7.700691786461778e-20  1.000593686234854e+00
-7.700691786461778e-20 -1.378015818958621e-17  4.079459079048223e-01
 1.000593686234854e+00  4.079459079048223e-01 -3.424721501540595e-17

-2.585031644906044e-17 -3.951641686730801e-20  9.957401161153323e-01
-3.951641686730801e-20 -3.786364841775313e-17  4.240145316387565e-01
 9.957401161153323e-01  4.240145316387565e-01 -3.408228192940005e-17

-2.592748202253848e-17 -6.427704252499806e-20  1.010508602499004e+00
-6.427704252499806e-20 -3.035394029356491e-19  3.909666333022198e-01
 1.010508602499004e+00  3.909666333022198e-01 -3.458883694605104e-17

-2.551595669233318e-17 -7.965749591776077e-20  9.752263370506344e-01
-7.965749591776077e-20 -7.844298959789632e-18  4.191974918736327e-01
 9.752263370506344e-01  4.191974918736327e-01 -3.332406759049977e-17

-2.546720971735705e-17 -4.906421460218417e-20  9.766408771084432e-01
-4.906421460218417e-20  6.793793920465840e-20  4.050335766264069e-01
 9.766408771084432e-01  4.050335766264069e-01 -3.335543405071059e-17

-2.542972382339838e-17 -7.457622877402724e-20  9.729211605349326e-01
-7.457622877402724e-20  7.527605202648929e-18  4.016810101290936e-01
 9.729211605349326e-01  4.016810101290936e-01 -3.320759982466329e-17

-2.539008434926217e-17 -7.645777185491725e-20  9.645655977826431e-01
-7.645777185491725e-20 -2.191262842452457e-17  4.164138561638916e-01
 9.645655977826431e-01  4.164138561638916e-01 -3.291934594999595e-17

-2.554090561412242e-17 -9.089932402092556e-20  9.775861360220496e-01
-9.089932402092556e-20 -6.753374990801100e-17  4.081604785548310e-01
 9.775861360220496e-01  4.081604785548310e-01 -3.338638453340624e-17

-2.561139909894849e-17 -9.966658387421092e-20  9.784059290760078e-01
-9.966658387421092e-20 -2.324203135096888e-17  4.111064594398727e-01
 9.784059290760078e-01  4.111064594398727e-01 -3.342780806042472e-17

-2.576352819734796e-17 -1.047005936396977e-19  9.853707420761221e-01
-1.047005936396977e-19 -3.565941290435608e-17  4.060159890924744e-01
 9.853707420761221e-01  4.060159890924744e-01 -3.367459111708035e-17

-2.571966479650422e-17 -9.220372623794938e-20  9.791174207517063e-01
-9.220372623794938e-20 -1.849024074704631e-18  4.162682311011086e-01
 9.791174207517063e-01  4.162682311011086e-01 -3.346111662259154e-17

-2.570141113126093e-17 -1.021158736575619e-19  9.782068534772861e-01
-1.021158736575619e-19 -4.445732884805200e-17  4.047748661108724e-01
 9.782068534772861e-01  4.047748661108724e-01 -3.341860956376952e-17

-2.582241107365997e-17 -9.911143986452654e-20  9.858683883920436e-01
-9.911143986452654e-20 -1.752262203990644e-19  3.954503675264126e-01
 9.858683883920436e-01  3.954503675264126e-01 -3.368957405060547e-17

-2.583871021453699e-17 -9.080062127914775e-20  9.801823000551172e-01
-9.080062127914775e-20 -3.379521550884961e-17  4.133680338944224e-01
 9.801823000551172e-01  4.133680338944224e-01 -3.351465000891613e-17

-2.583336720283998e-17 -1.422682749841081e-19  9.728509712141413e-01
-1.422682749841081e-19 -2.976331000194101e-17  4.251138608706571e-01
 9.728509712141413e-01  4.251138608706571e-01 -3.326961506181868e-17

-2.609260962854997e-17 -7.782876570016629e-20  9.978927294456160e-01
-7.782876570016629e-20 -2.145413945976537e-17  3.877872583199383e-01
 9.978927294456160e-01  3.877872583199383e-01 -3.415403194984611e-17

-2.600712678074582e-17 -1.018407280943233e-19  9.891328404549162e-01
-1.018407280943233e-19 -1.129529280572494e-17  3.920924963026239e-01
 9.891328404549162e-01  3.920924963026239e-01 -3.384756685833490e-17

-2.606266128231933e-17 -7.770179786513556e-20  9.867546699103271e-01
-7.770179786513556e-20 -1.556214309466565e-18  4.008253414874391e-01
 9.867546699103271e-01  4.008253414874391e-01 -3.379379923833058e-17

-2.621144451416871e-17 -1.015972417897329e-19  9.917825251388126e-01
-1.015972417897329e-19 -1.664873261918453e-17  3.979299249827113e-01
 9.917825251388126e-01  3.979299249827113e-01 -3.400018692181144e-17

-2.609373688501139e-17 -5.484094663110319e-20  9.790359891559460e-01
-5.484094663110319e-20  5.738160064669484e-19  4.161764872272469e-01
 9.790359891559460e-01  4.161764872272469e-01 -3.358736542115535e-17

-2.618272966681066e-17 -8.889820136960994e-20  9.845976245009547e-01
-8.889820136960994e-20 -6.836557386669685e-18  4.092052820017636e-01
 9.845976245009547e-01  4.092052820017636e-01 -3.382114574502157e-17

-2.637541129696929e-17 -5.383787591373669e-20  1.004232142770749e+00
-5.383787591373669e-20 -6.353147682003739e-17  3.649945817724379e-01
 1.004232142770749e+00  3.649945817724379e-01 -3.454483317915376e-17

-2.640454848396645e-17 -7.581801139949282e-21  1.003777701958769e+00
-7.581801139949282e-21  2.664320672914846e-17  3.654132803735159e-01
 1.003777701958769e+00  3.654132803735159e-01 -3.456568344498172e-17

-2.628508092430889e-17 -2.524014906241412e-20  9.813427409508992e-01
-2.524014906241412e-20 -2.469539239320685e-17  4.066277150319058e-01
 9.813427409508992e-01  4.066277150319058e-01 -3.384905497075758e-17

-2.616531658227964e-17  5.662884353530888e-20  9.689205512948890e-01
 5.662884353530888e-20 -2.000806364311063e-17  4.070867172747343e-01
 9.689205512948890e-01  4.070867172747343e-01 -3.342918639736035e-17

-2.604018550548307e-17  7.455105632096662e-20  9.601689451611700e-01
 7.455105632096662e-20  1.676696046864448e-17  3.991433939187489e-01
 9.601689451611700e-01  3.991433939187489e-01 -3.313083697254535e-17

-2.615647374751866e-17  8.125299565414723e-20  9.738056549113863e-01
 8.125299565414723e-20 -8.449572537452175e-18  3.544061468189770e-01
 9.738056549113863e-01  3.544061468189770e-01 -3.363449371808501e-17

-2.620563779803692e-17  1.169362076424393e-19  9.683888398440592e-01
 1.169362076424393e-19  3.409929093067409e-17  3.738277031472859e-01
 9.683888398440592e-01  3.738277031472859e-01 -3.345158904140660e-17

-2.681811864593808e-17  2.463067544165466e-19  9.984883211208522e-01
 2.463067544165466e-19 -1.643597862129324e-18  4.132547318332421e-01
 9.984883211208522e-01  4.132547318332421e-01 -3.455429167498000e-17

-2.391195360028918e-17  6.489114458912735e-19  7.726325856044000e-01
 6.489114458912735e-19 -1.035789399707873e-17  5.538078381455372e-01
 7.726325856044000e-01  5.538078381455372e-01 -2.644223018498372e-17

-2.662137326369940e-17 -1.069388058983995e-19  1.018774138289195e+00
-1.069388058983995e-19  1.874067609036212e-17  2.808717996533002e-01
 1.018774138289195e+00  2.808717996533002e-01 -3.537466064857405e-17

-2.744030209640546e-17 -2.595870705290564e-19  1.105690114467906e+00
-2.595870705290564e-19  3.281920936878843e-17  1.565158583573180e-01
 1.105690114467906e+00  1.565158583573180e-01 -3.826970303024669e-17

-2.429453997569677e-17  1.485404859903319e-19  8.135958235683545e-01
 1.485404859903319e-19 -4.650719238152376e-18  4.554825764187554e-01
 8.135958235683545e-01  4.554825764187554e-01 -2.799957325918522e-17

-2.578658256211628e-17  2.038645425678740e-19  9.099276827450912e-01
 2.038645425678740e-19 -1.511005214355856e-17  4.300138895410062e-01
 9.099276827450912e-01  4.300138895410062e-01 -3.142458685054698e-17

-2.645184399314479e-17  2.310670983519680e-19  9.394722786922614e-01
 2.310670983519680e-19  5.053654703123681e-17  4.374546415671081e-01
 9.394722786922614e-01  4.374546415671081e-01 -3.257277519963339e-17

-2.715465619965975e-17  2.126983785885885e-19  9.677120000659611e-01
 2.126983785885885e-19  1.479532972293605e-17  4.301320706327474e-01
 9.677120000659611e-01  4.301320706327474e-01 -3.363079255553296e-17

-2.799185513640519e-17  2.745011783309953e-19  1.002421746584536e+00
 2.745011783309953e-19 -5.360611501784005e-18  4.236194520306468e-01
 1.002421746584536e+00  4.236194520306468e-01 -3.494659254191515e-17

-2.893440013673222e-17  2.068230677515354e-19  1.033746223976936e+00
 2.068230677515354e-19 -1.519109877244071e-17  4.325034882964087e-01
 1.033746223976936e+00  4.325034882964087e-01 -3.622981685588443e-17

-2.926468181620884e-17  2.718236157406409e-19  1.017928826895667e+00
 2.718236157406409e-19 -8.503929944650235e-18  4.729972921772826e-01
 1.017928826895667e+00  4.729972921772826e-01 -3.583320663301810e-17

-2.985466092492651e-17  3.320340382404133e-19  1.054380479409273e+00
 3.320340382404133e-19 -2.621004472025446e-17  4.373430597014320e-01
 1.054380479409273e+00  4.373430597014320e-01 -3.705953467268281e-17

-3.086678865092731e-17  4.597413354506863e-19  1.110463747273822e+00
 4.597413354506863e-19 -4.154893993757617e-17  3.922361427429215e-01
 1.110463747273822e+00  3.922361427429215e-01 -3.880845675105351e-17

-3.395779424300584e-17  8.444044683594458e-19  1.339394683459596e+00
 8.444044683594458e-19 -2.831080940285541e-17  2.472616608528711e-01
 1.339394683459596e+00  2.472616608528711e-01 -4.590020682427436e-17

-3.750187327572279e-17  5.530186813024223e-19  1.552663201765437e+00
 5.530186813024223e-19 -3.110822657926761e-17  2.551916403439156e-01
 1.552663201765437e+00  2.551916403439156e-01 -5.437786876326113e-17

-3.656215524194756e-17 -4.212341160952336e-19  1.315962519344084e+00
-4.212341160952336e-19 -2.688629643748727e-17  6.828457977138394e-01
 1.315962519344084e+00  6.828457977138394e-01 -5.133792515411747e-17

-3.420807410537836e-17  4.516668208097315e-20  1.041596139547422e+00
 4.516668208097315e-20 -1.483035388756156e-17  1.005496380123810e+00
 1.041596139547422e+00  1.005496380123810e+00 -4.492636907376064e-17

-3.688595528970212e-17  7.369667342343296e-19  1.407498986892273e+00
 7.369667342343296e-19 -7.517427894907922e-18  5.208688852649817e-01
 1.407498986892273e+00  5.208688852649817e-01 -5.196577450483719e-17

-3.323750403470558e-17 -2.917184432965916e-19  1.192735118297422e+00
-2.917184432965916e-19 -4.507183846671895e-17  4.324020180894804e-01
 1.192735118297422e+00  4.324020180894804e-01 -4.269109902204608e-17

-3.159764040160454e-17 -1.967009407509593e-19  1.101030864905247e+00
-1.967009407509593e-19 -1.358239394472491e-17  4.122234864441576e-01
 1.101030864905247e+00  4.122234864441576e-01 -3.916479189958105e-17

-3.131465984168587e-17 -7.217526963907435e-20  1.106089565017315e+00
-7.217526963907435e-20 -2.548849595630477e-17  3.761514131686459e-01
 1.106089565017315e+00  3.761514131686459e-01 -3.912697410121677e-17

-3.050138308512497e-17  2.633381242277821e-19  1.027538294582025e+00
 2.633381242277821e-19 -3.336720019254710e-17  4.780142573769698e-01
 1.027538294582025e+00  4.780142573769698e-01 -3.626307638482144e-17

-3.103455421719653e-17  2.476076109819182e-19  1.047527392162470e+00
 2.476076109819182e-19 -3.413856721300781e-17  4.969890368206552e-01
 1.047527392162470e+00  4.969890368206552e-01 -3.713333161672530e-17

-3.140607903080767e-17  2.919779723727525e-19  1.056179194783061e+00
 2.919779723727525e-19 -2.835040511609997e-17  5.076976518215972e-01
 1.056179194783061e+00  5.076976518215972e-01 -3.760182608509957e-17

-3.222339630387316e-17  2.331262766963191e-19  1.122431407679396e+00
 2.331262766963191e-19 -3.874479254200722e-17  4.251036017151498e-01
 1.122431407679396e+00  4.251036017151498e-01 -3.995887152827330e-17

-3.190808532641666e-17  4.279060348604080e-19  1.073486883931179e+00
 4.279060348604080e-19  1.339164745931249e-18  4.739533384005032e-01
 1.073486883931179e+00  4.739533384005032e-01 -3.831864194581497e-17

-3.201004695593965e-17  4.843350349268226e-19  1.062793355552446e+00
 4.843350349268226e-19 -4.375737775571952e-17  4.364413504022839e-01
 1.062793355552446e+00  4.364413504022839e-01 -3.803185288599057e-17

-3.275722735604049e-17  7.097089518546974e-19  1.084030908993966e+00
 7.097089518546974e-19 -2.252079825559848e-17  4.247713531244307e-01
 1.084030908993966e+00  4.247713531244307e-01 -3.897591975212285e-17

-3.282608571692812e-17  7.511767461518636e-19  1.067938954643852e+00
 7.511767461518636e-19 -3.364776994239149e-17  4.432024417542353e-01
 1.067938954643852e+00  4.432024417542353e-01 -3.848128876606625e-17

-3.286685855035860e-17  8.535527602227414e-19  1.049529740585660e+00
 8.535527602227414e-19 -4.587014862117120e-18  4.296078577046712e-01
 1.049529740585660e+00  4.296078577046712e-01 -3.789765698392701e-17

-3.294998149916203e-17  9.734108247599265e-19  1.026696249266753e+00
 9.734108247599265e-19 -4.110279485841791e-17  4.272359082875264e-01
 1.026696249266753e+00  4.272359082875264e-01 -3.717856133505148e-17

-3.325428067577812e-17  1.205056520798498e-18  1.010887141946147e+00
 1.205056520798498e-18 -6.028837447358117e-17  4.325529524869067e-01
 1.010887141946147e+00  4.325529524869067e-01 -3.676101865364811e-17

-3.327835658475085e-17  1.439844325050130e-18  9.790731396656814e-01
 1.439844325050130e-18 -7.826335174158972e-17  4.395342954654609e-01
 9.790731396656814e-01  4.395342954654609e-01 -3.574427371913731e-17

-3.345697082626351e-17  1.506241905333830e-18  9.711254912984413e-01
 1.506241905333830e-18 -6.401045700992222e-17  4.418290281861977e-01
 9.711254912984413e-01  4.418290281861977e-01 -3.553573525367574e-17

-3.400250806285709e-17  1.568048320938275e-18  9.965792177867622e-01
 1.568048320938275e-18 -5.880721372776079e-17  4.100652331616844e-01
 9.965792177867622e-01  4.100652331616844e-01 -3.653245930278582e-17

-3.391758849231960e-17  1.712147749780027e-18  9.567055047137604e-01
 1.712147749780027e-18 -1.666051832704139e-17  4.519891957129527e-01
 9.567055047137604e-01  4.519891957129527e-01 -3.520316744319704e-17

-3.430225766275017e-17  1.890576602712812e-18  9.463989806904413e-01
 1.890576602712812e-18 -1.057905743584282e-17  4.514275546107742e-01
 9.463989806904413e-01  4.514275546107742e-01 -3.495093881639795e-17

-3.456093314157102e-17  2.250212069149894e-18  9.268493020907341e-01
 2.250212069149894e-18 -3.902538864409598e-17  4.212814464201867e-01
 9.268493020907341e-01  4.212814464201867e-01 -3.407300564911241e-17

-3.991476403131025e-17  3.119803185209480e-18  1.347978516945326e+00
 3.119803185209480e-18 -3.793810534222029e-17  6.834259255028025e-02
 1.347978516945326e+00  6.834259255028025e-02 -4.716747729994662e-17

-3.710606309677957e-17  2.028116816573963e-18  9.970694238966138e-01
 2.028116816573963e-18 -3.192038411619331e-17  4.738609077311571e-01
 9.970694238966138e-01  4.738609077311571e-01 -3.767968717895252e-17

-3.543102770911409e-17  1.234121246271020e-18  7.522369120018287e-01
 1.234121246271020e-18 -2.974088137810431e-17  7.939351881308977e-01
 7.522369120018287e-01  7.939351881308977e-01 -3.144799812287800e-17

-3.994648895084177e-17  2.194865603496094e-18  1.109622348674470e+00
 2.194865603496094e-18 -3.401778026617112e-17  4.213049647040024e-01
 1.109622348674470e+00  4.213049647040024e-01 -4.215398649629119e-17

-4.016672105442281e-17  2.711046982101561e-18  1.068364564134192e+00
 2.711046982101561e-18 -3.635452184861447e-17  3.636619290371234e-01
 1.068364564134192e+00  3.636619290371234e-01 -4.065947613080354e-17

-4.133397609683308e-17  2.984407017072038e-18  1.051253957828757e+00
 2.984407017072038e-18 -6.782934217600625e-18  4.690865941703006e-01
 1.051253957828757e+00  4.690865941703006e-01 -4.056562796202596e-17

-4.199945972146909e-17  3.446124290662963e-18  1.030624171264886e+00
 3.446124290662963e-18 -3.755718182934505e-17  4.615467724793547e-01
 1.030624171264886e+00  4.615467724793547e-01 -4.009629459906479e-17

-4.241578219955908e-17  3.918388607925773e-18  1.008768011582523e+00
 3.918388607925773e-18 -1.653483441156252e-17  3.813610002646279e-01
 1.008768011582523e+00  3.813610002646279e-01 -3.973263952074465e-17

-4.273251152996141e-17  4.539231331249920e-18  9.512848881783307e-01
 4.539231331249920e-18 -6.644110202047342e-17  4.006752198196700e-01
 9.512848881783307e-01  4.006752198196700e-01 -3.801561634301683e-17

-4.396656683386236e-17  5.062129207146618e-18  9.257077876670754e-01
 5.062129207146618e-18 -2.360892930199193e-17  4.518560545449907e-01
 9.257077876670754e-01  4.518560545449907e-01 -3.770579010087739e-17

-4.537797650218279e-17  5.589591001572137e-18  9.279728762723046e-01
 5.589591001572137e-18 -2.757968739852952e-17  4.558501619752265e-01
 9.279728762723046e-01  4.558501619752265e-01 -3.832662114475339e-17

-4.709002899448171e-17  6.253268140387021e-18  9.530945049489344e-01
 6.253268140387021e-18 -7.668914925204588e-17  4.071166124426090e-01
 9.530945049489344e-01  4.071166124426090e-01 -3.978803402820343e-17

-4.777406776851573e-17  6.776754487890217e-18  8.911001893940267e-01
 6.776754487890217e-18 -8.284224941765647e-17  4.628650697668943e-01
 8.911001893940267e-01  4.628650697668943e-01 -3.810807087376668e-17

-4.983758000557559e-17  7.527226828791718e-18  9.567899956317756e-01
 7.527226828791718e-18 -6.624802094612276e-17  3.880400286789250e-01
 9.567899956317756e-01  3.880400286789250e-01 -4.090016977869667e-17

-5.132849831899736e-17  8.120212991250749e-18  9.367671136313560e-01
 8.120212991250749e-18 -8.088564061989293e-17  4.038707525130110e-01
 9.367671136313560e-01  4.038707525130110e-01 -4.080008842904903e-17

-5.316302529033321e-17  8.883756731672850e-18  9.372773926590554e-01
 8.883756731672850e-18 -4.830708357202129e-17  4.130844060029582e-01
 9.372773926590554e-01  4.130844060029582e-01 -4.145261527791830e-17

-5.824306531686801e-17  1.037887643668279e-17  9.831722175659430e-01
 1.037887643668279e-17 -4.974222468208790e-17  3.991192498636968e-01
 9.831722175659430e-01  3.991192498636968e-01 -4.465767065107818e-17

-6.176661238266775e-17  1.166105605511538e-17  9.385701449923932e-01
 1.166105605511538e-17 -8.843581820717628e-17  4.698364702594965e-01
 9.385701449923932e-01  4.698364702594965e-01 -4.443090096278209e-17

-6.438544075094318e-17  1.255501906852406e-17  1.008267711116082e+00
 1.255501906852406e-17 -1.054205479727612e-16  3.977729065436485e-01
 1.008267711116082e+00  3.977729065436485e-01 -4.747983235428716e-17

-6.836276451571531e-17  1.437797653638416e-17  1.019255317310708e+00
 1.437797653638416e-17 -6.326719879333113e-17  3.861316683004180e-01
 1.019255317310708e+00  3.861316683004180e-01 -4.913646347440632e-17

-7.545085651713129e-17  1.764575228011603e-17  1.010779909437956e+00
 1.764575228011603e-17 -8.731743792424270e-17  3.989889883778404e-01
 1.010779909437956e+00  3.989889883778404e-01 -5.114256759750860e-17

-8.270505119345101e-17  2.108604925613673e-17  1.005531299531980e+00
 2.108604925613673e-17 -8.427395242775415e-17  4.144471442444727e-01
 1.005531299531980e+00  4.144471442444727e-01 -5.329020178884489e-17

-8.842772453774712e-17  2.388232288947966e-17  1.003846444722840e+00
 2.388232288947966e-17 -1.157014954079434e-16  4.296110487139227e-01
 1.003846444722840e+00  4.296110487139227e-01 -5.506417292772416e-17

-1.021690810215149e-16  3.053169112757768e-17  1.028808701823667e+00
 3.053169112757768e-17 -6.795862466990824e-17  4.152703175624715e-01
 1.028808701823667e+00  4.152703175624715e-01 -6.020165886650135e-17

-1.144940442658430e-16  3.674647451064708e-17  1.027364019598411e+00
 3.674647451064708e-17 -1.278298009482696e-16  4.332949849522892e-01
 1.027364019598411e+00  4.332949849522892e-01 -6.405348700863836e-17

-1.258783902149933e-16  4.276447243491257e-17  1.037861649043938e+00
 4.276447243491257e-17 -1.627292291712245e-16  4.145584508419227e-01
 1.037861649043938e+00  4.145584508419227e-01 -6.791423257579461e-17

-1.488581380904069e-16  5.519416396570425e-17  1.028304932547037e+00
 5.519416396570425e-17 -1.953572242453484e-16  4.251668175457297e-01
 1.028304932547037e+00  4.251668175457297e-01 -7.477367950635774e-17

-1.778843411828756e-16  7.098705277946531e-17  1.024656711460206e+00
 7.098705277946531e-17 -2.529599819898555e-16  4.251964650975331e-01
 1.024656711460206e+00  4.251964650975331e-01 -8.356093194384643e-17

-2.142426939485187e-16  9.132148758846598e-17  1.018668607521146e+00
 9.132148758846598e-17 -2.981739028801124e-16  4.254316588429167e-01
 1.018668607521146e+00  4.254316588429167e-01 -9.437081830166189e-17

-2.511400005151740e-16  1.125388868122554e-16  1.017501355915392e+00
 1.125388868122554e-16 -3.232714106726590e-16  4.211502905431738e-01
 1.017501355915392e+00  4.211502905431738e-01 -1.052611682702025e-16

-3.206630166378869e-16  1.504232188927826e-16  1.016502934709630e+00
 1.504232188927826e-16 -3.929832277195568e-16  4.201455383036541e-01
 1.016502934709630e+00  4.201455383036541e-01 -1.255793521279116e-16

-4.099727904024109e-16  1.976862157376977e-16  1.012026651890029e+00
 1.976862157376977e-16 -4.996517084981359e-16  4.324295177331277e-01
 1.012026651890029e+00  4.324295177331277e-01 -1.512151493420270e-16

-4.829244265198707e-16  2.345088915089402e-16  1.022180123243309e+00
 2.345088915089402e-16 -5.831242890392733e-16  4.215971390443961e-01
 1.022180123243309e+00  4.215971390443961e-01 -1.723075481219741e-16

-6.414116225220690e-16  3.111866419393413e-16  1.028507161924678e+00
 3.111866419393413e-16 -6.761910240038132e-16  4.219612266209786e-01
 1.028507161924678e+00  4.219612266209786e-01 -2.176364531697465e-16

-1.049264229045899e-15  4.792012147018442e-16  1.026670764223873e+00
 4.792012147018442e-16 -9.044819066925321e-16  4.239828445218830e-01
 1.026670764223873e+00  4.239828445218830e-01 -3.345423473978531e-16

-1.686482258027913e-15  6.656483719030885e-16  1.021327490691952e+00
 6.656483719030885e-16 -1.157291607598674e-15  4.290039277529448e-01
 1.021327490691952e+00  4.290039277529448e-01 -5.256882081939395e-16

-2.261228872404701e-15  7.849401013233722e-16  1.019782323536707e+00
 7.849401013233722e-16 -1.257901313265888e-15  4.329452844054523e-01
 1.019782323536707e+00  4.329452844054523e-01 -7.097366050037501e-16

-3.488955187401853e-15  8.779970031492132e-16  1.020664540058667e+00
 8.779970031492132e-16 -1.494224696353667e-15  4.251918207169482e-01
 1.020664540058667e+00  4.251918207169482e-01 -1.148964624006648e-15

-5.091432944869884e-15  7.631299092545700e-16  1.017555019808858e+00
 7.631299092545700e-16 -1.685186687665233e-15  4.278805666857244e-01
 1.017555019808858e+00  4.278805666857244e-01 -1.823768156258613e-15

-7.213310415507793e-15  3.832195542903165e-16  1.018315647946348e+00
 3.832195542903165e-16 -2.012456181533319e-15  4.240429658322233e-01
 1.018315647946348e+00  4.240429658322233e-01 -2.861003769773204e-15

-1.016032464820436e-14 -3.659253304901648e-16  1.015596356355745e+00
-3.659253304901648e-16 -2.404410307185948e-15  4.249388666791319e-01
 1.015596356355745e+00  4.249388666791319e-01 -4.491446573960547e-15

-1.471859175648681e-14 -1.799875718216423e-15  1.017277825867448e+00
-1.799875718216423e-15 -2.632058361132728e-15  4.229202598857823e-01
 1.017277825867448e+00  4.229202598857823e-01 -7.186377675772907e-15

 2.211590666052696e-14 -2.605849918306775e-14  1.015374944135341e+00
-2.605849918306775e-14  3.421196282511775e-14  4.227171412948991e-01
 1.015374944135341e+00  4.227171412948991e-01 -1.023584375701722e-16

-6.152820498126995e-13  1.473476944006372e-13  1.013396833515525e+00
 1.473476944006372e-13 -2.511042450341075e-13  4.222132199767161e-01
 1.013396833515525e+00  4.222132199767161e-01 -2.187792616282414e-13

 8.461215355932093e-14 -2.211797974032687e-14  1.013803358284650e+00
-2.211797974032687e-14  5.493768929396275e-14  4.172017349935117e-01
 1.013803358284650e+00  4.172017349935117e-01  1.708117074227975e-14

-6.493360517644526e-13  1.517020280945558e-13  1.012874037345288e+00
 1.517020280945558e-13 -3.294075698771589e-13  4.176451309048332e-01
 1.012874037345288e+00  4.176451309048332e-01 -1.615013209693147e-13

-9.451250385262241e-15  1.133602838827002e-14  1.013282838488118e+00
 1.133602838827002e-14  1.088579727567712e-15  4.171198535516468e-01
 1.013282838488118e+00  4.171198535516468e-01 -1.015909202619804e-14

-4.578884284855963e-15  9.131975894323121e-15  1.014150723376377e+00
 9.131975894323121e-15  5.803896172677007e-16  4.176578468242648e-01
 1.014150723376377e+00  4.176578468242648e-01 -4.856449313689994e-15

-3.475103312546081e-15  7.306346660899187e-15  1.014610505541754e+00
 7.306346660899187e-15  1.147787010622260e-15  4.168238905703346e-01
 1.014610505541754e+00  4.168238905703346e-01 -3.529542896334545e-15

-2.686105424226029e-15  4.389903351488813e-15  1.013670293195583e+00
 4.389903351488813e-15  1.483211443547686e-15  4.163564403922263e-01
 1.013670293195583e+00  4.163564403922263e-01 -2.073774168483067e-15

-1.758321834005940e-15  1.642493744590403e-15  1.013262021699503e+00
 1.642493744590403e-15  9.926976840055347e-16  4.166768314709569e-01
 1.013262021699503e+00  4.166768314709569e-01 -9.484642821576666e-16

-1.138937731116194e-15  6.506156318918273e-16  1.010699412622763e+00
 6.506156318918273e-16  5.034112372585540e-16  4.180358966502263e-01
 1.010699412622763e+00  4.180358966502263e-01 -5.203143226029992e-16

-8.180304566648585e-16  3.274365488392528e-16  1.007788913980302e+00
 3.274365488392528e-16  2.736330430579127e-16  4.164684610121309e-01
 1.007788913980302e+00  4.164684610121309e-01 -3.528808981429817e-16

-5.510321188919518e-16  1.391690664547332e-16  1.014765330962540e+00
 1.391690664547332e-16  1.110954552954449e-16  4.162885265773064e-01
 1.014765330962540e+00  4.162885265773064e-01 -2.326293753997821e-16

-3.626004403724464e-16  5.129475739227332e-17  1.030896412048638e+00
 5.129475739227332e-17  1.630533851043837e-17  4.184264901395450e-01
 1.030896412048638e+00  4.184264901395450e-01 -1.568933367037218e-16

-2.867237710188218e-16  2.764491090269315e-17  1.016876904482701e+00
 2.764491090269315e-17 -1.382991098702308e-17  4.200241472453414e-01
 1.016876904482701e+00  4.200241472453414e-01 -1.276594923505639e-16

-2.502368842585474e-16  1.876758014594628e-17  1.012738265390585e+00
 1.876758014594628e-17 -2.463709842619149e-17  4.057343573173779e-01
 1.012738265390585e+00  4.057343573173779e-01 -1.140526737588805e-16

-2.017069321480612e-16  8.344357503708056e-18  1.003044570166255e+00
 8.344357503708056e-18 -3.525295716764118e-17  4.211675865068791e-01
 1.003044570166255e+00  4.211675865068791e-01 -9.589024682945715e-17

-1.604429467883168e-16  2.085348771919102e-18  1.006963366166065e+00
 2.085348771919102e-18 -4.196457835452904e-17  4.214658525131449e-01
 1.006963366166065e+00  4.214658525131449e-01 -8.108721398781319e-17

-1.144917444317776e-16  5.036769458932838e-19  1.003462970182455e+00
 5.036769458932838e-19 -3.318856269149129e-17  4.207808925587750e-01
 1.003462970182455e+00  4.207808925587750e-01 -7.226201989676809e-17

-1.064033335810870e-16 -2.345568768295302e-18  9.988516338681690e-01
-2.345568768295302e-18 -4.317345126230449e-17  4.196843838214627e-01
 9.988516338681690e-01  4.196843838214627e-01 -6.171219321511131e-17

-9.291603347204487e-17 -2.717696769464887e-18  9.972243798003544e-01
-2.717696769464887e-18 -4.221143532734320e-17  4.197264351010807e-01
 9.972243798003544e-01  4.197264351010807e-01 -5.692620087506673e-17

-8.239452420608084e-17 -2.769986478914107e-18  9.962143987333503e-01
-2.769986478914107e-18 -4.043339197774158e-17  4.177536904378160e-01
 9.962143987333503e-01  4.177536904378160e-01 -5.322961748964043e-17

-7.360855027327978e-17 -2.707814900719922e-18  9.988527545235545e-01
-2.707814900719922e-18 -3.726904707463597e-17  4.168062921917347e-01
 9.988527545235545e-01  4.168062921917347e-01 -5.025115655983088e-17

-6.696495327069534e-17 -2.549885969367770e-18  1.005237240308468e+00
-2.549885969367770e-18 -3.581431510842148e-17  4.170036736791652e-01
 1.005237240308468e+00  4.170036736791652e-01 -4.811358359481307e-17

-6.149487575537011e-17 -2.358603708355556e-18  1.009079284188873e+00
-2.358603708355556e-18 -3.431107184589951e-17  4.188246283154649e-01
 1.009079284188873e+00  4.188246283154649e-01 -4.631875431833885e-17

-5.791711115103225e-17 -2.213933180254587e-18  1.007043237862042e+00
-2.213933180254587e-18 -3.264942671869834e-17  4.186899626004043e-01
 1.007043237862042e+00  4.186899626004043e-01 -4.502520888351511e-17

-5.515461229091168e-17 -2.075526455563172e-18  1.006036724107716e+00
-2.075526455563172e-18 -3.251554344340797e-17  4.129768533398710e-01
 1.006036724107716e+00  4.129768533398710e-01 -4.405202958416623e-17

-5.187087904708109e-17 -1.888861257864211e-18  1.001649049237805e+00
-1.888861257864211e-18 -3.407637500528496e-17  4.194237676786588e-01
 1.001649049237805e+00  4.194237676786588e-01 -4.279713989921885e-17

-4.936285551329873e-17 -1.737191399430242e-18  9.993953407544046e-01
-1.737191399430242e-18 -2.979257796232322e-17  4.151153752846296e-01
 9.993953407544046e-01  4.151153752846296e-01 -4.186213923898099e-17

-4.724015428813578e-17 -1.616379916711964e-18  9.971751590638848e-01
-1.616379916711964e-18 -3.185367075510029e-17  4.129716755449164e-01
 9.971751590638848e-01  4.129716755449164e-01 -4.106154324161570e-17

-4.496627145282877e-17 -1.468619477089252e-18  9.979986182782006e-01
-1.468619477089252e-18 -2.775014327310064e-17  4.182978118392838e-01
 9.979986182782006e-01  4.182978118392838e-01 -4.030841432334287e-17

-4.284505076743069e-17 -1.334990816421069e-18  9.965889445878776e-01
-1.334990816421069e-18 -2.674539528703610e-17  4.183728554095502e-01
 9.965889445878776e-01  4.183728554095502e-01 -3.951129485657451e-17

-4.102193728382851e-17 -1.221446373329856e-18  9.913610174814466e-01
-1.221446373329856e-18 -2.749836855858806e-17  4.221079020023642e-01
 9.913610174814466e-01  4.221079020023642e-01 -3.873078228078518e-17

-3.937770806186998e-17 -1.118846457182782e-18  9.821220233222353e-01
-1.118846457182782e-18 -2.545942016232230e-17  4.195224823495776e-01
 9.821220233222353e-01  4.195224823495776e-01 -3.788267849376329e-17

-3.804282751324268e-17 -9.964150770350592e-19  9.863887785782344e-01
-9.964150770350592e-19 -2.338797144051761e-17  4.153946285216513e-01
 9.863887785782344e-01  4.153946285216513e-01 -3.757860624312801e-17

-3.726758934539402e-17 -8.824484117825210e-19  1.004883943563567e+00
-8.824484117825210e-19 -2.300389960466840e-17  4.182306058748541e-01
 1.004883943563567e+00  4.182306058748541e-01 -3.791947195329996e-17

-3.658486632384952e-17 -7.657127235641955e-19  1.022581465024629e+00
-7.657127235641955e-19 -2.113336777695750e-17  4.093292134496513e-01
 1.022581465024629e+00  4.093292134496513e-01 -3.827518311929280e-17

-3.602822179178304e-17 -6.566713380518487e-19  1.039020948912662e+00
-6.566713380518487e-19 -2.226611672671348e-17  4.124464677232304e-01
 1.039020948912662e+00  4.124464677232304e-01 -3.864669637562663e-17

-3.528475244924863e-17 -5.608842216315871e-19  1.045487154241630e+00
-5.608842216315871e-19 -2.409379467496883e-17  3.929602335067411e-01
 1.045487154241630e+00  3.929602335067411e-01 -3.860647172474499e-17

-3.474926878754972e-17 -5.110293346567350e-19  1.040925354738845e+00
-5.110293346567350e-19 -2.455819613912540e-17  4.040662062870654e-01
 1.040925354738845e+00  4.040662062870654e-01 -3.828472841621202e-17

-3.416902215336283e-17 -4.588597174335254e-19  1.033073156247803e+00
-4.588597174335254e-19 -2.459170354102027e-17  4.212058168791969e-01
 1.033073156247803e+00  4.212058168791969e-01 -3.783951460607608e-17

-3.338333540843765e-17 -4.464292514723269e-19  1.018568259188867e+00
-4.464292514723269e-19 -2.371696511894129e-17  4.089961353885797e-01
 1.018568259188867e+00  4.089961353885797e-01 -3.711055992234465e-17

-3.281479441381729e-17 -4.292418770952589e-19  1.003891881127838e+00
-4.292418770952589e-19 -2.183987280164905e-17  4.101751535106704e-01
 1.003891881127838e+00  4.101751535106704e-01 -3.644424619451402e-17

-3.256475636160733e-17 -4.338798670531266e-19  1.006828873476902e+00
-4.338798670531266e-19 -2.290268178092377e-17  3.970917229587305e-01
 1.006828873476902e+00  3.970917229587305e-01 -3.646923256324456e-17

-3.225501339551965e-17 -4.213311740890693e-19  9.932174300306105e-01
-4.213311740890693e-19 -1.844895303891633e-17  4.054294356438451e-01
 9.932174300306105e-01  4.054294356438451e-01 -3.592795811878456e-17

-3.215677806585445e-17 -4.084873718303400e-19  1.000240594758050e+00
-4.084873718303400e-19 -2.171109279675559e-17  4.007132763725950e-01
 1.000240594758050e+00  4.007132763725950e-01 -3.609434558273068e-17

-3.179438608006080e-17 -3.813003134244620e-19  9.969145682847630e-01
-3.813003134244620e-19 -1.862235995161642e-17  4.196922426235954e-01
 9.969145682847630e-01  4.196922426235954e-01 -3.588024925607970e-17

-3.140245452771797e-17 -3.534000918234221e-19  9.996277613403133e-01
-3.534000918234221e-19 -1.889928864285345e-17  4.184932755198671e-01
 9.996277613403133e-01  4.184932755198671e-01 -3.583103456659293e-17

-3.077337008420452e-17 -3.319872591770502e-19  9.938294658228285e-01
-3.319872591770502e-19 -2.021231616798831e-17  4.142594813649151e-01
 9.938294658228285e-01  4.142594813649151e-01 -3.543173322534979e-17

-3.063955443601145e-17 -3.132074222838513e-19  1.009983005419176e+00
-3.132074222838513e-19 -2.078495317109253e-17  4.034492525610071e-01
 1.009983005419176e+00  4.034492525610071e-01 -3.589544506755362e-17

-3.041910400241591e-17 -3.064516476264946e-19  1.004250809207379e+00
-3.064516476264946e-19 -2.072515429443467e-17  4.178053049772240e-01
 1.004250809207379e+00  4.178053049772240e-01 -3.563909368123281e-17

-3.013811736446940e-17 -2.922381429305078e-19  1.001060772108850e+00
-2.922381429305078e-19 -1.969696186335643e-17  4.186607491083823e-01
 1.001060772108850e+00  4.186607491083823e-01 -3.543211889877252e-17

-2.982452964981247e-17 -2.884759246565173e-19  9.993257646005326e-01
-2.884759246565173e-19 -1.721407703707361e-17  4.079928415409544e-01
 9.993257646005326e-01  4.079928415409544e-01 -3.527983911842958e-17

-2.964657252656255e-17 -2.807047873525624e-19  9.980460717953691e-01
-2.807047873525624e-19 -2.254558559343578e-17  4.118999813205155e-01
 9.980460717953691e-01  4.118999813205155e-01 -3.518029458204021e-17

-2.952944380464983e-17 -2.797915757023888e-19  9.982993577547408e-01
-2.797915757023888e-19 -1.945997019186720e-17  4.150971727460518e-01
 9.982993577547408e-01  4.150971727460518e-01 -3.514584780317888e-17

-2.922016498360984e-17 -2.634017400834210e-19  9.970386103626423e-01
-2.634017400834210e-19 -1.827076113472861e-17  4.074856240082116e-01
 9.970386103626423e-01  4.074856240082116e-01 -3.500099447542867e-17

-2.910105302800944e-17 -2.681497738825671e-19  9.983509733538478e-01
-2.681497738825671e-19 -1.706025722002939e-17  4.291756289520365e-01
 9.983509733538478e-01  4.291756289520365e-01 -3.500616445495099e-17

-2.890839303418976e-17 -2.453517315967488e-19  9.981733794082065e-01
-2.453517315967488e-19 -2.314758313463041e-17  4.297111089166311e-01
 9.981733794082065e-01  4.297111089166311e-01 -3.493938808254993e-17

-2.845807580447984e-17 -2.457828690234196e-19  9.872745889066784e-01
-2.457828690234196e-19 -1.867277414809147e-17  4.006107465602747e-01
 9.872745889066784e-01  4.006107465602747e-01 -3.443879872576405e-17

-2.875563679221118e-17 -2.193299023437516e-19  1.026284267841088e+00
-2.193299023437516e-19 -1.990016851618361e-17  3.598563346947557e-01
 1.026284267841088e+00  3.598563346947557e-01 -3.574295740833794e-17

-2.852822639224606e-17 -2.448624856802801e-19  9.985872639880424e-01
-2.448624856802801e-19 -1.658939604087607e-17  4.391038342261674e-01
 9.985872639880424e-01  4.391038342261674e-01 -3.484780714381521e-17

-2.859762777554219e-17 -2.519610187311799e-19  1.011598762745476e+00
-2.519610187311799e-19 -1.435250560158331e-17  4.285119064231174e-01
 1.011598762745476e+00  4.285119064231174e-01 -3.526114810447740e-17

-2.848692351800689e-17 -2.549931392123014e-19  1.024877724709631e+00
-2.549931392123014e-19 -1.838755409361409e-17  3.864358117828865e-01
 1.024877724709631e+00  3.864358117828865e-01 -3.567294470217174e-17

-2.788808921851288e-17 -2.445559809134681e-19  9.833535294665038e-01
-2.445559809134681e-19 -1.976704765987313e-17  4.134718005229814e-01
 9.833535294665038e-01  4.134718005229814e-01 -3.413009685508375e-17

-2.767003297713141e-17 -2.326975840150323e-19  9.827590617460341e-01
-2.326975840150323e-19 -1.564886734449581e-17  4.172335246215043e-01
 9.827590617460341e-01  4.172335246215043e-01 -3.405513087957534e-17

-2.771791374886476e-17 -2.349655956978002e-19  1.004666750288680e+00
-2.349655956978002e-19 -1.918970980484971e-17  3.865676060914516e-01
 1.004666750288680e+00  3.865676060914516e-01 -3.477481051994538e-17

-2.780844206809421e-17 -2.490122875910674e-19  1.024097467362196e+00
-2.490122875910674e-19 -1.712599260345890e-17  3.557033057751894e-01
 1.024097467362196e+00  3.557033057751894e-01 -3.543794929402219e-17

-2.703806233949396e-17 -2.324334705229741e-19  9.629258669007406e-01
-2.324334705229741e-19 -1.425477503590860e-17  4.127901439869340e-01
 9.629258669007406e-01  4.127901439869340e-01 -3.322317709978955e-17

-2.721886202644500e-17 -2.428426057318653e-19  9.782312388699829e-01
-2.428426057318653e-19 -1.631755402082216e-17  4.285386324061146e-01
 9.782312388699829e-01  4.285386324061146e-01 -3.377088930220858e-17

-2.695328150078078e-17 -2.330992411846964e-19  9.611593255885922e-01
-2.330992411846964e-19 -1.460964581021936e-17  4.550163737232911e-01
 9.611593255885922e-01  4.550163737232911e-01 -3.314049163856870e-17

-2.699094713549879e-17 -2.472029024770232e-19  9.837617168939732e-01
-2.472029024770232e-19 -1.679381546879328e-17  3.931761032830892e-01
 9.837617168939732e-01  3.931761032830892e-01 -3.387391982999267e-17

-2.663880413414882e-17 -2.301116627498915e-19  9.709737669823859e-01
-2.301116627498915e-19 -1.806032897948476e-17  3.811667946486951e-01
 9.709737669823859e-01  3.811667946486951e-01 -3.331335248249752e-17

-2.678259257455993e-17 -2.583348967888673e-19  9.750198149085966e-01
-2.583348967888673e-19 -1.685221708827565e-17  4.177700525109194e-01
 9.750198149085966e-01  4.177700525109194e-01 -3.353434755799822e-17

-2.673316642621970e-17 -2.837180737391209e-19  9.612768279357795e-01
-2.837180737391209e-19 -1.758151824226295e-17  4.611906822337358e-01
 9.612768279357795e-01  4.611906822337358e-01 -3.311770073954471e-17

-2.690477577272118e-17 -2.634903700219391e-19  9.957347071359115e-01
-2.634903700219391e-19 -1.218462078285593e-17  4.030221549265517e-01
 9.957347071359115e-01  4.030221549265517e-01 -3.422551473397071e-17

-2.673926381233715e-17 -2.692526072576126e-19  9.882288147451770e-01
-2.692526072576126e-19 -1.115678125470280e-17  4.084590905439612e-01
 9.882288147451770e-01  4.084590905439612e-01 -3.391772581428378e-17

-2.656457994649636e-17 -2.742897627008479e-19  9.838338821731345e-01
-2.742897627008479e-19 -1.303776662791629e-17  4.130890878662935e-01
 9.838338821731345e-01  4.130890878662935e-01 -3.374680916379843e-17

-2.656443341526198e-17 -2.726480257278142e-19  9.955530814754718e-01
-2.726480257278142e-19 -1.696436347307804e-17  3.904385510248329e-01
 9.955530814754718e-01  3.904385510248329e-01 -3.411737461838267e-17

-2.648683917611062e-17 -2.865756315396032e-19  9.882938728928419e-01
-2.865756315396032e-19 -1.734502115280615e-17  4.102664848404483e-01
 9.882938728928419e-01  4.102664848404483e-01 -3.388884202340957e-17

-2.643807768277533e-17 -2.936495963818241e-19  9.872207766193976e-01
-2.936495963818241e-19 -2.044181317695002e-17  4.236150479810895e-01
 9.872207766193976e-01  4.236150479810895e-01 -3.385430435824372e-17

-2.641421943625790e-17 -2.825990821206473e-19  9.988836562200610e-01
-2.825990821206473e-19 -1.324127810650896e-17  3.908965349193875e-01
 9.988836562200610e-01  3.908965349193875e-01 -3.422634710928240e-17

-2.619623574729622e-17 -2.850612995305876e-19  9.898200108144302e-01
-2.850612995305876e-19 -1.177637913540942e-17  3.876692231740579e-01
 9.898200108144302e-01  3.876692231740579e-01 -3.389414107601679e-17

-2.581757100291392e-17 -2.804241874467313e-19  9.619296268721839e-01
-2.804241874467313e-19 -1.259727373005950e-17  4.107457002831844e-01
 9.619296268721839e-01  4.107457002831844e-01 -3.288842286315701e-17

-2.565869357258327e-17 -2.725089456307724e-19  9.612586434052587e-01
-2.725089456307724e-19 -1.330723781198776e-17  4.022399720479887e-01
 9.612586434052587e-01  4.022399720479887e-01 -3.286742860121966e-17

-2.606215588786447e-17 -2.387370844988204e-19  1.004162152929214e+00
-2.387370844988204e-19 -1.186192395701200e-17  3.571532802777190e-01
 1.004162152929214e+00  3.571532802777190e-01 -3.439074661874020e-17

-2.587930765980687e-17 -2.444140296576002e-19  9.826149250069335e-01
-2.444140296576002e-19 -1.047574008130241e-17  3.985356087182578e-01
 9.826149250069335e-01  3.985356087182578e-01 -3.370002161389713e-17

-2.567095784765049e-17 -1.905192065729253e-19  9.728421972458271e-01
-1.905192065729253e-19 -1.178448193823634e-17  4.058022367084230e-01
 9.728421972458271e-01  4.058022367084230e-01 -3.340108463198897e-17

-2.539482066886718e-17 -1.494759348204837e-19  9.662486047712467e-01
-1.494759348204837e-19 -1.800711219396320e-17  3.611264275533334e-01
 9.662486047712467e-01  3.611264275533334e-01 -3.316850263282254e-17

-2.518249845837150e-17 -8.978836196570781e-20  9.503047517791213e-01
-8.978836196570781e-20 -1.395982093141436e-17  3.869765291048496e-01
 9.503047517791213e-01  3.869765291048496e-01 -3.263653288349206e-17

-2.529205713423520e-17 -4.166998051155610e-20  9.547976695918383e-01
-4.166998051155610e-20 -1.307104468110040e-17  4.021771640048376e-01
 9.547976695918383e-01  4.021771640048376e-01 -3.283252781121674e-17

-2.539089666285415e-17 -2.077960226357259e-20  9.669589479084459e-01
-2.077960226357259e-20 -1.365521968304628e-17  3.809581068498826e-01
 9.669589479084459e-01  3.809581068498826e-01 -3.325288802093719e-17

-2.531516465668987e-17 -5.016259512280803e-21  9.635515939042284e-01
-5.016259512280803e-21 -1.070228148299282e-17  3.842775726784536e-01
 9.635515939042284e-01  3.842775726784536e-01 -3.310141549579108e-17

-2.482039160848125e-17  8.914099093851411e-21  9.234219787532748e-01
 8.914099093851411e-21 -1.402997589420435e-17  4.219176122181372e-01
 9.234219787532748e-01  4.219176122181372e-01 -3.160931317691474e-17

-2.536462851472701e-17 -3.199358105693407e-20  9.795516367861740e-01
-3.199358105693407e-20 -1.049473412926923e-17  3.396674754860103e-01
 9.795516367861740e-01  3.396674754860103e-01 -3.357840124602324e-17

-2.534411721578912e-17 -1.610011726449948e-20  9.824250494579480e-01
-1.610011726449948e-20 -1.540829496385596e-17  3.366502234482405e-01
 9.824250494579480e-01  3.366502234482405e-01 -3.363236496980720e-17

-2.516365963553553e-17 -4.555097854549609e-20  9.539442776535090e-01
-4.555097854549609e-20 -2.047392537500221e-17  4.137055895560802e-01
 9.539442776535090e-01  4.137055895560802e-01 -3.267687880185597e-17

-2.520007901111232e-17 -5.090239827674582e-20  9.580466527412713e-01
-5.090239827674582e-20 -1.818267753773430e-17  4.102748598929956e-01
 9.580466527412713e-01  4.102748598929956e-01 -3.277744778729070e-17

-2.528580696449484e-17 -5.512385744003094e-20  9.715863177509539e-01
-5.512385744003094e-20 -1.556714190826599e-17  3.856135051611965e-01
 9.715863177509539e-01  3.856135051611965e-01 -3.321633682476910e-17

-2.508185406326212e-17 -8.039660502794567e-20  9.617198448596487e-01
-8.039660502794567e-20 -1.536558793724216e-17  3.909006529580439e-01
 9.617198448596487e-01  3.909006529580439e-01 -3.282367672861988e-17

-2.510644599016616e-17 -9.137266175346409e-20  9.622653210477909e-01
-9.137266175346409e-20 -1.081419050388045e-17  3.989007857210278e-01
 9.622653210477909e-01  3.989007857210278e-01 -3.281529681331262e-17

-2.498789471184300e-17 -1.088705760244245e-19  9.624515420726950e-01
-1.088705760244245e-19 -9.717269136538375e-18  3.948473518794818e-01
 9.624515420726950e-01  3.948473518794818e-01 -3.279681194839654e-17

-2.485175079275052e-17 -1.306591259962093e-19  9.576639401224767e-01
-1.306591259962093e-19 -1.376342401551410e-17  3.947189606771367e-01
 9.576639401224767e-01  3.947189606771367e-01 -3.259482494085701e-17

-2.481473828394975e-17 -1.433552121226103e-19  9.591321808706483e-01
-1.433552121226103e-19 -1.213447740182601e-17  3.895259181723890e-01
 9.591321808706483e-01  3.895259181723890e-01 -3.263527683141127e-17

-2.471973530711350e-17 -1.576475962676446e-19  9.547701742313696e-01
-1.576475962676446e-19 -1.294689765264189e-17  3.965894640855901e-01
 9.547701742313696e-01  3.965894640855901e-01 -3.246461977289723e-17

-2.464875796532845e-17 -1.694374919263519e-19  9.507646284341517e-01
-1.694374919263519e-19 -1.300252870693377e-17  4.024155895942669e-01
 9.507646284341517e-01  4.024155895942669e-01 -3.231219045939118e-17

-2.465145244311797e-17 -1.798286047991914e-19  9.557340902567112e-01
-1.798286047991914e-19 -1.507468210641808e-17  3.927953061327997e-01
 9.557340902567112e-01  3.927953061327997e-01 -3.248303620238419e-17

-2.456324142593982e-17 -1.850216967712361e-19  9.528804749220042e-01
-1.850216967712361e-19 -1.132411537671225e-17  3.930137118431876e-01
 9.528804749220042e-01  3.930137118431876e-01 -3.238141979905415e-17

-2.439542231752089e-17 -1.845635423610312e-19  9.453474561576289e-01
-1.845635423610312e-19 -1.272776512980086e-17  3.958461993741614e-01
 9.453474561576289e-01  3.958461993741614e-01 -3.212893712026069e-17

-2.447802808299400e-17 -1.805555621645470e-19  9.566699476265547e-01
-1.805555621645470e-19 -1.647181003950370e-17  3.782903878413847e-01
 9.566699476265547e-01  3.782903878413847e-01 -3.254719463924233e-17

-2.441828103756746e-17 -1.600332014347481e-19  9.513948770916643e-01
-1.600332014347481e-19 -1.611863123113836e-17  3.860478578547843e-01
 9.513948770916643e-01  3.860478578547843e-01 -3.237816911392545e-17

-2.453797107971477e-17 -1.337484257968933e-19  9.602322202322688e-01
-1.337484257968933e-19 -1.366861138640308e-17  3.890981405027603e-01
 9.602322202322688e-01  3.890981405027603e-01 -3.276316155721264e-17

-2.440784943524604e-17 -8.558621052478952e-20  9.461020494066108e-01
-8.558621052478952e-20 -1.749374613817942e-17  4.006462738063519e-01
 9.461020494066108e-01  4.006462738063519e-01 -3.228247087859490e-17

-2.424033134630188e-17 -6.993630241952884e-20  9.453583196097748e-01
-6.993630241952884e-20 -1.416835599474178e-17  3.786066371775087e-01
 9.453583196097748e-01  3.786066371775087e-01 -3.225152071220392e-17

-2.409307210629893e-17 -5.037599709992652e-20  9.373594563379464e-01
-5.037599709992652e-20 -7.078619969251126e-18  3.798160446056405e-01
 9.373594563379464e-01  3.798160446056405e-01 -3.195193469603482e-17

-2.409040545408853e-17 -4.783402052041715e-20  9.354608850112578e-01
-4.783402052041715e-20 -1.591190969740442e-17  3.881936183753456e-01
 9.354608850112578e-01  3.881936183753456e-01 -3.188563917586977e-17

-2.422730268856332e-17 -5.106370896533937e-20  9.479978157296742e-01
-5.106370896533937e-20 -1.533897852301203e-17  3.832071796011046e-01
 9.479978157296742e-01  3.832071796011046e-01 -3.231617236110799e-17

-2.407384157123977e-17 -4.613951750644490e-20  9.310220433151879e-01
-4.613951750644490e-20 -1.352548014428431e-17  4.085577096972622e-01
 9.310220433151879e-01  4.085577096972622e-01 -3.169203889660592e-17

-2.419050397348388e-17 -6.199131187485772e-20  9.455028160017084e-01
-6.199131187485772e-20 -1.367377213087702e-17  3.854239844156434e-01
 9.455028160017084e-01  3.854239844156434e-01 -3.218796998360968e-17

-2.407526293049674e-17 -7.400294217623058e-20  9.433038217472689e-01
-7.400294217623058e-20 -8.846570306966988e-18  3.779638724469818e-01
 9.433038217472689e-01  3.779638724469818e-01 -3.208724582874598e-17

-2.398464273451739e-17 -7.095320770477617e-20  9.427002377166593e-01
-7.095320770477617e-20 -1.208165972105016e-17  3.718705367734141e-01
 9.427002377166593e-01  3.718705367734141e-01 -3.203415392110106e-17

-2.371143864612833e-17 -9.144990673998319e-20  9.121095862800784e-01
-9.144990673998319e-20 -1.629149708235997e-17  4.227985198967822e-01
 9.121095862800784e-01  4.227985198967822e-01 -3.098980604242616e-17

-2.371518170095850e-17 -8.826677188882409e-20  9.122656339633973e-01
-8.826677188882409e-20 -1.226720496037796e-17  4.253373977059054e-01
 9.122656339633973e-01  4.253373977059054e-01 -3.099150755264176e-17

-2.393397661945123e-17 -8.630341198774415e-20  9.403929939713838e-01
-8.630341198774415e-20 -1.263626199657794e-17  3.785511411746689e-01
 9.403929939713838e-01  3.785511411746689e-01 -3.198513832222960e-17

-2.409039332889435e-17 -7.949282111019431e-20  9.452258127615807e-01
-7.949282111019431e-20 -1.517016807378081e-17  3.935217207593553e-01
 9.452258127615807e-01  3.935217207593553e-01 -3.219865714812476e-17

-2.419795443905164e-17 -5.733608001426675e-20  9.555609017875224e-01
-5.733608001426675e-20 -8.261533331044782e-18  3.861879786481253e-01
 9.555609017875224e-01  3.861879786481253e-01 -3.258800226934379e-17

-2.419197520274615e-17 -3.205768869132695e-20  9.546786766781089e-01
-3.205768869132695e-20 -1.567224047124320e-17  3.860415017491570e-01
 9.546786766781089e-01  3.860415017491570e-01 -3.256315561675795e-17

-2.430341036902408e-17 -3.259631399852629e-20  9.662094828328333e-01
-3.259631399852629e-20 -1.493218540649763e-17  3.696853670742452e-01
 9.662094828328333e-01  3.696853670742452e-01 -3.297573206658411e-17

-2.420150922058335e-17 -3.045357242418880e-20  9.559384994208034e-01
-3.045357242418880e-20 -1.411263563993211e-17  3.897318257179416e-01
 9.559384994208034e-01  3.897318257179416e-01 -3.261122554453234e-17

-2.392898767929579e-17 -1.690977353991145e-20  9.325949546563422e-01
-1.690977353991145e-20 -8.325064433862748e-18  4.101419068902588e-01
 9.325949546563422e-01  4.101419068902588e-01 -3.175993063402871e-17

-2.422140207377373e-17 -3.239637619628966e-20  9.650990173964701e-01
-3.239637619628966e-20 -7.611922416026032e-18  3.571436833635200e-01
 9.650990173964701e-01  3.571436833635200e-01 -3.291623455520363e-17

-2.412622265579367e-17 -2.923510904007325e-20  9.609153365471359e-01
-2.923510904007325e-20 -1.154949230076131e-17  3.580850722611551e-01
 9.609153365471359e-01  3.580850722611551e-01 -3.274630996084328e-17

-2.409179097771203e-17 -2.398875352338875e-20  9.488335916979935e-01
-2.398875352338875e-20 -1.150393679396572e-17  4.028909541307018e-01
 9.488335916979935e-01  4.028909541307018e-01 -3.237646685328621e-17

-2.407691918151072e-17 -7.791950758292048e-21  9.462945069191573e-01
-7.791950758292048e-21 -1.717593039234800e-17  4.036790761912577e-01
 9.462945069191573e-01  4.036790761912577e-01 -3.229776919794309e-17

-2.424159886553037e-17 -4.947265333906750e-21  9.661097487373111e-01
-4.947265333906750e-21 -1.157789546164995e-17  3.726749062996239e-01
 9.661097487373111e-01  3.726749062996239e-01 -3.299653120490892e-17

-2.414135580163019e-17 -5.812333026379440e-21  9.596802102990304e-01
-5.812333026379440e-21 -1.436712311266056e-17  3.886909045175766e-01
 9.596802102990304e-01  3.886909045175766e-01 -3.281094208514525e-17

-2.487306522178232e-17  2.308327060799350e-19  9.709785296960525e-01
 2.308327060799350e-19 -1.316337444101740e-17  3.830684555319631e-01
 9.709785296960525e-01  3.830684555319631e-01 -3.323709159557183e-17

-2.700683660292682e-17  1.090960282084088e-18  9.723917530000104e-01
 1.090960282084088e-18 -1.675673891854787e-17  3.866106489748350e-01
 9.723917530000104e-01  3.866106489748350e-01 -3.329792153811058e-17

-2.464928605016292e-17  2.039809437814147e-19  9.653270070998757e-01
 2.039809437814147e-19 -1.135927399708868e-17  3.934015442764053e-01
 9.653270070998757e-01  3.934015442764053e-01 -3.303081055333956e-17

-2.249888386913556e-17 -6.105775268898830e-19  9.635072788023674e-01
-6.105775268898830e-19 -1.681368758739279e-17  3.760546715224858e-01
 9.635072788023674e-01  3.760546715224858e-01 -3.294559366433842e-17

-3.626125242677972e-17  4.770634422870282e-18  9.759509899761696e-01
 4.770634422870282e-18 -1.682217771575723e-17  3.559381420052015e-01
 9.759509899761696e-01  3.559381420052015e-01 -3.332010724614549e-17

-2.190853736898339e-17 -8.617746180641508e-19  9.461583712838939e-01
-8.617746180641508e-19 -1.519176297836745e-17  4.517617633905204e-01
 9.461583712838939e-01  4.517617633905204e-01 -3.235137258882093e-17

-2.314798447998435e-17 -2.176004905857509e-19  9.192418081637641e-01
-2.176004905857509e-19 -1.254211576640432e-17  4.813557383364539e-01
 9.192418081637641e-01  4.813557383364539e-01 -3.133555264067134e-17

-2.462272500740713e-17 -4.843482759902984e-20  1.006797295668644e+00
-4.843482759902984e-20 -1.881163789463867e-17  3.373009099392761e-01
 1.006797295668644e+00  3.373009099392761e-01 -3.446761396257512e-17

-2.411838760219532e-17  6.909644608362826e-20  9.522016570393349e-01
 6.909644608362826e-20 -7.579835423740943e-18  3.786327597129726e-01
 9.522016570393349e-01  3.786327597129726e-01 -3.241892763248622e-17

-2.457890511343340e-17  5.471790211283753e-20  9.719028321958543e-01
 5.471790211283753e-20 -1.036566723935774e-17  4.097172746228819e-01
 9.719028321958543e-01  4.097172746228819e-01 -3.318362342787720e-17

-2.480402134817939e-17  6.624785331368949e-20  9.811569650698566e-01
 6.624785331368949e-20 -1.449969112877449e-17  4.264956792917669e-01
 9.811569650698566e-01  4.264956792917669e-01 -3.354533461025110e-17

-2.494777809019709e-17  3.054946257812173e-20  1.000807971080964e+00
 3.054946257812173e-20 -1.762104444272057e-17  4.013787091848656e-01
 1.000807971080964e+00  4.013787091848656e-01 -3.419590278631357e-17

-2.480181363856249e-17  2.100785842671366e-20  9.910381327032849e-01
 2.100785842671366e-20 -1.682152910630837e-17  3.965869140863369e-01
 9.910381327032849e-01  3.965869140863369e-01 -3.379962616345961e-17

-2.464930433158986e-17 -2.068450223020273e-21  9.836315118996665e-01
-2.068450223020273e-21 -1.249387559499175e-17  4.012979470190646e-01
 9.836315118996665e-01  4.012979470190646e-01 -3.350903302671605e-17

-2.470587865857777e-17 -2.091580602092760e-20  9.876437606251636e-01
-2.091580602092760e-20 -1.506351261702478e-17  4.057666179723355e-01
 9.876437606251636e-01  4.057666179723355e-01 -3.363256490898558e-17

-2.473771126015459e-17 -3.699616240656368e-20  9.832801522231933e-01
-3.699616240656368e-20 -1.148323678351681e-17  4.175541733448767e-01
 9.832801522231933e-01  4.175541733448767e-01 -3.347584064884677e-17

-2.471648920400525e-17 -4.281338758533529e-20  9.897435532817694e-01
-4.281338758533529e-20 -1.690549988931135e-17  4.089651625474381e-01
 9.897435532817694e-01  4.089651625474381e-01 -3.368332240156167e-17

-2.476740329302467e-17 -5.717725437175888e-20  9.949529154356181e-01
-5.717725437175888e-20 -2.450387136199718e-17  4.030029123413479e-01
 9.949529154356181e-01  4.030029123413479e-01 -3.384382274797473e-17

-2.472246924664724e-17 -8.030062474569570e-20  9.909759667958593e-01
-8.030062474569570e-20 -1.423843785118381e-17  4.134010953710472e-01
 9.909759667958593e-01  4.134010953710472e-01 -3.369854083651909e-17

-2.467900860214337e-17 -9.039467591089729e-20  9.877597939220715e-01
-9.039467591089729e-20 -9.336217138842424e-18  4.207746451242969e-01
 9.877597939220715e-01  4.207746451242969e-01 -3.357325387586814e-17

-2.463247787636296e-17 -1.079840144940816e-19  9.907510497194869e-01
-1.079840144940816e-19 -1.277767866572374e-17  4.082712516872719e-01
 9.907510497194869e-01  4.082712516872719e-01 -3.365181219004400e-17

-2.451383708347436e-17 -1.226244209078583e-19  9.830953707406473e-01
-1.226244209078583e-19 -1.875220313610842e-17  4.124634140329791e-01
 9.830953707406473e-01  4.124634140329791e-01 -3.336734694208987e-17

-2.450485940202375e-17 -1.365036922748957e-19  9.852901496723828e-01
-1.365036922748957e-19 -8.104405095942053e-18  4.103813050198018e-01
 9.852901496723828e-01  4.103813050198018e-01 -3.342895675375709e-17

-2.446182420547902e-17 -1.547648904997774e-19  9.796096072038092e-01
-1.547648904997774e-19 -1.814278531370081e-17  4.251902093655604e-01
 9.796096072038092e-01  4.251902093655604e-01 -3.323328848374711e-17

-2.440014864987507e-17 -1.660900889063844e-19  9.789153058034130e-01
-1.660900889063844e-19 -1.113789137192936e-17  4.211380413964766e-01
 9.789153058034130e-01  4.211380413964766e-01 -3.319980448065551e-17

-2.446065766585529e-17 -1.816000020857422e-19  9.861387548413405e-01
-1.816000020857422e-19 -7.532200452229914e-18  4.188184555635698e-01
 9.861387548413405e-01  4.188184555635698e-01 -3.347552250321168e-17

-2.447171882027468e-17 -1.782235631527068e-19  9.914534334153283e-01
-1.782235631527068e-19 -1.527341290560455e-17  4.054780228355792e-01
 9.914534334153283e-01  4.054780228355792e-01 -3.366594356370757e-17

-2.417391434949823e-17 -1.803597512219566e-19  9.715360226342629e-01
-1.803597512219566e-19 -1.380321858904962e-17  4.166651268744876e-01
 9.715360226342629e-01  4.166651268744876e-01 -3.296569016058145e-17

-2.423883107691163e-17 -1.656101309887722e-19  9.776241846348832e-01
-1.656101309887722e-19 -6.815399442502272e-18  4.105736737163357e-01
 9.776241846348832e-01  4.105736737163357e-01 -3.319466618368096e-17

-2.445603409453063e-17 -1.501821335596426e-19  1.001933214501605e+00
-1.501821335596426e-19 -1.688342184651725e-17  3.770007398024822e-01
 1.001933214501605e+00  3.770007398024822e-01 -3.404876807259007e-17

-2.399736253212034e-17 -1.424361938179659e-19  9.568698710954672e-01
-1.424361938179659e-19 -1.600146742950573e-17  4.172212191178269e-01
 9.568698710954672e-01  4.172212191178269e-01 -3.245904434597543e-17

-2.439669876038036e-17 -1.342130444083921e-19  9.835905070596883e-01
-1.342130444083921e-19 -1.603588788338813e-17  4.160427703547397e-01
 9.835905070596883e-01  4.160427703547397e-01 -3.347865052677371e-17

-2.479372099200815e-17 -1.299102848840025e-19  1.004565363774393e+00
-1.299102848840025e-19 -1.567362675768182e-17  4.173262858357470e-01
 1.004565363774393e+00  4.173262858357470e-01 -3.430061488635018e-17

-2.488327940392746e-17 -9.517877964590576e-20  1.007336333569518e+00
-9.517877964590576e-20 -1.363846648741616e-17  4.146698305626178e-01
 1.007336333569518e+00  4.146698305626178e-01 -3.443283299937693e-17

-2.492165554327795e-17 -6.069411546310543e-20  1.000333044003781e+00
-6.069411546310543e-20 -1.759347767829269e-17  4.399259240223360e-01
 1.000333044003781e+00  4.399259240223360e-01 -3.424112058538114e-17

-2.517005496059040e-17 -2.839579835407357e-21  1.033726704231609e+00
-2.839579835407357e-21 -1.611625753617857e-17  3.581754155260373e-01
 1.033726704231609e+00  3.581754155260373e-01 -3.530503877682873e-17

-2.527578338075004e-17  1.558327283442920e-20  1.028861364907943e+00
 1.558327283442920e-20 -1.222682107824213e-17  3.889512620985933e-01
 1.028861364907943e+00  3.889512620985933e-01 -3.520057670430326e-17

-2.604120553118880e-17 -1.792707035682659e-20  1.058843465128452e+00
-1.792707035682659e-20 -1.030545664219685e-17  4.219106782326192e-01
 1.058843465128452e+00  4.219106782326192e-01 -3.651285470171596e-17

-2.683744243140005e-17 -6.890210686294982e-21  1.100448709044446e+00
-6.890210686294982e-21 -1.065962154178693e-17  4.203391804614044e-01
 1.100448709044446e+00  4.203391804614044e-01 -3.814389265863013e-17

-2.731577674926084e-17  1.551742008679965e-20  1.123719030185032e+00
 1.551742008679965e-20 -1.807454004815415e-17  4.346801012460063e-01
 1.123719030185032e+00  4.346801012460063e-01 -3.909408585889018e-17

-2.678011199099207e-17  6.070878399563286e-20  1.092710159212669e+00
 6.070878399563286e-20 -2.147941533595809e-17  4.115598720874576e-01
 1.092710159212669e+00  4.115598720874576e-01 -3.794324970496845e-17

-2.672510332225136e-17  1.080372295199939e-19  1.089642619005885e+00
 1.080372295199939e-19 -1.906360572327627e-17  4.069102149715856e-01
 1.089642619005885e+00  4.069102149715856e-01 -3.787495080862623e-17

-2.703462317217430e-17  1.590018725822318e-19  1.106659132553829e+00
 1.590018725822318e-19 -2.764463495426997e-17  4.201760612661908e-01
 1.106659132553829e+00  4.201760612661908e-01 -3.854612257868844e-17

-2.658771377553449e-17  1.925817437137659e-19  1.084516825678338e+00
 1.925817437137659e-19 -1.412169080512349e-17  4.080662854362272e-01
 1.084516825678338e+00  4.080662854362272e-01 -3.767507733965332e-17

-2.602287477516440e-17  2.178459718317975e-19  1.054855015557371e+00
 2.178459718317975e-19 -1.575113802257080e-17  4.146364506181563e-01
 1.054855015557371e+00  4.146364506181563e-01 -3.648410895912759e-17

-2.538046610792595e-17  2.742698982030226e-19  1.003798810558009e+00
 2.742698982030226e-19 -1.345821481213330e-17  4.673856803232479e-01
 1.003798810558009e+00  4.673856803232479e-01 -3.455462861241100e-17

-2.489676989006985e-17  2.136323413245505e-19  9.718240975373127e-01
 2.136323413245505e-19 -9.478017485327994e-18  4.635310117473300e-01
 9.718240975373127e-01  4.635310117473300e-01 -3.334993541167594e-17

-2.557275677563882e-17  9.595269470160692e-20  1.045377501606508e+00
 9.595269470160692e-20 -1.968161142481247e-17  3.795985694145776e-01
 1.045377501606508e+00  3.795985694145776e-01 -3.600506171876144e-17

-2.531308847257374e-17  5.365179396631999e-20  1.035018057445300e+00
 5.365179396631999e-20 -2.239539784647753e-17  3.642327340687593e-01
 1.035018057445300e+00  3.642327340687593e-01 -3.557196865441291e-17

-2.469473754107956e-17  1.016153094220638e-19  9.828980876569909e-01
 1.016153094220638e-19 -2.211739622862636e-17  4.213549872205333e-01
 9.828980876569909e-01  4.213549872205333e-01 -3.361310543535935e-17

-2.484524624412252e-17  1.005974678726958e-19  9.944992017326900e-01
 1.005974678726958e-19 -8.305963729127242e-18  4.338985158909616e-01
 9.944992017326900e-01  4.338985158909616e-01 -3.396790505527973e-17

-2.496080330280315e-17  5.362649504194639e-20  1.005390316356332e+00
 5.362649504194639e-20 -2.594064340825574e-17  4.281647244374618e-01
 1.005390316356332e+00  4.281647244374618e-01 -3.431946883498794e-17

-2.494215183726693e-17  1.738224931184453e-20  1.008709675224216e+00
 1.738224931184453e-20 -7.103719245742475e-18  4.223708563672661e-01
 1.008709675224216e+00  4.223708563672661e-01 -3.438834376183758e-17

-2.482827095306904e-17 -4.982593515345784e-20  1.007499777260592e+00
-4.982593515345784e-20 -8.717791481431547e-18  4.203091697415167e-01
 1.007499777260592e+00  4.203091697415167e-01 -3.428397523174857e-17

-2.468897402411037e-17 -1.021049722078985e-19  1.005791998535809e+00
-1.021049722078985e-19 -2.514322194499890e-17  4.104583623818706e-01
 1.005791998535809e+00  4.104583623818706e-01 -3.418286502147072e-17

-2.450085776810841e-17 -1.057231322901836e-19  9.981679125283526e-01
-1.057231322901836e-19 -8.397610023437972e-18  4.113863864777987e-01
 9.981679125283526e-01  4.113863864777987e-01 -3.389215744181240e-17

-2.410884780204275e-17 -1.187380224056076e-19  9.809248294241881e-01
-1.187380224056076e-19 -1.466966275617503e-17  4.073631257728914e-01
 9.809248294241881e-01  4.073631257728914e-01 -3.327016411717564e-17

-2.382207565036049e-17 -1.248622489264550e-19  9.671263966112481e-01
-1.248622489264550e-19 -1.577858057107809e-17  4.046179766073051e-01
 9.671263966112481e-01  4.046179766073051e-01 -3.277546859923534e-17

-2.349142301029969e-17 -1.099050036393615e-19  9.522897952105113e-01
-1.099050036393615e-19 -1.804644665829087e-17  4.133226693714724e-01
 9.522897952105113e-01  4.133226693714724e-01 -3.224883038280962e-17

-2.280090633981844e-17 -7.911720814232035e-20  9.143757793215531e-01
-7.911720814232035e-20 -1.218922458947569e-17  4.221174888974767e-01
 9.143757793215531e-01  4.221174888974767e-01 -3.089009889541007e-17

-2.206101296040343e-17 -7.827828015191566e-20  8.765810430042638e-01
-7.827828015191566e-20 -6.921153145260002e-18  3.934608652254643e-01
 8.765810430042638e-01  3.934608652254643e-01 -2.957536869968106e-17

-2.298696126402859e-17 -6.751621070394956e-20  9.684486023901198e-01
-6.751621070394956e-20 -1.110073412905824e-17  2.898017807432268e-01
 9.684486023901198e-01  2.898017807432268e-01 -3.281422205240331e-17

-2.203807545291148e-17 -2.648829447621150e-20  8.731366470194832e-01
-2.648829447621150e-20 -1.052515171024647e-17  4.011514678686044e-01
 8.731366470194832e-01  4.011514678686044e-01 -2.944165159493556e-17

-2.289000268662732e-17  1.950658008319165e-19  9.172663918806919e-01
 1.950658008319165e-19  6.969121455098391e-17  4.185957961665984e-01
 9.172663918806919e-01  4.185957961665984e-01 -3.117460479429042e-17

-2.333814873164324e-17 -1.517012204963700e-19  9.435954217737852e-01
-1.517012204963700e-19 -7.915679386465906e-17  3.999333146611629e-01
 9.435954217737852e-01  3.999333146611629e-01 -3.211321342014967e-17

-2.350465241838801e-17  1.623080882727245e-19  9.480518439865696e-01
 1.623080882727245e-19  4.706740143064926e-17  4.019660800049858e-01
 9.480518439865696e-01  4.019660800049858e-01 -3.228088412236251e-17

-2.366907693653148e-17 -5.273580720623733e-20  9.589807496478494e-01
-5.273580720623733e-20 -5.119854200280368e-17  3.955409057897188e-01
 9.589807496478494e-01  3.955409057897188e-01 -3.266613650392339e-17

-2.383614915883857e-17  1.124284379966119e-19  9.657128105712732e-01
 1.124284379966119e-19  2.529151647819307e-17  3.941434514274117e-01
 9.657128105712732e-01  3.941434514274117e-01 -3.289654712302739e-17

-2.395044759334857e-17 -8.463865895110885e-21  9.701806218086173e-01
-8.463865895110885e-21 -3.150275819584885e-17  3.962181903785766e-01
 9.701806218086173e-01  3.962181903785766e-01 -3.304895781903144e-17

-2.413959897720990e-17  1.329872769517396e-20  9.784917057564572e-01
 1.329872769517396e-20 -1.600584181549432e-17  3.954735846585736e-01
 9.784917057564572e-01  3.954735846585736e-01 -3.332325714318767e-17

-2.652269534437930e-17  7.864238009584847e-20  1.107644853966076e+00
 7.864238009584847e-20 -1.267363127897517e-17  3.611534048800829e-01
 1.107644853966076e+00  3.611534048800829e-01 -3.834298937928479e-17

-2.557429441519733e-17  2.192775470175386e-19  1.044122401066683e+00
 2.192775470175386e-19 -1.460459395422609e-17  4.037201847704046e-01
 1.044122401066683e+00  4.037201847704046e-01 -3.599664687792947e-17

-2.775116573742235e-17 -1.815180878310775e-19  1.182177034442314e+00
-1.815180878310775e-19 -8.995090356747644e-18  3.741912086004868e-01
 1.182177034442314e+00  3.741912086004868e-01 -4.155492526630993e-17

-2.732679812099801e-17 -1.281784619765591e-18  1.057777063467155e+00
-1.281784619765591e-18 -6.343672982058640e-18  6.448070039782920e-01
 1.057777063467155e+00  6.448070039782920e-01 -4.176076170194457e-17

-1.878275007138848e-17 -2.144421088484406e-18  2.820386405701800e-01
-2.144421088484406e-18 -3.145453571077214e-19  1.132675947406796e+00
 2.820386405701800e-01  1.132675947406796e+00 -2.162799925071217e-17

-2.394654252221520e-17  5.507832242132036e-19  9.944368150188730e-01
 5.507832242132036e-19 -1.275643763326913e-17  3.515805645104291e-01
 9.944368150188730e-01  3.515805645104291e-01 -3.267737371157740e-17

-2.226960824752835e-17  1.659825317472445e-18  1.003517658243486e+00
 1.659825317472445e-18 -1.197178463882801e-17  1.052207726388909e-01
 1.003517658243486e+00  1.052207726388909e-01 -2.805065148956861e-17

-2.365515534690591e-17  8.621018742698375e-19  8.619566777295078e-01
 8.621018742698375e-19 -9.887293184149574e-18  4.743556682500343e-01
 8.619566777295078e-01  4.743556682500343e-01 -2.905430906408351e-17

-2.543805832713992e-17  7.387188833477577e-19  9.676126747704634e-01
 7.387188833477577e-19 -9.799213993635021e-18  4.284600885450304e-01
 9.676126747704634e-01  4.284600885450304e-01 -3.305626086058814e-17

-1.506091705556671e-17 -3.443743122857627e-18  1.004731120215661e+00
-3.443743122857627e-18 -1.172660738387763e-17  4.187839467502515e-01
 1.004731120215661e+00  4.187839467502515e-01 -3.446191440181357e-17

-1.532223244667754e-17 -3.287284145291336e-18  1.015899578170679e+00
-3.287284145291336e-18 -1.973371160859666e-17  4.106124914379437e-01
 1.015899578170679e+00  4.106124914379437e-01 -3.492385986163738e-17

-2.941199218202394e-17  1.999307193946527e-18  1.029155175296871e+00
 1.999307193946527e-18 -2.070883321565580e-17  4.096348983418164e-01
 1.029155175296871e+00  4.096348983418164e-01 -3.545683908637873e-17

-2.951955468325473e-17  1.789617364365040e-18  1.029213853548227e+00
 1.789617364365040e-18 -1.000183870553750e-17  4.439544162292480e-01
 1.029213853548227e+00  4.439544162292480e-01 -3.551941322248136e-17

-2.407526492093170e-17  9.496569465468923e-20  9.831619490654044e-01
 9.496569465468923e-20 -1.725484814371358e-17  4.571848321628463e-01
 9.831619490654044e-01  4.571848321628463e-01 -3.383524661504440e-17

-2.397851787848499e-17 -2.465982296862233e-20  9.613396215096705e-01
-2.465982296862233e-20 -3.439954785572005e-18  4.071565878719753e-01
 9.613396215096705e-01  4.071565878719753e-01 -3.290378804050588e-17

-2.478796441706548e-17  1.407374453873986e-19  1.017805944231093e+00
 1.407374453873986e-19 -1.584857209990558e-17  4.345723153652399e-01
 1.017805944231093e+00  4.345723153652399e-01 -3.507327455219645e-17

-4.444179793699648e-17  5.482479764433537e-18  1.086620255590349e+00
 5.482479764433537e-18 -1.202897064568718e-17  4.224772643128145e-01
 1.086620255590349e+00  4.224772643128145e-01 -3.770550784734802e-17

 2.090226720748786e-17 -1.436632259531604e-17  1.120602629743020e+00
-1.436632259531604e-17 -6.697629781926011e-18  4.397101838321364e-01
 1.120602629743020e+00  4.397101838321364e-01 -3.902618741063870e-17

 6.621898222411986e-17 -2.787384098073221e-17  1.122294583239414e+00
-2.787384098073221e-17 -1.711708040919135e-17  4.478464808146111e-01
 1.122294583239414e+00  4.478464808146111e-01 -3.911788384685305e-17

-2.064083235718112e-17 -1.865796926010759e-18  1.140181443009288e+00
-1.865796926010759e-18 -1.639100207829116e-17  3.853836044145569e-01
 1.140181443009288e+00  3.853836044145569e-01 -3.958266128821327e-17

-2.659995460839168e-17 -5.244187228312341e-20  1.092874926434911e+00
-5.244187228312341e-20 -1.251626276068029e-17  4.441103479067949e-01
 1.092874926434911e+00  4.441103479067949e-01 -3.791973522514141e-17

-2.879702873678373e-17  5.147547363819450e-19  1.093014298244456e+00
 5.147547363819450e-19 -2.594250906643718e-17  4.434460294360358e-01
 1.093014298244456e+00  4.434460294360358e-01 -3.786770018521548e-17

-4.198418462759377e-17  2.096428575765980e-18  1.083249329865863e+00
 2.096428575765980e-18 -1.367252936208587e-17  4.438489177866229e-01
 1.083249329865863e+00  4.438489177866229e-01 -3.744282728280915e-17

-4.069902332324370e-17  2.052224420301054e-18  1.072598631590861e+00
 2.052224420301054e-18 -1.991306840194923e-17  4.385716762620870e-01
 1.072598631590861e+00  4.385716762620870e-01 -3.699360280554532e-17

 2.140114858126866e-17 -6.087189212364279e-18  1.065169027444156e+00
-6.087189212364279e-18 -2.505661140625914e-17  4.404761270309323e-01
 1.065169027444156e+00  4.404761270309323e-01 -3.670248656380964e-17

-2.703799570900465e-17  1.961282820127254e-20  1.072086296712863e+00
 1.961282820127254e-20 -9.224929144830373e-18  4.523686214893521e-01
 1.072086296712863e+00  4.523686214893521e-01 -3.697078571570701e-17

-2.443252086082694e-17 -2.515067204959561e-19  1.068174979192206e+00
-2.515067204959561e-19 -1.324317090197634e-17  4.597072672083690e-01
 1.068174979192206e+00  4.597072672083690e-01 -3.682320533437054e-17

-2.584576689711332e-17 -3.297044942768839e-20  1.056196528610510e+00
-3.297044942768839e-20 -1.229647935602795e-17  4.358996484079918e-01
 1.056196528610510e+00  4.358996484079918e-01 -3.628106206236022e-17

-2.599079448087340e-17 -1.196487067524176e-19  1.049035092173207e+00
-1.196487067524176e-19 -6.073177121672766e-18  4.409742356566857e-01
 1.049035092173207e+00  4.409742356566857e-01 -3.601895993775478e-17

-2.590370576541215e-17  3.269107009522164e-20  1.049984462179632e+00
 3.269107009522164e-20 -1.487361227604290e-17  4.455965651352528e-01
 1.049984462179632e+00  4.455965651352528e-01 -3.606863886016769e-17

-2.591470393533734e-17 -2.746925259004428e-19  1.048015350785888e+00
-2.746925259004428e-19  3.497249209548984e-18  4.580975192067055e-01
 1.048015350785888e+00  4.580975192067055e-01 -3.602633748176381e-17

-2.596799210896973e-17 -7.734842445674571e-20  1.051497627551017e+00
-7.734842445674571e-20 -7.727101243555551e-18  4.499411502188597e-01
 1.051497627551017e+00  4.499411502188597e-01 -3.614486685717013e-17

-2.586457464227157e-17  1.691400882479189e-19  1.048243621041427e+00
 1.691400882479189e-19 -2.140099052207666e-17  4.426084154636793e-01
 1.048243621041427e+00  4.426084154636793e-01 -3.601937710344970e-17

-2.593800624908220e-17  1.198294376611374e-19  1.054010570049017e+00
 1.198294376611374e-19 -1.881422878450398e-17  4.396002858562847e-01
 1.054010570049017e+00  4.396002858562847e-01 -3.623094611646754e-17

-2.592156166439077e-17 -4.652511831002125e-19  1.046376968659807e+00
-4.652511831002125e-19  1.472300874036033e-17  4.571890600512392e-01
 1.046376968659807e+00  4.571890600512392e-01 -3.597753459939408e-17

-2.586989124463320e-17  8.855180841601894e-20  1.047591807422945e+00
 8.855180841601894e-20 -1.697403181920472e-17  4.471703349886645e-01
 1.047591807422945e+00  4.471703349886645e-01 -3.599940095214831e-17

-2.583485100563305e-17  4.364793568824938e-21  1.045639191277852e+00
 4.364793568824938e-21 -1.291182324705090e-17  4.425750588326371e-01
 1.045639191277852e+00  4.425750588326371e-01 -3.590625384594710e-17

-2.600195593496355e-17  3.156784471191296e-20  1.054329302137783e+00
 3.156784471191296e-20 -1.508468597346993e-17  4.467708788430656e-01
 1.054329302137783e+00  4.467708788430656e-01 -3.622785027101303e-17

-2.602746257295446e-17 -1.169176636095378e-19  1.055820169988696e+00
-1.169176636095378e-19 -7.064026223312266e-18  4.396299457758989e-01
 1.055820169988696e+00  4.396299457758989e-01 -3.626367714579929e-17

-2.597497832639145e-17  2.398189112500334e-19  1.050969547960404e+00
 2.398189112500334e-19 -2.641514779646336e-17  4.447981579780308e-01
 1.050969547960404e+00  4.447981579780308e-01 -3.609996274792648e-17

-2.601197701279922e-17  5.031854744125659e-19  1.051656190187765e+00
 5.031854744125659e-19 -4.093932227519395e-17  4.374763595324752e-01
 1.051656190187765e+00  4.374763595324752e-01 -3.611318376983316e-17

-2.589435498806364e-17  1.953447766012233e-19  1.048622533437768e+00
 1.953447766012233e-19 -2.316504294618291e-17  4.420100221002564e-01
 1.048622533437768e+00  4.420100221002564e-01 -3.602509646347107e-17

-2.598061633201585e-17 -5.793976946857208e-20  1.051079056590467e+00
-5.793976946857208e-20 -7.565584598533238e-18  4.344956426012248e-01
 1.051079056590467e+00  4.344956426012248e-01 -3.610817761183077e-17

-2.544826106367038e-17  1.413003526607568e-19  1.045185392288280e+00
 1.413003526607568e-19 -2.534126949823435e-17  4.407076556361541e-01
 1.045185392288280e+00  4.407076556361541e-01 -3.590290178803921e-17

-3.003112266415299e-17  1.524320913907878e-18  1.034594618937645e+00
 1.524320913907878e-18 -3.566846670925265e-17  4.447908187676719e-01
 1.034594618937645e+00  4.447908187676719e-01 -3.551704463739585e-17

 6.095819744738490e-17 -2.199847294758033e-17  1.029713706590470e+00
-2.199847294758033e-17 -1.527299379957474e-17  4.327401570501745e-01
 1.029713706590470e+00  4.327401570501745e-01 -3.531607849304582e-17

-3.299268841290005e-17  1.613160876634672e-18  1.033858303382087e+00
 1.613160876634672e-18  4.434076625409433e-18  4.406002175040182e-01
 1.033858303382087e+00  4.406002175040182e-01 -3.549492700800602e-17

-1.106490791000573e-16  2.164031036977034e-17  1.043173209398763e+00
 2.164031036977034e-17 -5.389508397744072e-18  4.401752977497524e-01
 1.043173209398763e+00  4.401752977497524e-01 -3.584766618493952e-17

-2.028271311627891e-17 -1.375070505119993e-18  1.036627098696367e+00
-1.375070505119993e-18 -1.031772908922799e-17  4.329956647011543e-01
 1.036627098696367e+00  4.329956647011543e-01 -3.562271682751022e-17

-2.611925494235137e-17 -1.107525028725201e-19  1.026096471864997e+00
-1.107525028725201e-19  7.964935182437137e-18  4.317311011956371e-01
 1.026096471864997e+00  4.317311011956371e-01 -3.525183901854826e-17

-2.552727681514609e-17  2.527417500075134e-19  1.018906461228449e+00
 2.527417500075134e-19 -2.134254729841224e-17  4.381873874989246e-01
 1.018906461228449e+00  4.381873874989246e-01 -3.501705621548806e-17

-2.548266839628993e-17  1.095922221546035e-19  1.020037748405318e+00
 1.095922221546035e-19 -1.244421489652482e-17  4.282085939845136e-01
 1.020037748405318e+00  4.282085939845136e-01 -3.506208227802251e-17

-2.539404801052373e-17 -3.490141393785683e-20  1.015251894779985e+00
-3.490141393785683e-20 -5.167309336132867e-18  4.339090702227807e-01
 1.015251894779985e+00  4.339090702227807e-01 -3.489990344572758e-17

-2.543633323485479e-17 -4.444875220742972e-20  1.019272780521680e+00
-4.444875220742972e-20 -4.901661304882249e-18  4.270135547545085e-01
 1.019272780521680e+00  4.270135547545085e-01 -3.502985963441632e-17

-2.547189179252556e-17  3.454807744257174e-20  1.020972378768280e+00
 3.454807744257174e-20 -1.194855436248170e-17  4.289087879946197e-01
 1.020972378768280e+00  4.289087879946197e-01 -3.507993607685439e-17

-2.554760245954286e-17  1.862758784031654e-19  1.024219407277766e+00
 1.862758784031654e-19 -2.357705500347140e-17  4.300149967293952e-01
 1.024219407277766e+00  4.300149967293952e-01 -3.516763542613249e-17

-2.591542233734503e-17  1.533686951443111e-20  1.044267009780868e+00
 1.533686951443111e-20 -1.527324380066936e-17  4.286606993811128e-01
 1.044267009780868e+00  4.286606993811128e-01 -3.589153204921171e-17

-2.601409538327417e-17  1.207098353834587e-19  1.048144241895037e+00
 1.207098353834587e-19 -2.245380159525221e-17  4.232093671615560e-01
 1.048144241895037e+00  4.232093671615560e-01 -3.600939180924485e-17

-2.562894387379361e-17 -8.717620424474580e-20  1.010237250400235e+00
-8.717620424474580e-20 -9.834974867896535e-18  4.690058261084094e-01
 1.010237250400235e+00  4.690058261084094e-01 -3.471613901697326e-17

-2.633158137417789e-17 -5.958874650393956e-20  1.082760510837889e+00
-5.958874650393956e-20 -1.114665545383748e-17  3.813311303220880e-01
 1.082760510837889e+00  3.813311303220880e-01 -3.718369247923499e-17

-2.609708407899598e-17  1.629148587562973e-19  1.063774412389588e+00
 1.629148587562973e-19 -2.432693753231697e-17  3.995453171273610e-01
 1.063774412389588e+00  3.995453171273610e-01 -3.650441541364475e-17

-2.561656677698612e-17 -5.819836682440771e-19  1.036654937741349e+00
-5.819836682440771e-19  2.103171515718792e-17  3.883330945765849e-01
 1.036654937741349e+00  3.883330945765849e-01 -3.545618056416694e-17

-2.565623370137362e-17  5.305966378668700e-20  1.034105160961012e+00
 5.305966378668700e-20 -1.614231398853432e-17  4.157750346505018e-01
 1.034105160961012e+00  4.157750346505018e-01 -3.541958467877746e-17

-2.476501481893172e-17  1.436490607828666e-19  9.701624095342367e-01
 1.436490607828666e-19 -2.293855235360991e-17  4.694993526540183e-01
 9.701624095342367e-01  4.694993526540183e-01 -3.316958668277385e-17

-2.502461472985479e-17  8.542772941109268e-20  1.054399848345940e+00
 8.542772941109268e-20 -1.112019972460200e-17  2.589639650946496e-01
 1.054399848345940e+00  2.589639650946496e-01 -3.556393237212502e-17

-2.354565321694753e-17  8.313785311591018e-19  9.069952368657646e-01
 8.313785311591018e-19 -6.314902549671293e-17  4.001396428678025e-01
 9.069952368657646e-01  4.001396428678025e-01 -3.070282613986339e-17

-2.463577588136846e-17  8.533798834440905e-19  9.569550002237595e-01
 8.533798834440905e-19 -6.307339616488213e-17  4.487434136892071e-01
 9.569550002237595e-01  4.487434136892071e-01 -3.263718299283266e-17

-2.650187443207826e-17  1.778485643785542e-19  1.065333052273783e+00
 1.778485643785542e-19 -1.857946379318282e-17  4.412372722645973e-01
 1.065333052273783e+00  4.412372722645973e-01 -3.663926237233174e-17

-2.708824638073988e-17  1.936386120991767e-19  1.091469578886578e+00
 1.936386120991767e-19 -2.418308738777443e-17  4.302106632666614e-01
 1.091469578886578e+00  4.302106632666614e-01 -3.773111567368691e-17

-2.701422658144772e-17  2.244586405119851e-19  1.082720502285421e+00
 2.244586405119851e-19 -2.838460594964068e-17  4.219354517799144e-01
 1.082720502285421e+00  4.219354517799144e-01 -3.742836298020997e-17

-2.698583863415235e-17 -1.932589304642022e-19  1.078087869204419e+00
-1.932589304642022e-19 -9.752598003389459e-19  4.324808614871785e-01
 1.078087869204419e+00  4.324808614871785e-01 -3.726272640417567e-17

-2.689265860544104e-17  5.207051851089068e-20  1.073269702501443e+00
 5.207051851089068e-20 -1.672013456926223e-17  4.189058735109381e-01
 1.073269702501443e+00  4.189058735109381e-01 -3.703295544866495e-17

-2.659682095601258e-17  1.742718623568734e-19  1.052541139717524e+00
 1.742718623568734e-19 -2.470247075852640e-17  4.360698292337116e-01
 1.052541139717524e+00  4.360698292337116e-01 -3.629367101520981e-17

-2.668390458097634e-17  1.360122652676076e-19  1.049783677146760e+00
 1.360122652676076e-19 -2.068481498446383e-17  4.326224986441279e-01
 1.049783677146760e+00  4.326224986441279e-01 -3.618229754955281e-17

-2.490436357728507e-17 -9.831875562426840e-20  1.058643691154043e+00
-9.831875562426840e-20 -2.567175610152560e-17  4.317687512152222e-01
 1.058643691154043e+00  4.317687512152222e-01 -3.651117276374856e-17

-4.888669346543992e-18 -3.293100331221686e-18  1.032468363661490e+00
-3.293100331221686e-18 -1.276378854733084e-17  4.613049919686203e-01
 1.032468363661490e+00  4.613049919686203e-01 -3.560240107374874e-17

 1.487478098295130e-17 -6.222989755458867e-18  1.037741490733202e+00
-6.222989755458867e-18 -1.753965394577341e-17  4.415151999998679e-01
 1.037741490733202e+00  4.415151999998679e-01 -3.574272158637373e-17

-3.295253670756714e-17  9.286931362085026e-19  1.053005496431049e+00
 9.286931362085026e-19 -9.610784601012142e-18  4.060555154396768e-01
 1.053005496431049e+00  4.060555154396768e-01 -3.621495454897942e-17

-6.722858632619635e-17  6.181092992097532e-18  1.039950789235961e+00
 6.181092992097532e-18 -1.337520764636608e-17  4.102278921179884e-01
 1.039950789235961e+00  4.102278921179884e-01 -3.575963571775844e-17

-5.941818306303398e-17  4.957602626380365e-18  1.038376005747021e+00
 4.957602626380365e-18 -1.271560333366492e-17  4.333609814430163e-01
 1.038376005747021e+00  4.333609814430163e-01 -3.574785350479564e-17

-2.324114592043286e-17 -4.852554560752886e-19  1.038371443815514e+00
-4.852554560752886e-19 -1.342126982623953e-17  4.485498886562063e-01
 1.038371443815514e+00  4.485498886562063e-01 -3.579417786444604e-17

-2.690457545121521e-17  1.272875770070866e-19  1.038387119525652e+00
 1.272875770070866e-19 -1.638317887152442e-17  4.153828363794240e-01
 1.038387119525652e+00  4.153828363794240e-01 -3.573013145644463e-17

-2.631032744612820e-17  2.941863079026189e-20  1.028474559182315e+00
 2.941863079026189e-20 -1.402397278260724e-17  4.159746979976257e-01
 1.028474559182315e+00  4.159746979976257e-01 -3.537193307898107e-17

-2.610530537518236e-17 -4.818158228474052e-20  1.018204510833057e+00
-4.818158228474052e-20 -9.246719901401039e-18  4.310206639373139e-01
 1.018204510833057e+00  4.310206639373139e-01 -3.503315431663338e-17

-2.587628506132275e-17  5.993669475506044e-20  1.005519980399358e+00
 5.993669475506044e-20 -1.690172589879726e-17  4.190547946043953e-01
 1.005519980399358e+00  4.190547946043953e-01 -3.454335785938729e-17

-2.592869451382370e-17  1.128920726073462e-19  1.009255652112385e+00
 1.128920726073462e-19 -2.217948258843908e-17  4.217421073214797e-01
 1.009255652112385e+00  4.217421073214797e-01 -3.467574646665235e-17

-2.584411173623458e-17 -9.841399079826043e-20  1.005665972312725e+00
-9.841399079826043e-20 -1.006075144608419e-17  4.092031379091096e-01
 1.005665972312725e+00  4.092031379091096e-01 -3.450345051736490e-17

-2.588347390404868e-17 -3.431314391666659e-20  9.998283307877025e-01
-3.431314391666659e-20 -1.582631104723178e-17  4.425176736685043e-01
 9.998283307877025e-01  4.425176736685043e-01 -3.436383386296152e-17

-2.547256832199548e-17  4.767573167285574e-20  9.809752260128292e-01
 4.767573167285574e-20 -1.981709047573571e-17  4.116983413357084e-01
 9.809752260128292e-01  4.116983413357084e-01 -3.357444911803927e-17

-2.536132812189387e-17 -1.236309239696186e-19  9.744246668157107e-01
-1.236309239696186e-19 -6.637241378047649e-18  4.049239800746213e-01
 9.744246668157107e-01  4.049239800746213e-01 -3.335200276413924e-17

-2.539762503510580e-17  7.744540311732275e-21  9.742625558442433e-01
 7.744540311732275e-21 -1.393516908940778e-17  4.154177278183475e-01
 9.742625558442433e-01  4.154177278183475e-01 -3.343745272890833e-17

-2.469507340615669e-17 -3.164883103058273e-19  9.342742276288279e-01
-3.164883103058273e-19  9.163549234535903e-18  4.070938640607233e-01
 9.342742276288279e-01  4.070938640607233e-01 -3.197733448131873e-17

-2.419851492109549e-17 -5.309363128909246e-19  9.018771441873634e-01
-5.309363128909246e-19  2.105407894102011e-17  4.220644069249643e-01
 9.018771441873634e-01  4.220644069249643e-01 -3.085730167168454e-17

-2.455616048312313e-17  6.037979640788445e-20  9.457920585842367e-01
 6.037979640788445e-20 -1.897258570572472e-17  3.329358696969794e-01
 9.457920585842367e-01  3.329358696969794e-01 -3.238798599817697e-17

-2.424452391230661e-17 -1.356154653471881e-19  8.962172322533680e-01
-1.356154653471881e-19 -3.067996439632994e-18  4.577070959451989e-01
 8.962172322533680e-01  4.577070959451989e-01 -3.066955843450526e-17

-2.334486352109931e-17 -2.639767219333227e-19  8.000608903856021e-01
-2.639767219333227e-19  7.218320119503674e-19  5.706740753751620e-01
 8.000608903856021e-01  5.706740753751620e-01 -2.745665199919301e-17

-2.444482428399571e-17  4.305449592899454e-19  9.330455206795061e-01
 4.305449592899454e-19 -4.049655779711710e-17  3.385772067993499e-01
 9.330455206795061e-01  3.385772067993499e-01 -3.175076305844994e-17

-2.418998645190775e-17 -3.670018446354844e-19  8.847926273176717e-01
-3.670018446354844e-19  1.990703630081150e-18  4.057858548386872e-01
 8.847926273176717e-01  4.057858548386872e-01 -3.026261043448065e-17

-2.591452346735821e-17  8.789453419331765e-21  9.775460192986344e-01
 8.789453419331765e-21 -1.038694907432175e-17  4.393416240882810e-01
 9.775460192986344e-01  4.393416240882810e-01 -3.352866306918385e-17

-2.665839564221053e-17 -1.268691864208280e-19  1.016819634289271e+00
-1.268691864208280e-19 -5.688198416434366e-18  4.223768505573522e-01
 1.016819634289271e+00  4.223768505573522e-01 -3.505723126914911e-17

-2.683675831805933e-17  9.398759268809508e-20  1.019704488608275e+00
 9.398759268809508e-20 -2.482661082792180e-17  4.068629149789774e-01
 1.019704488608275e+00  4.068629149789774e-01 -3.523407154502772e-17

-2.708225559462364e-17  9.374459251268448e-20  1.022989927128262e+00
 9.374459251268448e-20 -2.502196990810332e-17  4.116035898683292e-01
 1.022989927128262e+00  4.116035898683292e-01 -3.540561009266997e-17

-2.715943395575543e-17 -2.330146032291385e-20  1.017281734269213e+00
-2.330146032291385e-20 -1.720043418478271e-17  4.186318491836846e-01
 1.017281734269213e+00  4.186318491836846e-01 -3.523034055504864e-17

-2.720171229038735e-17  1.722325196061427e-19  1.008304631440517e+00
 1.722325196061427e-19 -3.048227300128815e-17  4.276078080970134e-01
 1.008304631440517e+00  4.276078080970134e-01 -3.495295419174017e-17

-2.777638995344197e-17  2.154935043874824e-20  1.043788088737319e+00
 2.154935043874824e-20 -2.043503337749907e-17  4.079249668086747e-01
 1.043788088737319e+00  4.079249668086747e-01 -3.628721549378016e-17

-2.791082178001153e-17 -4.919078407620022e-20  1.046279897491185e+00
-4.919078407620022e-20 -1.445953057024589e-17  4.166085614240949e-01
 1.046279897491185e+00  4.166085614240949e-01 -3.640621566859403e-17

-2.790651215534906e-17  2.395260229566745e-20  1.031825351338415e+00
 2.395260229566745e-20 -1.938203472876523e-17  4.334471687226407e-01
 1.031825351338415e+00  4.334471687226407e-01 -3.595205183935225e-17

-2.799466448352924e-17 -5.268234071611931e-20  1.029221306859977e+00
-5.268234071611931e-20 -1.592539781720442e-17  4.249560403319956e-01
 1.029221306859977e+00  4.249560403319956e-01 -3.590981312256096e-17

-2.831007014834442e-17 -5.972031481925225e-20  1.041386195661373e+00
-5.972031481925225e-20 -1.554881358013112e-17  4.252270884999698e-01
 1.041386195661373e+00  4.252270884999698e-01 -3.640969327594260e-17

-2.899711518544809e-17 -2.950063358629899e-20  1.075784415411792e+00
-2.950063358629899e-20 -1.904859439999617e-17  4.202317298429693e-01
 1.075784415411792e+00  4.202317298429693e-01 -3.774987251858231e-17

-3.008976597516692e-17 -5.690275733615328e-20  1.131435540368640e+00
-5.690275733615328e-20 -1.792822085547532e-17  4.221786829236032e-01
 1.131435540368640e+00  4.221786829236032e-01 -3.990561443698459e-17

-2.931640207070099e-17 -9.701506989269972e-20  1.046994531118478e+00
-9.701506989269972e-20 -1.776672260189106e-17  5.123488314077058e-01
 1.046994531118478e+00  5.123488314077058e-01 -3.704730973990244e-17

-2.976605426778789e-17 -1.175903709837567e-19  1.097496351862785e+00
-1.175903709837567e-19 -1.901759052593652e-17  4.418647627619012e-01
 1.097496351862785e+00  4.418647627619012e-01 -3.873393514291438e-17

-2.933476853774524e-17 -1.060283028929286e-19  1.078096731181618e+00
-1.060283028929286e-19 -1.940450522245616e-17  4.079352319784990e-01
 1.078096731181618e+00  4.079352319784990e-01 -3.785232903009771e-17

-2.907460827589872e-17 -1.583016631744600e-19  1.052566403296714e+00
-1.583016631744600e-19 -1.949132347868003e-17  4.349624623973435e-01
 1.052566403296714e+00  4.349624623973435e-01 -3.696293845199164e-17

-2.886722069021711e-17 -2.707816155887970e-19  1.034622838347226e+00
-2.707816155887970e-19 -1.481349266541071e-17  4.347511745076947e-01
 1.034622838347226e+00  4.347511745076947e-01 -3.627918228465570e-17

-2.889969181658485e-17 -2.982323419667684e-19  1.027912257422501e+00
-2.982323419667684e-19 -1.747208102002544e-17  4.348084022975652e-01
 1.027912257422501e+00  4.348084022975652e-01 -3.602676291972824e-17

-2.913157474629959e-17 -3.553918605565197e-19  1.032864786802940e+00
-3.553918605565197e-19 -1.746654091610379e-17  4.416271483634802e-01
 1.032864786802940e+00  4.416271483634802e-01 -3.623471003593210e-17

-2.935480362967865e-17 -3.301035360609103e-19  1.035455185044930e+00
-3.301035360609103e-19 -2.264251481427950e-17  4.333710240163670e-01
 1.035455185044930e+00  4.333710240163670e-01 -3.633769510234376e-17

-2.961238532223733e-17 -3.721727731912221e-19  1.036276644554146e+00
-3.721727731912221e-19 -2.082597122804620e-17  4.470539087594705e-01
 1.036276644554146e+00  4.470539087594705e-01 -3.645182648058383e-17

-2.957131018413926e-17 -4.213628265234375e-19  1.022186873402925e+00
-4.213628265234375e-19 -1.696069048458936e-17  4.350899390326736e-01
 1.022186873402925e+00  4.350899390326736e-01 -3.597790748457245e-17

-2.971119570404090e-17 -3.726280393588944e-19  1.027108786988271e+00
-3.726280393588944e-19 -2.154067961416959e-17  4.076738065583036e-01
 1.027108786988271e+00  4.076738065583036e-01 -3.617121250019238e-17

-2.972269630456470e-17 -4.261376127990066e-19  1.007056393926942e+00
-4.261376127990066e-19 -1.840004751106025e-17  4.457049817170834e-01
 1.007056393926942e+00  4.457049817170834e-01 -3.555559967624831e-17

-3.017670075979608e-17 -4.618597948139274e-19  1.024958946020219e+00
-4.618597948139274e-19 -1.882116389091446e-17  4.364533232376122e-01
 1.024958946020219e+00  4.364533232376122e-01 -3.628696559740786e-17

-3.052480478039733e-17 -5.196325344136527e-19  1.029176736633140e+00
-5.196325344136527e-19 -1.842272587307026e-17  4.340291673109744e-01
 1.029176736633140e+00  4.340291673109744e-01 -3.651555692117402e-17

-3.086604108255891e-17 -6.235314544350087e-19  1.028292732874757e+00
-6.235314544350087e-19 -1.560899058953354e-17  4.334947436025664e-01
 1.028292732874757e+00  4.334947436025664e-01 -3.657501287440445e-17

-3.113416373323463e-17 -5.675193622329014e-19  1.029674189402414e+00
-5.675193622329014e-19 -2.300402652101966e-17  4.307211303269619e-01
 1.029674189402414e+00  4.307211303269619e-01 -3.669101161107205e-17

-3.132056458618464e-17 -6.688695897967180e-19  1.027640649122169e+00
-6.688695897967180e-19 -1.769119911839681e-17  4.359905153053686e-01
 1.027640649122169e+00  4.359905153053686e-01 -3.667985963277326e-17

-3.163629420774451e-17 -7.014934273294492e-19  1.022024519069079e+00
-7.014934273294492e-19 -1.905323892399941e-17  4.353464569541012e-01
 1.022024519069079e+00  4.353464569541012e-01 -3.659089560487113e-17

-3.197356987195237e-17 -7.612843445336821e-19  1.015672774318613e+00
-7.612843445336821e-19 -1.848455108254920e-17  4.323543943748501e-01
 1.015672774318613e+00  4.323543943748501e-01 -3.648907466296329e-17

-3.234919045772519e-17 -7.353814900852977e-19  1.026042795999165e+00
-7.353814900852977e-19 -2.282688102500531e-17  4.218295447704334e-01
 1.026042795999165e+00  4.218295447704334e-01 -3.695086578490778e-17

-3.291958072873250e-17 -7.649943522880110e-19  1.033848667351636e+00
-7.649943522880110e-19 -2.332309293202833e-17  4.306815925016891e-01
 1.033848667351636e+00  4.306815925016891e-01 -3.739869723014755e-17

-3.357430374816068e-17 -9.089268265942274e-19  1.035049347071228e+00
-9.089268265942274e-19 -1.810332733645615e-17  4.320758299909322e-01
 1.035049347071228e+00  4.320758299909322e-01 -3.767846522972259e-17

-3.385667982107886e-17 -9.894693710435268e-19  1.014148876231408e+00
-9.894693710435268e-19 -1.752872577572112e-17  4.260447359782384e-01
 1.014148876231408e+00  4.260447359782384e-01 -3.710692560301357e-17

-3.421848731194136e-17 -1.070582363597565e-18  9.964214178069803e-01
-1.070582363597565e-18 -1.748148159292062e-17  4.318295880067177e-01
 9.964214178069803e-01  4.318295880067177e-01 -3.670986580279792e-17

-3.474001449494728e-17 -1.115849454594791e-18  9.705921935934178e-01
-1.115849454594791e-18 -2.242859063759840e-17  4.282609584465305e-01
 9.705921935934178e-01  4.282609584465305e-01 -3.609111970149058e-17

-3.572033140718037e-17 -1.254909238091271e-18  9.787227630435692e-01
-1.254909238091271e-18 -1.893582100600500e-17  4.246561429064889e-01
 9.787227630435692e-01  4.246561429064889e-01 -3.671196398765359e-17

-3.617248255119476e-17 -1.222014002215691e-18  9.703975251802280e-01
-1.222014002215691e-18 -2.382624461277827e-17  4.497024213615675e-01
 9.703975251802280e-01  4.497024213615675e-01 -3.659169594351531e-17

-3.657829534697233e-17 -1.196113390900340e-18  9.822424757844606e-01
-1.196113390900340e-18 -2.825284769384839e-17  4.382749732646661e-01
 9.822424757844606e-01  4.382749732646661e-01 -3.714543690054354e-17

-3.688521558960130e-17 -1.296022946481074e-18  9.856364297261481e-01
-1.296022946481074e-18 -2.343875396539652e-17  4.303735464541356e-01
 9.856364297261481e-01  4.303735464541356e-01 -3.737049289485056e-17

-3.757460206563980e-17 -1.356278790854433e-18  9.910923164915665e-01
-1.356278790854433e-18 -2.480205797483215e-17  4.163039149700535e-01
 9.910923164915665e-01  4.163039149700535e-01 -3.779557873032774e-17

-3.852523527232240e-17 -1.465666552280473e-18  9.869949824953493e-01
-1.465666552280473e-18 -2.529309710321237e-17  4.170415527035631e-01
 9.869949824953493e-01  4.170415527035631e-01 -3.804034277246077e-17

-3.917492273440893e-17 -1.549584710904600e-18  9.849854048995454e-01
-1.549584710904600e-18 -2.432111729167846e-17  4.195057857137791e-01
 9.849854048995454e-01  4.195057857137791e-01 -3.821358302654136e-17

-4.029931280804516e-17 -1.657677901740774e-18  9.832884663066924e-01
-1.657677901740774e-18 -2.683294124694635e-17  4.166725640158206e-01
 9.832884663066924e-01  4.166725640158206e-01 -3.857755676964101e-17

-4.192968370206521e-17 -1.889381271154651e-18  9.787302968450344e-01
-1.889381271154651e-18 -2.421498169956300e-17  4.209838012612995e-01
 9.787302968450344e-01  4.209838012612995e-01 -3.902670122330510e-17

-4.318124152855798e-17 -2.008016597346092e-18  1.009858497525213e+00
-2.008016597346092e-18 -2.530281322697280e-17  3.928955933410939e-01
 1.009858497525213e+00  3.928955933410939e-01 -4.046765795073861e-17

-4.375471117074332e-17 -2.094291661043774e-18  9.999979467180196e-01
-2.094291661043774e-18 -2.395297473879292e-17  4.050477754065397e-01
 9.999979467180196e-01  4.050477754065397e-01 -4.033662322038237e-17

-4.421298994818884e-17 -2.124355733506439e-18  9.895315375810867e-01
-2.124355733506439e-18 -2.552807764798187e-17  4.194244718747100e-01
 9.895315375810867e-01  4.194244718747100e-01 -4.018158729509255e-17

-4.536952473510919e-17 -2.185182746062925e-18  1.002997603309624e+00
-2.185182746062925e-18 -2.863649708180658e-17  4.225669363220613e-01
 1.002997603309624e+00  4.225669363220613e-01 -4.100732794862708e-17

-4.658818608542714e-17 -2.324526576729407e-18  9.972216256835718e-01
-2.324526576729407e-18 -3.118081821553821e-17  4.225153557041088e-01
 9.972216256835718e-01  4.225153557041088e-01 -4.124100525478883e-17

-4.867399514703744e-17 -2.605620201328130e-18  1.002867765779886e+00
-2.605620201328130e-18 -3.055812330389246e-17  4.046084770302313e-01
 1.002867765779886e+00  4.046084770302313e-01 -4.216244101177760e-17

-5.272602676474153e-17 -3.061022721106487e-18  1.009404227016071e+00
-3.061022721106487e-18 -3.038641604538919e-17  4.134903792460975e-01
 1.009404227016071e+00  4.134903792460975e-01 -4.376369778896530e-17

-5.697748946197619e-17 -3.468637752977078e-18  1.009603797743859e+00
-3.468637752977078e-18 -3.435672620891104e-17  4.127778447455124e-01
 1.009603797743859e+00  4.127778447455124e-01 -4.523234891328279e-17

-6.082046620570829e-17 -3.833010253308485e-18  1.012497452864893e+00
-3.833010253308485e-18 -3.542425440988055e-17  4.166308673438200e-01
 1.012497452864893e+00  4.166308673438200e-01 -4.667611453076563e-17

-6.532721161686900e-17 -4.244770393807007e-18  1.013452420585244e+00
-4.244770393807007e-18 -3.651762041249273e-17  4.138856711075390e-01
 1.013452420585244e+00  4.138856711075390e-01 -4.827676883579403e-17

-7.168355920571825e-17 -4.768592833776543e-18  1.012964665019684e+00
-4.768592833776543e-18 -3.536989332612815e-17  4.170320042069392e-01
 1.012964665019684e+00  4.170320042069392e-01 -5.050698343312878e-17

-7.670510450400865e-17 -5.136581458234870e-18  1.018171763904169e+00
-5.136581458234870e-18 -3.656504421297473e-17  4.068542413352817e-01
 1.018171763904169e+00  4.068542413352817e-01 -5.245365740169543e-17

-8.208511174660714e-17 -5.466051827721024e-18  1.019892347162229e+00
-5.466051827721024e-18 -3.733698380989526e-17  4.072551217529852e-01
 1.019892347162229e+00  4.072551217529852e-01 -5.442046925449371e-17

-9.392624019682881e-17 -6.061840312246961e-18  1.012524241687284e+00
-6.061840312246961e-18 -3.893546431556414e-17  4.175852655486897e-01
 1.012524241687284e+00  4.175852655486897e-01 -5.841940066445359e-17

-1.040896075206051e-16 -6.510589146274732e-18  9.919567843953588e-01
-6.510589146274732e-18 -3.927139898446204e-17  3.975248469901881e-01
 9.919567843953588e-01  3.975248469901881e-01 -6.136701325416653e-17

-1.078271614468132e-16 -3.326524833094259e-18  9.756472474347324e-01
-3.326524833094259e-18 -3.418125935872025e-17  3.941283553393002e-01
 9.756472474347324e-01  3.941283553393002e-01 -6.489660423980836e-17

-1.220085251417750e-16 -3.242512574068112e-18  9.819387075055400e-01
-3.242512574068112e-18 -3.380014268470321e-17  3.989530970994696e-01
 9.819387075055400e-01  3.989530970994696e-01 -7.037915671073268e-17

-1.496741198369305e-16 -6.609613659979131e-18  1.018749792896027e+00
-6.609613659979131e-18 -3.883119199003439e-17  4.030644534287585e-01
 1.018749792896027e+00  4.030644534287585e-01 -7.856421946522171e-17

-1.867301093223632e-16 -5.110914628498876e-18  9.991958761859543e-01
-5.110914628498876e-18 -3.283497271882469e-17  3.965574561779506e-01
 9.991958761859543e-01  3.965574561779506e-01 -9.129312560436513e-17

-2.359222546409248e-16  1.558566438386078e-20  9.582782902840531e-01
 1.558566438386078e-20 -1.807520997534398e-17  4.027509171200907e-01
 9.582782902840531e-01  4.027509171200907e-01 -1.078832351100610e-16

-2.816313181977942e-16  6.998170820485670e-18  9.599746053157279e-01
 6.998170820485670e-18 -1.640170063392542e-18  4.077366688903021e-01
 9.599746053157279e-01  4.077366688903021e-01 -1.247481340313589e-16

-3.452233708724816e-16  1.958287434382733e-17  9.732528421764145e-01
 1.958287434382733e-17  2.510291155084924e-17  4.182263348983104e-01
 9.732528421764145e-01  4.182263348983104e-01 -1.488005496527948e-16

-4.426910597087626e-16  4.648784746993155e-17  9.771122282724134e-01
 4.648784746993155e-17  7.249092591292165e-17  4.199822136312963e-01
 9.771122282724134e-01  4.199822136312963e-01 -1.862477390082844e-16

-6.087884293198199e-16  1.133892776890522e-16  9.803537014289256e-01
 1.133892776890522e-16  1.723839579845709e-16  4.241657090126117e-01
 9.803537014289256e-01  4.241657090126117e-01 -2.530206615236674e-16

-7.966526845031207e-16  2.201540242979397e-16  9.951860247004433e-01
 2.201540242979397e-16  3.058683916741446e-16  4.270241568827776e-01
 9.951860247004433e-01  4.270241568827776e-01 -3.344498943132957e-16

-9.186100771936989e-16  3.098000184509053e-16  9.863144443497426e-01
 3.098000184509053e-16  4.225216826146302e-16  4.262881265782491e-01
 9.863144443497426e-01  4.262881265782491e-01 -3.984552790989619e-16

-1.044616651949875e-15  4.125703855501486e-16  9.942079531675571e-01
 4.125703855501486e-16  5.173564255910814e-16  4.174145511069925e-01
 9.942079531675571e-01  4.174145511069925e-01 -4.555985160090017e-16

-1.272886280729783e-15  6.246171167426371e-16  1.005070687020980e+00
 6.246171167426371e-16  7.143996731775899e-16  4.260929370352092e-01
 1.005070687020980e+00  4.260929370352092e-01 -5.677534435352206e-16

-1.647111316218311e-15  1.112368218520608e-15  1.004759900987054e+00
 1.112368218520608e-15  1.110167727915842e-15  4.359447912201224e-01
 1.004759900987054e+00  4.359447912201224e-01 -7.970186306357370e-16

-2.259234678902187e-15  2.401641822037947e-15  1.011245690716975e+00
 2.401641822037947e-15  1.823265755795040e-15  4.276013128694300e-01
 1.011245690716975e+00  4.276013128694300e-01 -1.315623239647118e-15

-2.908374180883589e-15  5.078532482678555e-15  1.018893111057491e+00
 5.078532482678555e-15  2.662426461573613e-15  4.349202221332107e-01
 1.018893111057491e+00  4.349202221332107e-01 -2.340062391121257e-15

-3.411340633954372e-15  9.283251845041578e-15  1.018470494467095e+00
 9.283251845041578e-15  2.628412685911305e-15  4.279402201933762e-01
 1.018470494467095e+00  4.279402201933762e-01 -4.211675569658586e-15

-6.367038398964262e-15  1.533766806827814e-14  1.023184958872664e+00
 1.533766806827814e-14  1.179402264452734e-15  4.319103093989923e-01
 1.023184958872664e+00  4.319103093989923e-01 -9.764136726135349e-15

 1.773738455221170e-14  1.744017925827467e-15  1.027509234409002e+00
 1.744017925827467e-15  2.398615270973799e-14  4.352309061015648e-01
 1.027509234409002e+00  4.352309061015648e-01 -7.717944743916552e-15

 1.648111028684575e-13 -3.857145710031699e-14  1.030520453255402e+00
-3.857145710031699e-14  8.797509315631743e-14  4.330954891603118e-01
 1.030520453255402e+00  4.330954891603118e-01  3.948377343156580e-14

-6.317823176158671e-13  1.451485922735045e-13  1.035842427632975e+00
 1.451485922735045e-13 -3.191300361061333e-13  4.305208055452890e-01
 1.035842427632975e+00  4.305208055452890e-01 -1.581597169015716e-13

 1.692048425376297e-13 -6.345412217019167e-14  1.045802705295929e+00
-6.345412217019167e-14  9.644302213827614e-14  4.325709809406543e-01
 1.045802705295929e+00  4.325709809406543e-01  4.509238092092542e-14

-6.665820335572673e-13  1.440629079660344e-13  1.039633829445880e+00
 1.440629079660344e-13 -3.160968949632445e-13  4.369400630068717e-01
 1.039633829445880e+00  4.369400630068717e-01 -1.785250436034089e-13

-1.820583039707596e-14 -1.229759131919865e-14  1.050925258640411e+00
-1.229759131919865e-14  7.920865501859717e-15  4.334932835794329e-01
 1.050925258640411e+00  4.334932835794329e-01 -1.298335004582424e-14

-1.850005020288596e-14 -4.101589230903777e-15  1.042846654189461e+00
-4.101589230903777e-15 -1.957650378692934e-15  4.448291774514355e-01
 1.042846654189461e+00  4.448291774514355e-01 -9.841466482586691e-15

-1.323254762701244e-14 -1.292360536049566e-15  1.049191426203067e+00
-1.292360536049566e-15 -2.511368009346818e-15  4.333258585087301e-01
 1.049191426203067e+00  4.333258585087301e-01 -6.095534506586323e-15

-7.639693781318132e-15  5.869214445607113e-16  1.037909616602641e+00
 5.869214445607113e-16 -1.920708641768589e-15  4.251351006953018e-01
 1.037909616602641e+00  4.251351006953018e-01 -2.876301330158170e-15

-4.233685327036920e-15  1.054524618945340e-15  1.026402248971387e+00
 1.054524618945340e-15 -1.676699724343675e-15  4.253304146167917e-01
 1.026402248971387e+00  4.253304146167917e-01 -1.373602052699227e-15

-2.774583079921185e-15  9.475450998719719e-16  1.028321313755097e+00
 9.475450998719719e-16 -1.486204827005643e-15  4.131092778747308e-01
 1.028321313755097e+00  4.131092778747308e-01 -8.621971759080575e-16

-2.171900052274009e-15  8.286482899673868e-16  1.024174247086322e+00
 8.286482899673868e-16 -1.356182574550014e-15  4.145255001027571e-01
 1.024174247086322e+00  4.145255001027571e-01 -6.698527470324923e-16

-1.415383485783362e-15  6.236384651322309e-16  1.023880732680793e+00
 6.236384651322309e-16 -1.134592998168797e-15  4.119808320259620e-01
 1.023880732680793e+00  4.119808320259620e-01 -4.426365265310179e-16

-9.957933625063179e-16  4.635083602948576e-16  1.014516284351634e+00
 4.635083602948576e-16 -9.398932667089697e-16  4.371443888975331e-01
 1.014516284351634e+00  4.371443888975331e-01 -3.217610304441164e-16

-8.135314968400914e-16  3.856440694868695e-16  1.020622305272053e+00
 3.856440694868695e-16 -8.236188044071108e-16  4.318817409856012e-01
 1.020622305272053e+00  4.318817409856012e-01 -2.698606418818240e-16

-5.897746735254321e-16  2.849991531272204e-16  1.010655906149745e+00
 2.849991531272204e-16 -6.425395305875279e-16  4.413625470530477e-01
 1.010655906149745e+00  4.413625470530477e-01 -2.177888176495755e-16

-4.505198726795281e-16  2.191801123324878e-16  9.429456284470770e-01
 2.191801123324878e-16 -5.034023018097770e-16  4.500962602945398e-01
 9.429456284470770e-01  4.500962602945398e-01 -1.621120925451820e-16

-3.492076977373100e-16  1.685817928635461e-16  9.039628491573897e-01
 1.685817928635461e-16 -3.963231356539156e-16  4.017605751599448e-01
 9.039628491573897e-01  4.017605751599448e-01 -1.307990001790344e-16

-3.056794437167060e-16  1.429206383509937e-16  1.145777129634361e+00
 1.429206383509937e-16 -3.578165670620040e-16  2.589845720051536e-01
 1.145777129634361e+00  2.589845720051536e-01 -1.259537379651676e-16

-2.721989912262421e-16  1.181461692055566e-16  8.800069504750218e-01
 1.181461692055566e-16 -3.506518792968453e-16  5.704262728186597e-01
 8.800069504750218e-01  5.704262728186597e-01 -1.083855520045517e-16

-2.463333141023041e-16  1.010661000113143e-16  8.584957765409306e-01
 1.010661000113143e-16 -3.362136301994358e-16  6.357457850418461e-01
 8.584957765409306e-01  6.357457850418461e-01 -1.005020759684112e-16

-2.220918969620105e-16  8.956952425972237e-17  1.127178396584005e+00
 8.956952425972237e-17 -2.976285334179959e-16  3.764877052134605e-01
 1.127178396584005e+00  3.764877052134605e-01 -1.012846205643853e-16

-1.924543690063799e-16  7.180529446721747e-17  1.044368208085491e+00
 7.180529446721747e-17 -2.662348331410255e-16  4.889505359611663e-01
 1.044368208085491e+00  4.889505359611663e-01 -8.994826808963242e-17

-1.753376721165370e-16  6.326261575409647e-17  1.091947792650569e+00
 6.326261575409647e-17 -2.417045765990704e-16  4.413402493624649e-01
 1.091947792650569e+00  4.413402493624649e-01 -8.605500314655640e-17

-1.493186975352765e-16  5.112955742706361e-17  1.065020749943084e+00
 5.112955742706361e-17 -2.037996093881421e-16  4.386573350707485e-01
 1.065020749943084e+00  4.386573350707485e-01 -7.685174815229001e-17

-1.262541343000962e-16  4.068090672266680e-17  1.033403746400630e+00
 4.068090672266680e-17 -1.689529572251278e-16  4.474189691652826e-01
 1.033403746400630e+00  4.474189691652826e-01 -6.831363422305725e-17

-1.102659255340988e-16  3.332226444943340e-17  1.011367280618285e+00
 3.332226444943340e-17 -1.450359849074598e-16  4.673313669090909e-01
 1.011367280618285e+00  4.673313669090909e-01 -6.241353604613694e-17

-1.009945656991170e-16  2.907378746142574e-17  1.006636806391926e+00
 2.907378746142574e-17 -1.309199626480337e-16  4.647953009483881e-01
 1.006636806391926e+00  4.647953009483881e-01 -5.918732538425757e-17

-9.299277692725421e-17  2.543218399580738e-17  9.983063550236861e-01
 2.543218399580738e-17 -1.194170834782039e-16  4.674833838067797e-01
 9.983063550236861e-01  4.674833838067797e-01 -5.627701572100920e-17

-8.117196581835233e-17  1.974165717713085e-17  9.831596356942676e-01
 1.974165717713085e-17 -1.014660736633698e-16  4.966079612904463e-01
 9.831596356942676e-01  4.966079612904463e-01 -5.191486882617147e-17

-7.021207417606906e-17  1.439326495869901e-17  9.272271582205146e-01
 1.439326495869901e-17 -8.655037339297807e-17  4.960270638614431e-01
 9.272271582205146e-01  4.960270638614431e-01 -4.648517462142392e-17

-7.482150271753976e-17  1.132973703974167e-17  1.682571606501884e+00
 1.132973703974167e-17 -8.815200847457707e-17  8.041002165593390e-02
 1.682571606501884e+00  8.041002165593390e-02 -6.880795781503165e-17

-6.701375232854816e-17  1.018969780000659e-17  1.076121855749439e+00
 1.018969780000659e-17 -8.039571643228638e-17  5.753960567478054e-01
 1.076121855749439e+00  5.753960567478054e-01 -5.089057136448693e-17

-6.437857203190029e-17  8.435169608812536e-18  9.453483846943811e-01
 8.435169608812536e-18 -7.679807233573616e-17  8.180452493727797e-01
 9.453483846943811e-01  8.180452493727797e-01 -4.854083216766477e-17

-6.453947693869744e-17  7.856687389608290e-18  1.268895113616877e+00
 7.856687389608290e-18 -7.742173547435084e-17  4.166702121525334e-01
 1.268895113616877e+00  4.166702121525334e-01 -5.594264381197168e-17

-6.436461577014988e-17  6.972813474059874e-18  1.490864305024596e+00
 6.972813474059874e-18 -7.729961467217213e-17  1.436842443992126e-01
 1.490864305024596e+00  1.436842443992126e-01 -6.221406441635877e-17

-6.008503248073407e-17  5.863004724732003e-18  1.195620610572059e+00
 5.863004724732003e-18 -6.878732035315680e-17  5.521213659950914e-01
 1.195620610572059e+00  5.521213659950914e-01 -5.293195890070999e-17

-5.697040931619977e-17  4.763838277652269e-18  9.743800501509374e-01
 4.763838277652269e-18 -6.340881111491999e-17  8.758082805057124e-01
 9.743800501509374e-01  8.758082805057124e-01 -4.706250459719907e-17

-5.887467719100533e-17  5.010046838279241e-18  1.285477221441647e+00
 5.010046838279241e-18 -6.540215693209597e-17  5.555193947197117e-01
 1.285477221441647e+00  5.555193947197117e-01 -5.547083470080369e-17

-5.757046467068738e-17  5.385854834094233e-18  1.321424000143160e+00
 5.385854834094233e-18 -6.510314822005770e-17  3.787127257333310e-01
 1.321424000143160e+00  3.787127257333310e-01 -5.507943142341924e-17

-5.423912734319924e-17  5.211364205287344e-18  1.216287952293619e+00
 5.211364205287344e-18 -6.092188789555770e-17  3.767022659234628e-01
 1.216287952293619e+00  3.767022659234628e-01 -5.059224569534918e-17

-5.114597847026460e-17  4.414528549576324e-18  1.161250026769505e+00
 4.414528549576324e-18 -5.561374354099105e-17  4.358025732979970e-01
 1.161250026769505e+00  4.358025732979970e-01 -4.806496635752388e-17

-4.840937480745695e-17  3.847216514529961e-18  1.044313348577292e+00
 3.847216514529961e-18 -5.092808819550739e-17  5.621300922876685e-01
 1.044313348577292e+00  5.621300922876685e-01 -4.358270594755114e-17

-4.742752213792571e-17  3.714632083812614e-18  1.060120380333258e+00
 3.714632083812614e-18 -4.949944970862860e-17  5.227875634916221e-01
 1.060120380333258e+00  5.227875634916221e-01 -4.361653309183807e-17

-4.613553382445964e-17  3.573271555444749e-18  1.096749138571751e+00
 3.573271555444749e-18 -4.737372462161299e-17  4.523115708933814e-01
 1.096749138571751e+00  4.523115708933814e-01 -4.413693318719914e-17

-4.419936891418457e-17  3.184378636997923e-18  1.052123657181040e+00
 3.184378636997923e-18 -4.453454240767685e-17  4.784758488861822e-01
 1.052123657181040e+00  4.784758488861822e-01 -4.206315701328112e-17

-4.282792788829649e-17  2.891205525489545e-18  1.064335493425004e+00
 2.891205525489545e-18 -4.235775980930091e-17  4.465904575653231e-01
 1.064335493425004e+00  4.465904575653231e-01 -4.192091953091453e-17

-4.136903978612438e-17  2.410236772749522e-18  1.068133058801813e+00
 2.410236772749522e-18 -3.997119362565070e-17  4.557455224645820e-01
 1.068133058801813e+00  4.557455224645820e-01 -4.154152110370084e-17

-4.024525803664180e-17  1.880436946494348e-18  1.082804998401751e+00
 1.880436946494348e-18 -3.627151468593857e-17  5.115775787196700e-01
 1.082804998401751e+00  5.115775787196700e-01 -4.182749290086667e-17

-3.820604946814014e-17  1.831512813465418e-18  1.022086543642521e+00
 1.831512813465418e-18 -3.446492062132481e-17  4.715054167549909e-01
 1.022086543642521e+00  4.715054167549909e-01 -3.897542561479916e-17

-3.714921507792786e-17  1.989212401786550e-18  1.038238543563406e+00
 1.989212401786550e-18 -3.506481721147083e-17  3.165876760400453e-01
 1.038238543563406e+00  3.165876760400453e-01 -3.864859137185241e-17

-3.706085447082034e-17  1.583573165438900e-18  1.043455430343214e+00
 1.583573165438900e-18 -3.247597508642076e-17  4.738013161787472e-01
 1.043455430343214e+00  4.738013161787472e-01 -3.913896401651827e-17

-3.755008356684037e-17  1.284560341751742e-18  1.120707781895369e+00
 1.284560341751742e-18 -3.160754908023027e-17  4.642749527576384e-01
 1.120707781895369e+00  4.642749527576384e-01 -4.187812058105833e-17

-3.596450869166876e-17  1.173701573119935e-18  1.079763431080557e+00
 1.173701573119935e-18 -3.031756151003955e-17  4.272121334973385e-01
 1.079763431080557e+00  4.272121334973385e-01 -3.999030178597195e-17

-3.489545794344439e-17  1.139247268741878e-18  1.045093192585694e+00
 1.139247268741878e-18 -2.927910596532556e-17  4.373747104019091e-01
 1.045093192585694e+00  4.373747104019091e-01 -3.851326556853028e-17

-3.378591834055670e-17  1.084525791463755e-18  1.012226173144035e+00
 1.084525791463755e-18 -2.760436012903965e-17  4.442767588571233e-01
 1.012226173144035e+00  4.442767588571233e-01 -3.713420899817281e-17

-3.214585388187162e-17  1.052444086219118e-18  9.562540265119089e-01
 1.052444086219118e-18 -2.579143605710292e-17  4.403001462994813e-01
 9.562540265119089e-01  4.403001462994813e-01 -3.479007122466724e-17

-3.200865936458762e-17  1.017747134192400e-18  9.896602492533596e-01
 1.017747134192400e-18 -2.580243964716408e-17  3.846316877741700e-01
 9.896602492533596e-01  3.846316877741700e-01 -3.584595839786810e-17

-3.130366007813069e-17  9.453470663949770e-19  9.475465063514269e-01
 9.453470663949770e-19 -2.463702732185848e-17  4.396301575838759e-01
 9.475465063514269e-01  4.396301575838759e-01 -3.433320129168641e-17

-3.149108170648454e-17  8.617787534514171e-19  9.908112731672573e-01
 8.617787534514171e-19 -2.417285440772096e-17  4.377422347046068e-01
 9.908112731672573e-01  4.377422347046068e-01 -3.578084589221058e-17

-3.114049998584472e-17  7.697404840194912e-19  9.960535068073715e-01
 7.697404840194912e-19 -2.306646349114446e-17  4.267307861348985e-01
 9.960535068073715e-01  4.267307861348985e-01 -3.587618359861741e-17

-3.080832786006465e-17  6.974000379643437e-19  9.976261256836827e-01
 6.974000379643437e-19 -2.351711939236280e-17  4.142880335082717e-01
 9.976261256836827e-01  4.142880335082717e-01 -3.585130924561106e-17

-3.082763227775255e-17  6.561923579142331e-19  1.015974956735915e+00
 6.561923579142331e-19 -2.266544493286780e-17  4.295223667005179e-01
 1.015974956735915e+00  4.295223667005179e-01 -3.643322014118071e-17

-3.023705955676361e-17  5.723731725236263e-19  1.003188405783608e+00
 5.723731725236263e-19 -2.248255103119529e-17  4.150864800914204e-01
 1.003188405783608e+00  4.150864800914204e-01 -3.586807814643156e-17

-3.034677922094434e-17  5.448169892011269e-19  1.032746446293314e+00
 5.448169892011269e-19 -2.204719123793404e-17  4.167826521700723e-01
 1.032746446293314e+00  4.167826521700723e-01 -3.686905834860710e-17

-2.995870474141656e-17  4.992219890521484e-19  1.030057555109372e+00
 4.992219890521484e-19 -2.131759322597856e-17  4.149623914711768e-01
 1.030057555109372e+00  4.149623914711768e-01 -3.671410233485676e-17

-2.914945920575048e-17  4.887048811702836e-19  1.009591449021119e+00
 4.887048811702836e-19 -2.185541159863913e-17  3.637169080483796e-01
 1.009591449021119e+00  3.637169080483796e-01 -3.581573293343710e-17

-2.872577507784983e-17  4.708197660900174e-19  9.811768732941970e-01
 4.708197660900174e-19 -2.045062911732726e-17  4.120352631284106e-01
 9.811768732941970e-01  4.120352631284106e-01 -3.482110339208149e-17

-2.890398342954371e-17  4.588951301307429e-19  1.007144444906584e+00
 4.588951301307429e-19 -1.986381391890769e-17  4.166038560724034e-01
 1.007144444906584e+00  4.166038560724034e-01 -3.575751816321360e-17

-2.884833926514443e-17  4.067317311523836e-19  1.021677890112558e+00
 4.067317311523836e-19 -2.069499437516488e-17  3.849380504681164e-01
 1.021677890112558e+00  3.849380504681164e-01 -3.626594385867686e-17

-2.871679498956038e-17  3.822034434804630e-19  1.020142155417675e+00
 3.822034434804630e-19 -2.036211269043066e-17  4.021292459124176e-01
 1.020142155417675e+00  4.021292459124176e-01 -3.620325188098876e-17

-2.814219291122261e-17  3.126644927318295e-19  9.767679949710638e-01
 3.126644927318295e-19 -1.886019914142227e-17  4.634463599479052e-01
 9.767679949710638e-01  4.634463599479052e-01 -3.466509958476834e-17

-2.816067472711098e-17  2.736808816372811e-19  1.002556240741130e+00
 2.736808816372811e-19 -1.958282072949436e-17  4.084455497084776e-01
 1.002556240741130e+00  4.084455497084776e-01 -3.547077235945450e-17

-2.776293640291053e-17  2.131674456524443e-19  9.955961055910437e-01
 2.131674456524443e-19 -1.975803256423684e-17  3.771522685869927e-01
 9.955961055910437e-01  3.771522685869927e-01 -3.505796928461495e-17

-2.741366389684758e-17  8.999395243152362e-20  9.739139672100822e-01
 8.999395243152362e-20 -1.893658812723425e-17  4.223754375577649e-01
 9.739139672100822e-01  4.223754375577649e-01 -3.419927493093726e-17

-2.753901445664191e-17  1.142136364414071e-20  9.847083346085211e-01
 1.142136364414071e-20 -1.878522438411617e-17  4.375502286917972e-01
 9.847083346085211e-01  4.375502286917972e-01 -3.451938337350950e-17

-2.771724355781619e-17 -5.093992478036648e-20  1.001858261389941e+00
-5.093992478036648e-20 -1.864618480329222e-17  4.388594371835993e-01
 1.001858261389941e+00  4.388594371835993e-01 -3.505827321533644e-17

-2.782111902021804e-17 -1.400290335624568e-19  1.010292027050109e+00
-1.400290335624568e-19 -1.889920946469231e-17  4.344053560129335e-01
 1.010292027050109e+00  4.344053560129335e-01 -3.525757716839661e-17

-2.788425295505612e-17 -1.578523980604814e-19  1.022514689765684e+00
-1.578523980604814e-19 -1.906065875231205e-17  4.303034199100381e-01
 1.022514689765684e+00  4.303034199100381e-01 -3.558882877709166e-17

-2.790843067293773e-17 -1.778557140961059e-19  1.025748376095849e+00
-1.778557140961059e-19 -1.832200308108833e-17  4.355351083615192e-01
 1.025748376095849e+00  4.355351083615192e-01 -3.561043290481008e-17

-2.791166229684741e-17 -1.621118860536407e-19  1.026832726729488e+00
-1.621118860536407e-19 -1.844053808072192e-17  4.404876653387728e-01
 1.026832726729488e+00  4.404876653387728e-01 -3.560094398544623e-17

-2.787889078309336e-17 -1.501889315522695e-19  1.025017557186904e+00
-1.501889315522695e-19 -1.818708725177734e-17  4.469003070085433e-01
 1.025017557186904e+00  4.469003070085433e-01 -3.551106645396411e-17

-2.795768846294630e-17 -1.137697616797047e-19  1.034735849662521e+00
-1.137697616797047e-19 -1.849881904173030e-17  4.410640912901216e-01
 1.034735849662521e+00  4.410640912901216e-01 -3.583774061575624e-17

-2.802921844718558e-17 -9.703267952298004e-20  1.042536172020234e+00
-9.703267952298004e-20 -1.799042361732448e-17  4.467701190752926e-01
 1.042536172020234e+00  4.467701190752926e-01 -3.611156158335968e-17

-2.793162192227155e-17 -8.986512355815779e-20  1.037213218261553e+00
-8.986512355815779e-20 -1.840245184621117e-17  4.505168378201023e-01
 1.037213218261553e+00  4.505168378201023e-01 -3.590868106311505e-17

-2.784154175406146e-17 -8.091647850679579e-20  1.033628209938472e+00
-8.091647850679579e-20 -1.805545690876120e-17  4.518067974977619e-01
 1.033628209938472e+00  4.518067974977619e-01 -3.576385790688408e-17

-2.789015987833569e-17 -5.895775155923658e-20  1.035703785786901e+00
-5.895775155923658e-20 -1.759349295281299e-17  4.606877944224539e-01
 1.035703785786901e+00  4.606877944224539e-01 -3.584929744050082e-17

-2.811861851798356e-17 -5.909230092155629e-20  1.054986117587767e+00
-5.909230092155629e-20 -1.843575371813098e-17  4.481258396107253e-01
 1.054986117587767e+00  4.481258396107253e-01 -3.656538369605724e-17

-2.816256061287715e-17 -3.381830060500960e-20  1.052629486961339e+00
-3.381830060500960e-20 -1.802224229363102e-17  4.633908826462571e-01
 1.052629486961339e+00  4.633908826462571e-01 -3.652330690271762e-17

-2.829588291533171e-17 -2.592946073092841e-20  1.059356265711041e+00
-2.592946073092841e-20 -1.792699723385007e-17  4.644372774595165e-01
 1.059356265711041e+00  4.644372774595165e-01 -3.680095738942944e-17

-2.882728793885836e-17 -9.819457137907557e-21  1.097189739416179e+00
-9.819457137907557e-21 -1.851667876255911e-17  4.562338607692729e-01
 1.097189739416179e+00  4.562338607692729e-01 -3.823074232634186e-17

-2.858130533888769e-17 -4.255049390225523e-20  1.087531394223604e+00
-4.255049390225523e-20 -1.875295657050182e-17  4.271897120800404e-01
 1.087531394223604e+00  4.271897120800404e-01 -3.784647207902848e-17

-2.875437814706815e-17 -2.013908675492954e-20  1.087424752324872e+00
-2.013908675492954e-20 -1.905706222005174e-17  4.577672605719899e-01
 1.087424752324872e+00  4.577672605719899e-01 -3.791287987141126e-17

-2.926331538718572e-17  1.751276249915635e-20  1.108767563162109e+00
 1.751276249915635e-20 -1.899002960013821e-17  4.864328337938519e-01
 1.108767563162109e+00  4.864328337938519e-01 -3.875798490276631e-17

-3.149332273211876e-17 -7.701890415313491e-20  1.268025739987584e+00
-7.701890415313491e-20 -2.125652025507116e-17  4.232059195270291e-01
 1.268025739987584e+00  4.232059195270291e-01 -4.475533583011129e-17

-2.907554415759620e-17 -6.256064803900438e-19  9.944059989619095e-01
-6.256064803900438e-19 -1.605043249528411e-17  7.717684723945676e-01
 9.944059989619095e-01  7.717684723945676e-01 -3.695124384088105e-17

-3.074215642541806e-17 -2.498222290112894e-19  1.221130405642265e+00
-2.498222290112894e-19 -2.007125409996444e-17  4.561057817429671e-01
 1.221130405642265e+00  4.561057817429671e-01 -4.319097172211510e-17

-2.971795051533661e-17  2.444817820194515e-19  1.223521229454927e+00
 2.444817820194515e-19 -2.050656741001304e-17  3.095207176130895e-01
 1.223521229454927e+00  3.095207176130895e-01 -4.168688985994014e-17

-2.721349232143854e-17 -9.809611550119310e-20  1.034149384159900e+00
-9.809611550119310e-20 -1.599981698622103e-17  4.655402548873901e-01
 1.034149384159900e+00  4.655402548873901e-01 -3.566642016576350e-17

-2.518404930186950e-17  8.734413070942365e-21  9.332686588585616e-01
 8.734413070942365e-21 -1.418348491076100e-17  4.566549679977163e-01
 9.332686588585616e-01  4.566549679977163e-01 -3.167545475668864e-17

-2.423689824097492e-17 -1.492226193200272e-20  8.914614732402126e-01
-1.492226193200272e-20 -1.479327759125491e-17  4.260125149288633e-01
 8.914614732402126e-01  4.260125149288633e-01 -3.024311690804207e-17

-2.490206887385699e-17  5.260017790996657e-20  9.202737185521687e-01
 5.260017790996657e-20 -1.376148242031002e-17  5.027624239354630e-01
 9.202737185521687e-01  5.027624239354630e-01 -3.142405450537953e-17

-2.523552863563220e-17  5.237049648212173e-20  9.514123076056977e-01
 5.237049648212173e-20 -1.419491079255685e-17  4.681767624620485e-01
 9.514123076056977e-01  4.681767624620485e-01 -3.257679508161783e-17

-2.501852579422644e-17  1.009914942736662e-19  9.506401499339245e-01
 1.009914942736662e-19 -1.355934873914853e-17  4.193480733176089e-01
 9.506401499339245e-01  4.193480733176089e-01 -3.249947287799785e-17

-2.521303400329588e-17  4.159772273718777e-20  9.699875087244907e-01
 4.159772273718777e-20 -1.596381985176218e-17  4.002400151565043e-01
 9.699875087244907e-01  4.002400151565043e-01 -3.326510843909400e-17

-2.489950974523163e-17  9.698730869999862e-20  9.337371165851214e-01
 9.698730869999862e-20 -1.355740725635622e-17  4.608026832252491e-01
 9.337371165851214e-01  4.608026832252491e-01 -3.197009514166396e-17

-2.486865376828966e-17  7.750166729445764e-20  9.288701708210907e-01
 7.750166729445764e-20 -1.374909615438274e-17  4.701649878518347e-01
 9.288701708210907e-01  4.701649878518347e-01 -3.177177194879787e-17

-2.609874843007794e-17  5.733851817364985e-20  1.014870345786619e+00
 5.733851817364985e-20 -1.494300209806692e-17  4.370881221903218e-01
 1.014870345786619e+00  4.370881221903218e-01 -3.487474970623859e-17

-2.607863657600408e-17  2.154797296789922e-21  1.010494130071279e+00
 2.154797296789922e-21 -1.585889068596114e-17  4.326127042098035e-01
 1.010494130071279e+00  4.326127042098035e-01 -3.470241460764336e-17

-2.636226924958256e-17 -2.640162552056095e-20  1.025565435717067e+00
-2.640162552056095e-20 -1.651728284456999e-17  4.141894643280385e-01
 1.025565435717067e+00  4.141894643280385e-01 -3.528920753596725e-17

-2.799851186732187e-17  5.277179138055560e-20  1.121040411660757e+00
 5.277179138055560e-20 -1.640989843289384e-17  4.474585753798839e-01
 1.121040411660757e+00  4.474585753798839e-01 -3.885094909418311e-17

-2.711859450685708e-17 -9.441076084189206e-21  1.066270643848038e+00
-9.441076084189206e-21 -1.623329645789893e-17  4.436549562930400e-01
 1.066270643848038e+00  4.436549562930400e-01 -3.681792599475916e-17

-2.549706659900645e-17 -2.319989087354092e-19  9.556575788709120e-01
-2.319989087354092e-19 -1.553824859947484e-17  4.588683650083547e-01
 9.556575788709120e-01  4.588683650083547e-01 -3.283038394605516e-17

-3.039222858538931e-17 -1.167070042693246e-18  1.360287189958760e+00
-1.167070042693246e-18 -2.187093541065522e-17  1.487458866344778e-01
 1.360287189958760e+00  1.487458866344778e-01 -4.596798517605297e-17

-2.769316426037248e-17  3.556450871894500e-19  1.072040775511368e+00
 3.556450871894500e-19 -1.502876121663551e-17  5.534373593535958e-01
 1.072040775511368e+00  5.534373593535958e-01 -3.753910471179252e-17

-2.783010639734486e-17  2.393186817415686e-19  1.004173709627473e+00
 2.393186817415686e-19 -1.245745966691949e-17  7.781364728421976e-01
 1.004173709627473e+00  7.781364728421976e-01 -3.755697791634253e-17

-2.876011804295504e-17 -2.126057987774481e-20  1.177318974195244e+00
-2.126057987774481e-20 -1.701054694062811e-17  4.433872924746651e-01
 1.177318974195244e+00  4.433872924746651e-01 -4.098254888047178e-17

-2.596134268906086e-17 -3.266181458729665e-19  1.055996088714610e+00
-3.266181458729665e-19 -1.822672258084142e-17  2.323204128570671e-01
 1.055996088714610e+00  2.323204128570671e-01 -3.439284167925631e-17

-2.631950439067584e-17  1.173156807814124e-19  1.025412160908622e+00
 1.173156807814124e-19 -1.521663780836399e-17  4.437668090509385e-01
 1.025412160908622e+00  4.437668090509385e-01 -3.523200799742401e-17

-2.637259737661086e-17  8.267337298800922e-19  9.619523741558793e-01
 8.267337298800922e-19 -1.174877632924470e-17  6.934684741503002e-01
 9.619523741558793e-01  6.934684741503002e-01 -3.523110112166850e-17

-2.618295140877667e-17  2.855899048265632e-19  1.045173437671438e+00
 2.855899048265632e-19 -1.508106828826336e-17  4.215586105239376e-01
 1.045173437671438e+00  4.215586105239376e-01 -3.556261695731485e-17

-2.448035798808343e-17  3.342423751976231e-19  9.712843878067886e-01
 3.342423751976231e-19 -1.540666897604146e-17  3.572754460620371e-01
 9.712843878067886e-01  3.572754460620371e-01 -3.260293888879953e-17

-2.320560468840042e-17  2.154728466384201e-19  8.693910676615511e-01
 2.154728466384201e-19 -1.271256768719901e-17  4.280333641883607e-01
 8.693910676615511e-01  4.280333641883607e-01 -2.922056017632039e-17

-2.205441945618236e-17  1.763144189177795e-19  7.624821001367265e-01
 1.763144189177795e-19 -9.773498558916548e-18  5.358963107558383e-01
 7.624821001367265e-01  5.358963107558383e-01 -2.556213667948823e-17

-2.402724655939870e-17  1.270268485679523e-19  9.048378243207089e-01
 1.270268485679523e-19 -1.360453773584237e-17  4.836704903794660e-01
 9.048378243207089e-01  4.836704903794660e-01 -3.078701164411321e-17

-2.605736779201035e-17 -2.952089652981009e-19  1.015267586079297e+00
-2.952089652981009e-19 -1.558368793618274e-17  4.186243015793663e-01
 1.015267586079297e+00  4.186243015793663e-01 -3.510071173833124e-17

-2.920902952418968e-17  3.414046668712240e-19  1.195406811434267e+00
 3.414046668712240e-19 -1.796603106092756e-17  4.398017687347101e-01
 1.195406811434267e+00  4.398017687347101e-01 -4.191111345880124e-17

-2.870150385231786e-17  9.257038695804176e-19  1.065713685144867e+00
 9.257038695804176e-19 -1.426611722221470e-17  7.174066944944602e-01
 1.065713685144867e+00  7.174066944944602e-01 -3.852920525329771e-17

-3.188265078585203e-17  2.722116872399175e-19  1.344550538551254e+00
 2.722116872399175e-19 -1.941255649246466e-17  4.593503769678599e-01
 1.344550538551254e+00  4.593503769678599e-01 -4.796976397169952e-17

-3.062400312923160e-17  1.414593824187103e-19  1.270668635116610e+00
 1.414593824187103e-19 -1.997925098850206e-17  4.091953148453316e-01
 1.270668635116610e+00  4.091953148453316e-01 -4.503541176555228e-17

-2.952911364466302e-17  1.585391325792106e-19  1.200552848710122e+00
 1.585391325792106e-19 -1.880404489288279e-17  4.200076227513122e-01
 1.200552848710122e+00  4.200076227513122e-01 -4.232244900902553e-17

-2.826563777186161e-17  1.825562867789348e-19  1.131278816630203e+00
 1.825562867789348e-19 -1.740938118511454e-17  4.345581971481329e-01
 1.131278816630203e+00  4.345581971481329e-01 -3.957849131246945e-17

-2.752724349022934e-17  1.768132949535312e-19  1.095019543433917e+00
 1.768132949535312e-19 -1.678003069842154e-17  4.518821007640962e-01
 1.095019543433917e+00  4.518821007640962e-01 -3.814908120123218e-17

-2.726755267447469e-17  1.727573760916964e-19  1.082403639249024e+00
 1.727573760916964e-19 -1.647201359395492e-17  4.568408837801471e-01
 1.082403639249024e+00  4.568408837801471e-01 -3.765006040825458e-17

-2.698571670836439e-17  1.612937943897906e-19  1.069846724791159e+00
 1.612937943897906e-19 -1.600060808459283e-17  4.594796422192390e-01
 1.069846724791159e+00  4.594796422192390e-01 -3.713865404279066e-17

-2.663285773140712e-17  1.467104171291910e-19  1.055771552179485e+00
 1.467104171291910e-19 -1.544052550762621e-17  4.590236114126787e-01
 1.055771552179485e+00  4.590236114126787e-01 -3.654883349978650e-17

-2.641016200071744e-17  1.301644313225945e-19  1.045617490711759e+00
 1.301644313225945e-19 -1.515037859063288e-17  4.587815723716559e-01
 1.045617490711759e+00  4.587815723716559e-01 -3.612883035601097e-17

-2.650723131398930e-17  1.213581036069890e-19  1.059043717081259e+00
 1.213581036069890e-19 -1.535753036493163e-17  4.404126591710374e-01
 1.059043717081259e+00  4.404126591710374e-01 -3.659329561626047e-17

-2.645248494766296e-17  1.538563128235651e-19  1.042255040370092e+00
 1.538563128235651e-19 -1.496856231808172e-17  4.881646036723625e-01
 1.042255040370092e+00  4.881646036723625e-01 -3.604402624507055e-17

-2.657502476632639e-17  1.561833513855240e-19  1.052207701743257e+00
 1.561833513855240e-19 -1.521031634496463e-17  4.783056651578702e-01
 1.052207701743257e+00  4.783056651578702e-01 -3.641025864091798e-17

-2.687052015558457e-17  1.511107889481827e-19  1.086567881573809e+00
 1.511107889481827e-19 -1.544692638311857e-17  4.273282228249325e-01
 1.086567881573809e+00  4.273282228249325e-01 -3.758989309138463e-17

-2.642680741481752e-17  1.663980955475686e-19  1.050041363728211e+00
 1.663980955475686e-19 -1.532353427039405e-17  4.521244685689184e-01
 1.050041363728211e+00  4.521244685689184e-01 -3.631706842846354e-17

-2.647653303400244e-17  1.839662454235059e-19  1.052035983454138e+00
 1.839662454235059e-19 -1.522085471498554e-17  4.588346091336045e-01
 1.052035983454138e+00  4.588346091336045e-01 -3.642711052485934e-17

-2.673070601097715e-17  1.967133043563699e-19  1.062207021930410e+00
 1.967133043563699e-19 -1.562087049781746e-17  4.527090134939488e-01
 1.062207021930410e+00  4.527090134939488e-01 -3.681592243187591e-17

-2.705780181900726e-17  2.246394222128787e-19  1.072997483747424e+00
 2.246394222128787e-19 -1.556061705066793e-17  4.460455228745444e-01
 1.072997483747424e+00  4.460455228745444e-01 -3.724697491479582e-17

-2.566034882454066e-17 -9.767434463374107e-20  1.085266283946715e+00
-9.767434463374107e-20 -1.613754306166952e-17  4.390733288314484e-01
 1.085266283946715e+00  4.390733288314484e-01 -3.777522506557240e-17

-1.446253737165759e-17 -2.277565182862768e-18  1.122831094747013e+00
-2.277565182862768e-18 -1.599577193534112e-17  4.268984207919110e-01
 1.122831094747013e+00  4.268984207919110e-01 -3.925336838671926e-17

-3.114667578294285e-17  5.963987060071125e-19  1.189230251324767e+00
 5.963987060071125e-19 -1.866878379951498e-17  4.044687620066250e-01
 1.189230251324767e+00  4.044687620066250e-01 -4.174544788328251e-17

-7.912293699873922e-17  9.311443626682405e-18  1.224087059584213e+00
 9.311443626682405e-18 -1.836456716742110e-17  4.573648939149497e-01
 1.224087059584213e+00  4.573648939149497e-01 -4.317279950052078e-17

 1.057618947667716e-18 -5.204836950624123e-18  1.028564795147663e+00
-5.204836950624123e-18 -1.394049023156635e-17  6.722482123103674e-01
 1.028564795147663e+00  6.722482123103674e-01 -3.675954589079119e-17

-1.422327274327893e-17 -2.751650101160140e-18  1.185818680211363e+00
-2.751650101160140e-18 -1.862853500551852e-17  5.081190862074551e-01
 1.185818680211363e+00  5.081190862074551e-01 -4.210295211801302e-17

-2.571987609890749e-17 -4.456080401625768e-19  1.201686817741808e+00
-4.456080401625768e-19 -1.747537191517873e-17  3.789271605861673e-01
 1.201686817741808e+00  3.789271605861673e-01 -4.184431143281917e-17

-2.758916575048294e-17  1.134354958247852e-19  1.138657134623960e+00
 1.134354958247852e-19 -1.773978148836155e-17  3.894125687007889e-01
 1.138657134623960e+00  3.894125687007889e-01 -3.936991039004750e-17

-2.673308953650205e-17  4.123747546534299e-20  1.071218961837965e+00
 4.123747546534299e-20 -1.650716809324134e-17  4.251011362793560e-01
 1.071218961837965e+00  4.251011362793560e-01 -3.686454608336772e-17

-2.577606493505347e-17 -1.787867094105596e-19  1.046926542442325e+00
-1.787867094105596e-19 -1.435801611546727e-17  4.445914091271879e-01
 1.046926542442325e+00  4.445914091271879e-01 -3.592477149792416e-17

-2.518313120449159e-17 -2.482098726693812e-19  1.018489949014814e+00
-2.482098726693812e-19 -1.406668200590020e-17  4.568046766950509e-01
 1.018489949014814e+00  4.568046766950509e-01 -3.483102107827806e-17

-2.468425357242384e-17 -2.307426077215857e-19  9.947806164050862e-01
-2.307426077215857e-19 -1.362982201629310e-17  4.481230093157995e-01
 9.947806164050862e-01  4.481230093157995e-01 -3.383214105417447e-17

-2.412201980198238e-17 -2.125845162288692e-19  9.664032516226475e-01
-2.125845162288692e-19 -1.337217185492785e-17  4.366518038041622e-01
 9.664032516226475e-01  4.366518038041622e-01 -3.265836123467604e-17

-2.413031801895179e-17 -2.545173913270065e-19  9.689910892967520e-01
-2.545173913270065e-19 -1.331545678754347e-17  4.448104826449731e-01
 9.689910892967520e-01  4.448104826449731e-01 -3.278672337825197e-17

-2.438236332493487e-17 -2.472311136018727e-19  9.862195527821452e-01
-2.472311136018727e-19 -1.305687371277444e-17  4.357236291223954e-01
 9.862195527821452e-01  4.357236291223954e-01 -3.340130369607848e-17

-2.462885512268913e-17 -2.062002261561650e-19  1.000517028976795e+00
-2.062002261561650e-19 -1.313073027348419e-17  4.375602762136451e-01
 1.000517028976795e+00  4.375602762136451e-01 -3.395127032336839e-17

-2.456909941234399e-17 -1.974263734995938e-19  1.001938320297503e+00
-1.974263734995938e-19 -1.321869448302451e-17  4.242313609162260e-01
 1.001938320297503e+00  4.242313609162260e-01 -3.399817291953170e-17

-2.434560090843304e-17 -1.890810486526990e-19  9.959372481890664e-01
-1.890810486526990e-19 -1.357318649651914e-17  4.142887175325220e-01
 9.959372481890664e-01  4.142887175325220e-01 -3.374890347359116e-17

-2.413038395541926e-17 -3.360506902129548e-19  9.710576704172449e-01
-3.360506902129548e-19 -1.320596497351973e-17  4.805140616025586e-01
 9.710576704172449e-01  4.805140616025586e-01 -3.313570490540711e-17

-2.292501511952470e-17 -2.828969067697842e-19  9.084237358787502e-01
-2.828969067697842e-19 -1.015527521949229e-17  4.650794516225840e-01
 9.084237358787502e-01  4.650794516225840e-01 -3.069015979565354e-17

-2.181214001383010e-17 -1.683889139618511e-19  8.729363922166322e-01
-1.683889139618511e-19 -9.546042244329584e-18  3.386905577164529e-01
 8.729363922166322e-01  3.386905577164529e-01 -2.890802314383757e-17

-2.263111959279167e-17 -2.937304415490788e-19  9.059667606746006e-01
-2.937304415490788e-19 -1.096853425409811e-17  4.094522427691595e-01
 9.059667606746006e-01  4.094522427691595e-01 -3.041499348945705e-17

-2.336569973418800e-17 -4.201975623199388e-20  9.262958825649498e-01
-4.201975623199388e-20 -1.072871403532340e-17  5.267582396800859e-01
 9.262958825649498e-01  5.267582396800859e-01 -3.104202525962705e-17

-2.392214078644551e-17 -1.305660490920532e-19  9.741111115108845e-01
-1.305660490920532e-19 -1.304558207091852e-17  4.018930135057518e-01
 9.741111115108845e-01  4.018930135057518e-01 -3.285218411622140e-17

-2.410407961335356e-17 -4.211777858675440e-20  9.709697793123566e-01
-4.211777858675440e-20 -1.634287142635584e-17  4.299737484942044e-01
 9.709697793123566e-01  4.299737484942044e-01 -3.288708671484401e-17

-2.408667843045289e-17  1.273682358558841e-19  9.640607557611013e-01
 1.273682358558841e-19 -1.157392204575000e-17  4.225196031174647e-01
 9.640607557611013e-01  4.225196031174647e-01 -3.281962522509246e-17

-2.429154437654422e-17  3.217446742590456e-19  9.720730491231138e-01
 3.217446742590456e-19 -1.118844507780086e-17  4.249193328478523e-01
 9.720730491231138e-01  4.249193328478523e-01 -3.330757413412278e-17

-2.430834815109754e-17  3.365774139052232e-19  9.813504547569459e-01
 3.365774139052232e-19 -1.253051106660929e-17  3.945460329009800e-01
 9.813504547569459e-01  3.945460329009800e-01 -3.372093020074870e-17

-2.506189367231658e-17  2.827665563351062e-19  1.064796537399710e+00
 2.827665563351062e-19 -1.461748504422377e-17  2.762601087700196e-01
 1.064796537399710e+00  2.762601087700196e-01 -3.669870354480107e-17

-2.373562037951259e-17  3.688739012716297e-19  9.370297445527789e-01
 3.688739012716297e-19 -1.171580386938845e-17  4.421666731745585e-01
 9.370297445527789e-01  4.421666731745585e-01 -3.214971394496535e-17

-2.391023740149570e-17  2.693506325814510e-19  9.567629366107171e-01
 2.693506325814510e-19 -1.417405036575036e-17  4.226606441079348e-01
 9.567629366107171e-01  4.226606441079348e-01 -3.285480430917439e-17

-2.368488353468667e-17  2.098784718796705e-19  9.508632081037018e-01
 2.098784718796705e-19 -1.288927985514192e-17  3.896051865400323e-01
 9.508632081037018e-01  3.896051865400323e-01 -3.259427694091457e-17

-2.387922512000184e-17  8.921723321820814e-20  9.624121075676653e-01
 8.921723321820814e-20 -1.275893197549700e-17  3.794914507514612e-01
 9.624121075676653e-01  3.794914507514612e-01 -3.303385361700632e-17

-2.467501429166795e-17  1.349144031039377e-19  1.004698108205304e+00
 1.349144031039377e-19 -1.397146540015064e-17  4.135104350497946e-01
 1.004698108205304e+00  4.135104350497946e-01 -3.448035464930516e-17

-2.474095608496289e-17  1.528589806778228e-19  9.844872719131551e-01
 1.528589806778228e-19 -1.232674108566453e-17  4.845976453460401e-01
 9.844872719131551e-01  4.845976453460401e-01 -3.374180038411244e-17

-2.593127672041928e-17  1.355183244619721e-20  1.082811761506213e+00
 1.355183244619721e-20 -1.526733634163893e-17  3.976993676428182e-01
 1.082811761506213e+00  3.976993676428182e-01 -3.729687730739733e-17

-2.553556285619875e-17 -6.241790902607110e-20  1.057511397691423e+00
-6.241790902607110e-20 -1.485316280340332e-17  4.083523866530678e-01
 1.057511397691423e+00  4.083523866530678e-01 -3.630927641382514e-17

-2.457708234345557e-17 -8.050495965068469e-20  9.841094389246458e-01
-8.050495965068469e-20 -1.361228453751040e-17  4.441739545897831e-01
 9.841094389246458e-01  4.441739545897831e-01 -3.363183649840760e-17

-2.469005543754047e-17 -5.739545306242704e-20  1.005845409565476e+00
-5.739545306242704e-20 -1.472197539477670e-17  3.993064196980409e-01
 1.005845409565476e+00  3.993064196980409e-01 -3.426594503152882e-17

-2.490666445231643e-17 -8.700687273065957e-20  1.025322677468339e+00
-8.700687273065957e-20 -1.418940837693379e-17  3.957201113314736e-01
 1.025322677468339e+00  3.957201113314736e-01 -3.495681416671514e-17

-2.510943703388438e-17 -1.286178921603270e-19  1.029555696758744e+00
-1.286178921603270e-19 -1.476627983720542e-17  4.347984762151721e-01
 1.029555696758744e+00  4.347984762151721e-01 -3.514081842363657e-17

-2.500701833628154e-17 -1.359741543092606e-19  1.020534468586130e+00
-1.359741543092606e-19 -1.470885016416816e-17  4.419761236831298e-01
 1.020534468586130e+00  4.419761236831298e-01 -3.478281863784939e-17

-2.496370833241292e-17 -1.229287972054911e-19  1.020472675629293e+00
-1.229287972054911e-19 -1.419968172295454e-17  4.376043694772143e-01
 1.020472675629293e+00  4.376043694772143e-01 -3.473811474622425e-17

-2.497859158022853e-17 -1.490790370716018e-19  1.022717597888124e+00
-1.490790370716018e-19 -1.119782237292887e-17  4.352731179898138e-01
 1.022717597888124e+00  4.352731179898138e-01 -3.477569510950284e-17

-2.500102947554742e-17 -1.821850883622077e-19  1.020663962285761e+00
-1.821850883622077e-19 -1.363955806845099e-17  4.489153324707693e-01
 1.020663962285761e+00  4.489153324707693e-01 -3.469427802431152e-17

-2.511464226634086e-17 -1.855316847292181e-19  1.029026537729072e+00
-1.855316847292181e-19 -1.449169022619588e-17  4.437402758753878e-01
 1.029026537729072e+00  4.437402758753878e-01 -3.495333107765336e-17

-2.518741033729468e-17 -1.778377312725169e-19  1.028434189556254e+00
-1.778377312725169e-19 -1.419343095255065e-17  4.616150946858675e-01
 1.028434189556254e+00  4.616150946858675e-01 -3.492641255985570e-17

-2.473315385572154e-17 -1.132165626991809e-19  9.965986111379505e-01
-1.132165626991809e-19 -1.351541626900863e-17  4.557402845221966e-01
 9.965986111379505e-01  4.557402845221966e-01 -3.370504132460554e-17

-2.541596702169342e-17 -1.053890875339436e-19  1.056361950933415e+00
-1.053890875339436e-19 -1.465998579019063e-17  3.876919867081810e-01
 1.056361950933415e+00  3.876919867081810e-01 -3.587254111968095e-17

-2.534496755678088e-17  6.711898780876242e-20  1.022890482815979e+00
 6.711898780876242e-20 -1.435347347150431e-17  4.582062125183740e-01
 1.022890482815979e+00  4.582062125183740e-01 -3.488272823733892e-17

-2.607323019495522e-17  1.799852977085121e-19  1.060476475899577e+00
 1.799852977085121e-19 -1.355511122680139e-17  4.462226620504826e-01
 1.060476475899577e+00  4.462226620504826e-01 -3.655728822609219e-17

-2.616043892568871e-17  3.257233625270219e-19  1.061248229977748e+00
 3.257233625270219e-19 -1.519647484350429e-17  4.331586753296709e-01
 1.061248229977748e+00  4.331586753296709e-01 -3.674263495638451e-17

-2.594670042063132e-17  3.578141138013044e-19  1.047110651688899e+00
 3.578141138013044e-19 -1.380445829297426e-17  4.338936779762897e-01
 1.047110651688899e+00  4.338936779762897e-01 -3.636887861830204e-17

-2.592970017606470e-17  4.344433611614002e-19  1.049481375869463e+00
 4.344433611614002e-19 -1.320324168220972e-17  4.192128816255700e-01
 1.049481375869463e+00  4.192128816255700e-01 -3.652568757625258e-17

-2.568209303585254e-17  4.175211302087829e-19  1.035238334996307e+00
 4.175211302087829e-19 -1.274174372561397e-17  4.267125068965080e-01
 1.035238334996307e+00  4.267125068965080e-01 -3.602705396266371e-17

-2.537724621013960e-17  3.681747652261874e-19  1.023436022539698e+00
 3.681747652261874e-19 -1.282451279869993e-17  4.214616165463083e-01
 1.023436022539698e+00  4.214616165463083e-01 -3.551163975858382e-17

-2.538331845149866e-17  3.403193152924795e-19  1.032224687072480e+00
 3.403193152924795e-19 -1.342666495659779e-17  4.048974965900369e-01
 1.032224687072480e+00  4.048974965900369e-01 -3.574240876392254e-17

-2.520430081894453e-17  3.769798933717981e-19  1.017843916738321e+00
 3.769798933717981e-19 -1.588971424645206e-17  4.252704307914680e-01
 1.017843916738321e+00  4.252704307914680e-01 -3.516055796153241e-17

-2.537805664761872e-17  2.691951173121008e-19  1.033751134814398e+00
 2.691951173121008e-19 -1.588041740948382e-17  4.031905011207942e-01
 1.033751134814398e+00  4.031905011207942e-01 -3.566249702697126e-17


CELL_DATA 1552
SCALARS dislocation_index int
LOOKUP_TABLE default
0
1
2
3
4
5
6
7
8
9
10
11
12
13
14
15
16
17
18
19
20
21
22
23
24
25
26
27
28
29
30
31
32
33
34
35
36
37
38
39
40
41
42
43
44
45
46
47
48
49
50
51
52
53
54
55
56
57
58
59
60
61
62
63
64
65
66
67
68
69
70
71
72
73
74
75
76
77
78
79
80
81
82
83
84
85
86
87
88
89
90
91
92
93
94
95
96
97
98
99
100
101
102
103
104
105
106
107
108
109
110
111
112
113
114
115
116
117
118
119
120
121
122
123
124
125
126
127
128
129
130
131
132
133
134
135
136
137
138
139
140
141
142
143
144
145
146
147
148
149
150
151
152
153
154
155
156
157
158
159
160
161
162
163
164
165
166
167
168
169
170
171
172
173
174
175
176
177
178
179
180
181
182
183
184
185
186
187
188
189
190
191
192
193
194
195
196
197
198
199
200
201
202
203
204
205
206
207
208
209
210
211
212
213
214
215
216
217
218
219
220
221
222
223
224
225
226
227
228
229
230
231
232
233
234
235
236
237
238
239
240
241
242
243
244
245
246
247
248
249
250
251
252
253
254
255
256
257
258
259
260
261
262
263
264
265
266
267
268
269
270
271
272
273
274
275
276
277
278
279
280
281
282
283
284
285
286
287
288
289
290
291
292
293
294
295
296
297
298
299
300
301
302
303
304
305
306
307
308
309
310
311
312
313
314
315
316
317
318
319
320
321
322
323
324
325
326
327
328
329
330
331
332
333
334
335
336
337
338
339
340
341
342
343
344
345
346
347
348
349
350
351
352
353
354
355
356
357
358
359
360
361
362
363
364
365
366
367
368
369
370
371
372
373
374
375
376
377
378
379
380
381
382
383
384
385
386
387
388
389
390
391
392
393
394
395
396
397
398
399
400
401
402
403
404
405
406
407
408
409
410
411
412
413
414
415
416
417
418
419
420
421
422
423
424
425
426
427
428
429
430
431
432
433
434
435
436
437
438
439
440
441
442
443
444
445
446
447
448
449
450
451
452
453
454
455
456
457
458
459
460
461
462
463
464
465
466
467
468
469
470
471
472
473
474
475
476
477
478
479
480
481
482
483
484
485
486
487
488
489
490
491
492
493
494
495
496
497
498
499
500
501
502
503
504
505
506
507
508
509
510
511
512
513
514
515
516
517
518
519
520
521
522
523
524
525
526
527
528
529
530
531
532
533
534
535
536
537
538
539
540
541
542
543
544
545
546
547
548
549
550
551
552
553
554
555
556
557
558
559
560
561
562
563
564
565
566
567
568
569
570
571
572
573
574
575
576
577
578
579
580
581
582
583
584
585
586
587
588
589
590
591
592
593
594
595
596
597
598
599
600
601
602
603
604
605
606
607
608
609
610
611
612
613
614
615
616
617
618
619
620
621
622
623
624
625
626
627
628
629
630
631
632
633
634
635
636
637
638
639
640
641
642
643
644
645
646
647
648
649
650
651
652
653
654
655
656
657
658
659
660
661
662
663
664
665
666
667
668
669
670
671
672
673
674
675
676
677
678
679
680
681
682
683
684
685
686
687
688
689
690
691
692
693
694
695
696
697
698
699
700
701
702
703
704
705
706
707
708
709
710
711
712
713
714
715
716
717
718
719
720
721
722
723
724
725
726
727
728
729
730
731
732
733
734
735
736
737
738
739
740
741
742
743
744
745
746
747
748
749
750
751
752
753
754
755
756
757
758
759
760
761
762
763
764
765
766
767
768
769
770
771
772
773
774
775
776
777
778
779
780
781
782
783
784
785
786
787
788
789
790
791
792
793
794
795
796
797
798
799
800
801
802
803
804
805
806
807
808
809
810
811
812
813
814
815
816
817
818
819
820
821
822
823
824
825
826
827
828
829
830
831
832
833
834
835
836
837
838
839
840
841
842
843
844
845
846
847
848
849
850
851
852
853
854
855
856
857
858
859
860
861
862
863
864
865
866
867
868
869
870
871
872
873
874
875
876
877
878
879
880
881
882
883
884
885
886
887
888
889
890
891
892
893
894
895
896
897
898
899
900
901
902
903
904
905
906
907
908
909
910
911
912
913
914
915
916
917
918
919
920
921
922
923
924
925
926
927
928
929
930
931
932
933
934
935
936
937
938
939
940
941
942
943
944
945
946
947
948
949
950
951
952
953
954
955
956
957
958
959
960
961
962
963
964
965
966
967
968
969
970
971
972
973
974
975
976
977
978
979
980
981
982
983
984
985
986
987
988
989
990
991
992
993
994
995
996
997
998
999
1000
1001
1002
1003
1004
1005
1006
1007
1008
1009
1010
1011
1012
1013
1014
1015
1016
1017
1018
1019
1020
1021
1022
1023
1024
1025
1026
1027
1028
1029
1030
1031
1032
1033
1034
1035
1036
1037
1038
1039
1040
1041
1042
1043
1044
1045
1046
1047
1048
1049
1050
1051
1052
1053
1054
1055
1056
1057
1058
1059
1060
1061
1062
1063
1064
1065
1066
1067
1068
1069
1070
1071
1072
1073
1074
1075
1076
1077
1078
1079
1080
1081
1082
1083
1084
1085
1086
1087
1088
1089
1090
1091
1092
1093
1094
1095
1096
1097
1098
1099
1100
1101
1102
1103
1104
1105
1106
1107
1108
1109
1110
1111
1112
1113
1114
1115
1116
1117
1118
1119
1120
1121
1122
1123
1124
1125
1126
1127
1128
1129
1130
1131
1132
1133
1134
1135
1136
1137
1138
1139
1140
1141
1142
1143
1144
1145
1146
1147
1148
1149
1150
1151
1152
1153
1154
1155
1156
1157
1158
1159
1160
1161
1162
1163
1164
1165
1166
1167
1168
1169
1170
1171
1172
1173
1174
1175
1176
1177
1178
1179
1180
1181
1182
1183
1184
1185
1186
1187
1188
1189
1190
1191
1192
1193
1194
1195
1196
1197
1198
1199
1200
1201
1202
1203
1204
1205
1206
1207
1208
1209
1210
1211
1212
1213
1214
1215
1216
1217
1218
1219
1220
1221
1222
1223
1224
1225
1226
1227
1228
1229
1230
1231
1232
1233
1234
1235
1236
1237
1238
1239
1240
1241
1242
1243
1244
1245
1246
1247
1248
1249
1250
1251
1252
1253
1254
1255
1256
1257
1258
1259
1260
1261
1262
1263
1264
1265
1266
1267
1268
1269
1270
1271
1272
1273
1274
1275
1276
1277
1278
1279
1280
1281
1282
1283
1284
1285
1286
1287
1288
1289
1290
1291
1292
1293
1294
1295
1296
1297
1298
1299
1300
1301
1302
1303
1304
1305
1306
1307
1308
1309
1310
1311
1312
1313
1314
1315
1316
1317
1318
1319
1320
1321
1322
1323
1324
1325
1326
1327
1328
1329
1330
1331
1332
1333
1334
1335
1336
1337
1338
1339
1340
1341
1342
1343
1344
1345
1346
1347
1348
1349
1350
1351
1352
1353
1354
1355
1356
1357
1358
1359
1360
1361
1362
1363
1364
1365
1366
1367
1368
1369
1370
1371
1372
1373
1374
1375
1376
1377
1378
1379
1380
1381
1382
1383
1384
1385
1386
1387
1388
1389
1390
1391
1392
1393
1394
1395
1396
1397
1398
1399
1400
1401
1402
1403
1404
1405
1406
1407
1408
1409
1410
1411
1412
1413
1414
1415
1416
1417
1418
1419
1420
1421
1422
1423
1424
1425
1426
1427
1428
1429
1430
1431
1432
1433
1434
1435
1436
1437
1438
1439
1440
1441
1442
1443
1444
1445
1446
1447
1448
1449
1450
1451
1452
1453
1454
1455
1456
1457
1458
1459
1460
1461
1462
1463
1464
1465
1466
1467
1468
1469
1470
1471
1472
1473
1474
1475
1476
1477
1478
1479
1480
1481
1482
1483
1484
1485
1486
1487
1488
1489
1490
1491
1492
1493
1494
1495
1496
1497
1498
1499
1500
1501
1502
1503
1504
1505
1506
1507
1508
1509
1510
1511
1512
1513
1514
1515
1516
1517
1518
1519
1520
1521
1522
1523
1524
1525
1526
1527
1528
1529
1530
1531
1532
1533
1534
1535
1536
1537
1538
1539
1540
1541
1542
1543
1544
1545
1546
1547
1548
1549
1550
1551

VECTORS burgers_vector_global double
-1.429999999999999e+00 -8.256108849411650e-01  3.393140768766017e-17
 1.429999999999999e+00  8.256108849411650e-01 -3.393140768766017e-17
-1.429999999999999e+00 -8.256108849411650e-01  3.393140768766017e-17
-1.429999999999999e+00 -8.256108849411650e-01  3.393140768766017e-17
-1.429999999999999e+00 -8.256108849411650e-01  3.393140768766017e-17
-1.429999999999999e+00 -8.256108849411650e-01  3.393140768766017e-17
-1.429999999999999e+00 -8.256108849411650e-01  3.393140768766017e-17
-1.429999999999999e+00 -8.256108849411650e-01  3.393140768766017e-17
-1.429999999999999e+00 -8.256108849411650e-01  3.393140768766017e-17
-1.429999999999999e+00 -8.256108849411650e-01  3.393140768766017e-17
-1.429999999999999e+00 -8.256108849411650e-01  3.393140768766017e-17
-1.429999999999999e+00 -8.256108849411650e-01  3.393140768766017e-17
-1.429999999999999e+00 -8.256108849411650e-01  3.393140768766017e-17
-1.429999999999999e+00 -8.256108849411650e-01  3.393140768766017e-17
-1.429999999999999e+00 -8.256108849411650e-01  3.393140768766017e-17
-1.429999999999999e+00 -8.256108849411650e-01  3.393140768766017e-17
-1.429999999999999e+00 -8.256108849411650e-01  3.393140768766017e-17
-1.429999999999999e+00 -8.256108849411650e-01  3.393140768766017e-17
-1.429999999999999e+00 -8.256108849411650e-01  3.393140768766017e-17
-1.429999999999999e+00 -8.256108849411650e-01  3.393140768766017e-17
-1.429999999999999e+00 -8.256108849411650e-01  3.393140768766017e-17
-1.429999999999999e+00 -8.256108849411650e-01  3.393140768766017e-17
-1.429999999999999e+00 -8.256108849411650e-01  3.393140768766017e-17
-1.429999999999999e+00 -8.256108849411650e-01  3.393140768766017e-17
-1.429999999999999e+00 -8.256108849411650e-01  3.393140768766017e-17
-1.429999999999999e+00 -8.256108849411650e-01  3.393140768766017e-17
-1.429999999999999e+00 -8.256108849411650e-01  3.393140768766017e-17
-1.429999999999999e+00 -8.256108849411650e-01  3.393140768766017e-17
-1.429999999999999e+00 -8.256108849411650e-01  3.393140768766017e-17
-1.429999999999999e+00 -8.256108849411650e-01  3.393140768766017e-17
-1.429999999999999e+00 -8.256108849411650e-01  3.393140768766017e-17
-1.429999999999999e+00 -8.256108849411650e-01  3.393140768766017e-17
-1.429999999999999e+00 -8.256108849411650e-01  3.393140768766017e-17
-1.429999999999999e+00 -8.256108849411650e-01  3.393140768766017e-17
-1.429999999999999e+00 -8.256108849411650e-01  3.393140768766017e-17
-1.429999999999999e+00 -8.256108849411650e-01  3.393140768766017e-17
-1.429999999999999e+00 -8.256108849411650e-01  3.393140768766017e-17
-1.429999999999999e+00 -8.256108849411650e-01  3.393140768766017e-17
-1.429999999999999e+00 -8.256108849411650e-01  3.393140768766017e-17
-1.429999999999999e+00 -8.256108849411650e-01  3.393140768766017e-17
-1.429999999999999e+00 -8.256108849411650e-01  3.393140768766017e-17
-1.429999999999999e+00 -8.256108849411650e-01  3.393140768766017e-17
-1.429999999999999e+00 -8.256108849411650e-01  3.393140768766017e-17
-1.429999999999999e+00 -8.256108849411650e-01  3.393140768766017e-17
-1.429999999999999e+00 -8.256108849411650e-01  3.393140768766017e-17
-1.429999999999999e+00 -8.256108849411650e-01  3.393140768766017e-17
-1.429999999999999e+00 -8.256108849411650e-01  3.393140768766017e-17
-1.429999999999999e+00 -8.256108849411650e-01  3.393140768766017e-17
-1.429999999999999e+00 -8.256108849411650e-01  3.393140768766017e-17
-1.429999999999999e+00 -8.256108849411650e-01  3.393140768766017e-17
-1.429999999999999e+00 -8.256108849411650e-01  3.393140768766017e-17
-1.429999999999999e+00 -8.256108849411650e-01  3.393140768766017e-17
-1.429999999999999e+00 -8.256108849411650e-01  3.393140768766017e-17
-1.429999999999999e+00 -8.256108849411650e-01  3.393140768766017e-17
-1.429999999999999e+00 -8.256108849411650e-01  3.393140768766017e-17
-1.429999999999999e+00 -8.256108849411650e-01  3.393140768766017e-17
-1.429999999999999e+00 -8.256108849411650e-01  3.393140768766017e-17
-1.429999999999999e+00 -8.256108849411650e-01  3.393140768766017e-17
-1.429999999999999e+00 -8.256108849411650e-01  3.393140768766017e-17
-1.429999999999999e+00 -8.256108849411650e-01  3.393140768766017e-17
-1.429999999999999e+00 -8.256108849411650e-01  3.393140768766017e-17
-1.429999999999999e+00 -8.256108849411650e-01  3.393140768766017e-17
-1.429999999999999e+00 -8.256108849411650e-01  3.393140768766017e-17
-1.429999999999999e+00 -8.256108849411650e-01  3.393140768766017e-17
-1.429999999999999e+00 -8.256108849411650e-01  3.393140768766017e-17
-1.429999999999999e+00 -8.256108849411650e-01  3.393140768766017e-17
-1.429999999999999e+00 -8.256108849411650e-01  3.393140768766017e-17
-1.429999999999999e+00 -8.256108849411650e-01  3.393140768766017e-17
-1.429999999999999e+00 -8.256108849411650e-01  3.393140768766017e-17
-1.429999999999999e+00 -8.256108849411650e-01  3.393140768766017e-17
-1.429999999999999e+00 -8.256108849411650e-01  3.393140768766017e-17
-1.429999999999999e+00 -8.256108849411650e-01  3.393140768766017e-17
-1.429999999999999e+00 -8.256108849411650e-01  3.393140768766017e-17
-1.429999999999999e+00 -8.256108849411650e-01  3.393140768766017e-17
-1.429999999999999e+00 -8.256108849411650e-01  3.393140768766017e-17
-1.429999999999999e+00 -8.256108849411650e-01  3.393140768766017e-17
-1.429999999999999e+00 -8.256108849411650e-01  3.393140768766017e-17
-1.429999999999999e+00 -8.256108849411650e-01  3.393140768766017e-17
-1.429999999999999e+00 -8.256108849411650e-01  3.393140768766017e-17
-1.429999999999999e+00 -8.256108849411650e-01  3.393140768766017e-17
-1.429999999999999e+00 -8.256108849411650e-01  3.393140768766017e-17
-1.429999999999999e+00 -8.256108849411650e-01  3.393140768766017e-17
-1.429999999999999e+00 -8.256108849411650e-01  3.393140768766017e-17
-1.429999999999999e+00 -8.256108849411650e-01  3.393140768766017e-17
-1.429999999999999e+00 -8.256108849411650e-01  3.393140768766017e-17
-1.429999999999999e+00 -8.256108849411650e-01  3.393140768766017e-17
-1.429999999999999e+00 -8.256108849411650e-01  3.393140768766017e-17
-1.429999999999999e+00 -8.256108849411650e-01  3.393140768766017e-17
-1.429999999999999e+00 -8.256108849411650e-01  3.393140768766017e-17
-1.429999999999999e+00 -8.256108849411650e-01  3.393140768766017e-17
-1.429999999999999e+00 -8.256108849411650e-01  3.393140768766017e-17
-1.429999999999999e+00 -8.256108849411650e-01  3.393140768766017e-17
-1.429999999999999e+00 -8.256108849411650e-01  3.393140768766017e-17
-1.429999999999999e+00 -8.256108849411650e-01  3.393140768766017e-17
-1.429999999999999e+00 -8.256108849411650e-01  3.393140768766017e-17
-1.429999999999999e+00 -8.256108849411650e-01  3.393140768766017e-17
-1.429999999999999e+00 -8.256108849411650e-01  3.393140768766017e-17
-1.429999999999999e+00 -8.256108849411650e-01  3.393140768766017e-17
-1.429999999999999e+00 -8.256108849411650e-01  3.393140768766017e-17
-1.429999999999999e+00 -8.256108849411650e-01  3.393140768766017e-17
-1.429999999999999e+00 -8.256108849411650e-01  3.393140768766017e-17
-1.429999999999999e+00 -8.256108849411650e-01  3.393140768766017e-17
-1.429999999999999e+00 -8.256108849411650e-01  3.393140768766017e-17
-1.429999999999999e+00 -8.256108849411650e-01  3.393140768766017e-17
-1.429999999999999e+00 -8.256108849411650e-01  3.393140768766017e-17
-1.429999999999999e+00 -8.256108849411650e-01  3.393140768766017e-17
-1.429999999999999e+00 -8.256108849411650e-01  3.393140768766017e-17
-1.429999999999999e+00 -8.256108849411650e-01  3.393140768766017e-17
-1.429999999999999e+00 -8.256108849411650e-01  3.393140768766017e-17
-1.429999999999999e+00 -8.256108849411650e-01  3.393140768766017e-17
-1.429999999999999e+00 -8.256108849411650e-01  3.393140768766017e-17
-1.429999999999999e+00 -8.256108849411650e-01  3.393140768766017e-17
-1.429999999999999e+00 -8.256108849411650e-01  3.393140768766017e-17
-1.429999999999999e+00 -8.256108849411650e-01  3.393140768766017e-17
-1.429999999999999e+00 -8.256108849411650e-01  3.393140768766017e-17
-1.429999999999999e+00 -8.256108849411650e-01  3.393140768766017e-17
-1.429999999999999e+00 -8.256108849411650e-01  3.393140768766017e-17
-1.429999999999999e+00 -8.256108849411650e-01  3.393140768766017e-17
-1.429999999999999e+00 -8.256108849411650e-01  3.393140768766017e-17
-1.429999999999999e+00 -8.256108849411650e-01  3.393140768766017e-17
-1.429999999999999e+00 -8.256108849411650e-01  3.393140768766017e-17
-1.429999999999999e+00 -8.256108849411650e-01  3.393140768766017e-17
-1.429999999999999e+00 -8.256108849411650e-01  3.393140768766017e-17
-1.429999999999999e+00 -8.256108849411650e-01  3.393140768766017e-17
-1.429999999999999e+00 -8.256108849411650e-01  3.393140768766017e-17
-1.429999999999999e+00 -8.256108849411650e-01  3.393140768766017e-17
-1.429999999999999e+00 -8.256108849411650e-01  3.393140768766017e-17
-1.429999999999999e+00 -8.256108849411650e-01  3.393140768766017e-17
-1.429999999999999e+00 -8.256108849411650e-01  3.393140768766017e-17
-1.429999999999999e+00 -8.256108849411650e-01  3.393140768766017e-17
-1.429999999999999e+00 -8.256108849411650e-01  3.393140768766017e-17
-1.429999999999999e+00 -8.256108849411650e-01  3.393140768766017e-17
-1.429999999999999e+00 -8.256108849411650e-01  3.393140768766017e-17
-1.429999999999999e+00 -8.256108849411650e-01  3.393140768766017e-17
-1.429999999999999e+00 -8.256108849411650e-01  3.393140768766017e-17
-1.429999999999999e+00 -8.256108849411650e-01  3.393140768766017e-17
-1.429999999999999e+00 -8.256108849411650e-01  3.393140768766017e-17
-1.429999999999999e+00 -8.256108849411650e-01  3.393140768766017e-17
-1.429999999999999e+00 -8.256108849411650e-01  3.393140768766017e-17
-1.429999999999999e+00 -8.256108849411650e-01  3.393140768766017e-17
-1.429999999999999e+00 -8.256108849411650e-01  3.393140768766017e-17
-1.429999999999999e+00 -8.256108849411650e-01  3.393140768766017e-17
-1.429999999999999e+00 -8.256108849411650e-01  3.393140768766017e-17
-1.429999999999999e+00 -8.256108849411650e-01  3.393140768766017e-17
-1.429999999999999e+00 -8.256108849411650e-01  3.393140768766017e-17
-1.429999999999999e+00 -8.256108849411650e-01  3.393140768766017e-17
-1.429999999999999e+00 -8.256108849411650e-01  3.393140768766017e-17
-1.429999999999999e+00 -8.256108849411650e-01  3.393140768766017e-17
-1.429999999999999e+00 -8.256108849411650e-01  3.393140768766017e-17
-1.429999999999999e+00 -8.256108849411650e-01  3.393140768766017e-17
-1.429999999999999e+00 -8.256108849411650e-01  3.393140768766017e-17
-1.429999999999999e+00 -8.256108849411650e-01  3.393140768766017e-17
-1.429999999999999e+00 -8.256108849411650e-01  3.393140768766017e-17
-1.429999999999999e+00 -8.256108849411650e-01  3.393140768766017e-17
-1.429999999999999e+00 -8.256108849411650e-01  3.393140768766017e-17
-1.429999999999999e+00 -8.256108849411650e-01  3.393140768766017e-17
-1.429999999999999e+00 -8.256108849411650e-01  3.393140768766017e-17
-1.429999999999999e+00 -8.256108849411650e-01  3.393140768766017e-17
-1.429999999999999e+00 -8.256108849411650e-01  3.393140768766017e-17
-1.429999999999999e+00 -8.256108849411650e-01  3.393140768766017e-17
-1.429999999999999e+00 -8.256108849411650e-01  3.393140768766017e-17
-1.429999999999999e+00 -8.256108849411650e-01  3.393140768766017e-17
-1.429999999999999e+00 -8.256108849411650e-01  3.393140768766017e-17
-1.429999999999999e+00 -8.256108849411650e-01  3.393140768766017e-17
-1.429999999999999e+00 -8.256108849411650e-01  3.393140768766017e-17
-1.429999999999999e+00 -8.256108849411650e-01  3.393140768766017e-17
-1.429999999999999e+00 -8.256108849411650e-01  3.393140768766017e-17
-1.429999999999999e+00 -8.256108849411650e-01  3.393140768766017e-17
-1.429999999999999e+00 -8.256108849411650e-01  3.393140768766017e-17
-1.429999999999999e+00 -8.256108849411650e-01  3.393140768766017e-17
-1.429999999999999e+00 -8.256108849411650e-01  3.393140768766017e-17
-1.429999999999999e+00 -8.256108849411650e-01  3.393140768766017e-17
-1.429999999999999e+00 -8.256108849411650e-01  3.393140768766017e-17
-1.429999999999999e+00 -8.256108849411650e-01  3.393140768766017e-17
-1.429999999999999e+00 -8.256108849411650e-01  3.393140768766017e-17
-1.429999999999999e+00 -8.256108849411650e-01  3.393140768766017e-17
-1.429999999999999e+00 -8.256108849411650e-01  3.393140768766017e-17
-1.429999999999999e+00 -8.256108849411650e-01  3.393140768766017e-17
-1.429999999999999e+00 -8.256108849411650e-01  3.393140768766017e-17
-1.429999999999999e+00 -8.256108849411650e-01  3.393140768766017e-17
-1.429999999999999e+00 -8.256108849411650e-01  3.393140768766017e-17
-1.429999999999999e+00 -8.256108849411650e-01  3.393140768766017e-17
-1.429999999999999e+00 -8.256108849411650e-01  3.393140768766017e-17
-1.429999999999999e+00 -8.256108849411650e-01  3.393140768766017e-17
-1.429999999999999e+00 -8.256108849411650e-01  3.393140768766017e-17
-1.429999999999999e+00 -8.256108849411650e-01  3.393140768766017e-17
-1.429999999999999e+00 -8.256108849411650e-01  3.393140768766017e-17
-1.429999999999999e+00 -8.256108849411650e-01  3.393140768766017e-17
-1.429999999999999e+00 -8.256108849411650e-01  3.393140768766017e-17
-1.429999999999999e+00 -8.256108849411650e-01  3.393140768766017e-17
-1.429999999999999e+00 -8.256108849411650e-01  3.393140768766017e-17
-1.429999999999999e+00 -8.256108849411650e-01  3.393140768766017e-17
-1.429999999999999e+00 -8.256108849411650e-01  3.393140768766017e-17
-1.429999999999999e+00 -8.256108849411650e-01  3.393140768766017e-17
-1.429999999999999e+00 -8.256108849411650e-01  3.393140768766017e-17
-1.429999999999999e+00 -8.256108849411650e-01  3.393140768766017e-17
-1.429999999999999e+00 -8.256108849411650e-01  3.393140768766017e-17
-1.429999999999999e+00 -8.256108849411650e-01  3.393140768766017e-17
-1.429999999999999e+00 -8.256108849411650e-01  3.393140768766017e-17
-1.429999999999999e+00 -8.256108849411650e-01  3.393140768766017e-17
-1.429999999999999e+00 -8.256108849411650e-01  3.393140768766017e-17
-1.429999999999999e+00 -8.256108849411650e-01  3.393140768766017e-17
-1.429999999999999e+00 -8.256108849411650e-01  3.393140768766017e-17
 1.429999999999999e+00  8.256108849411650e-01 -3.393140768766017e-17
-1.429999999999999e+00 -8.256108849411650e-01  3.393140768766017e-17
-1.429999999999999e+00 -8.256108849411650e-01  3.393140768766017e-17
-1.429999999999999e+00 -8.256108849411650e-01  3.393140768766017e-17
-1.429999999999999e+00 -8.256108849411650e-01  3.393140768766017e-17
-1.429999999999999e+00 -8.256108849411650e-01  3.393140768766017e-17
-1.429999999999999e+00 -8.256108849411650e-01  3.393140768766017e-17
-1.429999999999999e+00 -8.256108849411650e-01  3.393140768766017e-17
-1.429999999999999e+00 -8.256108849411650e-01  3.393140768766017e-17
-1.429999999999999e+00 -8.256108849411650e-01  3.393140768766017e-17
-1.429999999999999e+00 -8.256108849411650e-01  3.393140768766017e-17
-1.429999999999999e+00 -8.256108849411650e-01  3.393140768766017e-17
-1.429999999999999e+00 -8.256108849411650e-01  3.393140768766017e-17
-1.429999999999999e+00 -8.256108849411650e-01  3.393140768766017e-17
-1.429999999999999e+00 -8.256108849411650e-01  3.393140768766017e-17
-1.429999999999999e+00 -8.256108849411650e-01  3.393140768766017e-17
-1.429999999999999e+00 -8.256108849411650e-01  3.393140768766017e-17
-1.429999999999999e+00 -8.256108849411650e-01  3.393140768766017e-17
-1.429999999999999e+00 -8.256108849411650e-01  3.393140768766017e-17
-1.429999999999999e+00 -8.256108849411650e-01  3.393140768766017e-17
-1.429999999999999e+00 -8.256108849411650e-01  3.393140768766017e-17
-1.429999999999999e+00 -8.256108849411650e-01  3.393140768766017e-17
-1.429999999999999e+00 -8.256108849411650e-01  3.393140768766017e-17
-1.429999999999999e+00 -8.256108849411650e-01  3.393140768766017e-17
-1.429999999999999e+00 -8.256108849411650e-01  3.393140768766017e-17
-1.429999999999999e+00 -8.256108849411650e-01  3.393140768766017e-17
-1.429999999999999e+00 -8.256108849411650e-01  3.393140768766017e-17
-1.429999999999999e+00 -8.256108849411650e-01  3.393140768766017e-17
-1.429999999999999e+00 -8.256108849411650e-01  3.393140768766017e-17
-1.429999999999999e+00 -8.256108849411650e-01  3.393140768766017e-17
-1.429999999999999e+00 -8.256108849411650e-01  3.393140768766017e-17
-1.429999999999999e+00 -8.256108849411650e-01  3.393140768766017e-17
-1.429999999999999e+00 -8.256108849411650e-01  3.393140768766017e-17
-1.429999999999999e+00 -8.256108849411650e-01  3.393140768766017e-17
-1.429999999999999e+00 -8.256108849411650e-01  3.393140768766017e-17
-1.429999999999999e+00 -8.256108849411650e-01  3.393140768766017e-17
-1.429999999999999e+00 -8.256108849411650e-01  3.393140768766017e-17
-1.429999999999999e+00 -8.256108849411650e-01  3.393140768766017e-17
-1.429999999999999e+00 -8.256108849411650e-01  3.393140768766017e-17
-1.429999999999999e+00 -8.256108849411650e-01  3.393140768766017e-17
-1.429999999999999e+00 -8.256108849411650e-01  3.393140768766017e-17
-1.429999999999999e+00 -8.256108849411650e-01  3.393140768766017e-17
-1.429999999999999e+00 -8.256108849411650e-01  3.393140768766017e-17
-1.429999999999999e+00 -8.256108849411650e-01  3.393140768766017e-17
-1.429999999999999e+00 -8.256108849411650e-01  3.393140768766017e-17
-1.429999999999999e+00 -8.256108849411650e-01  3.393140768766017e-17
-1.429999999999999e+00 -8.256108849411650e-01  3.393140768766017e-17
-1.429999999999999e+00 -8.256108849411650e-01  3.393140768766017e-17
-1.429999999999999e+00 -8.256108849411650e-01  3.393140768766017e-17
-1.429999999999999e+00 -8.256108849411650e-01  3.393140768766017e-17
-1.429999999999999e+00 -8.256108849411650e-01  3.393140768766017e-17
-1.429999999999999e+00 -8.256108849411650e-01  3.393140768766017e-17
-1.429999999999999e+00 -8.256108849411650e-01  3.393140768766017e-17
-1.429999999999999e+00 -8.256108849411650e-01  3.393140768766017e-17
-1.429999999999999e+00 -8.256108849411650e-01  3.393140768766017e-17
-1.429999999999999e+00 -8.256108849411650e-01  3.393140768766017e-17
-1.429999999999999e+00 -8.256108849411650e-01  3.393140768766017e-17
-1.429999999999999e+00 -8.256108849411650e-01  3.393140768766017e-17
-1.429999999999999e+00 -8.256108849411650e-01  3.393140768766017e-17
-1.429999999999999e+00 -8.256108849411650e-01  3.393140768766017e-17
-1.429999999999999e+00 -8.256108849411650e-01  3.393140768766017e-17
-1.429999999999999e+00 -8.256108849411650e-01  3.393140768766017e-17
-1.429999999999999e+00 -8.256108849411650e-01  3.393140768766017e-17
-1.429999999999999e+00 -8.256108849411650e-01  3.393140768766017e-17
-1.429999999999999e+00 -8.256108849411650e-01  3.393140768766017e-17
-1.429999999999999e+00 -8.256108849411650e-01  3.393140768766017e-17
-1.429999999999999e+00 -8.256108849411650e-01  3.393140768766017e-17
-1.429999999999999e+00 -8.256108849411650e-01  3.393140768766017e-17
-1.429999999999999e+00 -8.256108849411650e-01  3.393140768766017e-17
-1.429999999999999e+00 -8.256108849411650e-01  3.393140768766017e-17
-1.429999999999999e+00 -8.256108849411650e-01  3.393140768766017e-17
-1.429999999999999e+00 -8.256108849411650e-01  3.393140768766017e-17
-1.429999999999999e+00 -8.256108849411650e-01  3.393140768766017e-17
-1.429999999999999e+00 -8.256108849411650e-01  3.393140768766017e-17
-1.429999999999999e+00 -8.256108849411650e-01  3.393140768766017e-17
-1.429999999999999e+00 -8.256108849411650e-01  3.393140768766017e-17
-1.429999999999999e+00 -8.256108849411650e-01  3.393140768766017e-17
-1.429999999999999e+00 -8.256108849411650e-01  3.393140768766017e-17
-1.429999999999999e+00 -8.256108849411650e-01  3.393140768766017e-17
-1.429999999999999e+00 -8.256108849411650e-01  3.393140768766017e-17
-1.429999999999999e+00 -8.256108849411650e-01  3.393140768766017e-17
-1.429999999999999e+00 -8.256108849411650e-01  3.393140768766017e-17
-1.429999999999999e+00 -8.256108849411650e-01  3.393140768766017e-17
-1.429999999999999e+00 -8.256108849411650e-01  3.393140768766017e-17
-1.429999999999999e+00 -8.256108849411650e-01  3.393140768766017e-17
-1.429999999999999e+00 -8.256108849411650e-01  3.393140768766017e-17
-1.429999999999999e+00 -8.256108849411650e-01  3.393140768766017e-17
-1.429999999999999e+00 -8.256108849411650e-01  3.393140768766017e-17
-1.429999999999999e+00 -8.256108849411650e-01  3.393140768766017e-17
-1.429999999999999e+00 -8.256108849411650e-01  3.393140768766017e-17
-1.429999999999999e+00 -8.256108849411650e-01  3.393140768766017e-17
-1.429999999999999e+00 -8.256108849411650e-01  3.393140768766017e-17
-1.429999999999999e+00 -8.256108849411650e-01  3.393140768766017e-17
-1.429999999999999e+00 -8.256108849411650e-01  3.393140768766017e-17
-1.429999999999999e+00 -8.256108849411650e-01  3.393140768766017e-17
-1.429999999999999e+00 -8.256108849411650e-01  3.393140768766017e-17
-1.429999999999999e+00 -8.256108849411650e-01  3.393140768766017e-17
-1.429999999999999e+00 -8.256108849411650e-01  3.393140768766017e-17
-1.429999999999999e+00 -8.256108849411650e-01  3.393140768766017e-17
-1.429999999999999e+00 -8.256108849411650e-01  3.393140768766017e-17
-1.429999999999999e+00 -8.256108849411650e-01  3.393140768766017e-17
-1.429999999999999e+00 -8.256108849411650e-01  3.393140768766017e-17
-1.429999999999999e+00 -8.256108849411650e-01  3.393140768766017e-17
-1.429999999999999e+00 -8.256108849411650e-01  3.393140768766017e-17
-1.429999999999999e+00 -8.256108849411650e-01  3.393140768766017e-17
-1.429999999999999e+00 -8.256108849411650e-01  3.393140768766017e-17
-1.429999999999999e+00 -8.256108849411650e-01  3.393140768766017e-17
-1.429999999999999e+00 -8.256108849411650e-01  3.393140768766017e-17
-1.429999999999999e+00 -8.256108849411650e-01  3.393140768766017e-17
-1.429999999999999e+00 -8.256108849411650e-01  3.393140768766017e-17
-1.429999999999999e+00 -8.256108849411650e-01  3.393140768766017e-17
-1.429999999999999e+00 -8.256108849411650e-01  3.393140768766017e-17
-1.429999999999999e+00 -8.256108849411650e-01  3.393140768766017e-17
-1.429999999999999e+00 -8.256108849411650e-01  3.393140768766017e-17
-1.429999999999999e+00 -8.256108849411650e-01  3.393140768766017e-17
-1.429999999999999e+00 -8.256108849411650e-01  3.393140768766017e-17
-1.429999999999999e+00 -8.256108849411650e-01  3.393140768766017e-17
-1.429999999999999e+00 -8.256108849411650e-01  3.393140768766017e-17
-1.429999999999999e+00 -8.256108849411650e-01  3.393140768766017e-17
-1.429999999999999e+00 -8.256108849411650e-01  3.393140768766017e-17
-1.429999999999999e+00 -8.256108849411650e-01  3.393140768766017e-17
-1.429999999999999e+00 -8.256108849411650e-01  3.393140768766017e-17
-1.429999999999999e+00 -8.256108849411650e-01  3.393140768766017e-17
-1.429999999999999e+00 -8.256108849411650e-01  3.393140768766017e-17
-1.429999999999999e+00 -8.256108849411650e-01  3.393140768766017e-17
-1.429999999999999e+00 -8.256108849411650e-01  3.393140768766017e-17
-1.429999999999999e+00 -8.256108849411650e-01  3.393140768766017e-17
-1.429999999999999e+00 -8.256108849411650e-01  3.393140768766017e-17
-1.429999999999999e+00 -8.256108849411650e-01  3.393140768766017e-17
-1.429999999999999e+00 -8.256108849411650e-01  3.393140768766017e-17
-1.429999999999999e+00 -8.256108849411650e-01  3.393140768766017e-17
-1.429999999999999e+00 -8.256108849411650e-01  3.393140768766017e-17
-1.429999999999999e+00 -8.256108849411650e-01  3.393140768766017e-17
-1.429999999999999e+00 -8.256108849411650e-01  3.393140768766017e-17
-1.429999999999999e+00 -8.256108849411650e-01  3.393140768766017e-17
-1.429999999999999e+00 -8.256108849411650e-01  3.393140768766017e-17
-1.429999999999999e+00 -8.256108849411650e-01  3.393140768766017e-17
-1.429999999999999e+00 -8.256108849411650e-01  3.393140768766017e-17
-1.429999999999999e+00 -8.256108849411650e-01  3.393140768766017e-17
-1.429999999999999e+00 -8.256108849411650e-01  3.393140768766017e-17
-1.429999999999999e+00 -8.256108849411650e-01  3.393140768766017e-17
-1.429999999999999e+00 -8.256108849411650e-01  3.393140768766017e-17
-1.429999999999999e+00 -8.256108849411650e-01  3.393140768766017e-17
-1.429999999999999e+00 -8.256108849411650e-01  3.393140768766017e-17
-1.429999999999999e+00 -8.256108849411650e-01  3.393140768766017e-17
-1.429999999999999e+00 -8.256108849411650e-01  3.393140768766017e-17
-1.429999999999999e+00 -8.256108849411650e-01  3.393140768766017e-17
-1.429999999999999e+00 -8.256108849411650e-01  3.393140768766017e-17
-1.429999999999999e+00 -8.256108849411650e-01  3.393140768766017e-17
-1.429999999999999e+00 -8.256108849411650e-01  3.393140768766017e-17
-1.429999999999999e+00 -8.256108849411650e-01  3.393140768766017e-17
-1.429999999999999e+00 -8.256108849411650e-01  3.393140768766017e-17
-1.429999999999999e+00 -8.256108849411650e-01  3.393140768766017e-17
-1.429999999999999e+00 -8.256108849411650e-01  3.393140768766017e-17
-1.429999999999999e+00 -8.256108849411650e-01  3.393140768766017e-17
-1.429999999999999e+00 -8.256108849411650e-01  3.393140768766017e-17
-1.429999999999999e+00 -8.256108849411650e-01  3.393140768766017e-17
-1.429999999999999e+00 -8.256108849411650e-01  3.393140768766017e-17
-1.429999999999999e+00 -8.256108849411650e-01  3.393140768766017e-17
-1.429999999999999e+00 -8.256108849411650e-01  3.393140768766017e-17
-1.429999999999999e+00 -8.256108849411650e-01  3.393140768766017e-17
-1.429999999999999e+00 -8.256108849411650e-01  3.393140768766017e-17
-1.429999999999999e+00 -8.256108849411650e-01  3.393140768766017e-17
-1.429999999999999e+00 -8.256108849411650e-01  3.393140768766017e-17
-1.429999999999999e+00 -8.256108849411650e-01  3.393140768766017e-17
-1.429999999999999e+00 -8.256108849411650e-01  3.393140768766017e-17
-1.429999999999999e+00 -8.256108849411650e-01  3.393140768766017e-17
-1.429999999999999e+00 -8.256108849411650e-01  3.393140768766017e-17
-1.429999999999999e+00 -8.256108849411650e-01  3.393140768766017e-17
-1.429999999999999e+00 -8.256108849411650e-01  3.393140768766017e-17
-1.429999999999999e+00 -8.256108849411650e-01  3.393140768766017e-17
-1.429999999999999e+00 -8.256108849411650e-01  3.393140768766017e-17
-1.429999999999999e+00 -8.256108849411650e-01  3.393140768766017e-17
-1.429999999999999e+00 -8.256108849411650e-01  3.393140768766017e-17
-1.429999999999999e+00 -8.256108849411650e-01  3.393140768766017e-17
-1.429999999999999e+00 -8.256108849411650e-01  3.393140768766017e-17
-1.429999999999999e+00 -8.256108849411650e-01  3.393140768766017e-17
-1.429999999999999e+00 -8.256108849411650e-01  3.393140768766017e-17
-1.429999999999999e+00 -8.256108849411650e-01  3.393140768766017e-17
-1.429999999999999e+00 -8.256108849411650e-01  3.393140768766017e-17
-1.429999999999999e+00 -8.256108849411650e-01  3.393140768766017e-17
-1.429999999999999e+00 -8.256108849411650e-01  3.393140768766017e-17
-1.429999999999999e+00 -8.256108849411650e-01  3.393140768766017e-17
-1.429999999999999e+00 -8.256108849411650e-01  3.393140768766017e-17
-1.429999999999999e+00 -8.256108849411650e-01  3.393140768766017e-17
-1.429999999999999e+00 -8.256108849411650e-01  3.393140768766017e-17
-1.429999999999999e+00 -8.256108849411650e-01  3.393140768766017e-17
-1.429999999999999e+00 -8.256108849411650e-01  3.393140768766017e-17
-1.429999999999999e+00 -8.256108849411650e-01  3.393140768766017e-17
-1.429999999999999e+00 -8.256108849411650e-01  3.393140768766017e-17
-1.429999999999999e+00 -8.256108849411650e-01  3.393140768766017e-17
-1.429999999999999e+00 -8.256108849411650e-01  3.393140768766017e-17
-1.429999999999999e+00 -8.256108849411650e-01  3.393140768766017e-17
 1.429999999999999e+00  8.256108849411650e-01 -3.393140768766017e-17
-1.429999999999999e+00 -8.256108849411650e-01  3.393140768766017e-17
 1.429999999999999e+00  8.256108849411650e-01 -3.393140768766017e-17
 1.429999999999999e+00  8.256108849411650e-01 -3.393140768766017e-17
 1.429999999999999e+00  8.256108849411650e-01 -3.393140768766017e-17
 1.429999999999999e+00  8.256108849411650e-01 -3.393140768766017e-17
 1.429999999999999e+00  8.256108849411650e-01 -3.393140768766017e-17
 1.429999999999999e+00  8.256108849411650e-01 -3.393140768766017e-17
 1.429999999999999e+00  8.256108849411650e-01 -3.393140768766017e-17
 1.429999999999999e+00  8.256108849411650e-01 -3.393140768766017e-17
 1.429999999999999e+00  8.256108849411650e-01 -3.393140768766017e-17
 1.429999999999999e+00  8.256108849411650e-01 -3.393140768766017e-17
 1.429999999999999e+00  8.256108849411650e-01 -3.393140768766017e-17
 1.429999999999999e+00  8.256108849411650e-01 -3.393140768766017e-17
 1.429999999999999e+00  8.256108849411650e-01 -3.393140768766017e-17
 1.429999999999999e+00  8.256108849411650e-01 -3.393140768766017e-17
 1.429999999999999e+00  8.256108849411650e-01 -3.393140768766017e-17
 1.429999999999999e+00  8.256108849411650e-01 -3.393140768766017e-17
 1.429999999999999e+00  8.256108849411650e-01 -3.393140768766017e-17
 1.429999999999999e+00  8.256108849411650e-01 -3.393140768766017e-17
 1.429999999999999e+00  8.256108849411650e-01 -3.393140768766017e-17
 1.429999999999999e+00  8.256108849411650e-01 -3.393140768766017e-17
 1.429999999999999e+00  8.256108849411650e-01 -3.393140768766017e-17
 1.429999999999999e+00  8.256108849411650e-01 -3.393140768766017e-17
 1.429999999999999e+00  8.256108849411650e-01 -3.393140768766017e-17
 1.429999999999999e+00  8.256108849411650e-01 -3.393140768766017e-17
 1.429999999999999e+00  8.256108849411650e-01 -3.393140768766017e-17
 1.429999999999999e+00  8.256108849411650e-01 -3.393140768766017e-17
 1.429999999999999e+00  8.256108849411650e-01 -3.393140768766017e-17
 1.429999999999999e+00  8.256108849411650e-01 -3.393140768766017e-17
 1.429999999999999e+00  8.256108849411650e-01 -3.393140768766017e-17
 1.429999999999999e+00  8.256108849411650e-01 -3.393140768766017e-17
 1.429999999999999e+00  8.256108849411650e-01 -3.393140768766017e-17
 1.429999999999999e+00  8.256108849411650e-01 -3.393140768766017e-17
 1.429999999999999e+00  8.256108849411650e-01 -3.393140768766017e-17
 1.429999999999999e+00  8.256108849411650e-01 -3.393140768766017e-17
 1.429999999999999e+00  8.256108849411650e-01 -3.393140768766017e-17
 1.429999999999999e+00  8.256108849411650e-01 -3.393140768766017e-17
 1.429999999999999e+00  8.256108849411650e-01 -3.393140768766017e-17
 1.429999999999999e+00  8.256108849411650e-01 -3.393140768766017e-17
 1.429999999999999e+00  8.256108849411650e-01 -3.393140768766017e-17
 1.429999999999999e+00  8.256108849411650e-01 -3.393140768766017e-17
 1.429999999999999e+00  8.256108849411650e-01 -3.393140768766017e-17
 1.429999999999999e+00  8.256108849411650e-01 -3.393140768766017e-17
 1.429999999999999e+00  8.256108849411650e-01 -3.393140768766017e-17
 1.429999999999999e+00  8.256108849411650e-01 -3.393140768766017e-17
 1.429999999999999e+00  8.256108849411650e-01 -3.393140768766017e-17
 1.429999999999999e+00  8.256108849411650e-01 -3.393140768766017e-17
 1.429999999999999e+00  8.256108849411650e-01 -3.393140768766017e-17
 1.429999999999999e+00  8.256108849411650e-01 -3.393140768766017e-17
 1.429999999999999e+00  8.256108849411650e-01 -3.393140768766017e-17
 1.429999999999999e+00  8.256108849411650e-01 -3.393140768766017e-17
 1.429999999999999e+00  8.256108849411650e-01 -3.393140768766017e-17
 1.429999999999999e+00  8.256108849411650e-01 -3.393140768766017e-17
 1.429999999999999e+00  8.256108849411650e-01 -3.393140768766017e-17
 1.429999999999999e+00  8.256108849411650e-01 -3.393140768766017e-17
 1.429999999999999e+00  8.256108849411650e-01 -3.393140768766017e-17
 1.429999999999999e+00  8.256108849411650e-01 -3.393140768766017e-17
 1.429999999999999e+00  8.256108849411650e-01 -3.393140768766017e-17
 1.429999999999999e+00  8.256108849411650e-01 -3.393140768766017e-17
 1.429999999999999e+00  8.256108849411650e-01 -3.393140768766017e-17
 1.429999999999999e+00  8.256108849411650e-01 -3.393140768766017e-17
 1.429999999999999e+00  8.256108849411650e-01 -3.393140768766017e-17
 1.429999999999999e+00  8.256108849411650e-01 -3.393140768766017e-17
 1.429999999999999e+00  8.256108849411650e-01 -3.393140768766017e-17
 1.429999999999999e+00  8.256108849411650e-01 -3.393140768766017e-17
 1.429999999999999e+00  8.256108849411650e-01 -3.393140768766017e-17
 1.429999999999999e+00  8.256108849411650e-01 -3.393140768766017e-17
 1.429999999999999e+00  8.256108849411650e-01 -3.393140768766017e-17
 1.429999999999999e+00  8.256108849411650e-01 -3.393140768766017e-17
 1.429999999999999e+00  8.256108849411650e-01 -3.393140768766017e-17
 1.429999999999999e+00  8.256108849411650e-01 -3.393140768766017e-17
 1.429999999999999e+00  8.256108849411650e-01 -3.393140768766017e-17
 1.429999999999999e+00  8.256108849411650e-01 -3.393140768766017e-17
 1.429999999999999e+00  8.256108849411650e-01 -3.393140768766017e-17
 1.429999999999999e+00  8.256108849411650e-01 -3.393140768766017e-17
 1.429999999999999e+00  8.256108849411650e-01 -3.393140768766017e-17
 1.429999999999999e+00  8.256108849411650e-01 -3.393140768766017e-17
 1.429999999999999e+00  8.256108849411650e-01 -3.393140768766017e-17
 1.429999999999999e+00  8.256108849411650e-01 -3.393140768766017e-17
 1.429999999999999e+00  8.256108849411650e-01 -3.393140768766017e-17
 1.429999999999999e+00  8.256108849411650e-01 -3.393140768766017e-17
 1.429999999999999e+00  8.256108849411650e-01 -3.393140768766017e-17
 1.429999999999999e+00  8.256108849411650e-01 -3.393140768766017e-17
 1.429999999999999e+00  8.256108849411650e-01 -3.393140768766017e-17
 1.429999999999999e+00  8.256108849411650e-01 -3.393140768766017e-17
 1.429999999999999e+00  8.256108849411650e-01 -3.393140768766017e-17
 1.429999999999999e+00  8.256108849411650e-01 -3.393140768766017e-17
 1.429999999999999e+00  8.256108849411650e-01 -3.393140768766017e-17
 1.429999999999999e+00  8.256108849411650e-01 -3.393140768766017e-17
 1.429999999999999e+00  8.256108849411650e-01 -3.393140768766017e-17
 1.429999999999999e+00  8.256108849411650e-01 -3.393140768766017e-17
 1.429999999999999e+00  8.256108849411650e-01 -3.393140768766017e-17
 1.429999999999999e+00  8.256108849411650e-01 -3.393140768766017e-17
 1.429999999999999e+00  8.256108849411650e-01 -3.393140768766017e-17
 1.429999999999999e+00  8.256108849411650e-01 -3.393140768766017e-17
 1.429999999999999e+00  8.256108849411650e-01 -3.393140768766017e-17
 1.429999999999999e+00  8.256108849411650e-01 -3.393140768766017e-17
 1.429999999999999e+00  8.256108849411650e-01 -3.393140768766017e-17
 1.429999999999999e+00  8.256108849411650e-01 -3.393140768766017e-17
 1.429999999999999e+00  8.256108849411650e-01 -3.393140768766017e-17
 1.429999999999999e+00  8.256108849411650e-01 -3.393140768766017e-17
 1.429999999999999e+00  8.256108849411650e-01 -3.393140768766017e-17
 1.429999999999999e+00  8.256108849411650e-01 -3.393140768766017e-17
 1.429999999999999e+00  8.256108849411650e-01 -3.393140768766017e-17
 1.429999999999999e+00  8.256108849411650e-01 -3.393140768766017e-17
 1.429999999999999e+00  8.256108849411650e-01 -3.393140768766017e-17
 1.429999999999999e+00  8.256108849411650e-01 -3.393140768766017e-17
 1.429999999999999e+00  8.256108849411650e-01 -3.393140768766017e-17
 1.429999999999999e+00  8.256108849411650e-01 -3.393140768766017e-17
 1.429999999999999e+00  8.256108849411650e-01 -3.393140768766017e-17
 1.429999999999999e+00  8.256108849411650e-01 -3.393140768766017e-17
 1.429999999999999e+00  8.256108849411650e-01 -3.393140768766017e-17
 1.429999999999999e+00  8.256108849411650e-01 -3.393140768766017e-17
 1.429999999999999e+00  8.256108849411650e-01 -3.393140768766017e-17
 1.429999999999999e+00  8.256108849411650e-01 -3.393140768766017e-17
 1.429999999999999e+00  8.256108849411650e-01 -3.393140768766017e-17
 1.429999999999999e+00  8.256108849411650e-01 -3.393140768766017e-17
 1.429999999999999e+00  8.256108849411650e-01 -3.393140768766017e-17
 1.429999999999999e+00  8.256108849411650e-01 -3.393140768766017e-17
 1.429999999999999e+00  8.256108849411650e-01 -3.393140768766017e-17
 1.429999999999999e+00  8.256108849411650e-01 -3.393140768766017e-17
 1.429999999999999e+00  8.256108849411650e-01 -3.393140768766017e-17
 1.429999999999999e+00  8.256108849411650e-01 -3.393140768766017e-17
 1.429999999999999e+00  8.256108849411650e-01 -3.393140768766017e-17
 1.429999999999999e+00  8.256108849411650e-01 -3.393140768766017e-17
 1.429999999999999e+00  8.256108849411650e-01 -3.393140768766017e-17
 1.429999999999999e+00  8.256108849411650e-01 -3.393140768766017e-17
 1.429999999999999e+00  8.256108849411650e-01 -3.393140768766017e-17
 1.429999999999999e+00  8.256108849411650e-01 -3.393140768766017e-17
 1.429999999999999e+00  8.256108849411650e-01 -3.393140768766017e-17
 1.429999999999999e+00  8.256108849411650e-01 -3.393140768766017e-17
 1.429999999999999e+00  8.256108849411650e-01 -3.393140768766017e-17
 1.429999999999999e+00  8.256108849411650e-01 -3.393140768766017e-17
 1.429999999999999e+00  8.256108849411650e-01 -3.393140768766017e-17
 1.429999999999999e+00  8.256108849411650e-01 -3.393140768766017e-17
 1.429999999999999e+00  8.256108849411650e-01 -3.393140768766017e-17
 1.429999999999999e+00  8.256108849411650e-01 -3.393140768766017e-17
 1.429999999999999e+00  8.256108849411650e-01 -3.393140768766017e-17
 1.429999999999999e+00  8.256108849411650e-01 -3.393140768766017e-17
 1.429999999999999e+00  8.256108849411650e-01 -3.393140768766017e-17
 1.429999999999999e+00  8.256108849411650e-01 -3.393140768766017e-17
 1.429999999999999e+00  8.256108849411650e-01 -3.393140768766017e-17
 1.429999999999999e+00  8.256108849411650e-01 -3.393140768766017e-17
 1.429999999999999e+00  8.256108849411650e-01 -3.393140768766017e-17
 1.429999999999999e+00  8.256108849411650e-01 -3.393140768766017e-17
 1.429999999999999e+00  8.256108849411650e-01 -3.393140768766017e-17
 1.429999999999999e+00  8.256108849411650e-01 -3.393140768766017e-17
 1.429999999999999e+00  8.256108849411650e-01 -3.393140768766017e-17
 1.429999999999999e+00  8.256108849411650e-01 -3.393140768766017e-17
 1.429999999999999e+00  8.256108849411650e-01 -3.393140768766017e-17
 1.429999999999999e+00  8.256108849411650e-01 -3.393140768766017e-17
 1.429999999999999e+00  8.256108849411650e-01 -3.393140768766017e-17
 1.429999999999999e+00  8.256108849411650e-01 -3.393140768766017e-17
 1.429999999999999e+00  8.256108849411650e-01 -3.393140768766017e-17
 1.429999999999999e+00  8.256108849411650e-01 -3.393140768766017e-17
 1.429999999999999e+00  8.256108849411650e-01 -3.393140768766017e-17
 1.429999999999999e+00  8.256108849411650e-01 -3.393140768766017e-17
 1.429999999999999e+00  8.256108849411650e-01 -3.393140768766017e-17
 1.429999999999999e+00  8.256108849411650e-01 -3.393140768766017e-17
 1.429999999999999e+00  8.256108849411650e-01 -3.393140768766017e-17
 1.429999999999999e+00  8.256108849411650e-01 -3.393140768766017e-17
 1.429999999999999e+00  8.256108849411650e-01 -3.393140768766017e-17
 1.429999999999999e+00  8.256108849411650e-01 -3.393140768766017e-17
 1.429999999999999e+00  8.256108849411650e-01 -3.393140768766017e-17
 1.429999999999999e+00  8.256108849411650e-01 -3.393140768766017e-17
 1.429999999999999e+00  8.256108849411650e-01 -3.393140768766017e-17
 1.429999999999999e+00  8.256108849411650e-01 -3.393140768766017e-17
 1.429999999999999e+00  8.256108849411650e-01 -3.393140768766017e-17
 1.429999999999999e+00  8.256108849411650e-01 -3.393140768766017e-17
 1.429999999999999e+00  8.256108849411650e-01 -3.393140768766017e-17
 1.429999999999999e+00  8.256108849411650e-01 -3.393140768766017e-17
 1.429999999999999e+00  8.256108849411650e-01 -3.393140768766017e-17
 1.429999999999999e+00  8.256108849411650e-01 -3.393140768766017e-17
 1.429999999999999e+00  8.256108849411650e-01 -3.393140768766017e-17
 1.429999999999999e+00  8.256108849411650e-01 -3.393140768766017e-17
 1.429999999999999e+00  8.256108849411650e-01 -3.393140768766017e-17
 1.429999999999999e+00  8.256108849411650e-01 -3.393140768766017e-17
 1.429999999999999e+00  8.256108849411650e-01 -3.393140768766017e-17
 1.429999999999999e+00  8.256108849411650e-01 -3.393140768766017e-17
 1.429999999999999e+00  8.256108849411650e-01 -3.393140768766017e-17
 1.429999999999999e+00  8.256108849411650e-01 -3.393140768766017e-17
 1.429999999999999e+00  8.256108849411650e-01 -3.393140768766017e-17
 1.429999999999999e+00  8.256108849411650e-01 -3.393140768766017e-17
 1.429999999999999e+00  8.256108849411650e-01 -3.393140768766017e-17
-1.429999999999999e+00 -8.256108849411650e-01  3.393140768766017e-17
 1.429999999999999e+00  8.256108849411650e-01 -3.393140768766017e-17
 1.429999999999999e+00  8.256108849411650e-01 -3.393140768766017e-17
 1.429999999999999e+00  8.256108849411650e-01 -3.393140768766017e-17
 1.429999999999999e+00  8.256108849411650e-01 -3.393140768766017e-17
 1.429999999999999e+00  8.256108849411650e-01 -3.393140768766017e-17
 1.429999999999999e+00  8.256108849411650e-01 -3.393140768766017e-17
 1.429999999999999e+00  8.256108849411650e-01 -3.393140768766017e-17
 1.429999999999999e+00  8.256108849411650e-01 -3.393140768766017e-17
 1.429999999999999e+00  8.256108849411650e-01 -3.393140768766017e-17
 1.429999999999999e+00  8.256108849411650e-01 -3.393140768766017e-17
 1.429999999999999e+00  8.256108849411650e-01 -3.393140768766017e-17
 1.429999999999999e+00  8.256108849411650e-01 -3.393140768766017e-17
 1.429999999999999e+00  8.256108849411650e-01 -3.393140768766017e-17
 1.429999999999999e+00  8.256108849411650e-01 -3.393140768766017e-17
 1.429999999999999e+00  8.256108849411650e-01 -3.393140768766017e-17
 1.429999999999999e+00  8.256108849411650e-01 -3.393140768766017e-17
 1.429999999999999e+00  8.256108849411650e-01 -3.393140768766017e-17
 1.429999999999999e+00  8.256108849411650e-01 -3.393140768766017e-17
 1.429999999999999e+00  8.256108849411650e-01 -3.393140768766017e-17
 1.429999999999999e+00  8.256108849411650e-01 -3.393140768766017e-17
 1.429999999999999e+00  8.256108849411650e-01 -3.393140768766017e-17
 1.429999999999999e+00  8.256108849411650e-01 -3.393140768766017e-17
 1.429999999999999e+00  8.256108849411650e-01 -3.393140768766017e-17
 1.429999999999999e+00  8.256108849411650e-01 -3.393140768766017e-17
 1.429999999999999e+00  8.256108849411650e-01 -3.393140768766017e-17
 1.429999999999999e+00  8.256108849411650e-01 -3.393140768766017e-17
 1.429999999999999e+00  8.256108849411650e-01 -3.393140768766017e-17
 1.429999999999999e+00  8.256108849411650e-01 -3.393140768766017e-17
 1.429999999999999e+00  8.256108849411650e-01 -3.393140768766017e-17
 1.429999999999999e+00  8.256108849411650e-01 -3.393140768766017e-17
 1.429999999999999e+00  8.256108849411650e-01 -3.393140768766017e-17
 1.429999999999999e+00  8.256108849411650e-01 -3.393140768766017e-17
 1.429999999999999e+00  8.256108849411650e-01 -3.393140768766017e-17
 1.429999999999999e+00  8.256108849411650e-01 -3.393140768766017e-17
 1.429999999999999e+00  8.256108849411650e-01 -3.393140768766017e-17
 1.429999999999999e+00  8.256108849411650e-01 -3.393140768766017e-17
 1.429999999999999e+00  8.256108849411650e-01 -3.393140768766017e-17
 1.429999999999999e+00  8.256108849411650e-01 -3.393140768766017e-17
 1.429999999999999e+00  8.256108849411650e-01 -3.393140768766017e-17
 1.429999999999999e+00  8.256108849411650e-01 -3.393140768766017e-17
 1.429999999999999e+00  8.256108849411650e-01 -3.393140768766017e-17
 1.429999999999999e+00  8.256108849411650e-01 -3.393140768766017e-17
 1.429999999999999e+00  8.256108849411650e-01 -3.393140768766017e-17
 1.429999999999999e+00  8.256108849411650e-01 -3.393140768766017e-17
 1.429999999999999e+00  8.256108849411650e-01 -3.393140768766017e-17
 1.429999999999999e+00  8.256108849411650e-01 -3.393140768766017e-17
 1.429999999999999e+00  8.256108849411650e-01 -3.393140768766017e-17
 1.429999999999999e+00  8.256108849411650e-01 -3.393140768766017e-17
 1.429999999999999e+00  8.256108849411650e-01 -3.393140768766017e-17
 1.429999999999999e+00  8.256108849411650e-01 -3.393140768766017e-17
 1.429999999999999e+00  8.256108849411650e-01 -3.393140768766017e-17
 1.429999999999999e+00  8.256108849411650e-01 -3.393140768766017e-17
 1.429999999999999e+00  8.256108849411650e-01 -3.393140768766017e-17
 1.429999999999999e+00  8.256108849411650e-01 -3.393140768766017e-17
 1.429999999999999e+00  8.256108849411650e-01 -3.393140768766017e-17
 1.429999999999999e+00  8.256108849411650e-01 -3.393140768766017e-17
 1.429999999999999e+00  8.256108849411650e-01 -3.393140768766017e-17
 1.429999999999999e+00  8.256108849411650e-01 -3.393140768766017e-17
 1.429999999999999e+00  8.256108849411650e-01 -3.393140768766017e-17
 1.429999999999999e+00  8.256108849411650e-01 -3.393140768766017e-17
 1.429999999999999e+00  8.256108849411650e-01 -3.393140768766017e-17
 1.429999999999999e+00  8.256108849411650e-01 -3.393140768766017e-17
 1.429999999999999e+00  8.256108849411650e-01 -3.393140768766017e-17
 1.429999999999999e+00  8.256108849411650e-01 -3.393140768766017e-17
 1.429999999999999e+00  8.256108849411650e-01 -3.393140768766017e-17
 1.429999999999999e+00  8.256108849411650e-01 -3.393140768766017e-17
 1.429999999999999e+00  8.256108849411650e-01 -3.393140768766017e-17
 1.429999999999999e+00  8.256108849411650e-01 -3.393140768766017e-17
 1.429999999999999e+00  8.256108849411650e-01 -3.393140768766017e-17
 1.429999999999999e+00  8.256108849411650e-01 -3.393140768766017e-17
 1.429999999999999e+00  8.256108849411650e-01 -3.393140768766017e-17
 1.429999999999999e+00  8.256108849411650e-01 -3.393140768766017e-17
 1.429999999999999e+00  8.256108849411650e-01 -3.393140768766017e-17
 1.429999999999999e+00  8.256108849411650e-01 -3.393140768766017e-17
 1.429999999999999e+00  8.256108849411650e-01 -3.393140768766017e-17
 1.429999999999999e+00  8.256108849411650e-01 -3.393140768766017e-17
 1.429999999999999e+00  8.256108849411650e-01 -3.393140768766017e-17
 1.429999999999999e+00  8.256108849411650e-01 -3.393140768766017e-17
 1.429999999999999e+00  8.256108849411650e-01 -3.393140768766017e-17
 1.429999999999999e+00  8.256108849411650e-01 -3.393140768766017e-17
 1.429999999999999e+00  8.256108849411650e-01 -3.393140768766017e-17
 1.429999999999999e+00  8.256108849411650e-01 -3.393140768766017e-17
 1.429999999999999e+00  8.256108849411650e-01 -3.393140768766017e-17
 1.429999999999999e+00  8.256108849411650e-01 -3.393140768766017e-17
 1.429999999999999e+00  8.256108849411650e-01 -3.393140768766017e-17
 1.429999999999999e+00  8.256108849411650e-01 -3.393140768766017e-17
 1.429999999999999e+00  8.256108849411650e-01 -3.393140768766017e-17
 1.429999999999999e+00  8.256108849411650e-01 -3.393140768766017e-17
 1.429999999999999e+00  8.256108849411650e-01 -3.393140768766017e-17
 1.429999999999999e+00  8.256108849411650e-01 -3.393140768766017e-17
 1.429999999999999e+00  8.256108849411650e-01 -3.393140768766017e-17
 1.429999999999999e+00  8.256108849411650e-01 -3.393140768766017e-17
 1.429999999999999e+00  8.256108849411650e-01 -3.393140768766017e-17
 1.429999999999999e+00  8.256108849411650e-01 -3.393140768766017e-17
 1.429999999999999e+00  8.256108849411650e-01 -3.393140768766017e-17
 1.429999999999999e+00  8.256108849411650e-01 -3.393140768766017e-17
 1.429999999999999e+00  8.256108849411650e-01 -3.393140768766017e-17
 1.429999999999999e+00  8.256108849411650e-01 -3.393140768766017e-17
 1.429999999999999e+00  8.256108849411650e-01 -3.393140768766017e-17
 1.429999999999999e+00  8.256108849411650e-01 -3.393140768766017e-17
 1.429999999999999e+00  8.256108849411650e-01 -3.393140768766017e-17
 1.429999999999999e+00  8.256108849411650e-01 -3.393140768766017e-17
 1.429999999999999e+00  8.256108849411650e-01 -3.393140768766017e-17
 1.429999999999999e+00  8.256108849411650e-01 -3.393140768766017e-17
 1.429999999999999e+00  8.256108849411650e-01 -3.393140768766017e-17
 1.429999999999999e+00  8.256108849411650e-01 -3.393140768766017e-17
 1.429999999999999e+00  8.256108849411650e-01 -3.393140768766017e-17
 1.429999999999999e+00  8.256108849411650e-01 -3.393140768766017e-17
 1.429999999999999e+00  8.256108849411650e-01 -3.393140768766017e-17
 1.429999999999999e+00  8.256108849411650e-01 -3.393140768766017e-17
 1.429999999999999e+00  8.256108849411650e-01 -3.393140768766017e-17
 1.429999999999999e+00  8.256108849411650e-01 -3.393140768766017e-17
 1.429999999999999e+00  8.256108849411650e-01 -3.393140768766017e-17
 1.429999999999999e+00  8.256108849411650e-01 -3.393140768766017e-17
 1.429999999999999e+00  8.256108849411650e-01 -3.393140768766017e-17
 1.429999999999999e+00  8.256108849411650e-01 -3.393140768766017e-17
 1.429999999999999e+00  8.256108849411650e-01 -3.393140768766017e-17
 1.429999999999999e+00  8.256108849411650e-01 -3.393140768766017e-17
 1.429999999999999e+00  8.256108849411650e-01 -3.393140768766017e-17
 1.429999999999999e+00  8.256108849411650e-01 -3.393140768766017e-17
 1.429999999999999e+00  8.256108849411650e-01 -3.393140768766017e-17
 1.429999999999999e+00  8.256108849411650e-01 -3.393140768766017e-17
 1.429999999999999e+00  8.256108849411650e-01 -3.393140768766017e-17
 1.429999999999999e+00  8.256108849411650e-01 -3.393140768766017e-17
 1.429999999999999e+00  8.256108849411650e-01 -3.393140768766017e-17
 1.429999999999999e+00  8.256108849411650e-01 -3.393140768766017e-17
 1.429999999999999e+00  8.256108849411650e-01 -3.393140768766017e-17
 1.429999999999999e+00  8.256108849411650e-01 -3.393140768766017e-17
 1.429999999999999e+00  8.256108849411650e-01 -3.393140768766017e-17
 1.429999999999999e+00  8.256108849411650e-01 -3.393140768766017e-17
 1.429999999999999e+00  8.256108849411650e-01 -3.393140768766017e-17
 1.429999999999999e+00  8.256108849411650e-01 -3.393140768766017e-17
 1.429999999999999e+00  8.256108849411650e-01 -3.393140768766017e-17
 1.429999999999999e+00  8.256108849411650e-01 -3.393140768766017e-17
 1.429999999999999e+00  8.256108849411650e-01 -3.393140768766017e-17
 1.429999999999999e+00  8.256108849411650e-01 -3.393140768766017e-17
 1.429999999999999e+00  8.256108849411650e-01 -3.393140768766017e-17
 1.429999999999999e+00  8.256108849411650e-01 -3.393140768766017e-17
 1.429999999999999e+00  8.256108849411650e-01 -3.393140768766017e-17
 1.429999999999999e+00  8.256108849411650e-01 -3.393140768766017e-17
 1.429999999999999e+00  8.256108849411650e-01 -3.393140768766017e-17
 1.429999999999999e+00  8.256108849411650e-01 -3.393140768766017e-17
 1.429999999999999e+00  8.256108849411650e-01 -3.393140768766017e-17
 1.429999999999999e+00  8.256108849411650e-01 -3.393140768766017e-17
 1.429999999999999e+00  8.256108849411650e-01 -3.393140768766017e-17
 1.429999999999999e+00  8.256108849411650e-01 -3.393140768766017e-17
 1.429999999999999e+00  8.256108849411650e-01 -3.393140768766017e-17
 1.429999999999999e+00  8.256108849411650e-01 -3.393140768766017e-17
 1.429999999999999e+00  8.256108849411650e-01 -3.393140768766017e-17
 1.429999999999999e+00  8.256108849411650e-01 -3.393140768766017e-17
 1.429999999999999e+00  8.256108849411650e-01 -3.393140768766017e-17
 1.429999999999999e+00  8.256108849411650e-01 -3.393140768766017e-17
 1.429999999999999e+00  8.256108849411650e-01 -3.393140768766017e-17
 1.429999999999999e+00  8.256108849411650e-01 -3.393140768766017e-17
 1.429999999999999e+00  8.256108849411650e-01 -3.393140768766017e-17
 1.429999999999999e+00  8.256108849411650e-01 -3.393140768766017e-17
 1.429999999999999e+00  8.256108849411650e-01 -3.393140768766017e-17
 1.429999999999999e+00  8.256108849411650e-01 -3.393140768766017e-17
 1.429999999999999e+00  8.256108849411650e-01 -3.393140768766017e-17
 1.429999999999999e+00  8.256108849411650e-01 -3.393140768766017e-17
 1.429999999999999e+00  8.256108849411650e-01 -3.393140768766017e-17
 1.429999999999999e+00  8.256108849411650e-01 -3.393140768766017e-17
 1.429999999999999e+00  8.256108849411650e-01 -3.393140768766017e-17
 1.429999999999999e+00  8.256108849411650e-01 -3.393140768766017e-17
 1.429999999999999e+00  8.256108849411650e-01 -3.393140768766017e-17
 1.429999999999999e+00  8.256108849411650e-01 -3.393140768766017e-17
 1.429999999999999e+00  8.256108849411650e-01 -3.393140768766017e-17
 1.429999999999999e+00  8.256108849411650e-01 -3.393140768766017e-17
 1.429999999999999e+00  8.256108849411650e-01 -3.393140768766017e-17
 1.429999999999999e+00  8.256108849411650e-01 -3.393140768766017e-17
 1.429999999999999e+00  8.256108849411650e-01 -3.393140768766017e-17
 1.429999999999999e+00  8.256108849411650e-01 -3.393140768766017e-17
 1.429999999999999e+00  8.256108849411650e-01 -3.393140768766017e-17
 1.429999999999999e+00  8.256108849411650e-01 -3.393140768766017e-17
 1.429999999999999e+00  8.256108849411650e-01 -3.393140768766017e-17
 1.429999999999999e+00  8.256108849411650e-01 -3.393140768766017e-17
 1.429999999999999e+00  8.256108849411650e-01 -3.393140768766017e-17
 1.429999999999999e+00  8.256108849411650e-01 -3.393140768766017e-17
 1.429999999999999e+00  8.256108849411650e-01 -3.393140768766017e-17
 1.429999999999999e+00  8.256108849411650e-01 -3.393140768766017e-17
 1.429999999999999e+00  8.256108849411650e-01 -3.393140768766017e-17
 1.429999999999999e+00  8.256108849411650e-01 -3.393140768766017e-17
 1.429999999999999e+00  8.256108849411650e-01 -3.393140768766017e-17
 1.429999999999999e+00  8.256108849411650e-01 -3.393140768766017e-17
 1.429999999999999e+00  8.256108849411650e-01 -3.393140768766017e-17
 1.429999999999999e+00  8.256108849411650e-01 -3.393140768766017e-17
 1.429999999999999e+00  8.256108849411650e-01 -3.393140768766017e-17
 1.429999999999999e+00  8.256108849411650e-01 -3.393140768766017e-17
 1.429999999999999e+00  8.256108849411650e-01 -3.393140768766017e-17
 1.429999999999999e+00  8.256108849411650e-01 -3.393140768766017e-17
 1.429999999999999e+00  8.256108849411650e-01 -3.393140768766017e-17
 1.429999999999999e+00  8.256108849411650e-01 -3.393140768766017e-17
 1.429999999999999e+00  8.256108849411650e-01 -3.393140768766017e-17
 1.429999999999999e+00  8.256108849411650e-01 -3.393140768766017e-17
 1.429999999999999e+00  8.256108849411650e-01 -3.393140768766017e-17
 1.429999999999999e+00  8.256108849411650e-01 -3.393140768766017e-17
 1.429999999999999e+00  8.256108849411650e-01 -3.393140768766017e-17
 1.429999999999999e+00  8.256108849411650e-01 -3.393140768766017e-17
-1.429999999999999e+00  8.256108849411650e-01  1.696570384383008e-17
 1.429999999999999e+00 -8.256108849411650e-01 -1.696570384383008e-17
-1.429999999999999e+00  8.256108849411650e-01  1.696570384383008e-17
-1.429999999999999e+00  8.256108849411650e-01  1.696570384383008e-17
-1.429999999999999e+00  8.256108849411650e-01  1.696570384383008e-17
-1.429999999999999e+00  8.256108849411650e-01  1.696570384383008e-17
-1.429999999999999e+00  8.256108849411650e-01  1.696570384383008e-17
-1.429999999999999e+00  8.256108849411650e-01  1.696570384383008e-17
-1.429999999999999e+00  8.256108849411650e-01  1.696570384383008e-17
-1.429999999999999e+00  8.256108849411650e-01  1.696570384383008e-17
-1.429999999999999e+00  8.256108849411650e-01  1.696570384383008e-17
-1.429999999999999e+00  8.256108849411650e-01  1.696570384383008e-17
-1.429999999999999e+00  8.256108849411650e-01  1.696570384383008e-17
-1.429999999999999e+00  8.256108849411650e-01  1.696570384383008e-17
-1.429999999999999e+00  8.256108849411650e-01  1.696570384383008e-17
-1.429999999999999e+00  8.256108849411650e-01  1.696570384383008e-17
-1.429999999999999e+00  8.256108849411650e-01  1.696570384383008e-17
-1.429999999999999e+00  8.256108849411650e-01  1.696570384383008e-17
-1.429999999999999e+00  8.256108849411650e-01  1.696570384383008e-17
-1.429999999999999e+00  8.256108849411650e-01  1.696570384383008e-17
-1.429999999999999e+00  8.256108849411650e-01  1.696570384383008e-17
-1.429999999999999e+00  8.256108849411650e-01  1.696570384383008e-17
-1.429999999999999e+00  8.256108849411650e-01  1.696570384383008e-17
-1.429999999999999e+00  8.256108849411650e-01  1.696570384383008e-17
-1.429999999999999e+00  8.256108849411650e-01  1.696570384383008e-17
-1.429999999999999e+00  8.256108849411650e-01  1.696570384383008e-17
-1.429999999999999e+00  8.256108849411650e-01  1.696570384383008e-17
-1.429999999999999e+00  8.256108849411650e-01  1.696570384383008e-17
-1.429999999999999e+00  8.256108849411650e-01  1.696570384383008e-17
-1.429999999999999e+00  8.256108849411650e-01  1.696570384383008e-17
-1.429999999999999e+00  8.256108849411650e-01  1.696570384383008e-17
-1.429999999999999e+00  8.256108849411650e-01  1.696570384383008e-17
-1.429999999999999e+00  8.256108849411650e-01  1.696570384383008e-17
-1.429999999999999e+00  8.256108849411650e-01  1.696570384383008e-17
-1.429999999999999e+00  8.256108849411650e-01  1.696570384383008e-17
-1.429999999999999e+00  8.256108849411650e-01  1.696570384383008e-17
-1.429999999999999e+00  8.256108849411650e-01  1.696570384383008e-17
-1.429999999999999e+00  8.256108849411650e-01  1.696570384383008e-17
-1.429999999999999e+00  8.256108849411650e-01  1.696570384383008e-17
-1.429999999999999e+00  8.256108849411650e-01  1.696570384383008e-17
-1.429999999999999e+00  8.256108849411650e-01  1.696570384383008e-17
-1.429999999999999e+00  8.256108849411650e-01  1.696570384383008e-17
-1.429999999999999e+00  8.256108849411650e-01  1.696570384383008e-17
-1.429999999999999e+00  8.256108849411650e-01  1.696570384383008e-17
-1.429999999999999e+00  8.256108849411650e-01  1.696570384383008e-17
-1.429999999999999e+00  8.256108849411650e-01  1.696570384383008e-17
-1.429999999999999e+00  8.256108849411650e-01  1.696570384383008e-17
-1.429999999999999e+00  8.256108849411650e-01  1.696570384383008e-17
-1.429999999999999e+00  8.256108849411650e-01  1.696570384383008e-17
-1.429999999999999e+00  8.256108849411650e-01  1.696570384383008e-17
-1.429999999999999e+00  8.256108849411650e-01  1.696570384383008e-17
-1.429999999999999e+00  8.256108849411650e-01  1.696570384383008e-17
-1.429999999999999e+00  8.256108849411650e-01  1.696570384383008e-17
-1.429999999999999e+00  8.256108849411650e-01  1.696570384383008e-17
-1.429999999999999e+00  8.256108849411650e-01  1.696570384383008e-17
-1.429999999999999e+00  8.256108849411650e-01  1.696570384383008e-17
-1.429999999999999e+00  8.256108849411650e-01  1.696570384383008e-17
-1.429999999999999e+00  8.256108849411650e-01  1.696570384383008e-17
-1.429999999999999e+00  8.256108849411650e-01  1.696570384383008e-17
-1.429999999999999e+00  8.256108849411650e-01  1.696570384383008e-17
-1.429999999999999e+00  8.256108849411650e-01  1.696570384383008e-17
-1.429999999999999e+00  8.256108849411650e-01  1.696570384383008e-17
-1.429999999999999e+00  8.256108849411650e-01  1.696570384383008e-17
-1.429999999999999e+00  8.256108849411650e-01  1.696570384383008e-17
-1.429999999999999e+00  8.256108849411650e-01  1.696570384383008e-17
-1.429999999999999e+00  8.256108849411650e-01  1.696570384383008e-17
-1.429999999999999e+00  8.256108849411650e-01  1.696570384383008e-17
-1.429999999999999e+00  8.256108849411650e-01  1.696570384383008e-17
-1.429999999999999e+00  8.256108849411650e-01  1.696570384383008e-17
-1.429999999999999e+00  8.256108849411650e-01  1.696570384383008e-17
-1.429999999999999e+00  8.256108849411650e-01  1.696570384383008e-17
-1.429999999999999e+00  8.256108849411650e-01  1.696570384383008e-17
-1.429999999999999e+00  8.256108849411650e-01  1.696570384383008e-17
-1.429999999999999e+00  8.256108849411650e-01  1.696570384383008e-17
-1.429999999999999e+00  8.256108849411650e-01  1.696570384383008e-17
-1.429999999999999e+00  8.256108849411650e-01  1.696570384383008e-17
-1.429999999999999e+00  8.256108849411650e-01  1.696570384383008e-17
-1.429999999999999e+00  8.256108849411650e-01  1.696570384383008e-17
-1.429999999999999e+00  8.256108849411650e-01  1.696570384383008e-17
-1.429999999999999e+00  8.256108849411650e-01  1.696570384383008e-17
-1.429999999999999e+00  8.256108849411650e-01  1.696570384383008e-17
-1.429999999999999e+00  8.256108849411650e-01  1.696570384383008e-17
-1.429999999999999e+00  8.256108849411650e-01  1.696570384383008e-17
-1.429999999999999e+00  8.256108849411650e-01  1.696570384383008e-17
-1.429999999999999e+00  8.256108849411650e-01  1.696570384383008e-17
-1.429999999999999e+00  8.256108849411650e-01  1.696570384383008e-17
-1.429999999999999e+00  8.256108849411650e-01  1.696570384383008e-17
-1.429999999999999e+00  8.256108849411650e-01  1.696570384383008e-17
-1.429999999999999e+00  8.256108849411650e-01  1.696570384383008e-17
-1.429999999999999e+00  8.256108849411650e-01  1.696570384383008e-17
-1.429999999999999e+00  8.256108849411650e-01  1.696570384383008e-17
-1.429999999999999e+00  8.256108849411650e-01  1.696570384383008e-17
-1.429999999999999e+00  8.256108849411650e-01  1.696570384383008e-17
-1.429999999999999e+00  8.256108849411650e-01  1.696570384383008e-17
-1.429999999999999e+00  8.256108849411650e-01  1.696570384383008e-17
-1.429999999999999e+00  8.256108849411650e-01  1.696570384383008e-17
-1.429999999999999e+00  8.256108849411650e-01  1.696570384383008e-17
-1.429999999999999e+00  8.256108849411650e-01  1.696570384383008e-17
-1.429999999999999e+00  8.256108849411650e-01  1.696570384383008e-17
-1.429999999999999e+00  8.256108849411650e-01  1.696570384383008e-17
-1.429999999999999e+00  8.256108849411650e-01  1.696570384383008e-17
-1.429999999999999e+00  8.256108849411650e-01  1.696570384383008e-17
-1.429999999999999e+00  8.256108849411650e-01  1.696570384383008e-17
-1.429999999999999e+00  8.256108849411650e-01  1.696570384383008e-17
-1.429999999999999e+00  8.256108849411650e-01  1.696570384383008e-17
-1.429999999999999e+00  8.256108849411650e-01  1.696570384383008e-17
-1.429999999999999e+00  8.256108849411650e-01  1.696570384383008e-17
-1.429999999999999e+00  8.256108849411650e-01  1.696570384383008e-17
-1.429999999999999e+00  8.256108849411650e-01  1.696570384383008e-17
-1.429999999999999e+00  8.256108849411650e-01  1.696570384383008e-17
-1.429999999999999e+00  8.256108849411650e-01  1.696570384383008e-17
-1.429999999999999e+00  8.256108849411650e-01  1.696570384383008e-17
-1.429999999999999e+00  8.256108849411650e-01  1.696570384383008e-17
-1.429999999999999e+00  8.256108849411650e-01  1.696570384383008e-17
-1.429999999999999e+00  8.256108849411650e-01  1.696570384383008e-17
-1.429999999999999e+00  8.256108849411650e-01  1.696570384383008e-17
-1.429999999999999e+00  8.256108849411650e-01  1.696570384383008e-17
-1.429999999999999e+00  8.256108849411650e-01  1.696570384383008e-17
-1.429999999999999e+00  8.256108849411650e-01  1.696570384383008e-17
-1.429999999999999e+00  8.256108849411650e-01  1.696570384383008e-17
-1.429999999999999e+00  8.256108849411650e-01  1.696570384383008e-17
-1.429999999999999e+00  8.256108849411650e-01  1.696570384383008e-17
-1.429999999999999e+00  8.256108849411650e-01  1.696570384383008e-17
-1.429999999999999e+00  8.256108849411650e-01  1.696570384383008e-17
-1.429999999999999e+00  8.256108849411650e-01  1.696570384383008e-17
-1.429999999999999e+00  8.256108849411650e-01  1.696570384383008e-17
-1.429999999999999e+00  8.256108849411650e-01  1.696570384383008e-17
-1.429999999999999e+00  8.256108849411650e-01  1.696570384383008e-17
-1.429999999999999e+00  8.256108849411650e-01  1.696570384383008e-17
-1.429999999999999e+00  8.256108849411650e-01  1.696570384383008e-17
-1.429999999999999e+00  8.256108849411650e-01  1.696570384383008e-17
-1.429999999999999e+00  8.256108849411650e-01  1.696570384383008e-17
-1.429999999999999e+00  8.256108849411650e-01  1.696570384383008e-17
-1.429999999999999e+00  8.256108849411650e-01  1.696570384383008e-17
-1.429999999999999e+00  8.256108849411650e-01  1.696570384383008e-17
-1.429999999999999e+00  8.256108849411650e-01  1.696570384383008e-17
-1.429999999999999e+00  8.256108849411650e-01  1.696570384383008e-17
-1.429999999999999e+00  8.256108849411650e-01  1.696570384383008e-17
-1.429999999999999e+00  8.256108849411650e-01  1.696570384383008e-17
-1.429999999999999e+00  8.256108849411650e-01  1.696570384383008e-17
-1.429999999999999e+00  8.256108849411650e-01  1.696570384383008e-17
-1.429999999999999e+00  8.256108849411650e-01  1.696570384383008e-17
-1.429999999999999e+00  8.256108849411650e-01  1.696570384383008e-17
-1.429999999999999e+00  8.256108849411650e-01  1.696570384383008e-17
-1.429999999999999e+00  8.256108849411650e-01  1.696570384383008e-17
-1.429999999999999e+00  8.256108849411650e-01  1.696570384383008e-17
-1.429999999999999e+00  8.256108849411650e-01  1.696570384383008e-17
-1.429999999999999e+00  8.256108849411650e-01  1.696570384383008e-17
-1.429999999999999e+00  8.256108849411650e-01  1.696570384383008e-17
-1.429999999999999e+00  8.256108849411650e-01  1.696570384383008e-17
-1.429999999999999e+00  8.256108849411650e-01  1.696570384383008e-17
-1.429999999999999e+00  8.256108849411650e-01  1.696570384383008e-17
-1.429999999999999e+00  8.256108849411650e-01  1.696570384383008e-17
-1.429999999999999e+00  8.256108849411650e-01  1.696570384383008e-17
-1.429999999999999e+00  8.256108849411650e-01  1.696570384383008e-17
-1.429999999999999e+00  8.256108849411650e-01  1.696570384383008e-17
-1.429999999999999e+00  8.256108849411650e-01  1.696570384383008e-17
-1.429999999999999e+00  8.256108849411650e-01  1.696570384383008e-17
-1.429999999999999e+00  8.256108849411650e-01  1.696570384383008e-17
-1.429999999999999e+00  8.256108849411650e-01  1.696570384383008e-17
-1.429999999999999e+00  8.256108849411650e-01  1.696570384383008e-17
-1.429999999999999e+00  8.256108849411650e-01  1.696570384383008e-17
-1.429999999999999e+00  8.256108849411650e-01  1.696570384383008e-17
-1.429999999999999e+00  8.256108849411650e-01  1.696570384383008e-17
-1.429999999999999e+00  8.256108849411650e-01  1.696570384383008e-17
-1.429999999999999e+00  8.256108849411650e-01  1.696570384383008e-17
-1.429999999999999e+00  8.256108849411650e-01  1.696570384383008e-17
-1.429999999999999e+00  8.256108849411650e-01  1.696570384383008e-17
-1.429999999999999e+00  8.256108849411650e-01  1.696570384383008e-17
-1.429999999999999e+00  8.256108849411650e-01  1.696570384383008e-17
-1.429999999999999e+00  8.256108849411650e-01  1.696570384383008e-17
-1.429999999999999e+00  8.256108849411650e-01  1.696570384383008e-17
-1.429999999999999e+00  8.256108849411650e-01  1.696570384383008e-17
-1.429999999999999e+00  8.256108849411650e-01  1.696570384383008e-17
-1.429999999999999e+00  8.256108849411650e-01  1.696570384383008e-17
-1.429999999999999e+00  8.256108849411650e-01  1.696570384383008e-17
-1.429999999999999e+00  8.256108849411650e-01  1.696570384383008e-17
-1.429999999999999e+00  8.256108849411650e-01  1.696570384383008e-17
-1.429999999999999e+00  8.256108849411650e-01  1.696570384383008e-17
-1.429999999999999e+00  8.256108849411650e-01  1.696570384383008e-17
-1.429999999999999e+00  8.256108849411650e-01  1.696570384383008e-17
-1.429999999999999e+00  8.256108849411650e-01  1.696570384383008e-17
-1.429999999999999e+00  8.256108849411650e-01  1.696570384383008e-17
-1.429999999999999e+00  8.256108849411650e-01  1.696570384383008e-17
-1.429999999999999e+00  8.256108849411650e-01  1.696570384383008e-17
-1.429999999999999e+00  8.256108849411650e-01  1.696570384383008e-17
-1.429999999999999e+00  8.256108849411650e-01  1.696570384383008e-17
-1.429999999999999e+00  8.256108849411650e-01  1.696570384383008e-17
-1.429999999999999e+00  8.256108849411650e-01  1.696570384383008e-17
-1.429999999999999e+00  8.256108849411650e-01  1.696570384383008e-17
-1.429999999999999e+00  8.256108849411650e-01  1.696570384383008e-17
-1.429999999999999e+00  8.256108849411650e-01  1.696570384383008e-17
-1.429999999999999e+00  8.256108849411650e-01  1.696570384383008e-17
-1.429999999999999e+00  8.256108849411650e-01  1.696570384383008e-17
-1.429999999999999e+00  8.256108849411650e-01  1.696570384383008e-17
-1.429999999999999e+00  8.256108849411650e-01  1.696570384383008e-17
-1.429999999999999e+00  8.256108849411650e-01  1.696570384383008e-17
-1.429999999999999e+00  8.256108849411650e-01  1.696570384383008e-17
-1.429999999999999e+00  8.256108849411650e-01  1.696570384383008e-17
-1.429999999999999e+00  8.256108849411650e-01  1.696570384383008e-17
-1.429999999999999e+00  8.256108849411650e-01  1.696570384383008e-17
-1.429999999999999e+00  8.256108849411650e-01  1.696570384383008e-17
-1.429999999999999e+00  8.256108849411650e-01  1.696570384383008e-17
-1.429999999999999e+00  8.256108849411650e-01  1.696570384383008e-17
-1.429999999999999e+00  8.256108849411650e-01  1.696570384383008e-17
-1.429999999999999e+00  8.256108849411650e-01  1.696570384383008e-17
-1.429999999999999e+00  8.256108849411650e-01  1.696570384383008e-17
-1.429999999999999e+00  8.256108849411650e-01  1.696570384383008e-17
-1.429999999999999e+00  8.256108849411650e-01  1.696570384383008e-17
-1.429999999999999e+00  8.256108849411650e-01  1.696570384383008e-17
-1.429999999999999e+00  8.256108849411650e-01  1.696570384383008e-17
-1.429999999999999e+00  8.256108849411650e-01  1.696570384383008e-17
-1.429999999999999e+00  8.256108849411650e-01  1.696570384383008e-17
-1.429999999999999e+00  8.256108849411650e-01  1.696570384383008e-17
-1.429999999999999e+00  8.256108849411650e-01  1.696570384383008e-17
-1.429999999999999e+00  8.256108849411650e-01  1.696570384383008e-17
-1.429999999999999e+00  8.256108849411650e-01  1.696570384383008e-17
-1.429999999999999e+00  8.256108849411650e-01  1.696570384383008e-17
-1.429999999999999e+00  8.256108849411650e-01  1.696570384383008e-17
-1.429999999999999e+00  8.256108849411650e-01  1.696570384383008e-17
-1.429999999999999e+00  8.256108849411650e-01  1.696570384383008e-17
-1.429999999999999e+00  8.256108849411650e-01  1.696570384383008e-17
-1.429999999999999e+00  8.256108849411650e-01  1.696570384383008e-17
 1.429999999999999e+00 -8.256108849411650e-01 -1.696570384383008e-17
-1.429999999999999e+00  8.256108849411650e-01  1.696570384383008e-17
-1.429999999999999e+00  8.256108849411650e-01  1.696570384383008e-17
-1.429999999999999e+00  8.256108849411650e-01  1.696570384383008e-17
-1.429999999999999e+00  8.256108849411650e-01  1.696570384383008e-17
-1.429999999999999e+00  8.256108849411650e-01  1.696570384383008e-17
-1.429999999999999e+00  8.256108849411650e-01  1.696570384383008e-17
-1.429999999999999e+00  8.256108849411650e-01  1.696570384383008e-17
-1.429999999999999e+00  8.256108849411650e-01  1.696570384383008e-17
-1.429999999999999e+00  8.256108849411650e-01  1.696570384383008e-17
-1.429999999999999e+00  8.256108849411650e-01  1.696570384383008e-17
-1.429999999999999e+00  8.256108849411650e-01  1.696570384383008e-17
-1.429999999999999e+00  8.256108849411650e-01  1.696570384383008e-17
-1.429999999999999e+00  8.256108849411650e-01  1.696570384383008e-17
-1.429999999999999e+00  8.256108849411650e-01  1.696570384383008e-17
-1.429999999999999e+00  8.256108849411650e-01  1.696570384383008e-17
-1.429999999999999e+00  8.256108849411650e-01  1.696570384383008e-17
-1.429999999999999e+00  8.256108849411650e-01  1.696570384383008e-17
-1.429999999999999e+00  8.256108849411650e-01  1.696570384383008e-17
-1.429999999999999e+00  8.256108849411650e-01  1.696570384383008e-17
-1.429999999999999e+00  8.256108849411650e-01  1.696570384383008e-17
-1.429999999999999e+00  8.256108849411650e-01  1.696570384383008e-17
-1.429999999999999e+00  8.256108849411650e-01  1.696570384383008e-17
-1.429999999999999e+00  8.256108849411650e-01  1.696570384383008e-17
-1.429999999999999e+00  8.256108849411650e-01  1.696570384383008e-17
-1.429999999999999e+00  8.256108849411650e-01  1.696570384383008e-17
-1.429999999999999e+00  8.256108849411650e-01  1.696570384383008e-17
-1.429999999999999e+00  8.256108849411650e-01  1.696570384383008e-17
-1.429999999999999e+00  8.256108849411650e-01  1.696570384383008e-17
-1.429999999999999e+00  8.256108849411650e-01  1.696570384383008e-17
-1.429999999999999e+00  8.256108849411650e-01  1.696570384383008e-17
-1.429999999999999e+00  8.256108849411650e-01  1.696570384383008e-17
-1.429999999999999e+00  8.256108849411650e-01  1.696570384383008e-17
-1.429999999999999e+00  8.256108849411650e-01  1.696570384383008e-17
-1.429999999999999e+00  8.256108849411650e-01  1.696570384383008e-17
-1.429999999999999e+00  8.256108849411650e-01  1.696570384383008e-17
-1.429999999999999e+00  8.256108849411650e-01  1.696570384383008e-17
-1.429999999999999e+00  8.256108849411650e-01  1.696570384383008e-17
-1.429999999999999e+00  8.256108849411650e-01  1.696570384383008e-17
-1.429999999999999e+00  8.256108849411650e-01  1.696570384383008e-17
-1.429999999999999e+00  8.256108849411650e-01  1.696570384383008e-17
-1.429999999999999e+00  8.256108849411650e-01  1.696570384383008e-17
-1.429999999999999e+00  8.256108849411650e-01  1.696570384383008e-17
-1.429999999999999e+00  8.256108849411650e-01  1.696570384383008e-17
-1.429999999999999e+00  8.256108849411650e-01  1.696570384383008e-17
-1.429999999999999e+00  8.256108849411650e-01  1.696570384383008e-17
-1.429999999999999e+00  8.256108849411650e-01  1.696570384383008e-17
-1.429999999999999e+00  8.256108849411650e-01  1.696570384383008e-17
-1.429999999999999e+00  8.256108849411650e-01  1.696570384383008e-17
-1.429999999999999e+00  8.256108849411650e-01  1.696570384383008e-17
-1.429999999999999e+00  8.256108849411650e-01  1.696570384383008e-17
-1.429999999999999e+00  8.256108849411650e-01  1.696570384383008e-17
-1.429999999999999e+00  8.256108849411650e-01  1.696570384383008e-17
-1.429999999999999e+00  8.256108849411650e-01  1.696570384383008e-17
-1.429999999999999e+00  8.256108849411650e-01  1.696570384383008e-17
-1.429999999999999e+00  8.256108849411650e-01  1.696570384383008e-17
-1.429999999999999e+00  8.256108849411650e-01  1.696570384383008e-17
-1.429999999999999e+00  8.256108849411650e-01  1.696570384383008e-17
-1.429999999999999e+00  8.256108849411650e-01  1.696570384383008e-17
-1.429999999999999e+00  8.256108849411650e-01  1.696570384383008e-17
-1.429999999999999e+00  8.256108849411650e-01  1.696570384383008e-17
-1.429999999999999e+00  8.256108849411650e-01  1.696570384383008e-17
-1.429999999999999e+00  8.256108849411650e-01  1.696570384383008e-17
-1.429999999999999e+00  8.256108849411650e-01  1.696570384383008e-17
-1.429999999999999e+00  8.256108849411650e-01  1.696570384383008e-17
-1.429999999999999e+00  8.256108849411650e-01  1.696570384383008e-17
-1.429999999999999e+00  8.256108849411650e-01  1.696570384383008e-17
-1.429999999999999e+00  8.256108849411650e-01  1.696570384383008e-17
-1.429999999999999e+00  8.256108849411650e-01  1.696570384383008e-17
-1.429999999999999e+00  8.256108849411650e-01  1.696570384383008e-17
-1.429999999999999e+00  8.256108849411650e-01  1.696570384383008e-17
-1.429999999999999e+00  8.256108849411650e-01  1.696570384383008e-17
-1.429999999999999e+00  8.256108849411650e-01  1.696570384383008e-17
-1.429999999999999e+00  8.256108849411650e-01  1.696570384383008e-17
-1.429999999999999e+00  8.256108849411650e-01  1.696570384383008e-17
-1.429999999999999e+00  8.256108849411650e-01  1.696570384383008e-17
-1.429999999999999e+00  8.256108849411650e-01  1.696570384383008e-17
-1.429999999999999e+00  8.256108849411650e-01  1.696570384383008e-17
-1.429999999999999e+00  8.256108849411650e-01  1.696570384383008e-17
-1.429999999999999e+00  8.256108849411650e-01  1.696570384383008e-17
-1.429999999999999e+00  8.256108849411650e-01  1.696570384383008e-17
-1.429999999999999e+00  8.256108849411650e-01  1.696570384383008e-17
-1.429999999999999e+00  8.256108849411650e-01  1.696570384383008e-17
-1.429999999999999e+00  8.256108849411650e-01  1.696570384383008e-17
-1.429999999999999e+00  8.256108849411650e-01  1.696570384383008e-17
-1.429999999999999e+00  8.256108849411650e-01  1.696570384383008e-17
-1.429999999999999e+00  8.256108849411650e-01  1.696570384383008e-17
-1.429999999999999e+00  8.256108849411650e-01  1.696570384383008e-17
-1.429999999999999e+00  8.256108849411650e-01  1.696570384383008e-17
-1.429999999999999e+00  8.256108849411650e-01  1.696570384383008e-17
-1.429999999999999e+00  8.256108849411650e-01  1.696570384383008e-17
-1.429999999999999e+00  8.256108849411650e-01  1.696570384383008e-17
-1.429999999999999e+00  8.256108849411650e-01  1.696570384383008e-17
-1.429999999999999e+00  8.256108849411650e-01  1.696570384383008e-17
-1.429999999999999e+00  8.256108849411650e-01  1.696570384383008e-17
-1.429999999999999e+00  8.256108849411650e-01  1.696570384383008e-17
-1.429999999999999e+00  8.256108849411650e-01  1.696570384383008e-17
-1.429999999999999e+00  8.256108849411650e-01  1.696570384383008e-17
-1.429999999999999e+00  8.256108849411650e-01  1.696570384383008e-17
-1.429999999999999e+00  8.256108849411650e-01  1.696570384383008e-17
-1.429999999999999e+00  8.256108849411650e-01  1.696570384383008e-17
-1.429999999999999e+00  8.256108849411650e-01  1.696570384383008e-17
-1.429999999999999e+00  8.256108849411650e-01  1.696570384383008e-17
-1.429999999999999e+00  8.256108849411650e-01  1.696570384383008e-17
-1.429999999999999e+00  8.256108849411650e-01  1.696570384383008e-17
-1.429999999999999e+00  8.256108849411650e-01  1.696570384383008e-17
-1.429999999999999e+00  8.256108849411650e-01  1.696570384383008e-17
-1.429999999999999e+00  8.256108849411650e-01  1.696570384383008e-17
-1.429999999999999e+00  8.256108849411650e-01  1.696570384383008e-17
-1.429999999999999e+00  8.256108849411650e-01  1.696570384383008e-17
-1.429999999999999e+00  8.256108849411650e-01  1.696570384383008e-17
-1.429999999999999e+00  8.256108849411650e-01  1.696570384383008e-17
-1.429999999999999e+00  8.256108849411650e-01  1.696570384383008e-17
-1.429999999999999e+00  8.256108849411650e-01  1.696570384383008e-17
-1.429999999999999e+00  8.256108849411650e-01  1.696570384383008e-17
-1.429999999999999e+00  8.256108849411650e-01  1.696570384383008e-17
-1.429999999999999e+00  8.256108849411650e-01  1.696570384383008e-17
-1.429999999999999e+00  8.256108849411650e-01  1.696570384383008e-17
-1.429999999999999e+00  8.256108849411650e-01  1.696570384383008e-17
-1.429999999999999e+00  8.256108849411650e-01  1.696570384383008e-17
-1.429999999999999e+00  8.256108849411650e-01  1.696570384383008e-17
-1.429999999999999e+00  8.256108849411650e-01  1.696570384383008e-17
-1.429999999999999e+00  8.256108849411650e-01  1.696570384383008e-17
-1.429999999999999e+00  8.256108849411650e-01  1.696570384383008e-17
-1.429999999999999e+00  8.256108849411650e-01  1.696570384383008e-17
-1.429999999999999e+00  8.256108849411650e-01  1.696570384383008e-17
-1.429999999999999e+00  8.256108849411650e-01  1.696570384383008e-17
-1.429999999999999e+00  8.256108849411650e-01  1.696570384383008e-17
-1.429999999999999e+00  8.256108849411650e-01  1.696570384383008e-17
-1.429999999999999e+00  8.256108849411650e-01  1.696570384383008e-17
-1.429999999999999e+00  8.256108849411650e-01  1.696570384383008e-17
-1.429999999999999e+00  8.256108849411650e-01  1.696570384383008e-17
-1.429999999999999e+00  8.256108849411650e-01  1.696570384383008e-17
-1.429999999999999e+00  8.256108849411650e-01  1.696570384383008e-17
-1.429999999999999e+00  8.256108849411650e-01  1.696570384383008e-17
-1.429999999999999e+00  8.256108849411650e-01  1.696570384383008e-17
-1.429999999999999e+00  8.256108849411650e-01  1.696570384383008e-17
-1.429999999999999e+00  8.256108849411650e-01  1.696570384383008e-17
-1.429999999999999e+00  8.256108849411650e-01  1.696570384383008e-17
-1.429999999999999e+00  8.256108849411650e-01  1.696570384383008e-17
-1.429999999999999e+00  8.256108849411650e-01  1.696570384383008e-17
-1.429999999999999e+00  8.256108849411650e-01  1.696570384383008e-17
-1.429999999999999e+00  8.256108849411650e-01  1.696570384383008e-17
-1.429999999999999e+00  8.256108849411650e-01  1.696570384383008e-17
-1.429999999999999e+00  8.256108849411650e-01  1.696570384383008e-17
-1.429999999999999e+00  8.256108849411650e-01  1.696570384383008e-17
-1.429999999999999e+00  8.256108849411650e-01  1.696570384383008e-17
-1.429999999999999e+00  8.256108849411650e-01  1.696570384383008e-17
-1.429999999999999e+00  8.256108849411650e-01  1.696570384383008e-17
-1.429999999999999e+00  8.256108849411650e-01  1.696570384383008e-17
-1.429999999999999e+00  8.256108849411650e-01  1.696570384383008e-17
-1.429999999999999e+00  8.256108849411650e-01  1.696570384383008e-17
-1.429999999999999e+00  8.256108849411650e-01  1.696570384383008e-17
-1.429999999999999e+00  8.256108849411650e-01  1.696570384383008e-17
-1.429999999999999e+00  8.256108849411650e-01  1.696570384383008e-17
-1.429999999999999e+00  8.256108849411650e-01  1.696570384383008e-17
-1.429999999999999e+00  8.256108849411650e-01  1.696570384383008e-17
-1.429999999999999e+00  8.256108849411650e-01  1.696570384383008e-17
-1.429999999999999e+00  8.256108849411650e-01  1.696570384383008e-17
-1.429999999999999e+00  8.256108849411650e-01  1.696570384383008e-17
-1.429999999999999e+00  8.256108849411650e-01  1.696570384383008e-17
-1.429999999999999e+00  8.256108849411650e-01  1.696570384383008e-17
-1.429999999999999e+00  8.256108849411650e-01  1.696570384383008e-17
-1.429999999999999e+00  8.256108849411650e-01  1.696570384383008e-17
-1.429999999999999e+00  8.256108849411650e-01  1.696570384383008e-17
-1.429999999999999e+00  8.256108849411650e-01  1.696570384383008e-17
-1.429999999999999e+00  8.256108849411650e-01  1.696570384383008e-17
-1.429999999999999e+00  8.256108849411650e-01  1.696570384383008e-17
-1.429999999999999e+00  8.256108849411650e-01  1.696570384383008e-17
-1.429999999999999e+00  8.256108849411650e-01  1.696570384383008e-17
-1.429999999999999e+00  8.256108849411650e-01  1.696570384383008e-17
-1.429999999999999e+00  8.256108849411650e-01  1.696570384383008e-17
-1.429999999999999e+00  8.256108849411650e-01  1.696570384383008e-17
-1.429999999999999e+00  8.256108849411650e-01  1.696570384383008e-17
-1.429999999999999e+00  8.256108849411650e-01  1.696570384383008e-17
-1.429999999999999e+00  8.256108849411650e-01  1.696570384383008e-17
-1.429999999999999e+00  8.256108849411650e-01  1.696570384383008e-17
-1.429999999999999e+00  8.256108849411650e-01  1.696570384383008e-17
-1.429999999999999e+00  8.256108849411650e-01  1.696570384383008e-17
-1.429999999999999e+00  8.256108849411650e-01  1.696570384383008e-17
-1.429999999999999e+00  8.256108849411650e-01  1.696570384383008e-17
-1.429999999999999e+00  8.256108849411650e-01  1.696570384383008e-17
-1.429999999999999e+00  8.256108849411650e-01  1.696570384383008e-17
-1.429999999999999e+00  8.256108849411650e-01  1.696570384383008e-17
-1.429999999999999e+00  8.256108849411650e-01  1.696570384383008e-17
-1.429999999999999e+00  8.256108849411650e-01  1.696570384383008e-17
-1.429999999999999e+00  8.256108849411650e-01  1.696570384383008e-17
-1.429999999999999e+00  8.256108849411650e-01  1.696570384383008e-17
-1.429999999999999e+00  8.256108849411650e-01  1.696570384383008e-17
-1.429999999999999e+00  8.256108849411650e-01  1.696570384383008e-17
-1.429999999999999e+00  8.256108849411650e-01  1.696570384383008e-17
 1.429999999999999e+00 -8.256108849411650e-01 -1.696570384383008e-17
-1.429999999999999e+00  8.256108849411650e-01  1.696570384383008e-17
 1.429999999999999e+00 -8.256108849411650e-01 -1.696570384383008e-17
 1.429999999999999e+00 -8.256108849411650e-01 -1.696570384383008e-17
 1.429999999999999e+00 -8.256108849411650e-01 -1.696570384383008e-17
 1.429999999999999e+00 -8.256108849411650e-01 -1.696570384383008e-17
 1.429999999999999e+00 -8.256108849411650e-01 -1.696570384383008e-17
 1.429999999999999e+00 -8.256108849411650e-01 -1.696570384383008e-17
 1.429999999999999e+00 -8.256108849411650e-01 -1.696570384383008e-17
 1.429999999999999e+00 -8.256108849411650e-01 -1.696570384383008e-17
 1.429999999999999e+00 -8.256108849411650e-01 -1.696570384383008e-17
 1.429999999999999e+00 -8.256108849411650e-01 -1.696570384383008e-17
 1.429999999999999e+00 -8.256108849411650e-01 -1.696570384383008e-17
 1.429999999999999e+00 -8.256108849411650e-01 -1.696570384383008e-17
 1.429999999999999e+00 -8.256108849411650e-01 -1.696570384383008e-17
 1.429999999999999e+00 -8.256108849411650e-01 -1.696570384383008e-17
 1.429999999999999e+00 -8.256108849411650e-01 -1.696570384383008e-17
 1.429999999999999e+00 -8.256108849411650e-01 -1.696570384383008e-17
 1.429999999999999e+00 -8.256108849411650e-01 -1.696570384383008e-17
 1.429999999999999e+00 -8.256108849411650e-01 -1.696570384383008e-17
 1.429999999999999e+00 -8.256108849411650e-01 -1.696570384383008e-17
 1.429999999999999e+00 -8.256108849411650e-01 -1.696570384383008e-17
 1.429999999999999e+00 -8.256108849411650e-01 -1.696570384383008e-17
 1.429999999999999e+00 -8.256108849411650e-01 -1.696570384383008e-17
 1.429999999999999e+00 -8.256108849411650e-01 -1.696570384383008e-17
 1.429999999999999e+00 -8.256108849411650e-01 -1.696570384383008e-17
 1.429999999999999e+00 -8.256108849411650e-01 -1.696570384383008e-17
 1.429999999999999e+00 -8.256108849411650e-01 -1.696570384383008e-17
 1.429999999999999e+00 -8.256108849411650e-01 -1.696570384383008e-17
 1.429999999999999e+00 -8.256108849411650e-01 -1.696570384383008e-17
 1.429999999999999e+00 -8.256108849411650e-01 -1.696570384383008e-17
 1.429999999999999e+00 -8.256108849411650e-01 -1.696570384383008e-17
 1.429999999999999e+00 -8.256108849411650e-01 -1.696570384383008e-17
 1.429999999999999e+00 -8.256108849411650e-01 -1.696570384383008e-17
 1.429999999999999e+00 -8.256108849411650e-01 -1.696570384383008e-17
 1.429999999999999e+00 -8.256108849411650e-01 -1.696570384383008e-17
 1.429999999999999e+00 -8.256108849411650e-01 -1.696570384383008e-17
 1.429999999999999e+00 -8.256108849411650e-01 -1.696570384383008e-17
 1.429999999999999e+00 -8.256108849411650e-01 -1.696570384383008e-17
 1.429999999999999e+00 -8.256108849411650e-01 -1.696570384383008e-17
 1.429999999999999e+00 -8.256108849411650e-01 -1.696570384383008e-17
 1.429999999999999e+00 -8.256108849411650e-01 -1.696570384383008e-17
 1.429999999999999e+00 -8.256108849411650e-01 -1.696570384383008e-17
 1.429999999999999e+00 -8.256108849411650e-01 -1.696570384383008e-17
 1.429999999999999e+00 -8.256108849411650e-01 -1.696570384383008e-17
 1.429999999999999e+00 -8.256108849411650e-01 -1.696570384383008e-17
 1.429999999999999e+00 -8.256108849411650e-01 -1.696570384383008e-17
 1.429999999999999e+00 -8.256108849411650e-01 -1.696570384383008e-17
 1.429999999999999e+00 -8.256108849411650e-01 -1.696570384383008e-17
 1.429999999999999e+00 -8.256108849411650e-01 -1.696570384383008e-17
 1.429999999999999e+00 -8.256108849411650e-01 -1.696570384383008e-17
 1.429999999999999e+00 -8.256108849411650e-01 -1.696570384383008e-17
 1.429999999999999e+00 -8.256108849411650e-01 -1.696570384383008e-17
 1.429999999999999e+00 -8.256108849411650e-01 -1.696570384383008e-17
 1.429999999999999e+00 -8.256108849411650e-01 -1.696570384383008e-17
 1.429999999999999e+00 -8.256108849411650e-01 -1.696570384383008e-17
 1.429999999999999e+00 -8.256108849411650e-01 -1.696570384383008e-17
 1.429999999999999e+00 -8.256108849411650e-01 -1.696570384383008e-17
 1.429999999999999e+00 -8.256108849411650e-01 -1.696570384383008e-17
 1.429999999999999e+00 -8.256108849411650e-01 -1.696570384383008e-17
 1.429999999999999e+00 -8.256108849411650e-01 -1.696570384383008e-17
 1.429999999999999e+00 -8.256108849411650e-01 -1.696570384383008e-17
 1.429999999999999e+00 -8.256108849411650e-01 -1.696570384383008e-17
 1.429999999999999e+00 -8.256108849411650e-01 -1.696570384383008e-17
 1.429999999999999e+00 -8.256108849411650e-01 -1.696570384383008e-17
 1.429999999999999e+00 -8.256108849411650e-01 -1.696570384383008e-17
 1.429999999999999e+00 -8.256108849411650e-01 -1.696570384383008e-17
 1.429999999999999e+00 -8.256108849411650e-01 -1.696570384383008e-17
 1.429999999999999e+00 -8.256108849411650e-01 -1.696570384383008e-17
 1.429999999999999e+00 -8.256108849411650e-01 -1.696570384383008e-17
 1.429999999999999e+00 -8.256108849411650e-01 -1.696570384383008e-17
 1.429999999999999e+00 -8.256108849411650e-01 -1.696570384383008e-17
 1.429999999999999e+00 -8.256108849411650e-01 -1.696570384383008e-17
 1.429999999999999e+00 -8.256108849411650e-01 -1.696570384383008e-17
 1.429999999999999e+00 -8.256108849411650e-01 -1.696570384383008e-17
 1.429999999999999e+00 -8.256108849411650e-01 -1.696570384383008e-17
 1.429999999999999e+00 -8.256108849411650e-01 -1.696570384383008e-17
 1.429999999999999e+00 -8.256108849411650e-01 -1.696570384383008e-17
 1.429999999999999e+00 -8.256108849411650e-01 -1.696570384383008e-17
 1.429999999999999e+00 -8.256108849411650e-01 -1.696570384383008e-17
 1.429999999999999e+00 -8.256108849411650e-01 -1.696570384383008e-17
 1.429999999999999e+00 -8.256108849411650e-01 -1.696570384383008e-17
 1.429999999999999e+00 -8.256108849411650e-01 -1.696570384383008e-17
 1.429999999999999e+00 -8.256108849411650e-01 -1.696570384383008e-17
 1.429999999999999e+00 -8.256108849411650e-01 -1.696570384383008e-17
 1.429999999999999e+00 -8.256108849411650e-01 -1.696570384383008e-17
 1.429999999999999e+00 -8.256108849411650e-01 -1.696570384383008e-17
 1.429999999999999e+00 -8.256108849411650e-01 -1.696570384383008e-17
 1.429999999999999e+00 -8.256108849411650e-01 -1.696570384383008e-17
 1.429999999999999e+00 -8.256108849411650e-01 -1.696570384383008e-17
 1.429999999999999e+00 -8.256108849411650e-01 -1.696570384383008e-17
 1.429999999999999e+00 -8.256108849411650e-01 -1.696570384383008e-17
 1.429999999999999e+00 -8.256108849411650e-01 -1.696570384383008e-17
 1.429999999999999e+00 -8.256108849411650e-01 -1.696570384383008e-17
 1.429999999999999e+00 -8.256108849411650e-01 -1.696570384383008e-17
 1.429999999999999e+00 -8.256108849411650e-01 -1.696570384383008e-17
 1.429999999999999e+00 -8.256108849411650e-01 -1.696570384383008e-17
 1.429999999999999e+00 -8.256108849411650e-01 -1.696570384383008e-17
 1.429999999999999e+00 -8.256108849411650e-01 -1.696570384383008e-17
 1.429999999999999e+00 -8.256108849411650e-01 -1.696570384383008e-17
 1.429999999999999e+00 -8.256108849411650e-01 -1.696570384383008e-17
 1.429999999999999e+00 -8.256108849411650e-01 -1.696570384383008e-17
 1.429999999999999e+00 -8.256108849411650e-01 -1.696570384383008e-17
 1.429999999999999e+00 -8.256108849411650e-01 -1.696570384383008e-17
 1.429999999999999e+00 -8.256108849411650e-01 -1.696570384383008e-17
 1.429999999999999e+00 -8.256108849411650e-01 -1.696570384383008e-17
 1.429999999999999e+00 -8.256108849411650e-01 -1.696570384383008e-17
 1.429999999999999e+00 -8.256108849411650e-01 -1.696570384383008e-17
 1.429999999999999e+00 -8.256108849411650e-01 -1.696570384383008e-17
 1.429999999999999e+00 -8.256108849411650e-01 -1.696570384383008e-17
 1.429999999999999e+00 -8.256108849411650e-01 -1.696570384383008e-17
 1.429999999999999e+00 -8.256108849411650e-01 -1.696570384383008e-17
 1.429999999999999e+00 -8.256108849411650e-01 -1.696570384383008e-17
 1.429999999999999e+00 -8.256108849411650e-01 -1.696570384383008e-17
 1.429999999999999e+00 -8.256108849411650e-01 -1.696570384383008e-17
 1.429999999999999e+00 -8.256108849411650e-01 -1.696570384383008e-17
 1.429999999999999e+00 -8.256108849411650e-01 -1.696570384383008e-17
 1.429999999999999e+00 -8.256108849411650e-01 -1.696570384383008e-17
 1.429999999999999e+00 -8.256108849411650e-01 -1.696570384383008e-17
 1.429999999999999e+00 -8.256108849411650e-01 -1.696570384383008e-17
 1.429999999999999e+00 -8.256108849411650e-01 -1.696570384383008e-17
 1.429999999999999e+00 -8.256108849411650e-01 -1.696570384383008e-17
 1.429999999999999e+00 -8.256108849411650e-01 -1.696570384383008e-17
 1.429999999999999e+00 -8.256108849411650e-01 -1.696570384383008e-17
 1.429999999999999e+00 -8.256108849411650e-01 -1.696570384383008e-17
 1.429999999999999e+00 -8.256108849411650e-01 -1.696570384383008e-17
 1.429999999999999e+00 -8.256108849411650e-01 -1.696570384383008e-17
 1.429999999999999e+00 -8.256108849411650e-01 -1.696570384383008e-17
 1.429999999999999e+00 -8.256108849411650e-01 -1.696570384383008e-17
 1.429999999999999e+00 -8.256108849411650e-01 -1.696570384383008e-17
 1.429999999999999e+00 -8.256108849411650e-01 -1.696570384383008e-17
 1.429999999999999e+00 -8.256108849411650e-01 -1.696570384383008e-17
 1.429999999999999e+00 -8.256108849411650e-01 -1.696570384383008e-17
 1.429999999999999e+00 -8.256108849411650e-01 -1.696570384383008e-17
 1.429999999999999e+00 -8.256108849411650e-01 -1.696570384383008e-17
 1.429999999999999e+00 -8.256108849411650e-01 -1.696570384383008e-17
 1.429999999999999e+00 -8.256108849411650e-01 -1.696570384383008e-17
 1.429999999999999e+00 -8.256108849411650e-01 -1.696570384383008e-17
 1.429999999999999e+00 -8.256108849411650e-01 -1.696570384383008e-17
 1.429999999999999e+00 -8.256108849411650e-01 -1.696570384383008e-17
 1.429999999999999e+00 -8.256108849411650e-01 -1.696570384383008e-17
 1.429999999999999e+00 -8.256108849411650e-01 -1.696570384383008e-17
 1.429999999999999e+00 -8.256108849411650e-01 -1.696570384383008e-17
 1.429999999999999e+00 -8.256108849411650e-01 -1.696570384383008e-17
 1.429999999999999e+00 -8.256108849411650e-01 -1.696570384383008e-17
 1.429999999999999e+00 -8.256108849411650e-01 -1.696570384383008e-17
 1.429999999999999e+00 -8.256108849411650e-01 -1.696570384383008e-17
 1.429999999999999e+00 -8.256108849411650e-01 -1.696570384383008e-17
 1.429999999999999e+00 -8.256108849411650e-01 -1.696570384383008e-17
 1.429999999999999e+00 -8.256108849411650e-01 -1.696570384383008e-17
 1.429999999999999e+00 -8.256108849411650e-01 -1.696570384383008e-17
 1.429999999999999e+00 -8.256108849411650e-01 -1.696570384383008e-17
 1.429999999999999e+00 -8.256108849411650e-01 -1.696570384383008e-17
 1.429999999999999e+00 -8.256108849411650e-01 -1.696570384383008e-17
 1.429999999999999e+00 -8.256108849411650e-01 -1.696570384383008e-17
 1.429999999999999e+00 -8.256108849411650e-01 -1.696570384383008e-17
 1.429999999999999e+00 -8.256108849411650e-01 -1.696570384383008e-17
 1.429999999999999e+00 -8.256108849411650e-01 -1.696570384383008e-17
 1.429999999999999e+00 -8.256108849411650e-01 -1.696570384383008e-17
 1.429999999999999e+00 -8.256108849411650e-01 -1.696570384383008e-17
 1.429999999999999e+00 -8.256108849411650e-01 -1.696570384383008e-17
 1.429999999999999e+00 -8.256108849411650e-01 -1.696570384383008e-17
 1.429999999999999e+00 -8.256108849411650e-01 -1.696570384383008e-17
 1.429999999999999e+00 -8.256108849411650e-01 -1.696570384383008e-17
 1.429999999999999e+00 -8.256108849411650e-01 -1.696570384383008e-17
 1.429999999999999e+00 -8.256108849411650e-01 -1.696570384383008e-17
 1.429999999999999e+00 -8.256108849411650e-01 -1.696570384383008e-17
 1.429999999999999e+00 -8.256108849411650e-01 -1.696570384383008e-17
 1.429999999999999e+00 -8.256108849411650e-01 -1.696570384383008e-17
 1.429999999999999e+00 -8.256108849411650e-01 -1.696570384383008e-17
 1.429999999999999e+00 -8.256108849411650e-01 -1.696570384383008e-17
-1.429999999999999e+00  8.256108849411650e-01  1.696570384383008e-17
 1.429999999999999e+00 -8.256108849411650e-01 -1.696570384383008e-17
 1.429999999999999e+00 -8.256108849411650e-01 -1.696570384383008e-17
 1.429999999999999e+00 -8.256108849411650e-01 -1.696570384383008e-17
 1.429999999999999e+00 -8.256108849411650e-01 -1.696570384383008e-17
 1.429999999999999e+00 -8.256108849411650e-01 -1.696570384383008e-17
 1.429999999999999e+00 -8.256108849411650e-01 -1.696570384383008e-17
 1.429999999999999e+00 -8.256108849411650e-01 -1.696570384383008e-17
 1.429999999999999e+00 -8.256108849411650e-01 -1.696570384383008e-17
 1.429999999999999e+00 -8.256108849411650e-01 -1.696570384383008e-17
 1.429999999999999e+00 -8.256108849411650e-01 -1.696570384383008e-17
 1.429999999999999e+00 -8.256108849411650e-01 -1.696570384383008e-17
 1.429999999999999e+00 -8.256108849411650e-01 -1.696570384383008e-17
 1.429999999999999e+00 -8.256108849411650e-01 -1.696570384383008e-17
 1.429999999999999e+00 -8.256108849411650e-01 -1.696570384383008e-17
 1.429999999999999e+00 -8.256108849411650e-01 -1.696570384383008e-17
 1.429999999999999e+00 -8.256108849411650e-01 -1.696570384383008e-17
 1.429999999999999e+00 -8.256108849411650e-01 -1.696570384383008e-17
 1.429999999999999e+00 -8.256108849411650e-01 -1.696570384383008e-17
 1.429999999999999e+00 -8.256108849411650e-01 -1.696570384383008e-17
 1.429999999999999e+00 -8.256108849411650e-01 -1.696570384383008e-17
 1.429999999999999e+00 -8.256108849411650e-01 -1.696570384383008e-17
 1.429999999999999e+00 -8.256108849411650e-01 -1.696570384383008e-17
 1.429999999999999e+00 -8.256108849411650e-01 -1.696570384383008e-17
 1.429999999999999e+00 -8.256108849411650e-01 -1.696570384383008e-17
 1.429999999999999e+00 -8.256108849411650e-01 -1.696570384383008e-17
 1.429999999999999e+00 -8.256108849411650e-01 -1.696570384383008e-17
 1.429999999999999e+00 -8.256108849411650e-01 -1.696570384383008e-17
 1.429999999999999e+00 -8.256108849411650e-01 -1.696570384383008e-17
 1.429999999999999e+00 -8.256108849411650e-01 -1.696570384383008e-17
 1.429999999999999e+00 -8.256108849411650e-01 -1.696570384383008e-17
 1.429999999999999e+00 -8.256108849411650e-01 -1.696570384383008e-17
 1.429999999999999e+00 -8.256108849411650e-01 -1.696570384383008e-17
 1.429999999999999e+00 -8.256108849411650e-01 -1.696570384383008e-17
 1.429999999999999e+00 -8.256108849411650e-01 -1.696570384383008e-17
 1.429999999999999e+00 -8.256108849411650e-01 -1.696570384383008e-17
 1.429999999999999e+00 -8.256108849411650e-01 -1.696570384383008e-17
 1.429999999999999e+00 -8.256108849411650e-01 -1.696570384383008e-17
 1.429999999999999e+00 -8.256108849411650e-01 -1.696570384383008e-17
 1.429999999999999e+00 -8.256108849411650e-01 -1.696570384383008e-17
 1.429999999999999e+00 -8.256108849411650e-01 -1.696570384383008e-17
 1.429999999999999e+00 -8.256108849411650e-01 -1.696570384383008e-17
 1.429999999999999e+00 -8.256108849411650e-01 -1.696570384383008e-17
 1.429999999999999e+00 -8.256108849411650e-01 -1.696570384383008e-17
 1.429999999999999e+00 -8.256108849411650e-01 -1.696570384383008e-17
 1.429999999999999e+00 -8.256108849411650e-01 -1.696570384383008e-17
 1.429999999999999e+00 -8.256108849411650e-01 -1.696570384383008e-17
 1.429999999999999e+00 -8.256108849411650e-01 -1.696570384383008e-17
 1.429999999999999e+00 -8.256108849411650e-01 -1.696570384383008e-17
 1.429999999999999e+00 -8.256108849411650e-01 -1.696570384383008e-17
 1.429999999999999e+00 -8.256108849411650e-01 -1.696570384383008e-17
 1.429999999999999e+00 -8.256108849411650e-01 -1.696570384383008e-17
 1.429999999999999e+00 -8.256108849411650e-01 -1.696570384383008e-17
 1.429999999999999e+00 -8.256108849411650e-01 -1.696570384383008e-17
 1.429999999999999e+00 -8.256108849411650e-01 -1.696570384383008e-17
 1.429999999999999e+00 -8.256108849411650e-01 -1.696570384383008e-17
 1.429999999999999e+00 -8.256108849411650e-01 -1.696570384383008e-17
 1.429999999999999e+00 -8.256108849411650e-01 -1.696570384383008e-17
 1.429999999999999e+00 -8.256108849411650e-01 -1.696570384383008e-17
 1.429999999999999e+00 -8.256108849411650e-01 -1.696570384383008e-17
 1.429999999999999e+00 -8.256108849411650e-01 -1.696570384383008e-17
 1.429999999999999e+00 -8.256108849411650e-01 -1.696570384383008e-17
 1.429999999999999e+00 -8.256108849411650e-01 -1.696570384383008e-17
 1.429999999999999e+00 -8.256108849411650e-01 -1.696570384383008e-17
 1.429999999999999e+00 -8.256108849411650e-01 -1.696570384383008e-17
 1.429999999999999e+00 -8.256108849411650e-01 -1.696570384383008e-17
 1.429999999999999e+00 -8.256108849411650e-01 -1.696570384383008e-17
 1.429999999999999e+00 -8.256108849411650e-01 -1.696570384383008e-17
 1.429999999999999e+00 -8.256108849411650e-01 -1.696570384383008e-17
 1.429999999999999e+00 -8.256108849411650e-01 -1.696570384383008e-17
 1.429999999999999e+00 -8.256108849411650e-01 -1.696570384383008e-17
 1.429999999999999e+00 -8.256108849411650e-01 -1.696570384383008e-17
 1.429999999999999e+00 -8.256108849411650e-01 -1.696570384383008e-17
 1.429999999999999e+00 -8.256108849411650e-01 -1.696570384383008e-17
 1.429999999999999e+00 -8.256108849411650e-01 -1.696570384383008e-17
 1.429999999999999e+00 -8.256108849411650e-01 -1.696570384383008e-17
 1.429999999999999e+00 -8.256108849411650e-01 -1.696570384383008e-17
 1.429999999999999e+00 -8.256108849411650e-01 -1.696570384383008e-17
 1.429999999999999e+00 -8.256108849411650e-01 -1.696570384383008e-17
 1.429999999999999e+00 -8.256108849411650e-01 -1.696570384383008e-17
 1.429999999999999e+00 -8.256108849411650e-01 -1.696570384383008e-17
 1.429999999999999e+00 -8.256108849411650e-01 -1.696570384383008e-17
 1.429999999999999e+00 -8.256108849411650e-01 -1.696570384383008e-17
 1.429999999999999e+00 -8.256108849411650e-01 -1.696570384383008e-17
 1.429999999999999e+00 -8.256108849411650e-01 -1.696570384383008e-17
 1.429999999999999e+00 -8.256108849411650e-01 -1.696570384383008e-17
 1.429999999999999e+00 -8.256108849411650e-01 -1.696570384383008e-17
 1.429999999999999e+00 -8.256108849411650e-01 -1.696570384383008e-17
 1.429999999999999e+00 -8.256108849411650e-01 -1.696570384383008e-17
 1.429999999999999e+00 -8.256108849411650e-01 -1.696570384383008e-17
 1.429999999999999e+00 -8.256108849411650e-01 -1.696570384383008e-17
 1.429999999999999e+00 -8.256108849411650e-01 -1.696570384383008e-17
 1.429999999999999e+00 -8.256108849411650e-01 -1.696570384383008e-17
 1.429999999999999e+00 -8.256108849411650e-01 -1.696570384383008e-17
 1.429999999999999e+00 -8.256108849411650e-01 -1.696570384383008e-17
 1.429999999999999e+00 -8.256108849411650e-01 -1.696570384383008e-17
 1.429999999999999e+00 -8.256108849411650e-01 -1.696570384383008e-17
 1.429999999999999e+00 -8.256108849411650e-01 -1.696570384383008e-17
 1.429999999999999e+00 -8.256108849411650e-01 -1.696570384383008e-17
 1.429999999999999e+00 -8.256108849411650e-01 -1.696570384383008e-17
 1.429999999999999e+00 -8.256108849411650e-01 -1.696570384383008e-17
 1.429999999999999e+00 -8.256108849411650e-01 -1.696570384383008e-17
 1.429999999999999e+00 -8.256108849411650e-01 -1.696570384383008e-17
 1.429999999999999e+00 -8.256108849411650e-01 -1.696570384383008e-17
 1.429999999999999e+00 -8.256108849411650e-01 -1.696570384383008e-17
 1.429999999999999e+00 -8.256108849411650e-01 -1.696570384383008e-17
 1.429999999999999e+00 -8.256108849411650e-01 -1.696570384383008e-17
 1.429999999999999e+00 -8.256108849411650e-01 -1.696570384383008e-17
 1.429999999999999e+00 -8.256108849411650e-01 -1.696570384383008e-17
 1.429999999999999e+00 -8.256108849411650e-01 -1.696570384383008e-17
 1.429999999999999e+00 -8.256108849411650e-01 -1.696570384383008e-17
 1.429999999999999e+00 -8.256108849411650e-01 -1.696570384383008e-17
 1.429999999999999e+00 -8.256108849411650e-01 -1.696570384383008e-17
 1.429999999999999e+00 -8.256108849411650e-01 -1.696570384383008e-17
 1.429999999999999e+00 -8.256108849411650e-01 -1.696570384383008e-17
 1.429999999999999e+00 -8.256108849411650e-01 -1.696570384383008e-17
 1.429999999999999e+00 -8.256108849411650e-01 -1.696570384383008e-17
 1.429999999999999e+00 -8.256108849411650e-01 -1.696570384383008e-17
 1.429999999999999e+00 -8.256108849411650e-01 -1.696570384383008e-17
 1.429999999999999e+00 -8.256108849411650e-01 -1.696570384383008e-17
 1.429999999999999e+00 -8.256108849411650e-01 -1.696570384383008e-17
 1.429999999999999e+00 -8.256108849411650e-01 -1.696570384383008e-17
 1.429999999999999e+00 -8.256108849411650e-01 -1.696570384383008e-17
 1.429999999999999e+00 -8.256108849411650e-01 -1.696570384383008e-17
 1.429999999999999e+00 -8.256108849411650e-01 -1.696570384383008e-17
 1.429999999999999e+00 -8.256108849411650e-01 -1.696570384383008e-17
 1.429999999999999e+00 -8.256108849411650e-01 -1.696570384383008e-17
 1.429999999999999e+00 -8.256108849411650e-01 -1.696570384383008e-17
 1.429999999999999e+00 -8.256108849411650e-01 -1.696570384383008e-17
 1.429999999999999e+00 -8.256108849411650e-01 -1.696570384383008e-17
 1.429999999999999e+00 -8.256108849411650e-01 -1.696570384383008e-17
 1.429999999999999e+00 -8.256108849411650e-01 -1.696570384383008e-17
 1.429999999999999e+00 -8.256108849411650e-01 -1.696570384383008e-17
 1.429999999999999e+00 -8.256108849411650e-01 -1.696570384383008e-17
 1.429999999999999e+00 -8.256108849411650e-01 -1.696570384383008e-17
 1.429999999999999e+00 -8.256108849411650e-01 -1.696570384383008e-17
 1.429999999999999e+00 -8.256108849411650e-01 -1.696570384383008e-17
 1.429999999999999e+00 -8.256108849411650e-01 -1.696570384383008e-17
 1.429999999999999e+00 -8.256108849411650e-01 -1.696570384383008e-17
 1.429999999999999e+00 -8.256108849411650e-01 -1.696570384383008e-17
 1.429999999999999e+00 -8.256108849411650e-01 -1.696570384383008e-17
 1.429999999999999e+00 -8.256108849411650e-01 -1.696570384383008e-17
 1.429999999999999e+00 -8.256108849411650e-01 -1.696570384383008e-17
 1.429999999999999e+00 -8.256108849411650e-01 -1.696570384383008e-17
 1.429999999999999e+00 -8.256108849411650e-01 -1.696570384383008e-17
 1.429999999999999e+00 -8.256108849411650e-01 -1.696570384383008e-17
 1.429999999999999e+00 -8.256108849411650e-01 -1.696570384383008e-17
 1.429999999999999e+00 -8.256108849411650e-01 -1.696570384383008e-17
 1.429999999999999e+00 -8.256108849411650e-01 -1.696570384383008e-17
 1.429999999999999e+00 -8.256108849411650e-01 -1.696570384383008e-17
 1.429999999999999e+00 -8.256108849411650e-01 -1.696570384383008e-17
 1.429999999999999e+00 -8.256108849411650e-01 -1.696570384383008e-17
 1.429999999999999e+00 -8.256108849411650e-01 -1.696570384383008e-17
 1.429999999999999e+00 -8.256108849411650e-01 -1.696570384383008e-17
 1.429999999999999e+00 -8.256108849411650e-01 -1.696570384383008e-17
 1.429999999999999e+00 -8.256108849411650e-01 -1.696570384383008e-17
 1.429999999999999e+00 -8.256108849411650e-01 -1.696570384383008e-17
 1.429999999999999e+00 -8.256108849411650e-01 -1.696570384383008e-17
 1.429999999999999e+00 -8.256108849411650e-01 -1.696570384383008e-17
 1.429999999999999e+00 -8.256108849411650e-01 -1.696570384383008e-17
 1.429999999999999e+00 -8.256108849411650e-01 -1.696570384383008e-17
 1.429999999999999e+00 -8.256108849411650e-01 -1.696570384383008e-17
 1.429999999999999e+00 -8.256108849411650e-01 -1.696570384383008e-17
 1.429999999999999e+00 -8.256108849411650e-01 -1.696570384383008e-17
 1.429999999999999e+00 -8.256108849411650e-01 -1.696570384383008e-17
 1.429999999999999e+00 -8.256108849411650e-01 -1.696570384383008e-17
 1.429999999999999e+00 -8.256108849411650e-01 -1.696570384383008e-17
 1.429999999999999e+00 -8.256108849411650e-01 -1.696570384383008e-17
 1.429999999999999e+00 -8.256108849411650e-01 -1.696570384383008e-17
 1.429999999999999e+00 -8.256108849411650e-01 -1.696570384383008e-17
 1.429999999999999e+00 -8.256108849411650e-01 -1.696570384383008e-17
 1.429999999999999e+00 -8.256108849411650e-01 -1.696570384383008e-17
 1.429999999999999e+00 -8.256108849411650e-01 -1.696570384383008e-17
 1.429999999999999e+00 -8.256108849411650e-01 -1.696570384383008e-17
 1.429999999999999e+00 -8.256108849411650e-01 -1.696570384383008e-17
 1.429999999999999e+00 -8.256108849411650e-01 -1.696570384383008e-17
 1.429999999999999e+00 -8.256108849411650e-01 -1.696570384383008e-17
 1.429999999999999e+00 -8.256108849411650e-01 -1.696570384383008e-17
 1.429999999999999e+00 -8.256108849411650e-01 -1.696570384383008e-17
 1.429999999999999e+00 -8.256108849411650e-01 -1.696570384383008e-17
 1.429999999999999e+00 -8.256108849411650e-01 -1.696570384383008e-17
 1.429999999999999e+00 -8.256108849411650e-01 -1.696570384383008e-17
 1.429999999999999e+00 -8.256108849411650e-01 -1.696570384383008e-17
 1.429999999999999e+00 -8.256108849411650e-01 -1.696570384383008e-17
 1.429999999999999e+00 -8.256108849411650e-01 -1.696570384383008e-17
 1.429999999999999e+00 -8.256108849411650e-01 -1.696570384383008e-17
 1.429999999999999e+00 -8.256108849411650e-01 -1.696570384383008e-17

VECTORS burgers_vector_local double
-1.666666666666667e-01 -3.333333333333333e-01 -1.666666666666665e-01
1.666666666666667e-01 3.333333333333333e-01 1.666666666666665e-01
-1.666666666666667e-01 -3.333333333333333e-01 -1.666666666666665e-01
-1.666666666666667e-01 -3.333333333333333e-01 -1.666666666666665e-01
-1.666666666666667e-01 -3.333333333333333e-01 -1.666666666666665e-01
-1.666666666666667e-01 -3.333333333333333e-01 -1.666666666666665e-01
-1.666666666666667e-01 -3.333333333333333e-01 -1.666666666666665e-01
-1.666666666666667e-01 -3.333333333333333e-01 -1.666666666666665e-01
-1.666666666666667e-01 -3.333333333333333e-01 -1.666666666666665e-01
-1.666666666666667e-01 -3.333333333333333e-01 -1.666666666666665e-01
-1.666666666666667e-01 -3.333333333333333e-01 -1.666666666666665e-01
-1.666666666666667e-01 -3.333333333333333e-01 -1.666666666666665e-01
-1.666666666666667e-01 -3.333333333333333e-01 -1.666666666666665e-01
-1.666666666666667e-01 -3.333333333333333e-01 -1.666666666666665e-01
-1.666666666666667e-01 -3.333333333333333e-01 -1.666666666666665e-01
-1.666666666666667e-01 -3.333333333333333e-01 -1.666666666666665e-01
-1.666666666666667e-01 -3.333333333333333e-01 -1.666666666666665e-01
-1.666666666666667e-01 -3.333333333333333e-01 -1.666666666666665e-01
-1.666666666666667e-01 -3.333333333333333e-01 -1.666666666666665e-01
-1.666666666666667e-01 -3.333333333333333e-01 -1.666666666666665e-01
-1.666666666666667e-01 -3.333333333333333e-01 -1.666666666666665e-01
-1.666666666666667e-01 -3.333333333333333e-01 -1.666666666666665e-01
-1.666666666666667e-01 -3.333333333333333e-01 -1.666666666666665e-01
-1.666666666666667e-01 -3.333333333333333e-01 -1.666666666666665e-01
-1.666666666666667e-01 -3.333333333333333e-01 -1.666666666666665e-01
-1.666666666666667e-01 -3.333333333333333e-01 -1.666666666666665e-01
-1.666666666666667e-01 -3.333333333333333e-01 -1.666666666666665e-01
-1.666666666666667e-01 -3.333333333333333e-01 -1.666666666666665e-01
-1.666666666666667e-01 -3.333333333333333e-01 -1.666666666666665e-01
-1.666666666666667e-01 -3.333333333333333e-01 -1.666666666666665e-01
-1.666666666666667e-01 -3.333333333333333e-01 -1.666666666666665e-01
-1.666666666666667e-01 -3.333333333333333e-01 -1.666666666666665e-01
-1.666666666666667e-01 -3.333333333333333e-01 -1.666666666666665e-01
-1.666666666666667e-01 -3.333333333333333e-01 -1.666666666666665e-01
-1.666666666666667e-01 -3.333333333333333e-01 -1.666666666666665e-01
-1.666666666666667e-01 -3.333333333333333e-01 -1.666666666666665e-01
-1.666666666666667e-01 -3.333333333333333e-01 -1.666666666666665e-01
-1.666666666666667e-01 -3.333333333333333e-01 -1.666666666666665e-01
-1.666666666666667e-01 -3.333333333333333e-01 -1.666666666666665e-01
-1.666666666666667e-01 -3.333333333333333e-01 -1.666666666666665e-01
-1.666666666666667e-01 -3.333333333333333e-01 -1.666666666666665e-01
-1.666666666666667e-01 -3.333333333333333e-01 -1.666666666666665e-01
-1.666666666666667e-01 -3.333333333333333e-01 -1.666666666666665e-01
-1.666666666666667e-01 -3.333333333333333e-01 -1.666666666666665e-01
-1.666666666666667e-01 -3.333333333333333e-01 -1.666666666666665e-01
-1.666666666666667e-01 -3.333333333333333e-01 -1.666666666666665e-01
-1.666666666666667e-01 -3.333333333333333e-01 -1.666666666666665e-01
-1.666666666666667e-01 -3.333333333333333e-01 -1.666666666666665e-01
-1.666666666666667e-01 -3.333333333333333e-01 -1.666666666666665e-01
-1.666666666666667e-01 -3.333333333333333e-01 -1.666666666666665e-01
-1.666666666666667e-01 -3.333333333333333e-01 -1.666666666666665e-01
-1.666666666666667e-01 -3.333333333333333e-01 -1.666666666666665e-01
-1.666666666666667e-01 -3.333333333333333e-01 -1.666666666666665e-01
-1.666666666666667e-01 -3.333333333333333e-01 -1.666666666666665e-01
-1.666666666666667e-01 -3.333333333333333e-01 -1.666666666666665e-01
-1.666666666666667e-01 -3.333333333333333e-01 -1.666666666666665e-01
-1.666666666666667e-01 -3.333333333333333e-01 -1.666666666666665e-01
-1.666666666666667e-01 -3.333333333333333e-01 -1.666666666666665e-01
-1.666666666666667e-01 -3.333333333333333e-01 -1.666666666666665e-01
-1.666666666666667e-01 -3.333333333333333e-01 -1.666666666666665e-01
-1.666666666666667e-01 -3.333333333333333e-01 -1.666666666666665e-01
-1.666666666666667e-01 -3.333333333333333e-01 -1.666666666666665e-01
-1.666666666666667e-01 -3.333333333333333e-01 -1.666666666666665e-01
-1.666666666666667e-01 -3.333333333333333e-01 -1.666666666666665e-01
-1.666666666666667e-01 -3.333333333333333e-01 -1.666666666666665e-01
-1.666666666666667e-01 -3.333333333333333e-01 -1.666666666666665e-01
-1.666666666666667e-01 -3.333333333333333e-01 -1.666666666666665e-01
-1.666666666666667e-01 -3.333333333333333e-01 -1.666666666666665e-01
-1.666666666666667e-01 -3.333333333333333e-01 -1.666666666666665e-01
-1.666666666666667e-01 -3.333333333333333e-01 -1.666666666666665e-01
-1.666666666666667e-01 -3.333333333333333e-01 -1.666666666666665e-01
-1.666666666666667e-01 -3.333333333333333e-01 -1.666666666666665e-01
-1.666666666666667e-01 -3.333333333333333e-01 -1.666666666666665e-01
-1.666666666666667e-01 -3.333333333333333e-01 -1.666666666666665e-01
-1.666666666666667e-01 -3.333333333333333e-01 -1.666666666666665e-01
-1.666666666666667e-01 -3.333333333333333e-01 -1.666666666666665e-01
-1.666666666666667e-01 -3.333333333333333e-01 -1.666666666666665e-01
-1.666666666666667e-01 -3.333333333333333e-01 -1.666666666666665e-01
-1.666666666666667e-01 -3.333333333333333e-01 -1.666666666666665e-01
-1.666666666666667e-01 -3.333333333333333e-01 -1.666666666666665e-01
-1.666666666666667e-01 -3.333333333333333e-01 -1.666666666666665e-01
-1.666666666666667e-01 -3.333333333333333e-01 -1.666666666666665e-01
-1.666666666666667e-01 -3.333333333333333e-01 -1.666666666666665e-01
-1.666666666666667e-01 -3.333333333333333e-01 -1.666666666666665e-01
-1.666666666666667e-01 -3.333333333333333e-01 -1.666666666666665e-01
-1.666666666666667e-01 -3.333333333333333e-01 -1.666666666666665e-01
-1.666666666666667e-01 -3.333333333333333e-01 -1.666666666666665e-01
-1.666666666666667e-01 -3.333333333333333e-01 -1.666666666666665e-01
-1.666666666666667e-01 -3.333333333333333e-01 -1.666666666666665e-01
-1.666666666666667e-01 -3.333333333333333e-01 -1.666666666666665e-01
-1.666666666666667e-01 -3.333333333333333e-01 -1.666666666666665e-01
-1.666666666666667e-01 -3.333333333333333e-01 -1.666666666666665e-01
-1.666666666666667e-01 -3.333333333333333e-01 -1.666666666666665e-01
-1.666666666666667e-01 -3.333333333333333e-01 -1.666666666666665e-01
-1.666666666666667e-01 -3.333333333333333e-01 -1.666666666666665e-01
-1.666666666666667e-01 -3.333333333333333e-01 -1.666666666666665e-01
-1.666666666666667e-01 -3.333333333333333e-01 -1.666666666666665e-01
-1.666666666666667e-01 -3.333333333333333e-01 -1.666666666666665e-01
-1.666666666666667e-01 -3.333333333333333e-01 -1.666666666666665e-01
-1.666666666666667e-01 -3.333333333333333e-01 -1.666666666666665e-01
-1.666666666666667e-01 -3.333333333333333e-01 -1.666666666666665e-01
-1.666666666666667e-01 -3.333333333333333e-01 -1.666666666666665e-01
-1.666666666666667e-01 -3.333333333333333e-01 -1.666666666666665e-01
-1.666666666666667e-01 -3.333333333333333e-01 -1.666666666666665e-01
-1.666666666666667e-01 -3.333333333333333e-01 -1.666666666666665e-01
-1.666666666666667e-01 -3.333333333333333e-01 -1.666666666666665e-01
-1.666666666666667e-01 -3.333333333333333e-01 -1.666666666666665e-01
-1.666666666666667e-01 -3.333333333333333e-01 -1.666666666666665e-01
-1.666666666666667e-01 -3.333333333333333e-01 -1.666666666666665e-01
-1.666666666666667e-01 -3.333333333333333e-01 -1.666666666666665e-01
-1.666666666666667e-01 -3.333333333333333e-01 -1.666666666666665e-01
-1.666666666666667e-01 -3.333333333333333e-01 -1.666666666666665e-01
-1.666666666666667e-01 -3.333333333333333e-01 -1.666666666666665e-01
-1.666666666666667e-01 -3.333333333333333e-01 -1.666666666666665e-01
-1.666666666666667e-01 -3.333333333333333e-01 -1.666666666666665e-01
-1.666666666666667e-01 -3.333333333333333e-01 -1.666666666666665e-01
-1.666666666666667e-01 -3.333333333333333e-01 -1.666666666666665e-01
-1.666666666666667e-01 -3.333333333333333e-01 -1.666666666666665e-01
-1.666666666666667e-01 -3.333333333333333e-01 -1.666666666666665e-01
-1.666666666666667e-01 -3.333333333333333e-01 -1.666666666666665e-01
-1.666666666666667e-01 -3.333333333333333e-01 -1.666666666666665e-01
-1.666666666666667e-01 -3.333333333333333e-01 -1.666666666666665e-01
-1.666666666666667e-01 -3.333333333333333e-01 -1.666666666666665e-01
-1.666666666666667e-01 -3.333333333333333e-01 -1.666666666666665e-01
-1.666666666666667e-01 -3.333333333333333e-01 -1.666666666666665e-01
-1.666666666666667e-01 -3.333333333333333e-01 -1.666666666666665e-01
-1.666666666666667e-01 -3.333333333333333e-01 -1.666666666666665e-01
-1.666666666666667e-01 -3.333333333333333e-01 -1.666666666666665e-01
-1.666666666666667e-01 -3.333333333333333e-01 -1.666666666666665e-01
-1.666666666666667e-01 -3.333333333333333e-01 -1.666666666666665e-01
-1.666666666666667e-01 -3.333333333333333e-01 -1.666666666666665e-01
-1.666666666666667e-01 -3.333333333333333e-01 -1.666666666666665e-01
-1.666666666666667e-01 -3.333333333333333e-01 -1.666666666666665e-01
-1.666666666666667e-01 -3.333333333333333e-01 -1.666666666666665e-01
-1.666666666666667e-01 -3.333333333333333e-01 -1.666666666666665e-01
-1.666666666666667e-01 -3.333333333333333e-01 -1.666666666666665e-01
-1.666666666666667e-01 -3.333333333333333e-01 -1.666666666666665e-01
-1.666666666666667e-01 -3.333333333333333e-01 -1.666666666666665e-01
-1.666666666666667e-01 -3.333333333333333e-01 -1.666666666666665e-01
-1.666666666666667e-01 -3.333333333333333e-01 -1.666666666666665e-01
-1.666666666666667e-01 -3.333333333333333e-01 -1.666666666666665e-01
-1.666666666666667e-01 -3.333333333333333e-01 -1.666666666666665e-01
-1.666666666666667e-01 -3.333333333333333e-01 -1.666666666666665e-01
-1.666666666666667e-01 -3.333333333333333e-01 -1.666666666666665e-01
-1.666666666666667e-01 -3.333333333333333e-01 -1.666666666666665e-01
-1.666666666666667e-01 -3.333333333333333e-01 -1.666666666666665e-01
-1.666666666666667e-01 -3.333333333333333e-01 -1.666666666666665e-01
-1.666666666666667e-01 -3.333333333333333e-01 -1.666666666666665e-01
-1.666666666666667e-01 -3.333333333333333e-01 -1.666666666666665e-01
-1.666666666666667e-01 -3.333333333333333e-01 -1.666666666666665e-01
-1.666666666666667e-01 -3.333333333333333e-01 -1.666666666666665e-01
-1.666666666666667e-01 -3.333333333333333e-01 -1.666666666666665e-01
-1.666666666666667e-01 -3.333333333333333e-01 -1.666666666666665e-01
-1.666666666666667e-01 -3.333333333333333e-01 -1.666666666666665e-01
-1.666666666666667e-01 -3.333333333333333e-01 -1.666666666666665e-01
-1.666666666666667e-01 -3.333333333333333e-01 -1.666666666666665e-01
-1.666666666666667e-01 -3.333333333333333e-01 -1.666666666666665e-01
-1.666666666666667e-01 -3.333333333333333e-01 -1.666666666666665e-01
-1.666666666666667e-01 -3.333333333333333e-01 -1.666666666666665e-01
-1.666666666666667e-01 -3.333333333333333e-01 -1.666666666666665e-01
-1.666666666666667e-01 -3.333333333333333e-01 -1.666666666666665e-01
-1.666666666666667e-01 -3.333333333333333e-01 -1.666666666666665e-01
-1.666666666666667e-01 -3.333333333333333e-01 -1.666666666666665e-01
-1.666666666666667e-01 -3.333333333333333e-01 -1.666666666666665e-01
-1.666666666666667e-01 -3.333333333333333e-01 -1.666666666666665e-01
-1.666666666666667e-01 -3.333333333333333e-01 -1.666666666666665e-01
-1.666666666666667e-01 -3.333333333333333e-01 -1.666666666666665e-01
-1.666666666666667e-01 -3.333333333333333e-01 -1.666666666666665e-01
-1.666666666666667e-01 -3.333333333333333e-01 -1.666666666666665e-01
-1.666666666666667e-01 -3.333333333333333e-01 -1.666666666666665e-01
-1.666666666666667e-01 -3.333333333333333e-01 -1.666666666666665e-01
-1.666666666666667e-01 -3.333333333333333e-01 -1.666666666666665e-01
-1.666666666666667e-01 -3.333333333333333e-01 -1.666666666666665e-01
-1.666666666666667e-01 -3.333333333333333e-01 -1.666666666666665e-01
-1.666666666666667e-01 -3.333333333333333e-01 -1.666666666666665e-01
-1.666666666666667e-01 -3.333333333333333e-01 -1.666666666666665e-01
-1.666666666666667e-01 -3.333333333333333e-01 -1.666666666666665e-01
-1.666666666666667e-01 -3.333333333333333e-01 -1.666666666666665e-01
-1.666666666666667e-01 -3.333333333333333e-01 -1.666666666666665e-01
-1.666666666666667e-01 -3.333333333333333e-01 -1.666666666666665e-01
-1.666666666666667e-01 -3.333333333333333e-01 -1.666666666666665e-01
-1.666666666666667e-01 -3.333333333333333e-01 -1.666666666666665e-01
-1.666666666666667e-01 -3.333333333333333e-01 -1.666666666666665e-01
-1.666666666666667e-01 -3.333333333333333e-01 -1.666666666666665e-01
-1.666666666666667e-01 -3.333333333333333e-01 -1.666666666666665e-01
-1.666666666666667e-01 -3.333333333333333e-01 -1.666666666666665e-01
-1.666666666666667e-01 -3.333333333333333e-01 -1.666666666666665e-01
-1.666666666666667e-01 -3.333333333333333e-01 -1.666666666666665e-01
-1.666666666666667e-01 -3.333333333333333e-01 -1.666666666666665e-01
-1.666666666666667e-01 -3.333333333333333e-01 -1.666666666666665e-01
-1.666666666666667e-01 -3.333333333333333e-01 -1.666666666666665e-01
-1.666666666666667e-01 -3.333333333333333e-01 -1.666666666666665e-01
-1.666666666666667e-01 -3.333333333333333e-01 -1.666666666666665e-01
-1.666666666666667e-01 -3.333333333333333e-01 -1.666666666666665e-01
-1.666666666666667e-01 -3.333333333333333e-01 -1.666666666666665e-01
-1.666666666666667e-01 -3.333333333333333e-01 -1.666666666666665e-01
-1.666666666666667e-01 -3.333333333333333e-01 -1.666666666666665e-01
-1.666666666666667e-01 -3.333333333333333e-01 -1.666666666666665e-01
-1.666666666666667e-01 -3.333333333333333e-01 -1.666666666666665e-01
-1.666666666666667e-01 -3.333333333333333e-01 -1.666666666666665e-01
-1.666666666666667e-01 -3.333333333333333e-01 -1.666666666666665e-01
-1.666666666666667e-01 -3.333333333333333e-01 -1.666666666666665e-01
-1.666666666666667e-01 -3.333333333333333e-01 -1.666666666666665e-01
1.666666666666667e-01 3.333333333333333e-01 1.666666666666665e-01
-1.666666666666667e-01 -3.333333333333333e-01 -1.666666666666665e-01
-1.666666666666667e-01 -3.333333333333333e-01 -1.666666666666665e-01
-1.666666666666667e-01 -3.333333333333333e-01 -1.666666666666665e-01
-1.666666666666667e-01 -3.333333333333333e-01 -1.666666666666665e-01
-1.666666666666667e-01 -3.333333333333333e-01 -1.666666666666665e-01
-1.666666666666667e-01 -3.333333333333333e-01 -1.666666666666665e-01
-1.666666666666667e-01 -3.333333333333333e-01 -1.666666666666665e-01
-1.666666666666667e-01 -3.333333333333333e-01 -1.666666666666665e-01
-1.666666666666667e-01 -3.333333333333333e-01 -1.666666666666665e-01
-1.666666666666667e-01 -3.333333333333333e-01 -1.666666666666665e-01
-1.666666666666667e-01 -3.333333333333333e-01 -1.666666666666665e-01
-1.666666666666667e-01 -3.333333333333333e-01 -1.666666666666665e-01
-1.666666666666667e-01 -3.333333333333333e-01 -1.666666666666665e-01
-1.666666666666667e-01 -3.333333333333333e-01 -1.666666666666665e-01
-1.666666666666667e-01 -3.333333333333333e-01 -1.666666666666665e-01
-1.666666666666667e-01 -3.333333333333333e-01 -1.666666666666665e-01
-1.666666666666667e-01 -3.333333333333333e-01 -1.666666666666665e-01
-1.666666666666667e-01 -3.333333333333333e-01 -1.666666666666665e-01
-1.666666666666667e-01 -3.333333333333333e-01 -1.666666666666665e-01
-1.666666666666667e-01 -3.333333333333333e-01 -1.666666666666665e-01
-1.666666666666667e-01 -3.333333333333333e-01 -1.666666666666665e-01
-1.666666666666667e-01 -3.333333333333333e-01 -1.666666666666665e-01
-1.666666666666667e-01 -3.333333333333333e-01 -1.666666666666665e-01
-1.666666666666667e-01 -3.333333333333333e-01 -1.666666666666665e-01
-1.666666666666667e-01 -3.333333333333333e-01 -1.666666666666665e-01
-1.666666666666667e-01 -3.333333333333333e-01 -1.666666666666665e-01
-1.666666666666667e-01 -3.333333333333333e-01 -1.666666666666665e-01
-1.666666666666667e-01 -3.333333333333333e-01 -1.666666666666665e-01
-1.666666666666667e-01 -3.333333333333333e-01 -1.666666666666665e-01
-1.666666666666667e-01 -3.333333333333333e-01 -1.666666666666665e-01
-1.666666666666667e-01 -3.333333333333333e-01 -1.666666666666665e-01
-1.666666666666667e-01 -3.333333333333333e-01 -1.666666666666665e-01
-1.666666666666667e-01 -3.333333333333333e-01 -1.666666666666665e-01
-1.666666666666667e-01 -3.333333333333333e-01 -1.666666666666665e-01
-1.666666666666667e-01 -3.333333333333333e-01 -1.666666666666665e-01
-1.666666666666667e-01 -3.333333333333333e-01 -1.666666666666665e-01
-1.666666666666667e-01 -3.333333333333333e-01 -1.666666666666665e-01
-1.666666666666667e-01 -3.333333333333333e-01 -1.666666666666665e-01
-1.666666666666667e-01 -3.333333333333333e-01 -1.666666666666665e-01
-1.666666666666667e-01 -3.333333333333333e-01 -1.666666666666665e-01
-1.666666666666667e-01 -3.333333333333333e-01 -1.666666666666665e-01
-1.666666666666667e-01 -3.333333333333333e-01 -1.666666666666665e-01
-1.666666666666667e-01 -3.333333333333333e-01 -1.666666666666665e-01
-1.666666666666667e-01 -3.333333333333333e-01 -1.666666666666665e-01
-1.666666666666667e-01 -3.333333333333333e-01 -1.666666666666665e-01
-1.666666666666667e-01 -3.333333333333333e-01 -1.666666666666665e-01
-1.666666666666667e-01 -3.333333333333333e-01 -1.666666666666665e-01
-1.666666666666667e-01 -3.333333333333333e-01 -1.666666666666665e-01
-1.666666666666667e-01 -3.333333333333333e-01 -1.666666666666665e-01
-1.666666666666667e-01 -3.333333333333333e-01 -1.666666666666665e-01
-1.666666666666667e-01 -3.333333333333333e-01 -1.666666666666665e-01
-1.666666666666667e-01 -3.333333333333333e-01 -1.666666666666665e-01
-1.666666666666667e-01 -3.333333333333333e-01 -1.666666666666665e-01
-1.666666666666667e-01 -3.333333333333333e-01 -1.666666666666665e-01
-1.666666666666667e-01 -3.333333333333333e-01 -1.666666666666665e-01
-1.666666666666667e-01 -3.333333333333333e-01 -1.666666666666665e-01
-1.666666666666667e-01 -3.333333333333333e-01 -1.666666666666665e-01
-1.666666666666667e-01 -3.333333333333333e-01 -1.666666666666665e-01
-1.666666666666667e-01 -3.333333333333333e-01 -1.666666666666665e-01
-1.666666666666667e-01 -3.333333333333333e-01 -1.666666666666665e-01
-1.666666666666667e-01 -3.333333333333333e-01 -1.666666666666665e-01
-1.666666666666667e-01 -3.333333333333333e-01 -1.666666666666665e-01
-1.666666666666667e-01 -3.333333333333333e-01 -1.666666666666665e-01
-1.666666666666667e-01 -3.333333333333333e-01 -1.666666666666665e-01
-1.666666666666667e-01 -3.333333333333333e-01 -1.666666666666665e-01
-1.666666666666667e-01 -3.333333333333333e-01 -1.666666666666665e-01
-1.666666666666667e-01 -3.333333333333333e-01 -1.666666666666665e-01
-1.666666666666667e-01 -3.333333333333333e-01 -1.666666666666665e-01
-1.666666666666667e-01 -3.333333333333333e-01 -1.666666666666665e-01
-1.666666666666667e-01 -3.333333333333333e-01 -1.666666666666665e-01
-1.666666666666667e-01 -3.333333333333333e-01 -1.666666666666665e-01
-1.666666666666667e-01 -3.333333333333333e-01 -1.666666666666665e-01
-1.666666666666667e-01 -3.333333333333333e-01 -1.666666666666665e-01
-1.666666666666667e-01 -3.333333333333333e-01 -1.666666666666665e-01
-1.666666666666667e-01 -3.333333333333333e-01 -1.666666666666665e-01
-1.666666666666667e-01 -3.333333333333333e-01 -1.666666666666665e-01
-1.666666666666667e-01 -3.333333333333333e-01 -1.666666666666665e-01
-1.666666666666667e-01 -3.333333333333333e-01 -1.666666666666665e-01
-1.666666666666667e-01 -3.333333333333333e-01 -1.666666666666665e-01
-1.666666666666667e-01 -3.333333333333333e-01 -1.666666666666665e-01
-1.666666666666667e-01 -3.333333333333333e-01 -1.666666666666665e-01
-1.666666666666667e-01 -3.333333333333333e-01 -1.666666666666665e-01
-1.666666666666667e-01 -3.333333333333333e-01 -1.666666666666665e-01
-1.666666666666667e-01 -3.333333333333333e-01 -1.666666666666665e-01
-1.666666666666667e-01 -3.333333333333333e-01 -1.666666666666665e-01
-1.666666666666667e-01 -3.333333333333333e-01 -1.666666666666665e-01
-1.666666666666667e-01 -3.333333333333333e-01 -1.666666666666665e-01
-1.666666666666667e-01 -3.333333333333333e-01 -1.666666666666665e-01
-1.666666666666667e-01 -3.333333333333333e-01 -1.666666666666665e-01
-1.666666666666667e-01 -3.333333333333333e-01 -1.666666666666665e-01
-1.666666666666667e-01 -3.333333333333333e-01 -1.666666666666665e-01
-1.666666666666667e-01 -3.333333333333333e-01 -1.666666666666665e-01
-1.666666666666667e-01 -3.333333333333333e-01 -1.666666666666665e-01
-1.666666666666667e-01 -3.333333333333333e-01 -1.666666666666665e-01
-1.666666666666667e-01 -3.333333333333333e-01 -1.666666666666665e-01
-1.666666666666667e-01 -3.333333333333333e-01 -1.666666666666665e-01
-1.666666666666667e-01 -3.333333333333333e-01 -1.666666666666665e-01
-1.666666666666667e-01 -3.333333333333333e-01 -1.666666666666665e-01
-1.666666666666667e-01 -3.333333333333333e-01 -1.666666666666665e-01
-1.666666666666667e-01 -3.333333333333333e-01 -1.666666666666665e-01
-1.666666666666667e-01 -3.333333333333333e-01 -1.666666666666665e-01
-1.666666666666667e-01 -3.333333333333333e-01 -1.666666666666665e-01
-1.666666666666667e-01 -3.333333333333333e-01 -1.666666666666665e-01
-1.666666666666667e-01 -3.333333333333333e-01 -1.666666666666665e-01
-1.666666666666667e-01 -3.333333333333333e-01 -1.666666666666665e-01
-1.666666666666667e-01 -3.333333333333333e-01 -1.666666666666665e-01
-1.666666666666667e-01 -3.333333333333333e-01 -1.666666666666665e-01
-1.666666666666667e-01 -3.333333333333333e-01 -1.666666666666665e-01
-1.666666666666667e-01 -3.333333333333333e-01 -1.666666666666665e-01
-1.666666666666667e-01 -3.333333333333333e-01 -1.666666666666665e-01
-1.666666666666667e-01 -3.333333333333333e-01 -1.666666666666665e-01
-1.666666666666667e-01 -3.333333333333333e-01 -1.666666666666665e-01
-1.666666666666667e-01 -3.333333333333333e-01 -1.666666666666665e-01
-1.666666666666667e-01 -3.333333333333333e-01 -1.666666666666665e-01
-1.666666666666667e-01 -3.333333333333333e-01 -1.666666666666665e-01
-1.666666666666667e-01 -3.333333333333333e-01 -1.666666666666665e-01
-1.666666666666667e-01 -3.333333333333333e-01 -1.666666666666665e-01
-1.666666666666667e-01 -3.333333333333333e-01 -1.666666666666665e-01
-1.666666666666667e-01 -3.333333333333333e-01 -1.666666666666665e-01
-1.666666666666667e-01 -3.333333333333333e-01 -1.666666666666665e-01
-1.666666666666667e-01 -3.333333333333333e-01 -1.666666666666665e-01
-1.666666666666667e-01 -3.333333333333333e-01 -1.666666666666665e-01
-1.666666666666667e-01 -3.333333333333333e-01 -1.666666666666665e-01
-1.666666666666667e-01 -3.333333333333333e-01 -1.666666666666665e-01
-1.666666666666667e-01 -3.333333333333333e-01 -1.666666666666665e-01
-1.666666666666667e-01 -3.333333333333333e-01 -1.666666666666665e-01
-1.666666666666667e-01 -3.333333333333333e-01 -1.666666666666665e-01
-1.666666666666667e-01 -3.333333333333333e-01 -1.666666666666665e-01
-1.666666666666667e-01 -3.333333333333333e-01 -1.666666666666665e-01
-1.666666666666667e-01 -3.333333333333333e-01 -1.666666666666665e-01
-1.666666666666667e-01 -3.333333333333333e-01 -1.666666666666665e-01
-1.666666666666667e-01 -3.333333333333333e-01 -1.666666666666665e-01
-1.666666666666667e-01 -3.333333333333333e-01 -1.666666666666665e-01
-1.666666666666667e-01 -3.333333333333333e-01 -1.666666666666665e-01
-1.666666666666667e-01 -3.333333333333333e-01 -1.666666666666665e-01
-1.666666666666667e-01 -3.333333333333333e-01 -1.666666666666665e-01
-1.666666666666667e-01 -3.333333333333333e-01 -1.666666666666665e-01
-1.666666666666667e-01 -3.333333333333333e-01 -1.666666666666665e-01
-1.666666666666667e-01 -3.333333333333333e-01 -1.666666666666665e-01
-1.666666666666667e-01 -3.333333333333333e-01 -1.666666666666665e-01
-1.666666666666667e-01 -3.333333333333333e-01 -1.666666666666665e-01
-1.666666666666667e-01 -3.333333333333333e-01 -1.666666666666665e-01
-1.666666666666667e-01 -3.333333333333333e-01 -1.666666666666665e-01
-1.666666666666667e-01 -3.333333333333333e-01 -1.666666666666665e-01
-1.666666666666667e-01 -3.333333333333333e-01 -1.666666666666665e-01
-1.666666666666667e-01 -3.333333333333333e-01 -1.666666666666665e-01
-1.666666666666667e-01 -3.333333333333333e-01 -1.666666666666665e-01
-1.666666666666667e-01 -3.333333333333333e-01 -1.666666666666665e-01
-1.666666666666667e-01 -3.333333333333333e-01 -1.666666666666665e-01
-1.666666666666667e-01 -3.333333333333333e-01 -1.666666666666665e-01
-1.666666666666667e-01 -3.333333333333333e-01 -1.666666666666665e-01
-1.666666666666667e-01 -3.333333333333333e-01 -1.666666666666665e-01
-1.666666666666667e-01 -3.333333333333333e-01 -1.666666666666665e-01
-1.666666666666667e-01 -3.333333333333333e-01 -1.666666666666665e-01
-1.666666666666667e-01 -3.333333333333333e-01 -1.666666666666665e-01
-1.666666666666667e-01 -3.333333333333333e-01 -1.666666666666665e-01
-1.666666666666667e-01 -3.333333333333333e-01 -1.666666666666665e-01
-1.666666666666667e-01 -3.333333333333333e-01 -1.666666666666665e-01
-1.666666666666667e-01 -3.333333333333333e-01 -1.666666666666665e-01
-1.666666666666667e-01 -3.333333333333333e-01 -1.666666666666665e-01
-1.666666666666667e-01 -3.333333333333333e-01 -1.666666666666665e-01
-1.666666666666667e-01 -3.333333333333333e-01 -1.666666666666665e-01
-1.666666666666667e-01 -3.333333333333333e-01 -1.666666666666665e-01
-1.666666666666667e-01 -3.333333333333333e-01 -1.666666666666665e-01
-1.666666666666667e-01 -3.333333333333333e-01 -1.666666666666665e-01
-1.666666666666667e-01 -3.333333333333333e-01 -1.666666666666665e-01
-1.666666666666667e-01 -3.333333333333333e-01 -1.666666666666665e-01
-1.666666666666667e-01 -3.333333333333333e-01 -1.666666666666665e-01
-1.666666666666667e-01 -3.333333333333333e-01 -1.666666666666665e-01
-1.666666666666667e-01 -3.333333333333333e-01 -1.666666666666665e-01
-1.666666666666667e-01 -3.333333333333333e-01 -1.666666666666665e-01
-1.666666666666667e-01 -3.333333333333333e-01 -1.666666666666665e-01
-1.666666666666667e-01 -3.333333333333333e-01 -1.666666666666665e-01
-1.666666666666667e-01 -3.333333333333333e-01 -1.666666666666665e-01
-1.666666666666667e-01 -3.333333333333333e-01 -1.666666666666665e-01
-1.666666666666667e-01 -3.333333333333333e-01 -1.666666666666665e-01
-1.666666666666667e-01 -3.333333333333333e-01 -1.666666666666665e-01
-1.666666666666667e-01 -3.333333333333333e-01 -1.666666666666665e-01
-1.666666666666667e-01 -3.333333333333333e-01 -1.666666666666665e-01
-1.666666666666667e-01 -3.333333333333333e-01 -1.666666666666665e-01
-1.666666666666667e-01 -3.333333333333333e-01 -1.666666666666665e-01
-1.666666666666667e-01 -3.333333333333333e-01 -1.666666666666665e-01
-1.666666666666667e-01 -3.333333333333333e-01 -1.666666666666665e-01
-1.666666666666667e-01 -3.333333333333333e-01 -1.666666666666665e-01
-1.666666666666667e-01 -3.333333333333333e-01 -1.666666666666665e-01
-1.666666666666667e-01 -3.333333333333333e-01 -1.666666666666665e-01
-1.666666666666667e-01 -3.333333333333333e-01 -1.666666666666665e-01
-1.666666666666667e-01 -3.333333333333333e-01 -1.666666666666665e-01
-1.666666666666667e-01 -3.333333333333333e-01 -1.666666666666665e-01
-1.666666666666667e-01 -3.333333333333333e-01 -1.666666666666665e-01
-1.666666666666667e-01 -3.333333333333333e-01 -1.666666666666665e-01
-1.666666666666667e-01 -3.333333333333333e-01 -1.666666666666665e-01
1.666666666666667e-01 3.333333333333333e-01 1.666666666666665e-01
-1.666666666666667e-01 -3.333333333333333e-01 -1.666666666666665e-01
1.666666666666667e-01 3.333333333333333e-01 1.666666666666665e-01
1.666666666666667e-01 3.333333333333333e-01 1.666666666666665e-01
1.666666666666667e-01 3.333333333333333e-01 1.666666666666665e-01
1.666666666666667e-01 3.333333333333333e-01 1.666666666666665e-01
1.666666666666667e-01 3.333333333333333e-01 1.666666666666665e-01
1.666666666666667e-01 3.333333333333333e-01 1.666666666666665e-01
1.666666666666667e-01 3.333333333333333e-01 1.666666666666665e-01
1.666666666666667e-01 3.333333333333333e-01 1.666666666666665e-01
1.666666666666667e-01 3.333333333333333e-01 1.666666666666665e-01
1.666666666666667e-01 3.333333333333333e-01 1.666666666666665e-01
1.666666666666667e-01 3.333333333333333e-01 1.666666666666665e-01
1.666666666666667e-01 3.333333333333333e-01 1.666666666666665e-01
1.666666666666667e-01 3.333333333333333e-01 1.666666666666665e-01
1.666666666666667e-01 3.333333333333333e-01 1.666666666666665e-01
1.666666666666667e-01 3.333333333333333e-01 1.666666666666665e-01
1.666666666666667e-01 3.333333333333333e-01 1.666666666666665e-01
1.666666666666667e-01 3.333333333333333e-01 1.666666666666665e-01
1.666666666666667e-01 3.333333333333333e-01 1.666666666666665e-01
1.666666666666667e-01 3.333333333333333e-01 1.666666666666665e-01
1.666666666666667e-01 3.333333333333333e-01 1.666666666666665e-01
1.666666666666667e-01 3.333333333333333e-01 1.666666666666665e-01
1.666666666666667e-01 3.333333333333333e-01 1.666666666666665e-01
1.666666666666667e-01 3.333333333333333e-01 1.666666666666665e-01
1.666666666666667e-01 3.333333333333333e-01 1.666666666666665e-01
1.666666666666667e-01 3.333333333333333e-01 1.666666666666665e-01
1.666666666666667e-01 3.333333333333333e-01 1.666666666666665e-01
1.666666666666667e-01 3.333333333333333e-01 1.666666666666665e-01
1.666666666666667e-01 3.333333333333333e-01 1.666666666666665e-01
1.666666666666667e-01 3.333333333333333e-01 1.666666666666665e-01
1.666666666666667e-01 3.333333333333333e-01 1.666666666666665e-01
1.666666666666667e-01 3.333333333333333e-01 1.666666666666665e-01
1.666666666666667e-01 3.333333333333333e-01 1.666666666666665e-01
1.666666666666667e-01 3.333333333333333e-01 1.666666666666665e-01
1.666666666666667e-01 3.333333333333333e-01 1.666666666666665e-01
1.666666666666667e-01 3.333333333333333e-01 1.666666666666665e-01
1.666666666666667e-01 3.333333333333333e-01 1.666666666666665e-01
1.666666666666667e-01 3.333333333333333e-01 1.666666666666665e-01
1.666666666666667e-01 3.333333333333333e-01 1.666666666666665e-01
1.666666666666667e-01 3.333333333333333e-01 1.666666666666665e-01
1.666666666666667e-01 3.333333333333333e-01 1.666666666666665e-01
1.666666666666667e-01 3.333333333333333e-01 1.666666666666665e-01
1.666666666666667e-01 3.333333333333333e-01 1.666666666666665e-01
1.666666666666667e-01 3.333333333333333e-01 1.666666666666665e-01
1.666666666666667e-01 3.333333333333333e-01 1.666666666666665e-01
1.666666666666667e-01 3.333333333333333e-01 1.666666666666665e-01
1.666666666666667e-01 3.333333333333333e-01 1.666666666666665e-01
1.666666666666667e-01 3.333333333333333e-01 1.666666666666665e-01
1.666666666666667e-01 3.333333333333333e-01 1.666666666666665e-01
1.666666666666667e-01 3.333333333333333e-01 1.666666666666665e-01
1.666666666666667e-01 3.333333333333333e-01 1.666666666666665e-01
1.666666666666667e-01 3.333333333333333e-01 1.666666666666665e-01
1.666666666666667e-01 3.333333333333333e-01 1.666666666666665e-01
1.666666666666667e-01 3.333333333333333e-01 1.666666666666665e-01
1.666666666666667e-01 3.333333333333333e-01 1.666666666666665e-01
1.666666666666667e-01 3.333333333333333e-01 1.666666666666665e-01
1.666666666666667e-01 3.333333333333333e-01 1.666666666666665e-01
1.666666666666667e-01 3.333333333333333e-01 1.666666666666665e-01
1.666666666666667e-01 3.333333333333333e-01 1.666666666666665e-01
1.666666666666667e-01 3.333333333333333e-01 1.666666666666665e-01
1.666666666666667e-01 3.333333333333333e-01 1.666666666666665e-01
1.666666666666667e-01 3.333333333333333e-01 1.666666666666665e-01
1.666666666666667e-01 3.333333333333333e-01 1.666666666666665e-01
1.666666666666667e-01 3.333333333333333e-01 1.666666666666665e-01
1.666666666666667e-01 3.333333333333333e-01 1.666666666666665e-01
1.666666666666667e-01 3.333333333333333e-01 1.666666666666665e-01
1.666666666666667e-01 3.333333333333333e-01 1.666666666666665e-01
1.666666666666667e-01 3.333333333333333e-01 1.666666666666665e-01
1.666666666666667e-01 3.333333333333333e-01 1.666666666666665e-01
1.666666666666667e-01 3.333333333333333e-01 1.666666666666665e-01
1.666666666666667e-01 3.333333333333333e-01 1.666666666666665e-01
1.666666666666667e-01 3.333333333333333e-01 1.666666666666665e-01
1.666666666666667e-01 3.333333333333333e-01 1.666666666666665e-01
1.666666666666667e-01 3.333333333333333e-01 1.666666666666665e-01
1.666666666666667e-01 3.333333333333333e-01 1.666666666666665e-01
1.666666666666667e-01 3.333333333333333e-01 1.666666666666665e-01
1.666666666666667e-01 3.333333333333333e-01 1.666666666666665e-01
1.666666666666667e-01 3.333333333333333e-01 1.666666666666665e-01
1.666666666666667e-01 3.333333333333333e-01 1.666666666666665e-01
1.666666666666667e-01 3.333333333333333e-01 1.666666666666665e-01
1.666666666666667e-01 3.333333333333333e-01 1.666666666666665e-01
1.666666666666667e-01 3.333333333333333e-01 1.666666666666665e-01
1.666666666666667e-01 3.333333333333333e-01 1.666666666666665e-01
1.666666666666667e-01 3.333333333333333e-01 1.666666666666665e-01
1.666666666666667e-01 3.333333333333333e-01 1.666666666666665e-01
1.666666666666667e-01 3.333333333333333e-01 1.666666666666665e-01
1.666666666666667e-01 3.333333333333333e-01 1.666666666666665e-01
1.666666666666667e-01 3.333333333333333e-01 1.666666666666665e-01
1.666666666666667e-01 3.333333333333333e-01 1.666666666666665e-01
1.666666666666667e-01 3.333333333333333e-01 1.666666666666665e-01
1.666666666666667e-01 3.333333333333333e-01 1.666666666666665e-01
1.666666666666667e-01 3.333333333333333e-01 1.666666666666665e-01
1.666666666666667e-01 3.333333333333333e-01 1.666666666666665e-01
1.666666666666667e-01 3.333333333333333e-01 1.666666666666665e-01
1.666666666666667e-01 3.333333333333333e-01 1.666666666666665e-01
1.666666666666667e-01 3.333333333333333e-01 1.666666666666665e-01
1.666666666666667e-01 3.333333333333333e-01 1.666666666666665e-01
1.666666666666667e-01 3.333333333333333e-01 1.666666666666665e-01
1.666666666666667e-01 3.333333333333333e-01 1.666666666666665e-01
1.666666666666667e-01 3.333333333333333e-01 1.666666666666665e-01
1.666666666666667e-01 3.333333333333333e-01 1.666666666666665e-01
1.666666666666667e-01 3.333333333333333e-01 1.666666666666665e-01
1.666666666666667e-01 3.333333333333333e-01 1.666666666666665e-01
1.666666666666667e-01 3.333333333333333e-01 1.666666666666665e-01
1.666666666666667e-01 3.333333333333333e-01 1.666666666666665e-01
1.666666666666667e-01 3.333333333333333e-01 1.666666666666665e-01
1.666666666666667e-01 3.333333333333333e-01 1.666666666666665e-01
1.666666666666667e-01 3.333333333333333e-01 1.666666666666665e-01
1.666666666666667e-01 3.333333333333333e-01 1.666666666666665e-01
1.666666666666667e-01 3.333333333333333e-01 1.666666666666665e-01
1.666666666666667e-01 3.333333333333333e-01 1.666666666666665e-01
1.666666666666667e-01 3.333333333333333e-01 1.666666666666665e-01
1.666666666666667e-01 3.333333333333333e-01 1.666666666666665e-01
1.666666666666667e-01 3.333333333333333e-01 1.666666666666665e-01
1.666666666666667e-01 3.333333333333333e-01 1.666666666666665e-01
1.666666666666667e-01 3.333333333333333e-01 1.666666666666665e-01
1.666666666666667e-01 3.333333333333333e-01 1.666666666666665e-01
1.666666666666667e-01 3.333333333333333e-01 1.666666666666665e-01
1.666666666666667e-01 3.333333333333333e-01 1.666666666666665e-01
1.666666666666667e-01 3.333333333333333e-01 1.666666666666665e-01
1.666666666666667e-01 3.333333333333333e-01 1.666666666666665e-01
1.666666666666667e-01 3.333333333333333e-01 1.666666666666665e-01
1.666666666666667e-01 3.333333333333333e-01 1.666666666666665e-01
1.666666666666667e-01 3.333333333333333e-01 1.666666666666665e-01
1.666666666666667e-01 3.333333333333333e-01 1.666666666666665e-01
1.666666666666667e-01 3.333333333333333e-01 1.666666666666665e-01
1.666666666666667e-01 3.333333333333333e-01 1.666666666666665e-01
1.666666666666667e-01 3.333333333333333e-01 1.666666666666665e-01
1.666666666666667e-01 3.333333333333333e-01 1.666666666666665e-01
1.666666666666667e-01 3.333333333333333e-01 1.666666666666665e-01
1.666666666666667e-01 3.333333333333333e-01 1.666666666666665e-01
1.666666666666667e-01 3.333333333333333e-01 1.666666666666665e-01
1.666666666666667e-01 3.333333333333333e-01 1.666666666666665e-01
1.666666666666667e-01 3.333333333333333e-01 1.666666666666665e-01
1.666666666666667e-01 3.333333333333333e-01 1.666666666666665e-01
1.666666666666667e-01 3.333333333333333e-01 1.666666666666665e-01
1.666666666666667e-01 3.333333333333333e-01 1.666666666666665e-01
1.666666666666667e-01 3.333333333333333e-01 1.666666666666665e-01
1.666666666666667e-01 3.333333333333333e-01 1.666666666666665e-01
1.666666666666667e-01 3.333333333333333e-01 1.666666666666665e-01
1.666666666666667e-01 3.333333333333333e-01 1.666666666666665e-01
1.666666666666667e-01 3.333333333333333e-01 1.666666666666665e-01
1.666666666666667e-01 3.333333333333333e-01 1.666666666666665e-01
1.666666666666667e-01 3.333333333333333e-01 1.666666666666665e-01
1.666666666666667e-01 3.333333333333333e-01 1.666666666666665e-01
1.666666666666667e-01 3.333333333333333e-01 1.666666666666665e-01
1.666666666666667e-01 3.333333333333333e-01 1.666666666666665e-01
1.666666666666667e-01 3.333333333333333e-01 1.666666666666665e-01
1.666666666666667e-01 3.333333333333333e-01 1.666666666666665e-01
1.666666666666667e-01 3.333333333333333e-01 1.666666666666665e-01
1.666666666666667e-01 3.333333333333333e-01 1.666666666666665e-01
1.666666666666667e-01 3.333333333333333e-01 1.666666666666665e-01
1.666666666666667e-01 3.333333333333333e-01 1.666666666666665e-01
1.666666666666667e-01 3.333333333333333e-01 1.666666666666665e-01
1.666666666666667e-01 3.333333333333333e-01 1.666666666666665e-01
1.666666666666667e-01 3.333333333333333e-01 1.666666666666665e-01
1.666666666666667e-01 3.333333333333333e-01 1.666666666666665e-01
1.666666666666667e-01 3.333333333333333e-01 1.666666666666665e-01
1.666666666666667e-01 3.333333333333333e-01 1.666666666666665e-01
1.666666666666667e-01 3.333333333333333e-01 1.666666666666665e-01
1.666666666666667e-01 3.333333333333333e-01 1.666666666666665e-01
1.666666666666667e-01 3.333333333333333e-01 1.666666666666665e-01
1.666666666666667e-01 3.333333333333333e-01 1.666666666666665e-01
1.666666666666667e-01 3.333333333333333e-01 1.666666666666665e-01
1.666666666666667e-01 3.333333333333333e-01 1.666666666666665e-01
1.666666666666667e-01 3.333333333333333e-01 1.666666666666665e-01
1.666666666666667e-01 3.333333333333333e-01 1.666666666666665e-01
1.666666666666667e-01 3.333333333333333e-01 1.666666666666665e-01
1.666666666666667e-01 3.333333333333333e-01 1.666666666666665e-01
1.666666666666667e-01 3.333333333333333e-01 1.666666666666665e-01
1.666666666666667e-01 3.333333333333333e-01 1.666666666666665e-01
1.666666666666667e-01 3.333333333333333e-01 1.666666666666665e-01
1.666666666666667e-01 3.333333333333333e-01 1.666666666666665e-01
1.666666666666667e-01 3.333333333333333e-01 1.666666666666665e-01
1.666666666666667e-01 3.333333333333333e-01 1.666666666666665e-01
1.666666666666667e-01 3.333333333333333e-01 1.666666666666665e-01
1.666666666666667e-01 3.333333333333333e-01 1.666666666666665e-01
1.666666666666667e-01 3.333333333333333e-01 1.666666666666665e-01
1.666666666666667e-01 3.333333333333333e-01 1.666666666666665e-01
1.666666666666667e-01 3.333333333333333e-01 1.666666666666665e-01
1.666666666666667e-01 3.333333333333333e-01 1.666666666666665e-01
1.666666666666667e-01 3.333333333333333e-01 1.666666666666665e-01
1.666666666666667e-01 3.333333333333333e-01 1.666666666666665e-01
1.666666666666667e-01 3.333333333333333e-01 1.666666666666665e-01
-1.666666666666667e-01 -3.333333333333333e-01 -1.666666666666665e-01
1.666666666666667e-01 3.333333333333333e-01 1.666666666666665e-01
1.666666666666667e-01 3.333333333333333e-01 1.666666666666665e-01
1.666666666666667e-01 3.333333333333333e-01 1.666666666666665e-01
1.666666666666667e-01 3.333333333333333e-01 1.666666666666665e-01
1.666666666666667e-01 3.333333333333333e-01 1.666666666666665e-01
1.666666666666667e-01 3.333333333333333e-01 1.666666666666665e-01
1.666666666666667e-01 3.333333333333333e-01 1.666666666666665e-01
1.666666666666667e-01 3.333333333333333e-01 1.666666666666665e-01
1.666666666666667e-01 3.333333333333333e-01 1.666666666666665e-01
1.666666666666667e-01 3.333333333333333e-01 1.666666666666665e-01
1.666666666666667e-01 3.333333333333333e-01 1.666666666666665e-01
1.666666666666667e-01 3.333333333333333e-01 1.666666666666665e-01
1.666666666666667e-01 3.333333333333333e-01 1.666666666666665e-01
1.666666666666667e-01 3.333333333333333e-01 1.666666666666665e-01
1.666666666666667e-01 3.333333333333333e-01 1.666666666666665e-01
1.666666666666667e-01 3.333333333333333e-01 1.666666666666665e-01
1.666666666666667e-01 3.333333333333333e-01 1.666666666666665e-01
1.666666666666667e-01 3.333333333333333e-01 1.666666666666665e-01
1.666666666666667e-01 3.333333333333333e-01 1.666666666666665e-01
1.666666666666667e-01 3.333333333333333e-01 1.666666666666665e-01
1.666666666666667e-01 3.333333333333333e-01 1.666666666666665e-01
1.666666666666667e-01 3.333333333333333e-01 1.666666666666665e-01
1.666666666666667e-01 3.333333333333333e-01 1.666666666666665e-01
1.666666666666667e-01 3.333333333333333e-01 1.666666666666665e-01
1.666666666666667e-01 3.333333333333333e-01 1.666666666666665e-01
1.666666666666667e-01 3.333333333333333e-01 1.666666666666665e-01
1.666666666666667e-01 3.333333333333333e-01 1.666666666666665e-01
1.666666666666667e-01 3.333333333333333e-01 1.666666666666665e-01
1.666666666666667e-01 3.333333333333333e-01 1.666666666666665e-01
1.666666666666667e-01 3.333333333333333e-01 1.666666666666665e-01
1.666666666666667e-01 3.333333333333333e-01 1.666666666666665e-01
1.666666666666667e-01 3.333333333333333e-01 1.666666666666665e-01
1.666666666666667e-01 3.333333333333333e-01 1.666666666666665e-01
1.666666666666667e-01 3.333333333333333e-01 1.666666666666665e-01
1.666666666666667e-01 3.333333333333333e-01 1.666666666666665e-01
1.666666666666667e-01 3.333333333333333e-01 1.666666666666665e-01
1.666666666666667e-01 3.333333333333333e-01 1.666666666666665e-01
1.666666666666667e-01 3.333333333333333e-01 1.666666666666665e-01
1.666666666666667e-01 3.333333333333333e-01 1.666666666666665e-01
1.666666666666667e-01 3.333333333333333e-01 1.666666666666665e-01
1.666666666666667e-01 3.333333333333333e-01 1.666666666666665e-01
1.666666666666667e-01 3.333333333333333e-01 1.666666666666665e-01
1.666666666666667e-01 3.333333333333333e-01 1.666666666666665e-01
1.666666666666667e-01 3.333333333333333e-01 1.666666666666665e-01
1.666666666666667e-01 3.333333333333333e-01 1.666666666666665e-01
1.666666666666667e-01 3.333333333333333e-01 1.666666666666665e-01
1.666666666666667e-01 3.333333333333333e-01 1.666666666666665e-01
1.666666666666667e-01 3.333333333333333e-01 1.666666666666665e-01
1.666666666666667e-01 3.333333333333333e-01 1.666666666666665e-01
1.666666666666667e-01 3.333333333333333e-01 1.666666666666665e-01
1.666666666666667e-01 3.333333333333333e-01 1.666666666666665e-01
1.666666666666667e-01 3.333333333333333e-01 1.666666666666665e-01
1.666666666666667e-01 3.333333333333333e-01 1.666666666666665e-01
1.666666666666667e-01 3.333333333333333e-01 1.666666666666665e-01
1.666666666666667e-01 3.333333333333333e-01 1.666666666666665e-01
1.666666666666667e-01 3.333333333333333e-01 1.666666666666665e-01
1.666666666666667e-01 3.333333333333333e-01 1.666666666666665e-01
1.666666666666667e-01 3.333333333333333e-01 1.666666666666665e-01
1.666666666666667e-01 3.333333333333333e-01 1.666666666666665e-01
1.666666666666667e-01 3.333333333333333e-01 1.666666666666665e-01
1.666666666666667e-01 3.333333333333333e-01 1.666666666666665e-01
1.666666666666667e-01 3.333333333333333e-01 1.666666666666665e-01
1.666666666666667e-01 3.333333333333333e-01 1.666666666666665e-01
1.666666666666667e-01 3.333333333333333e-01 1.666666666666665e-01
1.666666666666667e-01 3.333333333333333e-01 1.666666666666665e-01
1.666666666666667e-01 3.333333333333333e-01 1.666666666666665e-01
1.666666666666667e-01 3.333333333333333e-01 1.666666666666665e-01
1.666666666666667e-01 3.333333333333333e-01 1.666666666666665e-01
1.666666666666667e-01 3.333333333333333e-01 1.666666666666665e-01
1.666666666666667e-01 3.333333333333333e-01 1.666666666666665e-01
1.666666666666667e-01 3.333333333333333e-01 1.666666666666665e-01
1.666666666666667e-01 3.333333333333333e-01 1.666666666666665e-01
1.666666666666667e-01 3.333333333333333e-01 1.666666666666665e-01
1.666666666666667e-01 3.333333333333333e-01 1.666666666666665e-01
1.666666666666667e-01 3.333333333333333e-01 1.666666666666665e-01
1.666666666666667e-01 3.333333333333333e-01 1.666666666666665e-01
1.666666666666667e-01 3.333333333333333e-01 1.666666666666665e-01
1.666666666666667e-01 3.333333333333333e-01 1.666666666666665e-01
1.666666666666667e-01 3.333333333333333e-01 1.666666666666665e-01
1.666666666666667e-01 3.333333333333333e-01 1.666666666666665e-01
1.666666666666667e-01 3.333333333333333e-01 1.666666666666665e-01
1.666666666666667e-01 3.333333333333333e-01 1.666666666666665e-01
1.666666666666667e-01 3.333333333333333e-01 1.666666666666665e-01
1.666666666666667e-01 3.333333333333333e-01 1.666666666666665e-01
1.666666666666667e-01 3.333333333333333e-01 1.666666666666665e-01
1.666666666666667e-01 3.333333333333333e-01 1.666666666666665e-01
1.666666666666667e-01 3.333333333333333e-01 1.666666666666665e-01
1.666666666666667e-01 3.333333333333333e-01 1.666666666666665e-01
1.666666666666667e-01 3.333333333333333e-01 1.666666666666665e-01
1.666666666666667e-01 3.333333333333333e-01 1.666666666666665e-01
1.666666666666667e-01 3.333333333333333e-01 1.666666666666665e-01
1.666666666666667e-01 3.333333333333333e-01 1.666666666666665e-01
1.666666666666667e-01 3.333333333333333e-01 1.666666666666665e-01
1.666666666666667e-01 3.333333333333333e-01 1.666666666666665e-01
1.666666666666667e-01 3.333333333333333e-01 1.666666666666665e-01
1.666666666666667e-01 3.333333333333333e-01 1.666666666666665e-01
1.666666666666667e-01 3.333333333333333e-01 1.666666666666665e-01
1.666666666666667e-01 3.333333333333333e-01 1.666666666666665e-01
1.666666666666667e-01 3.333333333333333e-01 1.666666666666665e-01
1.666666666666667e-01 3.333333333333333e-01 1.666666666666665e-01
1.666666666666667e-01 3.333333333333333e-01 1.666666666666665e-01
1.666666666666667e-01 3.333333333333333e-01 1.666666666666665e-01
1.666666666666667e-01 3.333333333333333e-01 1.666666666666665e-01
1.666666666666667e-01 3.333333333333333e-01 1.666666666666665e-01
1.666666666666667e-01 3.333333333333333e-01 1.666666666666665e-01
1.666666666666667e-01 3.333333333333333e-01 1.666666666666665e-01
1.666666666666667e-01 3.333333333333333e-01 1.666666666666665e-01
1.666666666666667e-01 3.333333333333333e-01 1.666666666666665e-01
1.666666666666667e-01 3.333333333333333e-01 1.666666666666665e-01
1.666666666666667e-01 3.333333333333333e-01 1.666666666666665e-01
1.666666666666667e-01 3.333333333333333e-01 1.666666666666665e-01
1.666666666666667e-01 3.333333333333333e-01 1.666666666666665e-01
1.666666666666667e-01 3.333333333333333e-01 1.666666666666665e-01
1.666666666666667e-01 3.333333333333333e-01 1.666666666666665e-01
1.666666666666667e-01 3.333333333333333e-01 1.666666666666665e-01
1.666666666666667e-01 3.333333333333333e-01 1.666666666666665e-01
1.666666666666667e-01 3.333333333333333e-01 1.666666666666665e-01
1.666666666666667e-01 3.333333333333333e-01 1.666666666666665e-01
1.666666666666667e-01 3.333333333333333e-01 1.666666666666665e-01
1.666666666666667e-01 3.333333333333333e-01 1.666666666666665e-01
1.666666666666667e-01 3.333333333333333e-01 1.666666666666665e-01
1.666666666666667e-01 3.333333333333333e-01 1.666666666666665e-01
1.666666666666667e-01 3.333333333333333e-01 1.666666666666665e-01
1.666666666666667e-01 3.333333333333333e-01 1.666666666666665e-01
1.666666666666667e-01 3.333333333333333e-01 1.666666666666665e-01
1.666666666666667e-01 3.333333333333333e-01 1.666666666666665e-01
1.666666666666667e-01 3.333333333333333e-01 1.666666666666665e-01
1.666666666666667e-01 3.333333333333333e-01 1.666666666666665e-01
1.666666666666667e-01 3.333333333333333e-01 1.666666666666665e-01
1.666666666666667e-01 3.333333333333333e-01 1.666666666666665e-01
1.666666666666667e-01 3.333333333333333e-01 1.666666666666665e-01
1.666666666666667e-01 3.333333333333333e-01 1.666666666666665e-01
1.666666666666667e-01 3.333333333333333e-01 1.666666666666665e-01
1.666666666666667e-01 3.333333333333333e-01 1.666666666666665e-01
1.666666666666667e-01 3.333333333333333e-01 1.666666666666665e-01
1.666666666666667e-01 3.333333333333333e-01 1.666666666666665e-01
1.666666666666667e-01 3.333333333333333e-01 1.666666666666665e-01
1.666666666666667e-01 3.333333333333333e-01 1.666666666666665e-01
1.666666666666667e-01 3.333333333333333e-01 1.666666666666665e-01
1.666666666666667e-01 3.333333333333333e-01 1.666666666666665e-01
1.666666666666667e-01 3.333333333333333e-01 1.666666666666665e-01
1.666666666666667e-01 3.333333333333333e-01 1.666666666666665e-01
1.666666666666667e-01 3.333333333333333e-01 1.666666666666665e-01
1.666666666666667e-01 3.333333333333333e-01 1.666666666666665e-01
1.666666666666667e-01 3.333333333333333e-01 1.666666666666665e-01
1.666666666666667e-01 3.333333333333333e-01 1.666666666666665e-01
1.666666666666667e-01 3.333333333333333e-01 1.666666666666665e-01
1.666666666666667e-01 3.333333333333333e-01 1.666666666666665e-01
1.666666666666667e-01 3.333333333333333e-01 1.666666666666665e-01
1.666666666666667e-01 3.333333333333333e-01 1.666666666666665e-01
1.666666666666667e-01 3.333333333333333e-01 1.666666666666665e-01
1.666666666666667e-01 3.333333333333333e-01 1.666666666666665e-01
1.666666666666667e-01 3.333333333333333e-01 1.666666666666665e-01
1.666666666666667e-01 3.333333333333333e-01 1.666666666666665e-01
1.666666666666667e-01 3.333333333333333e-01 1.666666666666665e-01
1.666666666666667e-01 3.333333333333333e-01 1.666666666666665e-01
1.666666666666667e-01 3.333333333333333e-01 1.666666666666665e-01
1.666666666666667e-01 3.333333333333333e-01 1.666666666666665e-01
1.666666666666667e-01 3.333333333333333e-01 1.666666666666665e-01
1.666666666666667e-01 3.333333333333333e-01 1.666666666666665e-01
1.666666666666667e-01 3.333333333333333e-01 1.666666666666665e-01
1.666666666666667e-01 3.333333333333333e-01 1.666666666666665e-01
1.666666666666667e-01 3.333333333333333e-01 1.666666666666665e-01
1.666666666666667e-01 3.333333333333333e-01 1.666666666666665e-01
1.666666666666667e-01 3.333333333333333e-01 1.666666666666665e-01
1.666666666666667e-01 3.333333333333333e-01 1.666666666666665e-01
1.666666666666667e-01 3.333333333333333e-01 1.666666666666665e-01
1.666666666666667e-01 3.333333333333333e-01 1.666666666666665e-01
1.666666666666667e-01 3.333333333333333e-01 1.666666666666665e-01
1.666666666666667e-01 3.333333333333333e-01 1.666666666666665e-01
1.666666666666667e-01 3.333333333333333e-01 1.666666666666665e-01
1.666666666666667e-01 3.333333333333333e-01 1.666666666666665e-01
1.666666666666667e-01 3.333333333333333e-01 1.666666666666665e-01
1.666666666666667e-01 3.333333333333333e-01 1.666666666666665e-01
1.666666666666667e-01 3.333333333333333e-01 1.666666666666665e-01
1.666666666666667e-01 3.333333333333333e-01 1.666666666666665e-01
1.666666666666667e-01 3.333333333333333e-01 1.666666666666665e-01
1.666666666666667e-01 3.333333333333333e-01 1.666666666666665e-01
1.666666666666667e-01 3.333333333333333e-01 1.666666666666665e-01
1.666666666666667e-01 3.333333333333333e-01 1.666666666666665e-01
1.666666666666667e-01 3.333333333333333e-01 1.666666666666665e-01
1.666666666666667e-01 3.333333333333333e-01 1.666666666666665e-01
1.666666666666667e-01 3.333333333333333e-01 1.666666666666665e-01
1.666666666666667e-01 3.333333333333333e-01 1.666666666666665e-01
1.666666666666667e-01 3.333333333333333e-01 1.666666666666665e-01
1.666666666666667e-01 3.333333333333333e-01 1.666666666666665e-01
1.666666666666667e-01 3.333333333333333e-01 1.666666666666665e-01
1.666666666666667e-01 3.333333333333333e-01 1.666666666666665e-01
1.666666666666667e-01 3.333333333333333e-01 1.666666666666665e-01
1.666666666666667e-01 3.333333333333333e-01 1.666666666666665e-01
1.666666666666667e-01 3.333333333333333e-01 1.666666666666665e-01
1.666666666666667e-01 3.333333333333333e-01 1.666666666666665e-01
1.666666666666667e-01 3.333333333333333e-01 1.666666666666665e-01
1.666666666666667e-01 3.333333333333333e-01 1.666666666666665e-01
1.666666666666667e-01 3.333333333333333e-01 1.666666666666665e-01
1.666666666666667e-01 3.333333333333333e-01 1.666666666666665e-01
1.666666666666667e-01 3.333333333333333e-01 1.666666666666665e-01
1.666666666666667e-01 3.333333333333333e-01 1.666666666666665e-01
 1.666666666666667e-01 -1.666666666666665e-01 -3.333333333333333e-01
-1.666666666666667e-01  1.666666666666665e-01  3.333333333333333e-01
 1.666666666666667e-01 -1.666666666666665e-01 -3.333333333333333e-01
 1.666666666666667e-01 -1.666666666666665e-01 -3.333333333333333e-01
 1.666666666666667e-01 -1.666666666666665e-01 -3.333333333333333e-01
 1.666666666666667e-01 -1.666666666666665e-01 -3.333333333333333e-01
 1.666666666666667e-01 -1.666666666666665e-01 -3.333333333333333e-01
 1.666666666666667e-01 -1.666666666666665e-01 -3.333333333333333e-01
 1.666666666666667e-01 -1.666666666666665e-01 -3.333333333333333e-01
 1.666666666666667e-01 -1.666666666666665e-01 -3.333333333333333e-01
 1.666666666666667e-01 -1.666666666666665e-01 -3.333333333333333e-01
 1.666666666666667e-01 -1.666666666666665e-01 -3.333333333333333e-01
 1.666666666666667e-01 -1.666666666666665e-01 -3.333333333333333e-01
 1.666666666666667e-01 -1.666666666666665e-01 -3.333333333333333e-01
 1.666666666666667e-01 -1.666666666666665e-01 -3.333333333333333e-01
 1.666666666666667e-01 -1.666666666666665e-01 -3.333333333333333e-01
 1.666666666666667e-01 -1.666666666666665e-01 -3.333333333333333e-01
 1.666666666666667e-01 -1.666666666666665e-01 -3.333333333333333e-01
 1.666666666666667e-01 -1.666666666666665e-01 -3.333333333333333e-01
 1.666666666666667e-01 -1.666666666666665e-01 -3.333333333333333e-01
 1.666666666666667e-01 -1.666666666666665e-01 -3.333333333333333e-01
 1.666666666666667e-01 -1.666666666666665e-01 -3.333333333333333e-01
 1.666666666666667e-01 -1.666666666666665e-01 -3.333333333333333e-01
 1.666666666666667e-01 -1.666666666666665e-01 -3.333333333333333e-01
 1.666666666666667e-01 -1.666666666666665e-01 -3.333333333333333e-01
 1.666666666666667e-01 -1.666666666666665e-01 -3.333333333333333e-01
 1.666666666666667e-01 -1.666666666666665e-01 -3.333333333333333e-01
 1.666666666666667e-01 -1.666666666666665e-01 -3.333333333333333e-01
 1.666666666666667e-01 -1.666666666666665e-01 -3.333333333333333e-01
 1.666666666666667e-01 -1.666666666666665e-01 -3.333333333333333e-01
 1.666666666666667e-01 -1.666666666666665e-01 -3.333333333333333e-01
 1.666666666666667e-01 -1.666666666666665e-01 -3.333333333333333e-01
 1.666666666666667e-01 -1.666666666666665e-01 -3.333333333333333e-01
 1.666666666666667e-01 -1.666666666666665e-01 -3.333333333333333e-01
 1.666666666666667e-01 -1.666666666666665e-01 -3.333333333333333e-01
 1.666666666666667e-01 -1.666666666666665e-01 -3.333333333333333e-01
 1.666666666666667e-01 -1.666666666666665e-01 -3.333333333333333e-01
 1.666666666666667e-01 -1.666666666666665e-01 -3.333333333333333e-01
 1.666666666666667e-01 -1.666666666666665e-01 -3.333333333333333e-01
 1.666666666666667e-01 -1.666666666666665e-01 -3.333333333333333e-01
 1.666666666666667e-01 -1.666666666666665e-01 -3.333333333333333e-01
 1.666666666666667e-01 -1.666666666666665e-01 -3.333333333333333e-01
 1.666666666666667e-01 -1.666666666666665e-01 -3.333333333333333e-01
 1.666666666666667e-01 -1.666666666666665e-01 -3.333333333333333e-01
 1.666666666666667e-01 -1.666666666666665e-01 -3.333333333333333e-01
 1.666666666666667e-01 -1.666666666666665e-01 -3.333333333333333e-01
 1.666666666666667e-01 -1.666666666666665e-01 -3.333333333333333e-01
 1.666666666666667e-01 -1.666666666666665e-01 -3.333333333333333e-01
 1.666666666666667e-01 -1.666666666666665e-01 -3.333333333333333e-01
 1.666666666666667e-01 -1.666666666666665e-01 -3.333333333333333e-01
 1.666666666666667e-01 -1.666666666666665e-01 -3.333333333333333e-01
 1.666666666666667e-01 -1.666666666666665e-01 -3.333333333333333e-01
 1.666666666666667e-01 -1.666666666666665e-01 -3.333333333333333e-01
 1.666666666666667e-01 -1.666666666666665e-01 -3.333333333333333e-01
 1.666666666666667e-01 -1.666666666666665e-01 -3.333333333333333e-01
 1.666666666666667e-01 -1.666666666666665e-01 -3.333333333333333e-01
 1.666666666666667e-01 -1.666666666666665e-01 -3.333333333333333e-01
 1.666666666666667e-01 -1.666666666666665e-01 -3.333333333333333e-01
 1.666666666666667e-01 -1.666666666666665e-01 -3.333333333333333e-01
 1.666666666666667e-01 -1.666666666666665e-01 -3.333333333333333e-01
 1.666666666666667e-01 -1.666666666666665e-01 -3.333333333333333e-01
 1.666666666666667e-01 -1.666666666666665e-01 -3.333333333333333e-01
 1.666666666666667e-01 -1.666666666666665e-01 -3.333333333333333e-01
 1.666666666666667e-01 -1.666666666666665e-01 -3.333333333333333e-01
 1.666666666666667e-01 -1.666666666666665e-01 -3.333333333333333e-01
 1.666666666666667e-01 -1.666666666666665e-01 -3.333333333333333e-01
 1.666666666666667e-01 -1.666666666666665e-01 -3.333333333333333e-01
 1.666666666666667e-01 -1.666666666666665e-01 -3.333333333333333e-01
 1.666666666666667e-01 -1.666666666666665e-01 -3.333333333333333e-01
 1.666666666666667e-01 -1.666666666666665e-01 -3.333333333333333e-01
 1.666666666666667e-01 -1.666666666666665e-01 -3.333333333333333e-01
 1.666666666666667e-01 -1.666666666666665e-01 -3.333333333333333e-01
 1.666666666666667e-01 -1.666666666666665e-01 -3.333333333333333e-01
 1.666666666666667e-01 -1.666666666666665e-01 -3.333333333333333e-01
 1.666666666666667e-01 -1.666666666666665e-01 -3.333333333333333e-01
 1.666666666666667e-01 -1.666666666666665e-01 -3.333333333333333e-01
 1.666666666666667e-01 -1.666666666666665e-01 -3.333333333333333e-01
 1.666666666666667e-01 -1.666666666666665e-01 -3.333333333333333e-01
 1.666666666666667e-01 -1.666666666666665e-01 -3.333333333333333e-01
 1.666666666666667e-01 -1.666666666666665e-01 -3.333333333333333e-01
 1.666666666666667e-01 -1.666666666666665e-01 -3.333333333333333e-01
 1.666666666666667e-01 -1.666666666666665e-01 -3.333333333333333e-01
 1.666666666666667e-01 -1.666666666666665e-01 -3.333333333333333e-01
 1.666666666666667e-01 -1.666666666666665e-01 -3.333333333333333e-01
 1.666666666666667e-01 -1.666666666666665e-01 -3.333333333333333e-01
 1.666666666666667e-01 -1.666666666666665e-01 -3.333333333333333e-01
 1.666666666666667e-01 -1.666666666666665e-01 -3.333333333333333e-01
 1.666666666666667e-01 -1.666666666666665e-01 -3.333333333333333e-01
 1.666666666666667e-01 -1.666666666666665e-01 -3.333333333333333e-01
 1.666666666666667e-01 -1.666666666666665e-01 -3.333333333333333e-01
 1.666666666666667e-01 -1.666666666666665e-01 -3.333333333333333e-01
 1.666666666666667e-01 -1.666666666666665e-01 -3.333333333333333e-01
 1.666666666666667e-01 -1.666666666666665e-01 -3.333333333333333e-01
 1.666666666666667e-01 -1.666666666666665e-01 -3.333333333333333e-01
 1.666666666666667e-01 -1.666666666666665e-01 -3.333333333333333e-01
 1.666666666666667e-01 -1.666666666666665e-01 -3.333333333333333e-01
 1.666666666666667e-01 -1.666666666666665e-01 -3.333333333333333e-01
 1.666666666666667e-01 -1.666666666666665e-01 -3.333333333333333e-01
 1.666666666666667e-01 -1.666666666666665e-01 -3.333333333333333e-01
 1.666666666666667e-01 -1.666666666666665e-01 -3.333333333333333e-01
 1.666666666666667e-01 -1.666666666666665e-01 -3.333333333333333e-01
 1.666666666666667e-01 -1.666666666666665e-01 -3.333333333333333e-01
 1.666666666666667e-01 -1.666666666666665e-01 -3.333333333333333e-01
 1.666666666666667e-01 -1.666666666666665e-01 -3.333333333333333e-01
 1.666666666666667e-01 -1.666666666666665e-01 -3.333333333333333e-01
 1.666666666666667e-01 -1.666666666666665e-01 -3.333333333333333e-01
 1.666666666666667e-01 -1.666666666666665e-01 -3.333333333333333e-01
 1.666666666666667e-01 -1.666666666666665e-01 -3.333333333333333e-01
 1.666666666666667e-01 -1.666666666666665e-01 -3.333333333333333e-01
 1.666666666666667e-01 -1.666666666666665e-01 -3.333333333333333e-01
 1.666666666666667e-01 -1.666666666666665e-01 -3.333333333333333e-01
 1.666666666666667e-01 -1.666666666666665e-01 -3.333333333333333e-01
 1.666666666666667e-01 -1.666666666666665e-01 -3.333333333333333e-01
 1.666666666666667e-01 -1.666666666666665e-01 -3.333333333333333e-01
 1.666666666666667e-01 -1.666666666666665e-01 -3.333333333333333e-01
 1.666666666666667e-01 -1.666666666666665e-01 -3.333333333333333e-01
 1.666666666666667e-01 -1.666666666666665e-01 -3.333333333333333e-01
 1.666666666666667e-01 -1.666666666666665e-01 -3.333333333333333e-01
 1.666666666666667e-01 -1.666666666666665e-01 -3.333333333333333e-01
 1.666666666666667e-01 -1.666666666666665e-01 -3.333333333333333e-01
 1.666666666666667e-01 -1.666666666666665e-01 -3.333333333333333e-01
 1.666666666666667e-01 -1.666666666666665e-01 -3.333333333333333e-01
 1.666666666666667e-01 -1.666666666666665e-01 -3.333333333333333e-01
 1.666666666666667e-01 -1.666666666666665e-01 -3.333333333333333e-01
 1.666666666666667e-01 -1.666666666666665e-01 -3.333333333333333e-01
 1.666666666666667e-01 -1.666666666666665e-01 -3.333333333333333e-01
 1.666666666666667e-01 -1.666666666666665e-01 -3.333333333333333e-01
 1.666666666666667e-01 -1.666666666666665e-01 -3.333333333333333e-01
 1.666666666666667e-01 -1.666666666666665e-01 -3.333333333333333e-01
 1.666666666666667e-01 -1.666666666666665e-01 -3.333333333333333e-01
 1.666666666666667e-01 -1.666666666666665e-01 -3.333333333333333e-01
 1.666666666666667e-01 -1.666666666666665e-01 -3.333333333333333e-01
 1.666666666666667e-01 -1.666666666666665e-01 -3.333333333333333e-01
 1.666666666666667e-01 -1.666666666666665e-01 -3.333333333333333e-01
 1.666666666666667e-01 -1.666666666666665e-01 -3.333333333333333e-01
 1.666666666666667e-01 -1.666666666666665e-01 -3.333333333333333e-01
 1.666666666666667e-01 -1.666666666666665e-01 -3.333333333333333e-01
 1.666666666666667e-01 -1.666666666666665e-01 -3.333333333333333e-01
 1.666666666666667e-01 -1.666666666666665e-01 -3.333333333333333e-01
 1.666666666666667e-01 -1.666666666666665e-01 -3.333333333333333e-01
 1.666666666666667e-01 -1.666666666666665e-01 -3.333333333333333e-01
 1.666666666666667e-01 -1.666666666666665e-01 -3.333333333333333e-01
 1.666666666666667e-01 -1.666666666666665e-01 -3.333333333333333e-01
 1.666666666666667e-01 -1.666666666666665e-01 -3.333333333333333e-01
 1.666666666666667e-01 -1.666666666666665e-01 -3.333333333333333e-01
 1.666666666666667e-01 -1.666666666666665e-01 -3.333333333333333e-01
 1.666666666666667e-01 -1.666666666666665e-01 -3.333333333333333e-01
 1.666666666666667e-01 -1.666666666666665e-01 -3.333333333333333e-01
 1.666666666666667e-01 -1.666666666666665e-01 -3.333333333333333e-01
 1.666666666666667e-01 -1.666666666666665e-01 -3.333333333333333e-01
 1.666666666666667e-01 -1.666666666666665e-01 -3.333333333333333e-01
 1.666666666666667e-01 -1.666666666666665e-01 -3.333333333333333e-01
 1.666666666666667e-01 -1.666666666666665e-01 -3.333333333333333e-01
 1.666666666666667e-01 -1.666666666666665e-01 -3.333333333333333e-01
 1.666666666666667e-01 -1.666666666666665e-01 -3.333333333333333e-01
 1.666666666666667e-01 -1.666666666666665e-01 -3.333333333333333e-01
 1.666666666666667e-01 -1.666666666666665e-01 -3.333333333333333e-01
 1.666666666666667e-01 -1.666666666666665e-01 -3.333333333333333e-01
 1.666666666666667e-01 -1.666666666666665e-01 -3.333333333333333e-01
 1.666666666666667e-01 -1.666666666666665e-01 -3.333333333333333e-01
 1.666666666666667e-01 -1.666666666666665e-01 -3.333333333333333e-01
 1.666666666666667e-01 -1.666666666666665e-01 -3.333333333333333e-01
 1.666666666666667e-01 -1.666666666666665e-01 -3.333333333333333e-01
 1.666666666666667e-01 -1.666666666666665e-01 -3.333333333333333e-01
 1.666666666666667e-01 -1.666666666666665e-01 -3.333333333333333e-01
 1.666666666666667e-01 -1.666666666666665e-01 -3.333333333333333e-01
 1.666666666666667e-01 -1.666666666666665e-01 -3.333333333333333e-01
 1.666666666666667e-01 -1.666666666666665e-01 -3.333333333333333e-01
 1.666666666666667e-01 -1.666666666666665e-01 -3.333333333333333e-01
 1.666666666666667e-01 -1.666666666666665e-01 -3.333333333333333e-01
 1.666666666666667e-01 -1.666666666666665e-01 -3.333333333333333e-01
 1.666666666666667e-01 -1.666666666666665e-01 -3.333333333333333e-01
 1.666666666666667e-01 -1.666666666666665e-01 -3.333333333333333e-01
 1.666666666666667e-01 -1.666666666666665e-01 -3.333333333333333e-01
 1.666666666666667e-01 -1.666666666666665e-01 -3.333333333333333e-01
 1.666666666666667e-01 -1.666666666666665e-01 -3.333333333333333e-01
 1.666666666666667e-01 -1.666666666666665e-01 -3.333333333333333e-01
 1.666666666666667e-01 -1.666666666666665e-01 -3.333333333333333e-01
 1.666666666666667e-01 -1.666666666666665e-01 -3.333333333333333e-01
 1.666666666666667e-01 -1.666666666666665e-01 -3.333333333333333e-01
 1.666666666666667e-01 -1.666666666666665e-01 -3.333333333333333e-01
 1.666666666666667e-01 -1.666666666666665e-01 -3.333333333333333e-01
 1.666666666666667e-01 -1.666666666666665e-01 -3.333333333333333e-01
 1.666666666666667e-01 -1.666666666666665e-01 -3.333333333333333e-01
 1.666666666666667e-01 -1.666666666666665e-01 -3.333333333333333e-01
 1.666666666666667e-01 -1.666666666666665e-01 -3.333333333333333e-01
 1.666666666666667e-01 -1.666666666666665e-01 -3.333333333333333e-01
 1.666666666666667e-01 -1.666666666666665e-01 -3.333333333333333e-01
 1.666666666666667e-01 -1.666666666666665e-01 -3.333333333333333e-01
 1.666666666666667e-01 -1.666666666666665e-01 -3.333333333333333e-01
 1.666666666666667e-01 -1.666666666666665e-01 -3.333333333333333e-01
 1.666666666666667e-01 -1.666666666666665e-01 -3.333333333333333e-01
 1.666666666666667e-01 -1.666666666666665e-01 -3.333333333333333e-01
 1.666666666666667e-01 -1.666666666666665e-01 -3.333333333333333e-01
 1.666666666666667e-01 -1.666666666666665e-01 -3.333333333333333e-01
 1.666666666666667e-01 -1.666666666666665e-01 -3.333333333333333e-01
 1.666666666666667e-01 -1.666666666666665e-01 -3.333333333333333e-01
 1.666666666666667e-01 -1.666666666666665e-01 -3.333333333333333e-01
 1.666666666666667e-01 -1.666666666666665e-01 -3.333333333333333e-01
 1.666666666666667e-01 -1.666666666666665e-01 -3.333333333333333e-01
 1.666666666666667e-01 -1.666666666666665e-01 -3.333333333333333e-01
 1.666666666666667e-01 -1.666666666666665e-01 -3.333333333333333e-01
 1.666666666666667e-01 -1.666666666666665e-01 -3.333333333333333e-01
 1.666666666666667e-01 -1.666666666666665e-01 -3.333333333333333e-01
 1.666666666666667e-01 -1.666666666666665e-01 -3.333333333333333e-01
 1.666666666666667e-01 -1.666666666666665e-01 -3.333333333333333e-01
 1.666666666666667e-01 -1.666666666666665e-01 -3.333333333333333e-01
 1.666666666666667e-01 -1.666666666666665e-01 -3.333333333333333e-01
 1.666666666666667e-01 -1.666666666666665e-01 -3.333333333333333e-01
 1.666666666666667e-01 -1.666666666666665e-01 -3.333333333333333e-01
 1.666666666666667e-01 -1.666666666666665e-01 -3.333333333333333e-01
 1.666666666666667e-01 -1.666666666666665e-01 -3.333333333333333e-01
 1.666666666666667e-01 -1.666666666666665e-01 -3.333333333333333e-01
 1.666666666666667e-01 -1.666666666666665e-01 -3.333333333333333e-01
 1.666666666666667e-01 -1.666666666666665e-01 -3.333333333333333e-01
 1.666666666666667e-01 -1.666666666666665e-01 -3.333333333333333e-01
 1.666666666666667e-01 -1.666666666666665e-01 -3.333333333333333e-01
 1.666666666666667e-01 -1.666666666666665e-01 -3.333333333333333e-01
 1.666666666666667e-01 -1.666666666666665e-01 -3.333333333333333e-01
 1.666666666666667e-01 -1.666666666666665e-01 -3.333333333333333e-01
 1.666666666666667e-01 -1.666666666666665e-01 -3.333333333333333e-01
 1.666666666666667e-01 -1.666666666666665e-01 -3.333333333333333e-01
 1.666666666666667e-01 -1.666666666666665e-01 -3.333333333333333e-01
-1.666666666666667e-01  1.666666666666665e-01  3.333333333333333e-01
 1.666666666666667e-01 -1.666666666666665e-01 -3.333333333333333e-01
 1.666666666666667e-01 -1.666666666666665e-01 -3.333333333333333e-01
 1.666666666666667e-01 -1.666666666666665e-01 -3.333333333333333e-01
 1.666666666666667e-01 -1.666666666666665e-01 -3.333333333333333e-01
 1.666666666666667e-01 -1.666666666666665e-01 -3.333333333333333e-01
 1.666666666666667e-01 -1.666666666666665e-01 -3.333333333333333e-01
 1.666666666666667e-01 -1.666666666666665e-01 -3.333333333333333e-01
 1.666666666666667e-01 -1.666666666666665e-01 -3.333333333333333e-01
 1.666666666666667e-01 -1.666666666666665e-01 -3.333333333333333e-01
 1.666666666666667e-01 -1.666666666666665e-01 -3.333333333333333e-01
 1.666666666666667e-01 -1.666666666666665e-01 -3.333333333333333e-01
 1.666666666666667e-01 -1.666666666666665e-01 -3.333333333333333e-01
 1.666666666666667e-01 -1.666666666666665e-01 -3.333333333333333e-01
 1.666666666666667e-01 -1.666666666666665e-01 -3.333333333333333e-01
 1.666666666666667e-01 -1.666666666666665e-01 -3.333333333333333e-01
 1.666666666666667e-01 -1.666666666666665e-01 -3.333333333333333e-01
 1.666666666666667e-01 -1.666666666666665e-01 -3.333333333333333e-01
 1.666666666666667e-01 -1.666666666666665e-01 -3.333333333333333e-01
 1.666666666666667e-01 -1.666666666666665e-01 -3.333333333333333e-01
 1.666666666666667e-01 -1.666666666666665e-01 -3.333333333333333e-01
 1.666666666666667e-01 -1.666666666666665e-01 -3.333333333333333e-01
 1.666666666666667e-01 -1.666666666666665e-01 -3.333333333333333e-01
 1.666666666666667e-01 -1.666666666666665e-01 -3.333333333333333e-01
 1.666666666666667e-01 -1.666666666666665e-01 -3.333333333333333e-01
 1.666666666666667e-01 -1.666666666666665e-01 -3.333333333333333e-01
 1.666666666666667e-01 -1.666666666666665e-01 -3.333333333333333e-01
 1.666666666666667e-01 -1.666666666666665e-01 -3.333333333333333e-01
 1.666666666666667e-01 -1.666666666666665e-01 -3.333333333333333e-01
 1.666666666666667e-01 -1.666666666666665e-01 -3.333333333333333e-01
 1.666666666666667e-01 -1.666666666666665e-01 -3.333333333333333e-01
 1.666666666666667e-01 -1.666666666666665e-01 -3.333333333333333e-01
 1.666666666666667e-01 -1.666666666666665e-01 -3.333333333333333e-01
 1.666666666666667e-01 -1.666666666666665e-01 -3.333333333333333e-01
 1.666666666666667e-01 -1.666666666666665e-01 -3.333333333333333e-01
 1.666666666666667e-01 -1.666666666666665e-01 -3.333333333333333e-01
 1.666666666666667e-01 -1.666666666666665e-01 -3.333333333333333e-01
 1.666666666666667e-01 -1.666666666666665e-01 -3.333333333333333e-01
 1.666666666666667e-01 -1.666666666666665e-01 -3.333333333333333e-01
 1.666666666666667e-01 -1.666666666666665e-01 -3.333333333333333e-01
 1.666666666666667e-01 -1.666666666666665e-01 -3.333333333333333e-01
 1.666666666666667e-01 -1.666666666666665e-01 -3.333333333333333e-01
 1.666666666666667e-01 -1.666666666666665e-01 -3.333333333333333e-01
 1.666666666666667e-01 -1.666666666666665e-01 -3.333333333333333e-01
 1.666666666666667e-01 -1.666666666666665e-01 -3.333333333333333e-01
 1.666666666666667e-01 -1.666666666666665e-01 -3.333333333333333e-01
 1.666666666666667e-01 -1.666666666666665e-01 -3.333333333333333e-01
 1.666666666666667e-01 -1.666666666666665e-01 -3.333333333333333e-01
 1.666666666666667e-01 -1.666666666666665e-01 -3.333333333333333e-01
 1.666666666666667e-01 -1.666666666666665e-01 -3.333333333333333e-01
 1.666666666666667e-01 -1.666666666666665e-01 -3.333333333333333e-01
 1.666666666666667e-01 -1.666666666666665e-01 -3.333333333333333e-01
 1.666666666666667e-01 -1.666666666666665e-01 -3.333333333333333e-01
 1.666666666666667e-01 -1.666666666666665e-01 -3.333333333333333e-01
 1.666666666666667e-01 -1.666666666666665e-01 -3.333333333333333e-01
 1.666666666666667e-01 -1.666666666666665e-01 -3.333333333333333e-01
 1.666666666666667e-01 -1.666666666666665e-01 -3.333333333333333e-01
 1.666666666666667e-01 -1.666666666666665e-01 -3.333333333333333e-01
 1.666666666666667e-01 -1.666666666666665e-01 -3.333333333333333e-01
 1.666666666666667e-01 -1.666666666666665e-01 -3.333333333333333e-01
 1.666666666666667e-01 -1.666666666666665e-01 -3.333333333333333e-01
 1.666666666666667e-01 -1.666666666666665e-01 -3.333333333333333e-01
 1.666666666666667e-01 -1.666666666666665e-01 -3.333333333333333e-01
 1.666666666666667e-01 -1.666666666666665e-01 -3.333333333333333e-01
 1.666666666666667e-01 -1.666666666666665e-01 -3.333333333333333e-01
 1.666666666666667e-01 -1.666666666666665e-01 -3.333333333333333e-01
 1.666666666666667e-01 -1.666666666666665e-01 -3.333333333333333e-01
 1.666666666666667e-01 -1.666666666666665e-01 -3.333333333333333e-01
 1.666666666666667e-01 -1.666666666666665e-01 -3.333333333333333e-01
 1.666666666666667e-01 -1.666666666666665e-01 -3.333333333333333e-01
 1.666666666666667e-01 -1.666666666666665e-01 -3.333333333333333e-01
 1.666666666666667e-01 -1.666666666666665e-01 -3.333333333333333e-01
 1.666666666666667e-01 -1.666666666666665e-01 -3.333333333333333e-01
 1.666666666666667e-01 -1.666666666666665e-01 -3.333333333333333e-01
 1.666666666666667e-01 -1.666666666666665e-01 -3.333333333333333e-01
 1.666666666666667e-01 -1.666666666666665e-01 -3.333333333333333e-01
 1.666666666666667e-01 -1.666666666666665e-01 -3.333333333333333e-01
 1.666666666666667e-01 -1.666666666666665e-01 -3.333333333333333e-01
 1.666666666666667e-01 -1.666666666666665e-01 -3.333333333333333e-01
 1.666666666666667e-01 -1.666666666666665e-01 -3.333333333333333e-01
 1.666666666666667e-01 -1.666666666666665e-01 -3.333333333333333e-01
 1.666666666666667e-01 -1.666666666666665e-01 -3.333333333333333e-01
 1.666666666666667e-01 -1.666666666666665e-01 -3.333333333333333e-01
 1.666666666666667e-01 -1.666666666666665e-01 -3.333333333333333e-01
 1.666666666666667e-01 -1.666666666666665e-01 -3.333333333333333e-01
 1.666666666666667e-01 -1.666666666666665e-01 -3.333333333333333e-01
 1.666666666666667e-01 -1.666666666666665e-01 -3.333333333333333e-01
 1.666666666666667e-01 -1.666666666666665e-01 -3.333333333333333e-01
 1.666666666666667e-01 -1.666666666666665e-01 -3.333333333333333e-01
 1.666666666666667e-01 -1.666666666666665e-01 -3.333333333333333e-01
 1.666666666666667e-01 -1.666666666666665e-01 -3.333333333333333e-01
 1.666666666666667e-01 -1.666666666666665e-01 -3.333333333333333e-01
 1.666666666666667e-01 -1.666666666666665e-01 -3.333333333333333e-01
 1.666666666666667e-01 -1.666666666666665e-01 -3.333333333333333e-01
 1.666666666666667e-01 -1.666666666666665e-01 -3.333333333333333e-01
 1.666666666666667e-01 -1.666666666666665e-01 -3.333333333333333e-01
 1.666666666666667e-01 -1.666666666666665e-01 -3.333333333333333e-01
 1.666666666666667e-01 -1.666666666666665e-01 -3.333333333333333e-01
 1.666666666666667e-01 -1.666666666666665e-01 -3.333333333333333e-01
 1.666666666666667e-01 -1.666666666666665e-01 -3.333333333333333e-01
 1.666666666666667e-01 -1.666666666666665e-01 -3.333333333333333e-01
 1.666666666666667e-01 -1.666666666666665e-01 -3.333333333333333e-01
 1.666666666666667e-01 -1.666666666666665e-01 -3.333333333333333e-01
 1.666666666666667e-01 -1.666666666666665e-01 -3.333333333333333e-01
 1.666666666666667e-01 -1.666666666666665e-01 -3.333333333333333e-01
 1.666666666666667e-01 -1.666666666666665e-01 -3.333333333333333e-01
 1.666666666666667e-01 -1.666666666666665e-01 -3.333333333333333e-01
 1.666666666666667e-01 -1.666666666666665e-01 -3.333333333333333e-01
 1.666666666666667e-01 -1.666666666666665e-01 -3.333333333333333e-01
 1.666666666666667e-01 -1.666666666666665e-01 -3.333333333333333e-01
 1.666666666666667e-01 -1.666666666666665e-01 -3.333333333333333e-01
 1.666666666666667e-01 -1.666666666666665e-01 -3.333333333333333e-01
 1.666666666666667e-01 -1.666666666666665e-01 -3.333333333333333e-01
 1.666666666666667e-01 -1.666666666666665e-01 -3.333333333333333e-01
 1.666666666666667e-01 -1.666666666666665e-01 -3.333333333333333e-01
 1.666666666666667e-01 -1.666666666666665e-01 -3.333333333333333e-01
 1.666666666666667e-01 -1.666666666666665e-01 -3.333333333333333e-01
 1.666666666666667e-01 -1.666666666666665e-01 -3.333333333333333e-01
 1.666666666666667e-01 -1.666666666666665e-01 -3.333333333333333e-01
 1.666666666666667e-01 -1.666666666666665e-01 -3.333333333333333e-01
 1.666666666666667e-01 -1.666666666666665e-01 -3.333333333333333e-01
 1.666666666666667e-01 -1.666666666666665e-01 -3.333333333333333e-01
 1.666666666666667e-01 -1.666666666666665e-01 -3.333333333333333e-01
 1.666666666666667e-01 -1.666666666666665e-01 -3.333333333333333e-01
 1.666666666666667e-01 -1.666666666666665e-01 -3.333333333333333e-01
 1.666666666666667e-01 -1.666666666666665e-01 -3.333333333333333e-01
 1.666666666666667e-01 -1.666666666666665e-01 -3.333333333333333e-01
 1.666666666666667e-01 -1.666666666666665e-01 -3.333333333333333e-01
 1.666666666666667e-01 -1.666666666666665e-01 -3.333333333333333e-01
 1.666666666666667e-01 -1.666666666666665e-01 -3.333333333333333e-01
 1.666666666666667e-01 -1.666666666666665e-01 -3.333333333333333e-01
 1.666666666666667e-01 -1.666666666666665e-01 -3.333333333333333e-01
 1.666666666666667e-01 -1.666666666666665e-01 -3.333333333333333e-01
 1.666666666666667e-01 -1.666666666666665e-01 -3.333333333333333e-01
 1.666666666666667e-01 -1.666666666666665e-01 -3.333333333333333e-01
 1.666666666666667e-01 -1.666666666666665e-01 -3.333333333333333e-01
 1.666666666666667e-01 -1.666666666666665e-01 -3.333333333333333e-01
 1.666666666666667e-01 -1.666666666666665e-01 -3.333333333333333e-01
 1.666666666666667e-01 -1.666666666666665e-01 -3.333333333333333e-01
 1.666666666666667e-01 -1.666666666666665e-01 -3.333333333333333e-01
 1.666666666666667e-01 -1.666666666666665e-01 -3.333333333333333e-01
 1.666666666666667e-01 -1.666666666666665e-01 -3.333333333333333e-01
 1.666666666666667e-01 -1.666666666666665e-01 -3.333333333333333e-01
 1.666666666666667e-01 -1.666666666666665e-01 -3.333333333333333e-01
 1.666666666666667e-01 -1.666666666666665e-01 -3.333333333333333e-01
 1.666666666666667e-01 -1.666666666666665e-01 -3.333333333333333e-01
 1.666666666666667e-01 -1.666666666666665e-01 -3.333333333333333e-01
 1.666666666666667e-01 -1.666666666666665e-01 -3.333333333333333e-01
 1.666666666666667e-01 -1.666666666666665e-01 -3.333333333333333e-01
 1.666666666666667e-01 -1.666666666666665e-01 -3.333333333333333e-01
 1.666666666666667e-01 -1.666666666666665e-01 -3.333333333333333e-01
 1.666666666666667e-01 -1.666666666666665e-01 -3.333333333333333e-01
 1.666666666666667e-01 -1.666666666666665e-01 -3.333333333333333e-01
 1.666666666666667e-01 -1.666666666666665e-01 -3.333333333333333e-01
 1.666666666666667e-01 -1.666666666666665e-01 -3.333333333333333e-01
 1.666666666666667e-01 -1.666666666666665e-01 -3.333333333333333e-01
 1.666666666666667e-01 -1.666666666666665e-01 -3.333333333333333e-01
 1.666666666666667e-01 -1.666666666666665e-01 -3.333333333333333e-01
 1.666666666666667e-01 -1.666666666666665e-01 -3.333333333333333e-01
 1.666666666666667e-01 -1.666666666666665e-01 -3.333333333333333e-01
 1.666666666666667e-01 -1.666666666666665e-01 -3.333333333333333e-01
 1.666666666666667e-01 -1.666666666666665e-01 -3.333333333333333e-01
 1.666666666666667e-01 -1.666666666666665e-01 -3.333333333333333e-01
 1.666666666666667e-01 -1.666666666666665e-01 -3.333333333333333e-01
 1.666666666666667e-01 -1.666666666666665e-01 -3.333333333333333e-01
 1.666666666666667e-01 -1.666666666666665e-01 -3.333333333333333e-01
 1.666666666666667e-01 -1.666666666666665e-01 -3.333333333333333e-01
 1.666666666666667e-01 -1.666666666666665e-01 -3.333333333333333e-01
 1.666666666666667e-01 -1.666666666666665e-01 -3.333333333333333e-01
 1.666666666666667e-01 -1.666666666666665e-01 -3.333333333333333e-01
 1.666666666666667e-01 -1.666666666666665e-01 -3.333333333333333e-01
 1.666666666666667e-01 -1.666666666666665e-01 -3.333333333333333e-01
 1.666666666666667e-01 -1.666666666666665e-01 -3.333333333333333e-01
 1.666666666666667e-01 -1.666666666666665e-01 -3.333333333333333e-01
 1.666666666666667e-01 -1.666666666666665e-01 -3.333333333333333e-01
 1.666666666666667e-01 -1.666666666666665e-01 -3.333333333333333e-01
 1.666666666666667e-01 -1.666666666666665e-01 -3.333333333333333e-01
 1.666666666666667e-01 -1.666666666666665e-01 -3.333333333333333e-01
 1.666666666666667e-01 -1.666666666666665e-01 -3.333333333333333e-01
 1.666666666666667e-01 -1.666666666666665e-01 -3.333333333333333e-01
 1.666666666666667e-01 -1.666666666666665e-01 -3.333333333333333e-01
 1.666666666666667e-01 -1.666666666666665e-01 -3.333333333333333e-01
 1.666666666666667e-01 -1.666666666666665e-01 -3.333333333333333e-01
 1.666666666666667e-01 -1.666666666666665e-01 -3.333333333333333e-01
 1.666666666666667e-01 -1.666666666666665e-01 -3.333333333333333e-01
 1.666666666666667e-01 -1.666666666666665e-01 -3.333333333333333e-01
 1.666666666666667e-01 -1.666666666666665e-01 -3.333333333333333e-01
 1.666666666666667e-01 -1.666666666666665e-01 -3.333333333333333e-01
 1.666666666666667e-01 -1.666666666666665e-01 -3.333333333333333e-01
 1.666666666666667e-01 -1.666666666666665e-01 -3.333333333333333e-01
 1.666666666666667e-01 -1.666666666666665e-01 -3.333333333333333e-01
-1.666666666666667e-01  1.666666666666665e-01  3.333333333333333e-01
 1.666666666666667e-01 -1.666666666666665e-01 -3.333333333333333e-01
-1.666666666666667e-01  1.666666666666665e-01  3.333333333333333e-01
-1.666666666666667e-01  1.666666666666665e-01  3.333333333333333e-01
-1.666666666666667e-01  1.666666666666665e-01  3.333333333333333e-01
-1.666666666666667e-01  1.666666666666665e-01  3.333333333333333e-01
-1.666666666666667e-01  1.666666666666665e-01  3.333333333333333e-01
-1.666666666666667e-01  1.666666666666665e-01  3.333333333333333e-01
-1.666666666666667e-01  1.666666666666665e-01  3.333333333333333e-01
-1.666666666666667e-01  1.666666666666665e-01  3.333333333333333e-01
-1.666666666666667e-01  1.666666666666665e-01  3.333333333333333e-01
-1.666666666666667e-01  1.666666666666665e-01  3.333333333333333e-01
-1.666666666666667e-01  1.666666666666665e-01  3.333333333333333e-01
-1.666666666666667e-01  1.666666666666665e-01  3.333333333333333e-01
-1.666666666666667e-01  1.666666666666665e-01  3.333333333333333e-01
-1.666666666666667e-01  1.666666666666665e-01  3.333333333333333e-01
-1.666666666666667e-01  1.666666666666665e-01  3.333333333333333e-01
-1.666666666666667e-01  1.666666666666665e-01  3.333333333333333e-01
-1.666666666666667e-01  1.666666666666665e-01  3.333333333333333e-01
-1.666666666666667e-01  1.666666666666665e-01  3.333333333333333e-01
-1.666666666666667e-01  1.666666666666665e-01  3.333333333333333e-01
-1.666666666666667e-01  1.666666666666665e-01  3.333333333333333e-01
-1.666666666666667e-01  1.666666666666665e-01  3.333333333333333e-01
-1.666666666666667e-01  1.666666666666665e-01  3.333333333333333e-01
-1.666666666666667e-01  1.666666666666665e-01  3.333333333333333e-01
-1.666666666666667e-01  1.666666666666665e-01  3.333333333333333e-01
-1.666666666666667e-01  1.666666666666665e-01  3.333333333333333e-01
-1.666666666666667e-01  1.666666666666665e-01  3.333333333333333e-01
-1.666666666666667e-01  1.666666666666665e-01  3.333333333333333e-01
-1.666666666666667e-01  1.666666666666665e-01  3.333333333333333e-01
-1.666666666666667e-01  1.666666666666665e-01  3.333333333333333e-01
-1.666666666666667e-01  1.666666666666665e-01  3.333333333333333e-01
-1.666666666666667e-01  1.666666666666665e-01  3.333333333333333e-01
-1.666666666666667e-01  1.666666666666665e-01  3.333333333333333e-01
-1.666666666666667e-01  1.666666666666665e-01  3.333333333333333e-01
-1.666666666666667e-01  1.666666666666665e-01  3.333333333333333e-01
-1.666666666666667e-01  1.666666666666665e-01  3.333333333333333e-01
-1.666666666666667e-01  1.666666666666665e-01  3.333333333333333e-01
-1.666666666666667e-01  1.666666666666665e-01  3.333333333333333e-01
-1.666666666666667e-01  1.666666666666665e-01  3.333333333333333e-01
-1.666666666666667e-01  1.666666666666665e-01  3.333333333333333e-01
-1.666666666666667e-01  1.666666666666665e-01  3.333333333333333e-01
-1.666666666666667e-01  1.666666666666665e-01  3.333333333333333e-01
-1.666666666666667e-01  1.666666666666665e-01  3.333333333333333e-01
-1.666666666666667e-01  1.666666666666665e-01  3.333333333333333e-01
-1.666666666666667e-01  1.666666666666665e-01  3.333333333333333e-01
-1.666666666666667e-01  1.666666666666665e-01  3.333333333333333e-01
-1.666666666666667e-01  1.666666666666665e-01  3.333333333333333e-01
-1.666666666666667e-01  1.666666666666665e-01  3.333333333333333e-01
-1.666666666666667e-01  1.666666666666665e-01  3.333333333333333e-01
-1.666666666666667e-01  1.666666666666665e-01  3.333333333333333e-01
-1.666666666666667e-01  1.666666666666665e-01  3.333333333333333e-01
-1.666666666666667e-01  1.666666666666665e-01  3.333333333333333e-01
-1.666666666666667e-01  1.666666666666665e-01  3.333333333333333e-01
-1.666666666666667e-01  1.666666666666665e-01  3.333333333333333e-01
-1.666666666666667e-01  1.666666666666665e-01  3.333333333333333e-01
-1.666666666666667e-01  1.666666666666665e-01  3.333333333333333e-01
-1.666666666666667e-01  1.666666666666665e-01  3.333333333333333e-01
-1.666666666666667e-01  1.666666666666665e-01  3.333333333333333e-01
-1.666666666666667e-01  1.666666666666665e-01  3.333333333333333e-01
-1.666666666666667e-01  1.666666666666665e-01  3.333333333333333e-01
-1.666666666666667e-01  1.666666666666665e-01  3.333333333333333e-01
-1.666666666666667e-01  1.666666666666665e-01  3.333333333333333e-01
-1.666666666666667e-01  1.666666666666665e-01  3.333333333333333e-01
-1.666666666666667e-01  1.666666666666665e-01  3.333333333333333e-01
-1.666666666666667e-01  1.666666666666665e-01  3.333333333333333e-01
-1.666666666666667e-01  1.666666666666665e-01  3.333333333333333e-01
-1.666666666666667e-01  1.666666666666665e-01  3.333333333333333e-01
-1.666666666666667e-01  1.666666666666665e-01  3.333333333333333e-01
-1.666666666666667e-01  1.666666666666665e-01  3.333333333333333e-01
-1.666666666666667e-01  1.666666666666665e-01  3.333333333333333e-01
-1.666666666666667e-01  1.666666666666665e-01  3.333333333333333e-01
-1.666666666666667e-01  1.666666666666665e-01  3.333333333333333e-01
-1.666666666666667e-01  1.666666666666665e-01  3.333333333333333e-01
-1.666666666666667e-01  1.666666666666665e-01  3.333333333333333e-01
-1.666666666666667e-01  1.666666666666665e-01  3.333333333333333e-01
-1.666666666666667e-01  1.666666666666665e-01  3.333333333333333e-01
-1.666666666666667e-01  1.666666666666665e-01  3.333333333333333e-01
-1.666666666666667e-01  1.666666666666665e-01  3.333333333333333e-01
-1.666666666666667e-01  1.666666666666665e-01  3.333333333333333e-01
-1.666666666666667e-01  1.666666666666665e-01  3.333333333333333e-01
-1.666666666666667e-01  1.666666666666665e-01  3.333333333333333e-01
-1.666666666666667e-01  1.666666666666665e-01  3.333333333333333e-01
-1.666666666666667e-01  1.666666666666665e-01  3.333333333333333e-01
-1.666666666666667e-01  1.666666666666665e-01  3.333333333333333e-01
-1.666666666666667e-01  1.666666666666665e-01  3.333333333333333e-01
-1.666666666666667e-01  1.666666666666665e-01  3.333333333333333e-01
-1.666666666666667e-01  1.666666666666665e-01  3.333333333333333e-01
-1.666666666666667e-01  1.666666666666665e-01  3.333333333333333e-01
-1.666666666666667e-01  1.666666666666665e-01  3.333333333333333e-01
-1.666666666666667e-01  1.666666666666665e-01  3.333333333333333e-01
-1.666666666666667e-01  1.666666666666665e-01  3.333333333333333e-01
-1.666666666666667e-01  1.666666666666665e-01  3.333333333333333e-01
-1.666666666666667e-01  1.666666666666665e-01  3.333333333333333e-01
-1.666666666666667e-01  1.666666666666665e-01  3.333333333333333e-01
-1.666666666666667e-01  1.666666666666665e-01  3.333333333333333e-01
-1.666666666666667e-01  1.666666666666665e-01  3.333333333333333e-01
-1.666666666666667e-01  1.666666666666665e-01  3.333333333333333e-01
-1.666666666666667e-01  1.666666666666665e-01  3.333333333333333e-01
-1.666666666666667e-01  1.666666666666665e-01  3.333333333333333e-01
-1.666666666666667e-01  1.666666666666665e-01  3.333333333333333e-01
-1.666666666666667e-01  1.666666666666665e-01  3.333333333333333e-01
-1.666666666666667e-01  1.666666666666665e-01  3.333333333333333e-01
-1.666666666666667e-01  1.666666666666665e-01  3.333333333333333e-01
-1.666666666666667e-01  1.666666666666665e-01  3.333333333333333e-01
-1.666666666666667e-01  1.666666666666665e-01  3.333333333333333e-01
-1.666666666666667e-01  1.666666666666665e-01  3.333333333333333e-01
-1.666666666666667e-01  1.666666666666665e-01  3.333333333333333e-01
-1.666666666666667e-01  1.666666666666665e-01  3.333333333333333e-01
-1.666666666666667e-01  1.666666666666665e-01  3.333333333333333e-01
-1.666666666666667e-01  1.666666666666665e-01  3.333333333333333e-01
-1.666666666666667e-01  1.666666666666665e-01  3.333333333333333e-01
-1.666666666666667e-01  1.666666666666665e-01  3.333333333333333e-01
-1.666666666666667e-01  1.666666666666665e-01  3.333333333333333e-01
-1.666666666666667e-01  1.666666666666665e-01  3.333333333333333e-01
-1.666666666666667e-01  1.666666666666665e-01  3.333333333333333e-01
-1.666666666666667e-01  1.666666666666665e-01  3.333333333333333e-01
-1.666666666666667e-01  1.666666666666665e-01  3.333333333333333e-01
-1.666666666666667e-01  1.666666666666665e-01  3.333333333333333e-01
-1.666666666666667e-01  1.666666666666665e-01  3.333333333333333e-01
-1.666666666666667e-01  1.666666666666665e-01  3.333333333333333e-01
-1.666666666666667e-01  1.666666666666665e-01  3.333333333333333e-01
-1.666666666666667e-01  1.666666666666665e-01  3.333333333333333e-01
-1.666666666666667e-01  1.666666666666665e-01  3.333333333333333e-01
-1.666666666666667e-01  1.666666666666665e-01  3.333333333333333e-01
-1.666666666666667e-01  1.666666666666665e-01  3.333333333333333e-01
-1.666666666666667e-01  1.666666666666665e-01  3.333333333333333e-01
-1.666666666666667e-01  1.666666666666665e-01  3.333333333333333e-01
-1.666666666666667e-01  1.666666666666665e-01  3.333333333333333e-01
-1.666666666666667e-01  1.666666666666665e-01  3.333333333333333e-01
-1.666666666666667e-01  1.666666666666665e-01  3.333333333333333e-01
-1.666666666666667e-01  1.666666666666665e-01  3.333333333333333e-01
-1.666666666666667e-01  1.666666666666665e-01  3.333333333333333e-01
-1.666666666666667e-01  1.666666666666665e-01  3.333333333333333e-01
-1.666666666666667e-01  1.666666666666665e-01  3.333333333333333e-01
-1.666666666666667e-01  1.666666666666665e-01  3.333333333333333e-01
-1.666666666666667e-01  1.666666666666665e-01  3.333333333333333e-01
-1.666666666666667e-01  1.666666666666665e-01  3.333333333333333e-01
-1.666666666666667e-01  1.666666666666665e-01  3.333333333333333e-01
-1.666666666666667e-01  1.666666666666665e-01  3.333333333333333e-01
-1.666666666666667e-01  1.666666666666665e-01  3.333333333333333e-01
-1.666666666666667e-01  1.666666666666665e-01  3.333333333333333e-01
-1.666666666666667e-01  1.666666666666665e-01  3.333333333333333e-01
-1.666666666666667e-01  1.666666666666665e-01  3.333333333333333e-01
-1.666666666666667e-01  1.666666666666665e-01  3.333333333333333e-01
-1.666666666666667e-01  1.666666666666665e-01  3.333333333333333e-01
-1.666666666666667e-01  1.666666666666665e-01  3.333333333333333e-01
-1.666666666666667e-01  1.666666666666665e-01  3.333333333333333e-01
-1.666666666666667e-01  1.666666666666665e-01  3.333333333333333e-01
-1.666666666666667e-01  1.666666666666665e-01  3.333333333333333e-01
-1.666666666666667e-01  1.666666666666665e-01  3.333333333333333e-01
-1.666666666666667e-01  1.666666666666665e-01  3.333333333333333e-01
-1.666666666666667e-01  1.666666666666665e-01  3.333333333333333e-01
-1.666666666666667e-01  1.666666666666665e-01  3.333333333333333e-01
-1.666666666666667e-01  1.666666666666665e-01  3.333333333333333e-01
-1.666666666666667e-01  1.666666666666665e-01  3.333333333333333e-01
-1.666666666666667e-01  1.666666666666665e-01  3.333333333333333e-01
-1.666666666666667e-01  1.666666666666665e-01  3.333333333333333e-01
-1.666666666666667e-01  1.666666666666665e-01  3.333333333333333e-01
-1.666666666666667e-01  1.666666666666665e-01  3.333333333333333e-01
-1.666666666666667e-01  1.666666666666665e-01  3.333333333333333e-01
-1.666666666666667e-01  1.666666666666665e-01  3.333333333333333e-01
-1.666666666666667e-01  1.666666666666665e-01  3.333333333333333e-01
-1.666666666666667e-01  1.666666666666665e-01  3.333333333333333e-01
-1.666666666666667e-01  1.666666666666665e-01  3.333333333333333e-01
-1.666666666666667e-01  1.666666666666665e-01  3.333333333333333e-01
-1.666666666666667e-01  1.666666666666665e-01  3.333333333333333e-01
-1.666666666666667e-01  1.666666666666665e-01  3.333333333333333e-01
-1.666666666666667e-01  1.666666666666665e-01  3.333333333333333e-01
-1.666666666666667e-01  1.666666666666665e-01  3.333333333333333e-01
-1.666666666666667e-01  1.666666666666665e-01  3.333333333333333e-01
 1.666666666666667e-01 -1.666666666666665e-01 -3.333333333333333e-01
-1.666666666666667e-01  1.666666666666665e-01  3.333333333333333e-01
-1.666666666666667e-01  1.666666666666665e-01  3.333333333333333e-01
-1.666666666666667e-01  1.666666666666665e-01  3.333333333333333e-01
-1.666666666666667e-01  1.666666666666665e-01  3.333333333333333e-01
-1.666666666666667e-01  1.666666666666665e-01  3.333333333333333e-01
-1.666666666666667e-01  1.666666666666665e-01  3.333333333333333e-01
-1.666666666666667e-01  1.666666666666665e-01  3.333333333333333e-01
-1.666666666666667e-01  1.666666666666665e-01  3.333333333333333e-01
-1.666666666666667e-01  1.666666666666665e-01  3.333333333333333e-01
-1.666666666666667e-01  1.666666666666665e-01  3.333333333333333e-01
-1.666666666666667e-01  1.666666666666665e-01  3.333333333333333e-01
-1.666666666666667e-01  1.666666666666665e-01  3.333333333333333e-01
-1.666666666666667e-01  1.666666666666665e-01  3.333333333333333e-01
-1.666666666666667e-01  1.666666666666665e-01  3.333333333333333e-01
-1.666666666666667e-01  1.666666666666665e-01  3.333333333333333e-01
-1.666666666666667e-01  1.666666666666665e-01  3.333333333333333e-01
-1.666666666666667e-01  1.666666666666665e-01  3.333333333333333e-01
-1.666666666666667e-01  1.666666666666665e-01  3.333333333333333e-01
-1.666666666666667e-01  1.666666666666665e-01  3.333333333333333e-01
-1.666666666666667e-01  1.666666666666665e-01  3.333333333333333e-01
-1.666666666666667e-01  1.666666666666665e-01  3.333333333333333e-01
-1.666666666666667e-01  1.666666666666665e-01  3.333333333333333e-01
-1.666666666666667e-01  1.666666666666665e-01  3.333333333333333e-01
-1.666666666666667e-01  1.666666666666665e-01  3.333333333333333e-01
-1.666666666666667e-01  1.666666666666665e-01  3.333333333333333e-01
-1.666666666666667e-01  1.666666666666665e-01  3.333333333333333e-01
-1.666666666666667e-01  1.666666666666665e-01  3.333333333333333e-01
-1.666666666666667e-01  1.666666666666665e-01  3.333333333333333e-01
-1.666666666666667e-01  1.666666666666665e-01  3.333333333333333e-01
-1.666666666666667e-01  1.666666666666665e-01  3.333333333333333e-01
-1.666666666666667e-01  1.666666666666665e-01  3.333333333333333e-01
-1.666666666666667e-01  1.666666666666665e-01  3.333333333333333e-01
-1.666666666666667e-01  1.666666666666665e-01  3.333333333333333e-01
-1.666666666666667e-01  1.666666666666665e-01  3.333333333333333e-01
-1.666666666666667e-01  1.666666666666665e-01  3.333333333333333e-01
-1.666666666666667e-01  1.666666666666665e-01  3.333333333333333e-01
-1.666666666666667e-01  1.666666666666665e-01  3.333333333333333e-01
-1.666666666666667e-01  1.666666666666665e-01  3.333333333333333e-01
-1.666666666666667e-01  1.666666666666665e-01  3.333333333333333e-01
-1.666666666666667e-01  1.666666666666665e-01  3.333333333333333e-01
-1.666666666666667e-01  1.666666666666665e-01  3.333333333333333e-01
-1.666666666666667e-01  1.666666666666665e-01  3.333333333333333e-01
-1.666666666666667e-01  1.666666666666665e-01  3.333333333333333e-01
-1.666666666666667e-01  1.666666666666665e-01  3.333333333333333e-01
-1.666666666666667e-01  1.666666666666665e-01  3.333333333333333e-01
-1.666666666666667e-01  1.666666666666665e-01  3.333333333333333e-01
-1.666666666666667e-01  1.666666666666665e-01  3.333333333333333e-01
-1.666666666666667e-01  1.666666666666665e-01  3.333333333333333e-01
-1.666666666666667e-01  1.666666666666665e-01  3.333333333333333e-01
-1.666666666666667e-01  1.666666666666665e-01  3.333333333333333e-01
-1.666666666666667e-01  1.666666666666665e-01  3.333333333333333e-01
-1.666666666666667e-01  1.666666666666665e-01  3.333333333333333e-01
-1.666666666666667e-01  1.666666666666665e-01  3.333333333333333e-01
-1.666666666666667e-01  1.666666666666665e-01  3.333333333333333e-01
-1.666666666666667e-01  1.666666666666665e-01  3.333333333333333e-01
-1.666666666666667e-01  1.666666666666665e-01  3.333333333333333e-01
-1.666666666666667e-01  1.666666666666665e-01  3.333333333333333e-01
-1.666666666666667e-01  1.666666666666665e-01  3.333333333333333e-01
-1.666666666666667e-01  1.666666666666665e-01  3.333333333333333e-01
-1.666666666666667e-01  1.666666666666665e-01  3.333333333333333e-01
-1.666666666666667e-01  1.666666666666665e-01  3.333333333333333e-01
-1.666666666666667e-01  1.666666666666665e-01  3.333333333333333e-01
-1.666666666666667e-01  1.666666666666665e-01  3.333333333333333e-01
-1.666666666666667e-01  1.666666666666665e-01  3.333333333333333e-01
-1.666666666666667e-01  1.666666666666665e-01  3.333333333333333e-01
-1.666666666666667e-01  1.666666666666665e-01  3.333333333333333e-01
-1.666666666666667e-01  1.666666666666665e-01  3.333333333333333e-01
-1.666666666666667e-01  1.666666666666665e-01  3.333333333333333e-01
-1.666666666666667e-01  1.666666666666665e-01  3.333333333333333e-01
-1.666666666666667e-01  1.666666666666665e-01  3.333333333333333e-01
-1.666666666666667e-01  1.666666666666665e-01  3.333333333333333e-01
-1.666666666666667e-01  1.666666666666665e-01  3.333333333333333e-01
-1.666666666666667e-01  1.666666666666665e-01  3.333333333333333e-01
-1.666666666666667e-01  1.666666666666665e-01  3.333333333333333e-01
-1.666666666666667e-01  1.666666666666665e-01  3.333333333333333e-01
-1.666666666666667e-01  1.666666666666665e-01  3.333333333333333e-01
-1.666666666666667e-01  1.666666666666665e-01  3.333333333333333e-01
-1.666666666666667e-01  1.666666666666665e-01  3.333333333333333e-01
-1.666666666666667e-01  1.666666666666665e-01  3.333333333333333e-01
-1.666666666666667e-01  1.666666666666665e-01  3.333333333333333e-01
-1.666666666666667e-01  1.666666666666665e-01  3.333333333333333e-01
-1.666666666666667e-01  1.666666666666665e-01  3.333333333333333e-01
-1.666666666666667e-01  1.666666666666665e-01  3.333333333333333e-01
-1.666666666666667e-01  1.666666666666665e-01  3.333333333333333e-01
-1.666666666666667e-01  1.666666666666665e-01  3.333333333333333e-01
-1.666666666666667e-01  1.666666666666665e-01  3.333333333333333e-01
-1.666666666666667e-01  1.666666666666665e-01  3.333333333333333e-01
-1.666666666666667e-01  1.666666666666665e-01  3.333333333333333e-01
-1.666666666666667e-01  1.666666666666665e-01  3.333333333333333e-01
-1.666666666666667e-01  1.666666666666665e-01  3.333333333333333e-01
-1.666666666666667e-01  1.666666666666665e-01  3.333333333333333e-01
-1.666666666666667e-01  1.666666666666665e-01  3.333333333333333e-01
-1.666666666666667e-01  1.666666666666665e-01  3.333333333333333e-01
-1.666666666666667e-01  1.666666666666665e-01  3.333333333333333e-01
-1.666666666666667e-01  1.666666666666665e-01  3.333333333333333e-01
-1.666666666666667e-01  1.666666666666665e-01  3.333333333333333e-01
-1.666666666666667e-01  1.666666666666665e-01  3.333333333333333e-01
-1.666666666666667e-01  1.666666666666665e-01  3.333333333333333e-01
-1.666666666666667e-01  1.666666666666665e-01  3.333333333333333e-01
-1.666666666666667e-01  1.666666666666665e-01  3.333333333333333e-01
-1.666666666666667e-01  1.666666666666665e-01  3.333333333333333e-01
-1.666666666666667e-01  1.666666666666665e-01  3.333333333333333e-01
-1.666666666666667e-01  1.666666666666665e-01  3.333333333333333e-01
-1.666666666666667e-01  1.666666666666665e-01  3.333333333333333e-01
-1.666666666666667e-01  1.666666666666665e-01  3.333333333333333e-01
-1.666666666666667e-01  1.666666666666665e-01  3.333333333333333e-01
-1.666666666666667e-01  1.666666666666665e-01  3.333333333333333e-01
-1.666666666666667e-01  1.666666666666665e-01  3.333333333333333e-01
-1.666666666666667e-01  1.666666666666665e-01  3.333333333333333e-01
-1.666666666666667e-01  1.666666666666665e-01  3.333333333333333e-01
-1.666666666666667e-01  1.666666666666665e-01  3.333333333333333e-01
-1.666666666666667e-01  1.666666666666665e-01  3.333333333333333e-01
-1.666666666666667e-01  1.666666666666665e-01  3.333333333333333e-01
-1.666666666666667e-01  1.666666666666665e-01  3.333333333333333e-01
-1.666666666666667e-01  1.666666666666665e-01  3.333333333333333e-01
-1.666666666666667e-01  1.666666666666665e-01  3.333333333333333e-01
-1.666666666666667e-01  1.666666666666665e-01  3.333333333333333e-01
-1.666666666666667e-01  1.666666666666665e-01  3.333333333333333e-01
-1.666666666666667e-01  1.666666666666665e-01  3.333333333333333e-01
-1.666666666666667e-01  1.666666666666665e-01  3.333333333333333e-01
-1.666666666666667e-01  1.666666666666665e-01  3.333333333333333e-01
-1.666666666666667e-01  1.666666666666665e-01  3.333333333333333e-01
-1.666666666666667e-01  1.666666666666665e-01  3.333333333333333e-01
-1.666666666666667e-01  1.666666666666665e-01  3.333333333333333e-01
-1.666666666666667e-01  1.666666666666665e-01  3.333333333333333e-01
-1.666666666666667e-01  1.666666666666665e-01  3.333333333333333e-01
-1.666666666666667e-01  1.666666666666665e-01  3.333333333333333e-01
-1.666666666666667e-01  1.666666666666665e-01  3.333333333333333e-01
-1.666666666666667e-01  1.666666666666665e-01  3.333333333333333e-01
-1.666666666666667e-01  1.666666666666665e-01  3.333333333333333e-01
-1.666666666666667e-01  1.666666666666665e-01  3.333333333333333e-01
-1.666666666666667e-01  1.666666666666665e-01  3.333333333333333e-01
-1.666666666666667e-01  1.666666666666665e-01  3.333333333333333e-01
-1.666666666666667e-01  1.666666666666665e-01  3.333333333333333e-01
-1.666666666666667e-01  1.666666666666665e-01  3.333333333333333e-01
-1.666666666666667e-01  1.666666666666665e-01  3.333333333333333e-01
-1.666666666666667e-01  1.666666666666665e-01  3.333333333333333e-01
-1.666666666666667e-01  1.666666666666665e-01  3.333333333333333e-01
-1.666666666666667e-01  1.666666666666665e-01  3.333333333333333e-01
-1.666666666666667e-01  1.666666666666665e-01  3.333333333333333e-01
-1.666666666666667e-01  1.666666666666665e-01  3.333333333333333e-01
-1.666666666666667e-01  1.666666666666665e-01  3.333333333333333e-01
-1.666666666666667e-01  1.666666666666665e-01  3.333333333333333e-01
-1.666666666666667e-01  1.666666666666665e-01  3.333333333333333e-01
-1.666666666666667e-01  1.666666666666665e-01  3.333333333333333e-01
-1.666666666666667e-01  1.666666666666665e-01  3.333333333333333e-01
-1.666666666666667e-01  1.666666666666665e-01  3.333333333333333e-01
-1.666666666666667e-01  1.666666666666665e-01  3.333333333333333e-01
-1.666666666666667e-01  1.666666666666665e-01  3.333333333333333e-01
-1.666666666666667e-01  1.666666666666665e-01  3.333333333333333e-01
-1.666666666666667e-01  1.666666666666665e-01  3.333333333333333e-01
-1.666666666666667e-01  1.666666666666665e-01  3.333333333333333e-01
-1.666666666666667e-01  1.666666666666665e-01  3.333333333333333e-01
-1.666666666666667e-01  1.666666666666665e-01  3.333333333333333e-01
-1.666666666666667e-01  1.666666666666665e-01  3.333333333333333e-01
-1.666666666666667e-01  1.666666666666665e-01  3.333333333333333e-01
-1.666666666666667e-01  1.666666666666665e-01  3.333333333333333e-01
-1.666666666666667e-01  1.666666666666665e-01  3.333333333333333e-01
-1.666666666666667e-01  1.666666666666665e-01  3.333333333333333e-01
-1.666666666666667e-01  1.666666666666665e-01  3.333333333333333e-01
-1.666666666666667e-01  1.666666666666665e-01  3.333333333333333e-01
-1.666666666666667e-01  1.666666666666665e-01  3.333333333333333e-01
-1.666666666666667e-01  1.666666666666665e-01  3.333333333333333e-01
-1.666666666666667e-01  1.666666666666665e-01  3.333333333333333e-01
-1.666666666666667e-01  1.666666666666665e-01  3.333333333333333e-01
-1.666666666666667e-01  1.666666666666665e-01  3.333333333333333e-01
-1.666666666666667e-01  1.666666666666665e-01  3.333333333333333e-01
-1.666666666666667e-01  1.666666666666665e-01  3.333333333333333e-01
-1.666666666666667e-01  1.666666666666665e-01  3.333333333333333e-01
-1.666666666666667e-01  1.666666666666665e-01  3.333333333333333e-01
-1.666666666666667e-01  1.666666666666665e-01  3.333333333333333e-01
-1.666666666666667e-01  1.666666666666665e-01  3.333333333333333e-01
-1.666666666666667e-01  1.666666666666665e-01  3.333333333333333e-01
-1.666666666666667e-01  1.666666666666665e-01  3.333333333333333e-01
-1.666666666666667e-01  1.666666666666665e-01  3.333333333333333e-01
-1.666666666666667e-01  1.666666666666665e-01  3.333333333333333e-01
-1.666666666666667e-01  1.666666666666665e-01  3.333333333333333e-01
-1.666666666666667e-01  1.666666666666665e-01  3.333333333333333e-01
-1.666666666666667e-01  1.666666666666665e-01  3.333333333333333e-01
-1.666666666666667e-01  1.666666666666665e-01  3.333333333333333e-01
-1.666666666666667e-01  1.666666666666665e-01  3.333333333333333e-01
-1.666666666666667e-01  1.666666666666665e-01  3.333333333333333e-01
-1.666666666666667e-01  1.666666666666665e-01  3.333333333333333e-01
-1.666666666666667e-01  1.666666666666665e-01  3.333333333333333e-01
-1.666666666666667e-01  1.666666666666665e-01  3.333333333333333e-01
-1.666666666666667e-01  1.666666666666665e-01  3.333333333333333e-01
