# vtk DataFile Version 3.0
# Dislocation lines converted from MoDELib file
ASCII
DATASET UNSTRUCTURED_GRID
POINTS 3392 double
-1.429999999999877e+00  3.863858941524650e+02 -2.918975276816622e+03
-1.429999999999897e+00 -3.863858941524674e+02 -2.918975276816622e+03
-1.429999999999897e+00  0.000000000000000e+00 -2.918975276816622e+03
-1.430000000000221e+00  0.000000000000000e+00  2.918975276816619e+03
-1.430000000000221e+00 -3.863858941524674e+02  2.918975276816619e+03
-1.430000000000201e+00  3.863858941524653e+02  2.918975276816619e+03
-1.148968982688421e+03  1.091890921953659e+00 -2.918975276816622e+03
-1.148744754695310e+03 -9.335339328008831e-01 -2.918975276816622e+03
-1.148507286411591e+03 -1.589269006475263e+00 -2.918975276816622e+03
-1.148569908251912e+03 -3.943366033158420e+00 -2.918975276816622e+03
-1.149225684681886e+03 -4.854016079598123e+00 -2.918975276816622e+03
-1.148796876698518e+03 -6.474431148265356e+00 -2.918975276816622e+03
-1.148763918520865e+03 -8.277125040550972e+00 -2.918975276816622e+03
-1.148791303544294e+03 -1.310964895348452e+01 -2.918975276816622e+03
-1.148801762314149e+03 -1.379049745375109e+01 -2.918975276816622e+03
-1.148773770809660e+03 -1.661474527352670e+01 -2.918975276816622e+03
-1.148749570096124e+03 -2.009809143971343e+01 -2.918975276816622e+03
-1.148866752544398e+03 -2.291635372827359e+01 -2.918975276816622e+03
-1.148824137851166e+03 -2.692573280397554e+01 -2.918975276816622e+03
-1.148812888657768e+03 -2.810266718342822e+01 -2.918975276816622e+03
-1.148638579557863e+03 -3.262102444779324e+01 -2.918975276816622e+03
-1.148693165532786e+03 -3.390490331663710e+01 -2.918975276816622e+03
-1.148401646017095e+03 -3.482100936928276e+01 -2.918975276816622e+03
-1.148543081491855e+03 -3.577786129056119e+01 -2.918975276816622e+03
-1.148135301819514e+03 -3.842051008220373e+01 -2.918975276816622e+03
-1.148273343655673e+03 -3.994579265807422e+01 -2.918975276816622e+03
-1.148055331294922e+03 -4.121668414373578e+01 -2.918975276816622e+03
-1.148048950675433e+03 -4.325933241963442e+01 -2.918975276816622e+03
-1.147895511867643e+03 -4.490439052780732e+01 -2.918975276816622e+03
-1.147560541635587e+03 -4.975637226670021e+01 -2.918975276816622e+03
-1.147487016970505e+03 -5.030383694077822e+01 -2.918975276816622e+03
-1.147317443940490e+03 -5.215547439113288e+01 -2.918975276816622e+03
-1.147010743385579e+03 -5.411524705356641e+01 -2.918975276816622e+03
-1.146979355802827e+03 -5.434148206589565e+01 -2.918975276816622e+03
-1.147354343382821e+03 -5.594518716639058e+01 -2.918975276816622e+03
-1.147396103572091e+03 -5.846694050631443e+01 -2.918975276816622e+03
-1.147578329304283e+03 -6.017409356720650e+01 -2.918975276816622e+03
-1.147577746508684e+03 -6.139191729676242e+01 -2.918975276816622e+03
-1.147679476528608e+03 -6.331661144313593e+01 -2.918975276816622e+03
-1.147701736626363e+03 -6.433202244975297e+01 -2.918975276816622e+03
-1.147713711388859e+03 -6.624830550934107e+01 -2.918975276816622e+03
-1.147792533981712e+03 -6.730112639278663e+01 -2.918975276816622e+03
-1.147738697919473e+03 -6.984725212736815e+01 -2.918975276816622e+03
-1.147836901201922e+03 -7.053799128156061e+01 -2.918975276816622e+03
-1.147722769202900e+03 -7.209817392552932e+01 -2.918975276816622e+03
-1.147890325046870e+03 -7.425642096782109e+01 -2.918975276816622e+03
-1.147751641337564e+03 -7.532735495529045e+01 -2.918975276816622e+03
-1.147892871141731e+03 -7.626472671940482e+01 -2.918975276816622e+03
-1.147748909329678e+03 -7.831719591498188e+01 -2.918975276816622e+03
-1.147935927951404e+03 -8.035181301968333e+01 -2.918975276816622e+03
-1.147782510551735e+03 -8.146386106176526e+01 -2.918975276816622e+03
-1.147954859881865e+03 -8.337415841266569e+01 -2.918975276816622e+03
-1.147791722887375e+03 -8.503373111315594e+01 -2.918975276816622e+03
-1.147961188314522e+03 -8.768210009201194e+01 -2.918975276816622e+03
-1.147816525203399e+03 -8.950683113866047e+01 -2.918975276816622e+03
-1.147926785909542e+03 -9.045767597934559e+01 -2.918975276816622e+03
-1.147804902062883e+03 -9.207665562604733e+01 -2.918975276816622e+03
-1.147884813750673e+03 -9.486528176441320e+01 -2.918975276816622e+03
-1.147765858799549e+03 -9.580195881185919e+01 -2.918975276816622e+03
-1.147860507936204e+03 -9.850239835244946e+01 -2.918975276816622e+03
-1.147768206398879e+03 -1.002877947245380e+02 -2.918975276816622e+03
-1.147800800678488e+03 -1.013612902279705e+02 -2.918975276816622e+03
-1.147640794063970e+03 -1.032484515197336e+02 -2.918975276816622e+03
-1.147733239552967e+03 -1.042278823209959e+02 -2.918975276816622e+03
-1.147660680371337e+03 -1.061708083505353e+02 -2.918975276816622e+03
-1.147664717381998e+03 -1.071944615386256e+02 -2.918975276816622e+03
-1.147559911721822e+03 -1.096965323438910e+02 -2.918975276816622e+03
-1.147597798230764e+03 -1.104098288437407e+02 -2.918975276816622e+03
-1.147447098818878e+03 -1.122557041065941e+02 -2.918975276816622e+03
-1.147478799046419e+03 -1.141467439570210e+02 -2.918975276816622e+03
-1.147409969590666e+03 -1.143558022666490e+02 -2.918975276816622e+03
-1.147569087776928e+03 -1.157868690581486e+02 -2.918975276816622e+03
-1.147441101436461e+03 -1.183263569757370e+02 -2.918975276816622e+03
-1.147550787106049e+03 -1.202275080906320e+02 -2.918975276816622e+03
-1.147452865702310e+03 -1.213445483809195e+02 -2.918975276816622e+03
-1.147525479340103e+03 -1.233383508530680e+02 -2.918975276816622e+03
-1.147612148379807e+03 -1.248368793512780e+02 -2.918975276816622e+03
-1.147484631013680e+03 -1.295936818004423e+02 -2.918975276816622e+03
-1.147475367237451e+03 -1.303422429758558e+02 -2.918975276816622e+03
-1.147271859103326e+03 -1.322071580061678e+02 -2.918975276816622e+03
-1.147238034813284e+03 -1.341579549041557e+02 -2.918975276816622e+03
-1.147253871063680e+03 -1.344241689752386e+02 -2.918975276816622e+03
-1.147428999749488e+03 -1.357671560684487e+02 -2.918975276816622e+03
-1.147422827347940e+03 -1.384025636008493e+02 -2.918975276816622e+03
-1.147581271337450e+03 -1.400692885069178e+02 -2.918975276816622e+03
-1.147557844222971e+03 -1.412657056693519e+02 -2.918975276816622e+03
-1.147684280085883e+03 -1.431789176061838e+02 -2.918975276816622e+03
-1.147610031855602e+03 -1.441424606521121e+02 -2.918975276816622e+03
-1.147736258696578e+03 -1.461064457353350e+02 -2.918975276816622e+03
-1.147722223591132e+03 -1.471488626780746e+02 -2.918975276816622e+03
-1.147803786275356e+03 -1.496412419023893e+02 -2.918975276816622e+03
-1.147802370736751e+03 -1.503413737551788e+02 -2.918975276816622e+03
-1.147868058962421e+03 -1.520356607411497e+02 -2.918975276816622e+03
-1.147897674177865e+03 -1.540311998432276e+02 -2.918975276816622e+03
-1.147861155062075e+03 -1.540884002420734e+02 -2.918975276816622e+03
-1.147867874650275e+03 -1.559672335918866e+02 -2.918975276816622e+03
-1.147890308298228e+03 -1.601736241229239e+02 -2.918975276816622e+03
-1.147892574737804e+03 -1.612318112732417e+02 -2.918975276816622e+03
-1.147890175990766e+03 -1.631945100785182e+02 -2.918975276816622e+03
-1.147889218156864e+03 -1.647399368435285e+02 -2.918975276816622e+03
-1.147886116342752e+03 -1.696208645519833e+02 -2.918975276816622e+03
-1.147890386279124e+03 -1.703538308668674e+02 -2.918975276816622e+03
-1.147902696486300e+03 -1.724186306499763e+02 -2.918975276816622e+03
-1.147880836785516e+03 -1.756588907502652e+02 -2.918975276816622e+03
-1.147886862737952e+03 -1.783054586029045e+02 -2.918975276816622e+03
-1.147857056208035e+03 -1.801859786761511e+02 -2.918975276816622e+03
-1.147881457185631e+03 -1.812762311386626e+02 -2.918975276816622e+03
-1.147864964077729e+03 -1.831590996655048e+02 -2.918975276816622e+03
-1.147892413550256e+03 -1.847127726541783e+02 -2.918975276816622e+03
-1.147935115323586e+03 -1.895312765828826e+02 -2.918975276816622e+03
-1.147815941980839e+03 -1.902206708355288e+02 -2.918975276816622e+03
-1.147917420462051e+03 -1.919421338962576e+02 -2.918975276816622e+03
-1.147860455674171e+03 -1.939178306077627e+02 -2.918975276816622e+03
-1.147775062003617e+03 -1.943134183232961e+02 -2.918975276816622e+03
-1.147786947341399e+03 -1.960507478498754e+02 -2.918975276816622e+03
-1.147872701432143e+03 -2.000619906025083e+02 -2.918975276816622e+03
-1.147948177580421e+03 -2.010892701731854e+02 -2.918975276816622e+03
-1.147978729723766e+03 -2.031150684574194e+02 -2.918975276816622e+03
-1.147887644391732e+03 -2.040526955084902e+02 -2.918975276816622e+03
-1.147815559810347e+03 -2.060356900457691e+02 -2.918975276816622e+03
-1.147915765022813e+03 -2.070753160280441e+02 -2.918975276816622e+03
-1.147952202226375e+03 -2.095870535327906e+02 -2.918975276816622e+03
-1.147941820689760e+03 -2.103977749198087e+02 -2.918975276816622e+03
-1.147900275871007e+03 -2.124232311902791e+02 -2.918975276816622e+03
-1.147942328297009e+03 -2.156061443310392e+02 -2.918975276816622e+03
-1.147849262063820e+03 -2.182326695072393e+02 -2.918975276816622e+03
-1.147865430352275e+03 -2.201140735156990e+02 -2.918975276816622e+03
-1.147819484777784e+03 -2.212144891159456e+02 -2.918975276816622e+03
-1.147806296007399e+03 -2.230845384568488e+02 -2.918975276816622e+03
-1.147756289783143e+03 -2.246467542176332e+02 -2.918975276816622e+03
-1.147599994204393e+03 -2.294703072072595e+02 -2.918975276816622e+03
-1.147576210251216e+03 -2.301962920579609e+02 -2.918975276816622e+03
-1.147419132294411e+03 -2.319926801567710e+02 -2.918975276816622e+03
-1.147273441669426e+03 -2.337546816847361e+02 -2.918975276816622e+03
-1.147231861433030e+03 -2.338225555690925e+02 -2.918975276816622e+03
-1.147518789527342e+03 -2.355404748052227e+02 -2.918975276816622e+03
-1.147541387077444e+03 -2.381237535318685e+02 -2.918975276816622e+03
-1.147698715648340e+03 -2.401207817239134e+02 -2.918975276816622e+03
-1.147649472100170e+03 -2.411887823834845e+02 -2.918975276816622e+03
-1.147759152225092e+03 -2.431554703076835e+02 -2.918975276816622e+03
-1.147699182623027e+03 -2.444642314180578e+02 -2.918975276816622e+03
-1.147775281656155e+03 -2.470168870946759e+02 -2.918975276816622e+03
-1.147741153463615e+03 -2.470755266795123e+02 -2.918975276816622e+03
-1.147860830307077e+03 -2.498166725677796e+02 -2.918975276816622e+03
-1.147808018965781e+03 -2.508130293627311e+02 -2.918975276816622e+03
-1.147873623214360e+03 -2.516233866369001e+02 -2.918975276816622e+03
-1.147781863871157e+03 -2.539278038433421e+02 -2.918975276816622e+03
-1.147931093261727e+03 -2.552277254219876e+02 -2.918975276816622e+03
-1.147866728111972e+03 -2.574115425364196e+02 -2.918975276816622e+03
-1.147923243545164e+03 -2.577765847426857e+02 -2.918975276816622e+03
-1.147831807858120e+03 -2.602007548596387e+02 -2.918975276816622e+03
-1.147983857482749e+03 -2.609250890608359e+02 -2.918975276816622e+03
-1.148550693231835e+03 -2.631489754953885e+02 -2.918975276816622e+03
-1.148914278945795e+03 -2.657796553876204e+02 -2.918975276816622e+03
-1.149607484776763e+03 -2.667144366103798e+02 -2.918975276816622e+03
-1.146935043732182e+03 -2.673312626469751e+02 -2.918975276816622e+03
-1.146618379257827e+03 -2.690209637124730e+02 -2.918975276816622e+03
-1.147862599517635e+03 -2.701254774029061e+02 -2.918975276816622e+03
-1.147783662965189e+03 -2.713283331967039e+02 -2.918975276816622e+03
-1.148023992941975e+03 -2.739212030650660e+02 -2.918975276816622e+03
-1.147977753730603e+03 -2.756987704483750e+02 -2.918975276816622e+03
-1.147575536467203e+03 -2.773339584419731e+02 -2.918975276816622e+03
-1.148416961658727e+03 -2.802102935547121e+02 -2.918975276816622e+03
-1.148131760610827e+03 -2.833790218427242e+02 -2.918975276816622e+03
-1.148891758410918e+03 -2.833075647585217e+02 -2.918975276816622e+03
-1.148801993326952e+03 -2.846184175486329e+02 -2.918975276816622e+03
-1.148422530846396e+03 -2.860033356771812e+02 -2.918975276816622e+03
-1.148134690801355e+03 -2.877570778005455e+02 -2.918975276816622e+03
-1.148245439089155e+03 -2.950410504204884e+02 -2.918975276816622e+03
-1.148303257357108e+03 -2.985047345924121e+02 -2.918975276816622e+03
-1.148359851866380e+03 -3.001353058555726e+02 -2.918975276816622e+03
-1.148430356452201e+03 -3.037158645698097e+02 -2.918975276816622e+03
-1.148446973915931e+03 -3.043657361380753e+02 -2.918975276816622e+03
-1.148559448948346e+03 -3.072955483465991e+02 -2.918975276816622e+03
-1.148704121147103e+03 -3.106058300430204e+02 -2.918975276816622e+03
-1.149156455050474e+03 -3.140718018403337e+02 -2.918975276816622e+03
-1.149406374321073e+03 -3.174719824200178e+02 -2.918975276816622e+03
-1.151185066259310e+03 -3.208653232253673e+02 -2.918975276816622e+03
-1.149140558466151e+03 -3.217586746903686e+02 -2.918975276816622e+03
-1.149519754889094e+03 -3.237243771333263e+02 -2.918975276816622e+03
-1.148346590256680e+03 -3.249440717718435e+02 -2.918975276816622e+03
-1.148028215636416e+03 -3.274998241833464e+02 -2.918975276816622e+03
-1.146480509351893e+03 -3.280361525612223e+02 -2.918975276816622e+03
-1.148727542557383e+03 -3.302757423373677e+02 -2.918975276816622e+03
-1.146030522144700e+03 -3.328202103929405e+02 -2.918975276816622e+03
-1.146615911978976e+03 -3.336762325670728e+02 -2.918975276816622e+03
-1.147374816867474e+03 -3.344200145596162e+02 -2.918975276816622e+03
-1.150196831368797e+03 -3.362958469163982e+02 -2.918975276816622e+03
-1.150188132315329e+03 -3.369103374747539e+02 -2.918975276816622e+03
-1.148324667308041e+03 -3.388609364185669e+02 -2.918975276816622e+03
-1.147621072151786e+03 -3.430684465856482e+02 -2.918975276816622e+03
-1.148537460490003e+03 -3.456968147413246e+02 -2.918975276816622e+03
-1.147706183168646e+03 -3.470645267156602e+02 -2.918975276816622e+03
-1.148708786437044e+03 -3.471398968734528e+02 -2.918975276816622e+03
-1.147983938589394e+03 -3.492019250044820e+02 -2.918975276816622e+03
-1.147959400879174e+03 -3.525128016362852e+02 -2.918975276816622e+03
-1.147525378570092e+03 -3.535917835165307e+02 -2.918975276816622e+03
-1.150563609423331e+03 -3.536332650635816e+02 -2.918975276816622e+03
-1.148816426232879e+03 -3.554633659118390e+02 -2.918975276816622e+03
-1.148533342655491e+03 -3.567931654533724e+02 -2.918975276816622e+03
-1.147658067618216e+03 -3.578503092417976e+02 -2.918975276816622e+03
-1.148106037006771e+03 -3.581016004347164e+02 -2.918975276816622e+03
-1.147904332694878e+03 -3.587348753118147e+02 -2.918975276816622e+03
-1.148281677883513e+03 -3.601141496259055e+02 -2.918975276816622e+03
-1.148127569509888e+03 -3.604026644441655e+02 -2.918975276816622e+03
-1.148094612927908e+03 -3.623441355148512e+02 -2.918975276816622e+03
-1.147729483509429e+03 -3.640290209326508e+02 -2.918975276816622e+03
-1.147768870898578e+03 -3.647148612229737e+02 -2.918975276816622e+03
-1.147953161539034e+03 -3.696237046674395e+02 -2.918975276816622e+03
-1.148038066869529e+03 -3.717727678112377e+02 -2.918975276816622e+03
-1.147993190001517e+03 -3.740176267120224e+02 -2.918975276816622e+03
-1.148237154461782e+03 -3.743491546589629e+02 -2.918975276816622e+03
-1.148202316981806e+03 -3.763862771892457e+02 -2.918975276816622e+03
-1.148148251323969e+03 -3.775493953721453e+02 -2.918975276816622e+03
-1.147931329810453e+03 -3.796928049704470e+02 -2.918975276816622e+03
-1.148092907337893e+03 -3.800697132936291e+02 -2.918975276816622e+03
-1.147979241581287e+03 -3.823696045809921e+02 -2.918975276816622e+03
-1.148057087600958e+03 -3.860545681898774e+02 -2.918975276816622e+03
-1.148119812691792e+03  3.833377836277613e+02 -2.918975276816622e+03
-1.148123061046051e+03  3.785850457188955e+02 -2.918975276816622e+03
-1.148132381604401e+03  3.772901311278983e+02 -2.918975276816622e+03
-1.148126206171353e+03  3.765465753271497e+02 -2.918975276816622e+03
-1.148136280611769e+03  3.736665867621509e+02 -2.918975276816622e+03
-1.148148765367618e+03  3.684576229056069e+02 -2.918975276816622e+03
-1.148226532952872e+03  3.598560151064939e+02 -2.918975276816622e+03
-1.148212679588821e+03  3.575247661472412e+02 -2.918975276816622e+03
-1.148363908887211e+03  3.546683591117098e+02 -2.918975276816622e+03
-1.148262733855589e+03  3.527854685192048e+02 -2.918975276816622e+03
-1.148487393068409e+03  3.510747982579455e+02 -2.918975276816622e+03
-1.148439110562108e+03  3.486958849938209e+02 -2.918975276816622e+03
-1.148615359220108e+03  3.462579567311282e+02 -2.918975276816622e+03
-1.148715607543601e+03  3.446057806870596e+02 -2.918975276816622e+03
-1.148827920166595e+03  3.416394530872820e+02 -2.918975276816622e+03
-1.149015267414755e+03  3.407446139717659e+02 -2.918975276816622e+03
-1.148899334175540e+03  3.382612086453097e+02 -2.918975276816622e+03
-1.149617702574286e+03  3.344424144284732e+02 -2.918975276816622e+03
-1.149821888128687e+03  3.344525819646003e+02 -2.918975276816622e+03
-1.148696567332777e+03  3.297111692847160e+02 -2.918975276816622e+03
-1.148551582718355e+03  3.276733882309925e+02 -2.918975276816622e+03
-1.148110257549392e+03  3.260969237767172e+02 -2.918975276816622e+03
-1.148202737557108e+03  3.234916083643015e+02 -2.918975276816622e+03
-1.147625938201438e+03  3.234074966175328e+02 -2.918975276816622e+03
-1.147863779539216e+03  3.211739689357242e+02 -2.918975276816622e+03
-1.147829731563851e+03  3.202720063283724e+02 -2.918975276816622e+03
-1.148041210764674e+03  3.172709118272062e+02 -2.918975276816622e+03
-1.147712301356379e+03  3.134532433130078e+02 -2.918975276816622e+03
-1.147962572990031e+03  3.123836095540561e+02 -2.918975276816622e+03
-1.147340823553816e+03  3.097691448273774e+02 -2.918975276816622e+03
-1.147972842193725e+03  3.069935238188349e+02 -2.918975276816622e+03
-1.147488316434571e+03  3.043644773079273e+02 -2.918975276816622e+03
-1.147810110847195e+03  3.033953716429542e+02 -2.918975276816622e+03
-1.146858587018675e+03  3.015181812536170e+02 -2.918975276816622e+03
-1.147706567367053e+03  3.013150159714263e+02 -2.918975276816622e+03
-1.147744339166034e+03  3.001868055392146e+02 -2.918975276816622e+03
-1.147838150222405e+03  2.961380865681904e+02 -2.918975276816622e+03
-1.148113857857272e+03  2.954217907713237e+02 -2.918975276816622e+03
-1.147891346607076e+03  2.935820293339756e+02 -2.918975276816622e+03
-1.147741079163894e+03  2.890435604251152e+02 -2.918975276816622e+03
-1.147653074899855e+03  2.885001264226044e+02 -2.918975276816622e+03
-1.147708040836036e+03  2.862339381684288e+02 -2.918975276816622e+03
-1.147778184309138e+03  2.831721675496972e+02 -2.918975276816622e+03
-1.147931525411387e+03  2.820171837608985e+02 -2.918975276816622e+03
-1.147848103827186e+03  2.800989477494076e+02 -2.918975276816622e+03
-1.147826428706455e+03  2.780124183685718e+02 -2.918975276816622e+03
-1.147863105354026e+03  2.761977549160681e+02 -2.918975276816622e+03
-1.147873590594296e+03  2.756909866466129e+02 -2.918975276816622e+03
-1.147852525123740e+03  2.742178717211055e+02 -2.918975276816622e+03
-1.147885046373660e+03  2.716981996339942e+02 -2.918975276816622e+03
-1.147817782881824e+03  2.708782823595916e+02 -2.918975276816622e+03
-1.147875682693934e+03  2.691491390238043e+02 -2.918975276816622e+03
-1.147780125722115e+03  2.666966065895689e+02 -2.918975276816622e+03
-1.147872003899291e+03  2.655985904138956e+02 -2.918975276816622e+03
-1.147700237752651e+03  2.630334445015768e+02 -2.918975276816622e+03
-1.147852651101296e+03  2.610274906546016e+02 -2.918975276816622e+03
-1.147701866214935e+03  2.599821632366057e+02 -2.918975276816622e+03
-1.147865986244190e+03  2.580306255086754e+02 -2.918975276816622e+03
-1.147727458459288e+03  2.567016339282725e+02 -2.918975276816622e+03
-1.147812511892215e+03  2.514083294426297e+02 -2.918975276816622e+03
-1.147611540336700e+03  2.503393305322964e+02 -2.918975276816622e+03
-1.147825432924575e+03  2.495310940329264e+02 -2.918975276816622e+03
-1.147627264673298e+03  2.471989254867390e+02 -2.918975276816622e+03
-1.147813055285986e+03  2.458242118014118e+02 -2.918975276816622e+03
-1.147628399171409e+03  2.437244394713780e+02 -2.918975276816622e+03
-1.147763690759461e+03  2.433628274681910e+02 -2.918975276816622e+03
-1.147593384246780e+03  2.407059816159259e+02 -2.918975276816622e+03
-1.147719593045318e+03  2.400914503249222e+02 -2.918975276816622e+03
-1.147541374118786e+03  2.385847858100685e+02 -2.918975276816622e+03
-1.147689834894039e+03  2.362946432706830e+02 -2.918975276816622e+03
-1.147510316505736e+03  2.353901056468976e+02 -2.918975276816622e+03
-1.147664323538947e+03  2.340484612364011e+02 -2.918975276816622e+03
-1.147358894670826e+03  2.320749753806207e+02 -2.918975276816622e+03
-1.147490805382604e+03  2.304483634399842e+02 -2.918975276816622e+03
-1.147296380636700e+03  2.291394055357823e+02 -2.918975276816622e+03
-1.147218249890877e+03  2.272725586202679e+02 -2.918975276816622e+03
-1.147144635811517e+03  2.262685250119030e+02 -2.918975276816622e+03
-1.147122891678278e+03  2.244110622413639e+02 -2.918975276816622e+03
-1.146727836942138e+03  2.233218225608049e+02 -2.918975276816622e+03
-1.146472448352043e+03  2.205937776891979e+02 -2.918975276816622e+03
-1.146127699913452e+03  2.198959248679329e+02 -2.918975276816622e+03
-1.146671691189470e+03  2.183647161669276e+02 -2.918975276816622e+03
-1.145536229143729e+03  2.160011580430582e+02 -2.918975276816622e+03
-1.145601145270192e+03  2.155628990057087e+02 -2.918975276816622e+03
-1.146157444355488e+03  2.140131671417957e+02 -2.918975276816622e+03
-1.146423066451433e+03  2.128744912871665e+02 -2.918975276816622e+03
-1.146823697675970e+03  2.118558206379155e+02 -2.918975276816622e+03
-1.146764376373380e+03  2.102642584496464e+02 -2.918975276816622e+03
-1.147073189819064e+03  2.091830291801488e+02 -2.918975276816622e+03
-1.147155791659674e+03  2.072489582561175e+02 -2.918975276816622e+03
-1.147363469292071e+03  2.061779780116398e+02 -2.918975276816622e+03
-1.147276944861030e+03  2.042962227249557e+02 -2.918975276816622e+03
-1.147550063490787e+03  2.033140205552139e+02 -2.918975276816622e+03
-1.147408795896338e+03  2.007639743553436e+02 -2.918975276816622e+03
-1.147587517770827e+03  1.999357606269265e+02 -2.918975276816622e+03
-1.147465287301310e+03  1.986255777402160e+02 -2.918975276816622e+03
-1.147596784615082e+03  1.963429481299322e+02 -2.918975276816622e+03
-1.147493636979833e+03  1.921311557800419e+02 -2.918975276816622e+03
-1.147518302503741e+03  1.903030333647924e+02 -2.918975276816622e+03
-1.147442025582711e+03  1.891550387478876e+02 -2.918975276816622e+03
-1.147421294474420e+03  1.872944652409194e+02 -2.918975276816622e+03
-1.147321081390188e+03  1.863093769596096e+02 -2.918975276816622e+03
-1.147263757924581e+03  1.844366929576534e+02 -2.918975276816622e+03
-1.146881407189211e+03  1.833841963091636e+02 -2.918975276816622e+03
-1.146704034593340e+03  1.807653385935315e+02 -2.918975276816622e+03
-1.146462485299557e+03  1.803913005694318e+02 -2.918975276816622e+03
-1.146975618144758e+03  1.783958161501544e+02 -2.918975276816622e+03
-1.146275425242091e+03  1.760947964434692e+02 -2.918975276816622e+03
-1.146409901402925e+03  1.760093791940477e+02 -2.918975276816622e+03
-1.146747010904985e+03  1.734065357571598e+02 -2.918975276816622e+03
-1.147150272116391e+03  1.717469358875288e+02 -2.918975276816622e+03
-1.147324573552706e+03  1.702079339350439e+02 -2.918975276816622e+03
-1.147389450033061e+03  1.691316133608490e+02 -2.918975276816622e+03
-1.147428128087696e+03  1.673393560897943e+02 -2.918975276816622e+03
-1.147385160884001e+03  1.662876720585342e+02 -2.918975276816622e+03
-1.147366297845177e+03  1.643914906341899e+02 -2.918975276816622e+03
-1.147282133162643e+03  1.633306481149249e+02 -2.918975276816622e+03
-1.147294813252491e+03  1.608633605738665e+02 -2.918975276816622e+03
-1.147168635728883e+03  1.603011786047926e+02 -2.918975276816622e+03
-1.146956095624018e+03  1.582559325978917e+02 -2.918975276816622e+03
-1.146511544975720e+03  1.564950843602175e+02 -2.918975276816622e+03
-1.146452904955850e+03  1.562320054514039e+02 -2.918975276816622e+03
-1.146296922002615e+03  1.532726588690244e+02 -2.918975276816622e+03
-1.146008201225518e+03  1.516650401006447e+02 -2.918975276816622e+03
-1.146726865891795e+03  1.499846447976765e+02 -2.918975276816622e+03
-1.146663505313487e+03  1.490661508404266e+02 -2.918975276816622e+03
-1.147006989591933e+03  1.474113088009900e+02 -2.918975276816622e+03
-1.146820820424852e+03  1.463246248280533e+02 -2.918975276816622e+03
-1.147000604710242e+03  1.444854243811340e+02 -2.918975276816622e+03
-1.147135056851911e+03  1.434149056430304e+02 -2.918975276816622e+03
-1.147125511387000e+03  1.409751006683346e+02 -2.918975276816622e+03
-1.147010583887691e+03  1.407021665386500e+02 -2.918975276816622e+03
-1.147073973850851e+03  1.386023028718434e+02 -2.918975276816622e+03
-1.146543465433665e+03  1.367628030603202e+02 -2.918975276816622e+03
-1.146576491438058e+03  1.364877233779571e+02 -2.918975276816622e+03
-1.146893721245903e+03  1.342066850318413e+02 -2.918975276816622e+03
-1.147051777221834e+03  1.330533046653338e+02 -2.918975276816622e+03
-1.147380461023286e+03  1.305193289833969e+02 -2.918975276816622e+03
-1.147331096190201e+03  1.292223908535097e+02 -2.918975276816622e+03
-1.147494737214729e+03  1.273487861426994e+02 -2.918975276816622e+03
-1.147517285936569e+03  1.257749533357549e+02 -2.918975276816622e+03
-1.147634305626997e+03  1.209976880031904e+02 -2.918975276816622e+03
-1.147631788351489e+03  1.201195634636657e+02 -2.918975276816622e+03
-1.147706021937501e+03  1.178680468722620e+02 -2.918975276816622e+03
-1.147681837183797e+03  1.148134275850104e+02 -2.918975276816622e+03
-1.147751505912718e+03  1.128880257623820e+02 -2.918975276816622e+03
-1.147707977724626e+03  1.120513761181159e+02 -2.918975276816622e+03
-1.147845254267149e+03  1.104958334525642e+02 -2.918975276816622e+03
-1.147763660762112e+03  1.094975996575195e+02 -2.918975276816622e+03
-1.147840779595763e+03  1.072268634064876e+02 -2.918975276816622e+03
-1.147843597358024e+03  1.061269971148179e+02 -2.918975276816622e+03
-1.147880424847935e+03  1.046489008862388e+02 -2.918975276816622e+03
-1.147858267032515e+03  1.034526966638552e+02 -2.918975276816622e+03
-1.147835072612822e+03  1.010606752827073e+02 -2.918975276816622e+03
-1.147796209870037e+03  1.001637213244569e+02 -2.918975276816622e+03
-1.147961528206851e+03  9.865944678747043e+01 -2.918975276816622e+03
-1.147750500457437e+03  9.716589968596848e+01 -2.918975276816622e+03
-1.147781121213024e+03  9.525633643914173e+01 -2.918975276816622e+03
-1.147565063308882e+03  9.135910252121917e+01 -2.918975276816622e+03
-1.147759454966066e+03  8.890741549035346e+01 -2.918975276816622e+03
-1.147441312600751e+03  8.592818376918167e+01 -2.918975276816622e+03
-1.147665289110369e+03  8.532596182280705e+01 -2.918975276816622e+03
-1.145683831412040e+03  8.421041338618052e+01 -2.918975276816622e+03
-1.146359917001632e+03  8.355325768883736e+01 -2.918975276816622e+03
-1.146912067238939e+03  8.268693324770258e+01 -2.918975276816622e+03
-1.147272253839431e+03  8.053394755712040e+01 -2.918975276816622e+03
-1.147350039831367e+03  7.856665987943725e+01 -2.918975276816622e+03
-1.147345043619065e+03  7.611789678097556e+01 -2.918975276816622e+03
-1.147671427569514e+03  7.371101279525629e+01 -2.918975276816622e+03
-1.147715586711640e+03  7.171188824633666e+01 -2.918975276816622e+03
-1.147810157988313e+03  7.075154738857151e+01 -2.918975276816622e+03
-1.147927457038187e+03  6.799716771611460e+01 -2.918975276816622e+03
-1.147911096752522e+03  6.737810916414367e+01 -2.918975276816622e+03
-1.147861283664668e+03  6.559747750830594e+01 -2.918975276816622e+03
-1.147748841427050e+03  6.195397097866785e+01 -2.918975276816622e+03
-1.147786391721670e+03  5.509894027469792e+01 -2.918975276816622e+03
-1.147824109095509e+03  5.302723480407793e+01 -2.918975276816622e+03
-1.147902594710561e+03  5.129345969445146e+01 -2.918975276816622e+03
-1.147910349763328e+03  4.960412365036746e+01 -2.918975276816622e+03
-1.148040956314713e+03  4.789676255067272e+01 -2.918975276816622e+03
-1.148030607503089e+03  4.648516432076600e+01 -2.918975276816622e+03
-1.148140062268267e+03  4.617823631392139e+01 -2.918975276816622e+03
-1.147840781668694e+03  4.454084057197875e+01 -2.918975276816622e+03
-1.148241168466037e+03  4.304507767330828e+01 -2.918975276816622e+03
-1.147816066170727e+03  4.173088658269236e+01 -2.918975276816622e+03
-1.148268044814376e+03  4.030632109880172e+01 -2.918975276816622e+03
-1.147814470232568e+03  3.767191222894591e+01 -2.918975276816622e+03
-1.148423838197836e+03  3.533385538534588e+01 -2.918975276816622e+03
-1.147871532750924e+03  3.166793425070206e+01 -2.918975276816622e+03
-1.148524525577241e+03  2.871366287948793e+01 -2.918975276816622e+03
-1.147950147846175e+03  2.541880777034273e+01 -2.918975276816622e+03
-1.148634846335644e+03  2.474061465236656e+01 -2.918975276816622e+03
-1.147620438192591e+03  2.250942179634163e+01 -2.918975276816622e+03
-1.148032644416509e+03  2.183309746625643e+01 -2.918975276816622e+03
-1.147077494082548e+03  2.018234630353190e+01 -2.918975276816622e+03
-1.147173983306969e+03  1.989899288614011e+01 -2.918975276816622e+03
-1.147504823701994e+03  1.782668923794464e+01 -2.918975276816622e+03
-1.147909399047414e+03  1.637013982623986e+01 -2.918975276816622e+03
-1.148154881740264e+03  1.368035760817028e+01 -2.918975276816622e+03
-1.148618566229633e+03  7.661483123317214e+00 -2.918975276816622e+03
-1.148720596755857e+03  6.404296530581844e+00 -2.918975276816622e+03
-1.148613554110874e+03  5.276877702182762e+00 -2.918975276816622e+03
1.145762025595707e+03 5.235608233268954e-01 2.918975276816622e+03
 1.145656027058732e+03 -5.350502764419344e-01  2.918975276816622e+03
 1.145890575793048e+03 -2.047554231964562e+00  2.918975276816622e+03
 1.146056329202252e+03 -3.640342569291204e+00  2.918975276816622e+03
 1.145842660454477e+03 -4.459645237569659e+00  2.918975276816622e+03
 1.145816662020093e+03 -8.849843758355535e+00  2.918975276816622e+03
 1.145830878962673e+03 -9.884749867011308e+00  2.918975276816622e+03
 1.145744558922402e+03 -1.175842226910318e+01  2.918975276816622e+03
 1.145711561005312e+03 -1.341991081108510e+01  2.918975276816622e+03
 1.145609196809183e+03 -1.706646413227432e+01  2.918975276816622e+03
 1.145478981779308e+03 -2.163700237476127e+01  2.918975276816622e+03
 1.145372384996497e+03 -2.390639208660239e+01  2.918975276816622e+03
 1.145355965614771e+03 -2.611387848544259e+01  2.918975276816622e+03
 1.145205755831941e+03 -2.783359860213343e+01  2.918975276816622e+03
 1.145228729143458e+03 -2.989565351571819e+01  2.918975276816622e+03
 1.145146828577975e+03 -3.033710090732601e+01  2.918975276816622e+03
 1.145200028210217e+03 -3.183484659931181e+01  2.918975276816622e+03
 1.145021506352248e+03 -3.327939273680455e+01  2.918975276816622e+03
 1.144789657134906e+03 -3.810396685929139e+01  2.918975276816622e+03
 1.145012697030095e+03 -3.917985202710179e+01  2.918975276816622e+03
 1.144718351709321e+03 -4.177313950460746e+01  2.918975276816622e+03
 1.144838766763679e+03 -4.498999207207456e+01  2.918975276816622e+03
 1.144859117415559e+03 -4.543899102474082e+01  2.918975276816622e+03
 1.144911776655353e+03 -4.717658265784778e+01  2.918975276816622e+03
 1.144715027721546e+03 -4.916929204226062e+01  2.918975276816622e+03
 1.144911892247574e+03 -5.031620439610954e+01  2.918975276816622e+03
 1.144865846834710e+03 -5.365968551301901e+01  2.918975276816622e+03
 1.144994783658592e+03 -5.491604231353875e+01  2.918975276816622e+03
 1.144673316555824e+03 -5.633358282644733e+01  2.918975276816622e+03
 1.145070537218168e+03 -5.864047843006776e+01  2.918975276816622e+03
 1.144823080019878e+03 -6.042642825269799e+01  2.918975276816622e+03
 1.145105895117592e+03 -6.234478244054624e+01  2.918975276816622e+03
 1.144957494652276e+03 -6.366259596120075e+01  2.918975276816622e+03
 1.145258492186272e+03 -6.529406595988797e+01  2.918975276816622e+03
 1.144726306996376e+03 -6.582512116219442e+01  2.918975276816622e+03
 1.144530557020145e+03 -6.718812016931206e+01  2.918975276816622e+03
 1.144958971389286e+03 -6.870079419999045e+01  2.918975276816622e+03
 1.145022185662416e+03 -7.030999061976537e+01  2.918975276816622e+03
 1.144771898588886e+03 -7.499780868194235e+01  2.918975276816622e+03
 1.144916280004423e+03 -7.869549283948692e+01  2.918975276816622e+03
 1.144842143047816e+03 -8.063414500741108e+01  2.918975276816622e+03
 1.145121177974141e+03 -8.228305083088109e+01  2.918975276816622e+03
 1.145007341786382e+03 -8.383481413080563e+01  2.918975276816622e+03
 1.145321711048503e+03 -8.497743316803853e+01  2.918975276816622e+03
 1.144996651524482e+03 -8.548079201517623e+01  2.918975276816622e+03
 1.145111881132559e+03 -8.633498742431858e+01  2.918975276816622e+03
 1.144934059671625e+03 -8.720195141890939e+01  2.918975276816622e+03
 1.144666504780720e+03 -8.862491546866278e+01  2.918975276816622e+03
 1.145043101832072e+03 -9.022914183233136e+01  2.918975276816622e+03
 1.144929490341751e+03 -9.470602913678087e+01  2.918975276816622e+03
 1.145033958166267e+03 -9.803422539810897e+01  2.918975276816622e+03
 1.144982847046076e+03 -9.937658597439993e+01  2.918975276816622e+03
 1.145073531755542e+03 -1.017597857933206e+02  2.918975276816622e+03
 1.145136078387766e+03 -1.027575101194988e+02  2.918975276816622e+03
 1.145297080167649e+03 -1.041347267433889e+02  2.918975276816622e+03
 1.144964888403354e+03 -1.044452186732830e+02  2.918975276816622e+03
 1.144902809846080e+03 -1.054689523596838e+02  2.918975276816622e+03
 1.145140717034895e+03 -1.060698185765925e+02  2.918975276816622e+03
 1.144877925644661e+03 -1.070876966377525e+02  2.918975276816622e+03
 1.145026913765266e+03 -1.086434647778595e+02  2.918975276816622e+03
 1.145095327612125e+03 -1.102116944834557e+02  2.918975276816622e+03
 1.144631500454719e+03 -1.150284338005336e+02  2.918975276816622e+03
 1.144594458645318e+03 -1.196214114531199e+02  2.918975276816622e+03
 1.144637941905995e+03 -1.213365061100050e+02  2.918975276816622e+03
 1.143750449822747e+03 -1.215346447591866e+02  2.918975276816622e+03
 1.142485197232520e+03 -1.225695528699412e+02  2.918975276816622e+03
 1.146248203521650e+03 -1.235623374012003e+02  2.918975276816622e+03
 1.145879891674006e+03 -1.243195300944290e+02  2.918975276816622e+03
 1.146024588770513e+03 -1.256866877221460e+02  2.918975276816622e+03
 1.144941762521150e+03 -1.257638159556141e+02  2.918975276816622e+03
 1.145251377414730e+03 -1.271623605653259e+02  2.918975276816622e+03
 1.145341714547104e+03 -1.286783367650353e+02  2.918975276816622e+03
 1.145338231395210e+03 -1.301804431860623e+02  2.918975276816622e+03
 1.145220859184305e+03 -1.346956190925157e+02  2.918975276816622e+03
 1.145350408204791e+03 -1.378499636668945e+02  2.918975276816622e+03
 1.145135626446483e+03 -1.392515230079683e+02  2.918975276816622e+03
 1.145220807702995e+03 -1.430012127349475e+02  2.918975276816622e+03
 1.145210163549787e+03 -1.447927519097441e+02  2.918975276816622e+03
 1.145271001179912e+03 -1.458412076778615e+02  2.918975276816622e+03
 1.145821190938549e+03 -1.459508408621589e+02  2.918975276816622e+03
 1.145587913036365e+03 -1.469403113345618e+02  2.918975276816622e+03
 1.144981782914979e+03 -1.487169139858375e+02  2.918975276816622e+03
 1.144871303832446e+03 -1.502019964062226e+02  2.918975276816622e+03
 1.144792148694529e+03 -1.548968647890952e+02  2.918975276816622e+03
 1.144874337056008e+03 -1.586892810749401e+02  2.918975276816622e+03
 1.144739948797302e+03 -1.605283141544896e+02  2.918975276816622e+03
 1.144927631859778e+03 -1.620470226797852e+02  2.918975276816622e+03
 1.144840539606510e+03 -1.639343327651512e+02  2.918975276816622e+03
 1.144899273857841e+03 -1.650548149745341e+02  2.918975276816622e+03
 1.145103387930982e+03 -1.654444757599518e+02  2.918975276816622e+03
 1.144908189042870e+03 -1.672741746898193e+02  2.918975276816622e+03
 1.144697140493054e+03 -1.686691921603731e+02  2.918975276816622e+03
 1.144895632839012e+03 -1.701995326138261e+02  2.918975276816622e+03
 1.145048086492818e+03 -1.750045323656133e+02  2.918975276816622e+03
 1.145400237536018e+03 -1.783312732147443e+02  2.918975276816622e+03
 1.144970000178852e+03 -1.805773185210133e+02  2.918975276816622e+03
 1.145350617940458e+03 -1.818277309821255e+02  2.918975276816622e+03
 1.144940496279282e+03 -1.824091385816748e+02  2.918975276816622e+03
 1.145163201636938e+03 -1.833888304442225e+02  2.918975276816622e+03
 1.145064925617537e+03 -1.858386905110002e+02  2.918975276816622e+03
 1.144970277019428e+03 -1.873151805738399e+02  2.918975276816622e+03
 1.145205486609379e+03 -1.887779352471101e+02  2.918975276816622e+03
 1.145325557079757e+03 -1.902549999391391e+02  2.918975276816622e+03
 1.145091984687106e+03 -1.948910339153560e+02  2.918975276816622e+03
 1.144834976287444e+03 -1.985322563240634e+02  2.918975276816622e+03
 1.144742565334899e+03 -2.007145527620827e+02  2.918975276816622e+03
 1.144473663344628e+03 -2.018792356575848e+02  2.918975276816622e+03
 1.144797724305390e+03 -2.029396173462573e+02  2.918975276816622e+03
 1.144745737018360e+03 -2.044490224966536e+02  2.918975276816622e+03
 1.145474047557589e+03 -2.058883098838878e+02  2.918975276816622e+03
 1.144897913335157e+03 -2.069926771350119e+02  2.918975276816622e+03
 1.144882980307541e+03 -2.083820967069074e+02  2.918975276816622e+03
 1.145046577350863e+03 -2.101300986572558e+02  2.918975276816622e+03
 1.145090781301935e+03 -2.147456320524397e+02  2.918975276816622e+03
 1.145144618668111e+03 -2.170550439840017e+02  2.918975276816622e+03
 1.145161284605306e+03 -2.186119592356417e+02  2.918975276816622e+03
 1.145155874563671e+03 -2.203849213774889e+02  2.918975276816622e+03
 1.145067042054958e+03 -2.227810270175753e+02  2.918975276816622e+03
 1.145213869757917e+03 -2.244127481250320e+02  2.918975276816622e+03
 1.144968923449273e+03 -2.252788368518442e+02  2.918975276816622e+03
 1.145116065880399e+03 -2.288806193493750e+02  2.918975276816622e+03
 1.144997507550679e+03 -2.301676347521822e+02  2.918975276816622e+03
 1.145098312869292e+03 -2.329106812687853e+02  2.918975276816622e+03
 1.144764824072056e+03 -2.340835707250335e+02  2.918975276816622e+03
 1.144751980824177e+03 -2.367612116758758e+02  2.918975276816622e+03
 1.144553619009289e+03 -2.387497007930324e+02  2.918975276816622e+03
 1.144701174537945e+03 -2.413517711909185e+02  2.918975276816622e+03
 1.144299445522332e+03 -2.448098186051359e+02  2.918975276816622e+03
 1.144501348928701e+03 -2.475070995538124e+02  2.918975276816622e+03
 1.144183019185225e+03 -2.489293482342459e+02  2.918975276816622e+03
 1.144440782351809e+03 -2.511540847846127e+02  2.918975276816622e+03
 1.144386236570848e+03 -2.511486074624480e+02  2.918975276816622e+03
 1.144618740157515e+03 -2.530029223004303e+02  2.918975276816622e+03
 1.144379655036611e+03 -2.552557136766746e+02  2.918975276816622e+03
 1.144654522569695e+03 -2.569558536256430e+02  2.918975276816622e+03
 1.144495750702725e+03 -2.577636133601033e+02  2.918975276816622e+03
 1.144696581344932e+03 -2.590150287200091e+02  2.918975276816622e+03
 1.144702282567523e+03 -2.610446122347097e+02  2.918975276816622e+03
 1.144894478563102e+03 -2.657570206891471e+02  2.918975276816622e+03
 1.145171301148540e+03 -2.690989593464778e+02  2.918975276816622e+03
 1.145144610004681e+03 -2.700344376952145e+02  2.918975276816622e+03
 1.145460086467773e+03 -2.727761871971624e+02  2.918975276816622e+03
 1.145336866403038e+03 -2.734529563265069e+02  2.918975276816622e+03
 1.145539149867030e+03 -2.758363045342107e+02  2.918975276816622e+03
 1.145445851282688e+03 -2.785699089009403e+02  2.918975276816622e+03
 1.145773098104041e+03 -2.832935074864031e+02  2.918975276816622e+03
 1.145801835146908e+03 -2.866168372278426e+02  2.918975276816622e+03
 1.145393679349216e+03 -2.885315237044603e+02  2.918975276816622e+03
 1.145919921041013e+03 -2.908368823011815e+02  2.918975276816622e+03
 1.145860309618704e+03 -2.929586546117674e+02  2.918975276816622e+03
 1.145780430119594e+03 -2.948943592571576e+02  2.918975276816622e+03
 1.145574553603290e+03 -2.988355286530179e+02  2.918975276816622e+03
 1.145877497695414e+03 -2.992288269659898e+02  2.918975276816622e+03
 1.145548525379239e+03 -3.026694799481771e+02  2.918975276816622e+03
 1.145507952917048e+03 -3.036278783218363e+02  2.918975276816622e+03
 1.145140229977494e+03 -3.081853351202940e+02  2.918975276816622e+03
 1.144939547613720e+03 -3.100594347065095e+02  2.918975276816622e+03
 1.144830743905906e+03 -3.122035422335238e+02  2.918975276816622e+03
 1.144453345100558e+03 -3.133762598201521e+02  2.918975276816622e+03
 1.144475262171184e+03 -3.148202476625681e+02  2.918975276816622e+03
 1.144151835148409e+03 -3.173629339688622e+02  2.918975276816622e+03
 1.144131007949009e+03 -3.190806245974370e+02  2.918975276816622e+03
 1.144832500779117e+03 -3.214700491138122e+02  2.918975276816622e+03
 1.144084668316895e+03 -3.230814756390084e+02  2.918975276816622e+03
 1.144775063324950e+03 -3.262885758304307e+02  2.918975276816622e+03
 1.144748200119630e+03 -3.265649322672516e+02  2.918975276816622e+03
 1.144926117334401e+03 -3.290783168955937e+02  2.918975276816622e+03
 1.144780564775320e+03 -3.317113120389222e+02  2.918975276816622e+03
 1.144904048548506e+03 -3.343456988953098e+02  2.918975276816622e+03
 1.144794763176539e+03 -3.379213767343732e+02  2.918975276816622e+03
 1.144863514048005e+03 -3.388663850270333e+02  2.918975276816622e+03
 1.144792697552241e+03 -3.405468562257933e+02  2.918975276816622e+03
 1.144808483726679e+03 -3.429985100266447e+02  2.918975276816622e+03
 1.144649757747620e+03 -3.450115337920852e+02  2.918975276816622e+03
 1.144717662365754e+03 -3.482989031479503e+02  2.918975276816622e+03
 1.144224633533936e+03 -3.510346246769516e+02  2.918975276816622e+03
 1.144348978705343e+03 -3.536015977325020e+02  2.918975276816622e+03
 1.143591528207925e+03 -3.538751323466307e+02  2.918975276816622e+03
 1.144677616208573e+03 -3.555291725868736e+02  2.918975276816622e+03
 1.144763330928392e+03 -3.568138029691086e+02  2.918975276816622e+03
 1.145990099255425e+03 -3.596169243474694e+02  2.918975276816622e+03
 1.146439975341298e+03 -3.618337887748873e+02  2.918975276816622e+03
 1.147117252603712e+03 -3.625849633433813e+02  2.918975276816622e+03
 1.145336215271682e+03 -3.643888895487872e+02  2.918975276816622e+03
 1.145918466154954e+03 -3.651170966086135e+02  2.918975276816622e+03
 1.144996947324882e+03 -3.669323325847399e+02  2.918975276816622e+03
 1.145065982137592e+03 -3.686762785180846e+02  2.918975276816622e+03
 1.145114049047984e+03 -3.713408509693746e+02  2.918975276816622e+03
 1.145208364316911e+03 -3.716679400401860e+02  2.918975276816622e+03
 1.145138226739070e+03 -3.752775327964434e+02  2.918975276816622e+03
 1.145230157381187e+03 -3.778591141227184e+02  2.918975276816622e+03
 1.145227137819315e+03 -3.828856647525132e+02  2.918975276816622e+03
 1.145240266253149e+03 -3.834865512876321e+02  2.918975276816622e+03
1.145264934152922e+03 3.848704578937360e+02 2.918975276816622e+03
1.145202279790581e+03 3.813362997905004e+02 2.918975276816622e+03
1.145310876637175e+03 3.789303693564040e+02 2.918975276816622e+03
1.145405289499201e+03 3.780865231692566e+02 2.918975276816622e+03
1.145789432271722e+03 3.763457778563154e+02 2.918975276816622e+03
1.145821821114790e+03 3.749894255431373e+02 2.918975276816622e+03
1.145792030812361e+03 3.749406497233609e+02 2.918975276816622e+03
1.145322345425310e+03 3.736668981002226e+02 2.918975276816622e+03
1.145339206388183e+03 3.726236868983417e+02 2.918975276816622e+03
1.144998899672444e+03 3.712417610934193e+02 2.918975276816622e+03
1.144736427548278e+03 3.681228722338533e+02 2.918975276816622e+03
1.144168244387195e+03 3.671076079404617e+02 2.918975276816622e+03
1.144356133113189e+03 3.669577957371429e+02 2.918975276816622e+03
1.144397771318446e+03 3.653060796233599e+02 2.918975276816622e+03
1.145020564898414e+03 3.625972680208999e+02 2.918975276816622e+03
1.145038464481367e+03 3.599393583360730e+02 2.918975276816622e+03
1.145241004264221e+03 3.583023915000870e+02 2.918975276816622e+03
1.145227428130218e+03 3.572404753286469e+02 2.918975276816622e+03
1.145275072718859e+03 3.554946943649244e+02 2.918975276816622e+03
1.145498264371444e+03 3.540481156898738e+02 2.918975276816622e+03
1.145416373388769e+03 3.524038919972806e+02 2.918975276816622e+03
1.146107760880149e+03 3.509324796619951e+02 2.918975276816622e+03
1.145634597637645e+03 3.482678682330136e+02 2.918975276816622e+03
1.146117161789663e+03 3.474235728226326e+02 2.918975276816622e+03
1.145731313282015e+03 3.448705487524394e+02 2.918975276816622e+03
1.146424903817228e+03 3.435552836693755e+02 2.918975276816622e+03
1.145905335866466e+03 3.416450594163575e+02 2.918975276816622e+03
1.146570192619293e+03 3.404268983739498e+02 2.918975276816622e+03
1.145799762712048e+03 3.390175987176559e+02 2.918975276816622e+03
1.148415607846494e+03 3.378656605311708e+02 2.918975276816622e+03
1.146988247124222e+03 3.364456518436585e+02 2.918975276816622e+03
1.146779273767890e+03 3.343073647230775e+02 2.918975276816622e+03
1.146364073567841e+03 3.314285167479314e+02 2.918975276816622e+03
1.146137820315083e+03 3.289268581841070e+02 2.918975276816622e+03
1.146626378357182e+03 3.287809644151707e+02 2.918975276816622e+03
1.145990019209895e+03 3.266608957786189e+02 2.918975276816622e+03
1.146848589967088e+03 3.257921050842853e+02 2.918975276816622e+03
1.146033957092420e+03 3.246730700255966e+02 2.918975276816622e+03
1.146209355246239e+03 3.230683334666505e+02 2.918975276816622e+03
1.145546473474453e+03 3.212872961592603e+02 2.918975276816622e+03
1.145994760027932e+03 3.192729778411222e+02 2.918975276816622e+03
1.145691529112168e+03 3.183972095458884e+02 2.918975276816622e+03
1.146010596806850e+03 3.158563007483735e+02 2.918975276816622e+03
1.145754254058812e+03 3.133616561768830e+02 2.918975276816622e+03
1.145927179699655e+03 3.117345767364915e+02 2.918975276816622e+03
1.145652270564840e+03 3.112456387096116e+02 2.918975276816622e+03
1.145846814270538e+03 3.095645800309477e+02 2.918975276816622e+03
1.145858584122556e+03 3.077805089936219e+02 2.918975276816622e+03
1.145878604817286e+03 3.064879747251317e+02 2.918975276816622e+03
1.146022523952020e+03 3.019420191302264e+02 2.918975276816622e+03
1.146198275059118e+03 3.011550782490138e+02 2.918975276816622e+03
1.146059093552999e+03 2.989950555663334e+02 2.918975276816622e+03
1.146303367893904e+03 2.976510525656082e+02 2.918975276816622e+03
1.146047922895346e+03 2.955582752071369e+02 2.918975276816622e+03
1.146458827460604e+03 2.939758563723616e+02 2.918975276816622e+03
1.146415496917569e+03 2.920092150749388e+02 2.918975276816622e+03
1.147105594200886e+03 2.905388954719886e+02 2.918975276816622e+03
1.146419926945511e+03 2.901966242242267e+02 2.918975276816622e+03
1.146394124035580e+03 2.869976512773035e+02 2.918975276816622e+03
1.145881780638390e+03 2.849792101811568e+02 2.918975276816622e+03
1.146094341273908e+03 2.829105584128804e+02 2.918975276816622e+03
1.145692371895315e+03 2.809299369475848e+02 2.918975276816622e+03
1.145729593072670e+03 2.771039280629008e+02 2.918975276816622e+03
1.145426362634274e+03 2.750720768859373e+02 2.918975276816622e+03
1.145274778279056e+03 2.711606806409370e+02 2.918975276816622e+03
1.145012318728261e+03 2.666624232963327e+02 2.918975276816622e+03
1.144791726925117e+03 2.651531202686308e+02 2.918975276816622e+03
1.144809238896771e+03 2.624128901694226e+02 2.918975276816622e+03
1.144508352496142e+03 2.595191915429127e+02 2.918975276816622e+03
1.144553112406501e+03 2.582945934063366e+02 2.918975276816622e+03
1.144850556535963e+03 2.534220008661508e+02 2.918975276816622e+03
1.144508578450606e+03 2.523890353796498e+02 2.918975276816622e+03
1.144634031644418e+03 2.501026887573424e+02 2.918975276816622e+03
1.144314280101864e+03 2.487845392484413e+02 2.918975276816622e+03
1.144410686049304e+03 2.474990187689546e+02 2.918975276816622e+03
1.143523228469147e+03 2.458480300572571e+02 2.918975276816622e+03
1.145206615793730e+03 2.459490704388819e+02 2.918975276816622e+03
1.144971067561282e+03 2.452883521841304e+02 2.918975276816622e+03
1.145319805446442e+03 2.442342124634755e+02 2.918975276816622e+03
1.145102005651239e+03 2.426765512569359e+02 2.918975276816622e+03
1.145189239412337e+03 2.419463464768202e+02 2.918975276816622e+03
1.145118657856386e+03 2.402395968983184e+02 2.918975276816622e+03
1.145185005373906e+03 2.355620904695704e+02 2.918975276816622e+03
1.144882709495047e+03 2.339388728988627e+02 2.918975276816622e+03
1.145234516849297e+03 2.313190313092003e+02 2.918975276816622e+03
1.145262527188305e+03 2.288525096962652e+02 2.918975276816622e+03
1.145448982073283e+03 2.271748514557902e+02 2.918975276816622e+03
1.145350213737601e+03 2.262306932672327e+02 2.918975276816622e+03
1.145478149427490e+03 2.250576320014983e+02 2.918975276816622e+03
1.144986471687698e+03 2.245612728844361e+02 2.918975276816622e+03
1.145206875368521e+03 2.235126910392462e+02 2.918975276816622e+03
1.145183055183263e+03 2.218106798611663e+02 2.918975276816622e+03
1.145179902327910e+03 2.202195709671251e+02 2.918975276816622e+03
1.145131412482621e+03 2.158151346241307e+02 2.918975276816622e+03
1.145241169928099e+03 2.127312463822106e+02 2.918975276816622e+03
1.145290609070160e+03 2.112081661264065e+02 2.918975276816622e+03
1.145446741176318e+03 2.087637456111370e+02 2.918975276816622e+03
1.145493144176142e+03 2.077549380385219e+02 2.918975276816622e+03
1.145596580901594e+03 2.063458132363914e+02 2.918975276816622e+03
1.145589860956233e+03 2.061764650087665e+02 2.918975276816622e+03
1.145667123926414e+03 2.046764556978301e+02 2.918975276816622e+03
1.145821844318391e+03 2.039961189944928e+02 2.918975276816622e+03
1.145747894292203e+03 2.026551444001703e+02 2.918975276816622e+03
1.146022803444078e+03 2.013029515024639e+02 2.918975276816622e+03
1.146012494442268e+03 2.002375154837865e+02 2.918975276816622e+03
1.146674052668201e+03 1.960134200802271e+02 2.918975276816622e+03
1.147467643506174e+03 1.928102408226793e+02 2.918975276816622e+03
1.145760174052373e+03 1.933901892453284e+02 2.918975276816622e+03
1.145325591154598e+03 1.912451760547489e+02 2.918975276816622e+03
1.145629136956333e+03 1.887805500223901e+02 2.918975276816622e+03
1.145339428678388e+03 1.879353500352140e+02 2.918975276816622e+03
1.145584239489710e+03 1.868229564772844e+02 2.918975276816622e+03
1.145493766793812e+03 1.862404370338765e+02 2.918975276816622e+03
1.145750648488954e+03 1.850025322356857e+02 2.918975276816622e+03
1.145232763917856e+03 1.847653131014255e+02 2.918975276816622e+03
1.145498524775479e+03 1.834016045948990e+02 2.918975276816622e+03
1.145417437467242e+03 1.818689564788515e+02 2.918975276816622e+03
1.145384312843809e+03 1.803078941937426e+02 2.918975276816622e+03
1.145340422642101e+03 1.758090601566534e+02 2.918975276816622e+03
1.145429871802383e+03 1.728839297053291e+02 2.918975276816622e+03
1.145496995152646e+03 1.713562293639026e+02 2.918975276816622e+03
1.145601196196310e+03 1.686772450731889e+02 2.918975276816622e+03
1.145649062864936e+03 1.680779774447939e+02 2.918975276816622e+03
1.145654639675341e+03 1.668353589392511e+02 2.918975276816622e+03
1.145827014705217e+03 1.659021656734699e+02 2.918975276816622e+03
1.145811974280509e+03 1.648105177936441e+02 2.918975276816622e+03
1.145944295405509e+03 1.642977765759258e+02 2.918975276816622e+03
1.145979012428513e+03 1.628818377003787e+02 2.918975276816622e+03
1.146302558552356e+03 1.617103808564260e+02 2.918975276816622e+03
1.146206426459134e+03 1.603695088651955e+02 2.918975276816622e+03
1.146090640167988e+03 1.563121685209351e+02 2.918975276816622e+03
1.146087955822240e+03 1.538850916481614e+02 2.918975276816622e+03
1.145506675818859e+03 1.512741302566128e+02 2.918975276816622e+03
1.145587184124948e+03 1.473550678655784e+02 2.918975276816622e+03
1.145186886451711e+03 1.462006084780601e+02 2.918975276816622e+03
1.145607868365960e+03 1.451041290119223e+02 2.918975276816622e+03
1.145352849610537e+03 1.448611811555618e+02 2.918975276816622e+03
1.145305115113701e+03 1.437415655805857e+02 2.918975276816622e+03
1.145188531307610e+03 1.418505163670455e+02 2.918975276816622e+03
1.145409599161744e+03 1.404062093306694e+02 2.918975276816622e+03
1.144768846832677e+03 1.360182656293381e+02 2.918975276816622e+03
1.145081741360347e+03 1.328952423744077e+02 2.918975276816622e+03
1.145070107790687e+03 1.312934123462673e+02 2.918975276816622e+03
1.145140220697375e+03 1.289075101727846e+02 2.918975276816622e+03
1.145128323767987e+03 1.278509003295151e+02 2.918975276816622e+03
1.145365798913111e+03 1.264338022432807e+02 2.918975276816622e+03
1.145150471546790e+03 1.262422717962972e+02 2.918975276816622e+03
1.145273812390761e+03 1.249752041555795e+02 2.918975276816622e+03
1.145146116149741e+03 1.247223991708126e+02 2.918975276816622e+03
1.145165874046781e+03 1.235682894171306e+02 2.918975276816622e+03
1.144966240959610e+03 1.219421500417008e+02 2.918975276816622e+03
1.145055062997824e+03 1.204386323263207e+02 2.918975276816622e+03
1.144889226745423e+03 1.160062528507788e+02 2.918975276816622e+03
1.144840583409997e+03 1.126333438090925e+02 2.918975276816622e+03
1.144903673685573e+03 1.113426674293643e+02 2.918975276816622e+03
1.145031131433664e+03 1.090105987085919e+02 2.918975276816622e+03
1.144815695271064e+03 1.080882427687534e+02 2.918975276816622e+03
1.145032688826109e+03 1.065756237291829e+02 2.918975276816622e+03
1.144153606689356e+03 1.068269331725923e+02 2.918975276816622e+03
1.144843033720643e+03 1.050141476597560e+02 2.918975276816622e+03
1.144680985415329e+03 1.045012115633608e+02 2.918975276816622e+03
1.144758047620752e+03 1.032618726978293e+02 2.918975276816622e+03
1.144554315475773e+03 1.016939563763882e+02 2.918975276816622e+03
1.144692491922512e+03 1.005605512595300e+02 2.918975276816622e+03
1.144668837686276e+03 9.559906389431407e+01 2.918975276816622e+03
1.144625274084557e+03 9.358656629350507e+01 2.918975276816622e+03
1.144257988711158e+03 8.991349568711075e+01 2.918975276816622e+03
1.143947307450385e+03 8.912895660980853e+01 2.918975276816622e+03
1.144728573604316e+03 8.397895045640607e+01 2.918975276816622e+03
1.144823921994056e+03 8.027258420302056e+01 2.918975276816622e+03
1.144927004682273e+03 7.928400401776703e+01 2.918975276816622e+03
1.144850878116037e+03 7.749233680726508e+01 2.918975276816622e+03
1.144964261865818e+03 7.571279673088763e+01 2.918975276816622e+03
1.144792716778758e+03 7.393320175013355e+01 2.918975276816622e+03
1.145073079586212e+03 7.297755348022497e+01 2.918975276816622e+03
1.144731762290784e+03 7.131995256365595e+01 2.918975276816622e+03
1.144964531185692e+03 6.901243784321001e+01 2.918975276816622e+03
1.144804533184364e+03 6.810870612010774e+01 2.918975276816622e+03
1.145923336411525e+03 6.752591528205917e+01 2.918975276816622e+03
1.145100262145279e+03 6.640705369506560e+01 2.918975276816622e+03
1.145370577359738e+03 6.587610491610100e+01 2.918975276816622e+03
1.145374145416378e+03 6.449120778667768e+01 2.918975276816622e+03
1.145741957152471e+03 6.169841376879963e+01 2.918975276816622e+03
1.143982633452833e+03 6.203501996831477e+01 2.918975276816622e+03
1.144592457949220e+03 6.027136452036031e+01 2.918975276816622e+03
1.144783804321582e+03 5.845028869103930e+01 2.918975276816622e+03
1.144841212224746e+03 5.722385120210765e+01 2.918975276816622e+03
1.145389133368707e+03 5.695156333820110e+01 2.918975276816622e+03
1.145044276395312e+03 5.504536958397045e+01 2.918975276816622e+03
1.145122255205659e+03 5.424092619200993e+01 2.918975276816622e+03
1.144825571260571e+03 5.217772424210649e+01 2.918975276816622e+03
1.145259492969628e+03 5.036254859269091e+01 2.918975276816622e+03
1.145268123295050e+03 4.931344023271772e+01 2.918975276816622e+03
1.145456919483374e+03 4.789981428233487e+01 2.918975276816622e+03
1.145364833177882e+03 4.704908615769300e+01 2.918975276816622e+03
1.145635235083633e+03 4.420415908220761e+01 2.918975276816622e+03
1.145499936480470e+03 4.243065973262739e+01 2.918975276816622e+03
1.145701790355028e+03 4.169192446601107e+01 2.918975276816622e+03
1.145570574471086e+03 4.020024811601387e+01 2.918975276816622e+03
1.145835396107586e+03 3.811504420717845e+01 2.918975276816622e+03
1.145786966147515e+03 3.588853426034894e+01 2.918975276816622e+03
1.145953250614551e+03 3.382394092602348e+01 2.918975276816622e+03
1.146122866255684e+03 2.920442189116844e+01 2.918975276816622e+03
1.146369882813083e+03 2.737508603745880e+01 2.918975276816622e+03
1.146227593013967e+03 2.372857694166776e+01 2.918975276816622e+03
1.146811545027639e+03 2.120458281468445e+01 2.918975276816622e+03
1.146740744555566e+03 1.994142038500917e+01 2.918975276816622e+03
1.147462417588269e+03 1.816481028160858e+01 2.918975276816622e+03
1.143905712620165e+03 1.827743055843846e+01 2.918975276816622e+03
1.145434406585970e+03 1.570998130771612e+01 2.918975276816622e+03
1.145366456128424e+03 1.332611412257158e+01 2.918975276816622e+03
1.145818806360365e+03 1.164742214383927e+01 2.918975276816622e+03
1.145148287711320e+03 1.083655969600982e+01 2.918975276816622e+03
1.146076929752164e+03 9.546875204866156e+00 2.918975276816622e+03
1.145953066416501e+03 7.499487826855813e+00 2.918975276816622e+03
1.146024688921711e+03 4.423127856651730e+00 2.918975276816622e+03
1.145582710279747e+03 2.862777251406447e+00 2.918975276816622e+03
-1.157994098345899e+03  1.387746475951062e+00 -2.918975276816622e+03
-1.158522416870361e+03 -1.284693297700280e+00 -2.918975276816622e+03
-1.158719562899749e+03 -3.037119461908935e+00 -2.918975276816622e+03
-1.157683970475482e+03 -3.105673365338484e+00 -2.918975276816622e+03
-1.157659799090210e+03 -4.428769250779897e+00 -2.918975276816622e+03
-1.157634429665282e+03 -6.267649642959697e+00 -2.918975276816622e+03
-1.156466142135156e+03 -1.079252348698102e+01 -2.918975276816622e+03
-1.156656004777886e+03 -1.150367057019260e+01 -2.918975276816622e+03
-1.157605864695060e+03 -1.371896908057356e+01 -2.918975276816622e+03
-1.156716926489872e+03 -1.499865578718444e+01 -2.918975276816622e+03
-1.157493545428694e+03 -1.706108197164525e+01 -2.918975276816622e+03
-1.156741953162430e+03 -2.040769915300048e+01 -2.918975276816622e+03
-1.157253864816759e+03 -2.242201871453612e+01 -2.918975276816622e+03
-1.156433601255456e+03 -2.277795018635739e+01 -2.918975276816622e+03
-1.158055159253135e+03 -2.518894149529319e+01 -2.918975276816622e+03
-1.157996834410295e+03 -2.575459327598699e+01 -2.918975276816622e+03
-1.158940932506596e+03 -2.827850377837354e+01 -2.918975276816622e+03
-1.156092485706220e+03 -2.777080505334291e+01 -2.918975276816622e+03
-1.156845755144257e+03 -3.044813602877174e+01 -2.918975276816622e+03
-1.156791751906896e+03 -3.258349001911252e+01 -2.918975276816622e+03
-1.157180231340395e+03 -3.452511721365646e+01 -2.918975276816622e+03
-1.156914954579845e+03 -3.587112070752467e+01 -2.918975276816622e+03
-1.157156759449870e+03 -3.730510922788893e+01 -2.918975276816622e+03
-1.156959795055531e+03 -4.054414461446750e+01 -2.918975276816622e+03
-1.157131767145881e+03 -4.133926457802990e+01 -2.918975276816622e+03
-1.156911613193493e+03 -4.358297570344223e+01 -2.918975276816622e+03
-1.157017556932767e+03 -4.530919155224079e+01 -2.918975276816622e+03
-1.156911459810927e+03 -4.581847350192887e+01 -2.918975276816622e+03
-1.157004516950158e+03 -4.743540417888160e+01 -2.918975276816622e+03
-1.156839256506763e+03 -4.970671589357637e+01 -2.918975276816622e+03
-1.156913883276932e+03 -5.058873828921561e+01 -2.918975276816622e+03
-1.156783186535490e+03 -5.219445164551832e+01 -2.918975276816622e+03
-1.156822715072032e+03 -5.518358513272905e+01 -2.918975276816622e+03
-1.156762578567836e+03 -5.627664954375024e+01 -2.918975276816622e+03
-1.156776497977611e+03 -5.865996006585989e+01 -2.918975276816622e+03
-1.156737594635990e+03 -6.045257004491867e+01 -2.918975276816622e+03
-1.156745318896740e+03 -6.139365777326493e+01 -2.918975276816622e+03
-1.156745714025150e+03 -6.353040297512769e+01 -2.918975276816622e+03
-1.156784701488875e+03 -6.481464147416689e+01 -2.918975276816622e+03
-1.156915175808144e+03 -6.598313601617761e+01 -2.918975276816622e+03
-1.156740088286336e+03 -6.745236695348547e+01 -2.918975276816622e+03
-1.156642268904653e+03 -6.999091239747047e+01 -2.918975276816622e+03
-1.156857480504740e+03 -7.055114786068103e+01 -2.918975276816622e+03
-1.156919695806727e+03 -7.197554400432600e+01 -2.918975276816622e+03
-1.156696959031232e+03 -7.331241832906454e+01 -2.918975276816622e+03
-1.156693226614715e+03 -7.527759790782014e+01 -2.918975276816622e+03
-1.156645423187549e+03 -7.612662832415563e+01 -2.918975276816622e+03
-1.156796820402452e+03 -7.679503282341315e+01 -2.918975276816622e+03
-1.156670080749464e+03 -7.866619428747588e+01 -2.918975276816622e+03
-1.156745624509876e+03 -8.045027699678795e+01 -2.918975276816622e+03
-1.156676894986292e+03 -8.129662038227083e+01 -2.918975276816622e+03
-1.156824768544418e+03 -8.346853956440182e+01 -2.918975276816622e+03
-1.156761376143787e+03 -8.487484445851636e+01 -2.918975276816622e+03
-1.156808049243882e+03 -8.594077382667574e+01 -2.918975276816622e+03
-1.156620174422101e+03 -8.732586785803286e+01 -2.918975276816622e+03
-1.156732507778208e+03 -8.971468353316384e+01 -2.918975276816622e+03
-1.156808350434027e+03 -9.050925820214950e+01 -2.918975276816622e+03
-1.156696705066607e+03 -9.203006287412921e+01 -2.918975276816622e+03
-1.156694984159651e+03 -9.520083390925525e+01 -2.918975276816622e+03
-1.156545197084534e+03 -9.641577158517767e+01 -2.918975276816622e+03
-1.156667489459438e+03 -9.879783187748473e+01 -2.918975276816622e+03
-1.156407281310530e+03 -1.006508959035628e+02 -2.918975276816622e+03
-1.156580617409558e+03 -1.012937426916768e+02 -2.918975276816622e+03
-1.156267393413578e+03 -1.035947477859818e+02 -2.918975276816622e+03
-1.156485221243291e+03 -1.052565933478667e+02 -2.918975276816622e+03
-1.156080808483639e+03 -1.066871782798272e+02 -2.918975276816622e+03
-1.156384139301638e+03 -1.071869461034612e+02 -2.918975276816622e+03
-1.156082928706293e+03 -1.096168207475399e+02 -2.918975276816622e+03
-1.156265332032770e+03 -1.108624547727518e+02 -2.918975276816622e+03
-1.155969445022320e+03 -1.128857574133668e+02 -2.918975276816622e+03
-1.156049278691653e+03 -1.134771040816254e+02 -2.918975276816622e+03
-1.156307896959898e+03 -1.182494148214418e+02 -2.918975276816622e+03
-1.156367277052278e+03 -1.203984340941033e+02 -2.918975276816622e+03
-1.156388880629511e+03 -1.211832585490079e+02 -2.918975276816622e+03
-1.156433447605276e+03 -1.233603194013317e+02 -2.918975276816622e+03
-1.156513489963255e+03 -1.247126966247887e+02 -2.918975276816622e+03
-1.156573828839117e+03 -1.259452651367800e+02 -2.918975276816622e+03
-1.156587916959463e+03 -1.273404879129243e+02 -2.918975276816622e+03
-1.156696922692739e+03 -1.298083560462782e+02 -2.918975276816622e+03
-1.156573984331955e+03 -1.313305674717725e+02 -2.918975276816622e+03
-1.156795709032735e+03 -1.324593546446678e+02 -2.918975276816622e+03
-1.156735587834991e+03 -1.333113224782265e+02 -2.918975276816622e+03
-1.156789638485200e+03 -1.350523273819662e+02 -2.918975276816622e+03
-1.156683587888232e+03 -1.362186356881730e+02 -2.918975276816622e+03
-1.156738108711746e+03 -1.385463054047824e+02 -2.918975276816622e+03
-1.156706308194031e+03 -1.403496056210072e+02 -2.918975276816622e+03
-1.156707802522699e+03 -1.412761857793235e+02 -2.918975276816622e+03
-1.156697708525416e+03 -1.434512888647463e+02 -2.918975276816622e+03
-1.156621291640950e+03 -1.447035606289468e+02 -2.918975276816622e+03
-1.156729741484642e+03 -1.456888018548494e+02 -2.918975276816622e+03
-1.156506984805625e+03 -1.473913523148008e+02 -2.918975276816622e+03
-1.156552798565591e+03 -1.496769243511891e+02 -2.918975276816622e+03
-1.154052817977391e+03 -1.506195389475671e+02 -2.918975276816622e+03
-1.156025618963188e+03 -1.519125486889972e+02 -2.918975276816622e+03
-1.156406096389952e+03 -1.530824738000262e+02 -2.918975276816622e+03
-1.156803746709312e+03 -1.549396796553483e+02 -2.918975276816622e+03
-1.156751918218496e+03 -1.561119109283204e+02 -2.918975276816622e+03
-1.156892963008308e+03 -1.586047445154034e+02 -2.918975276816622e+03
-1.156796648916599e+03 -1.605144414371694e+02 -2.918975276816622e+03
-1.156784521237356e+03 -1.611770030344763e+02 -2.918975276816622e+03
-1.156825078342069e+03 -1.633332678793627e+02 -2.918975276816622e+03
-1.156809609451261e+03 -1.645913395633698e+02 -2.918975276816622e+03
-1.156857721989660e+03 -1.658816259815011e+02 -2.918975276816622e+03
-1.156749469722838e+03 -1.673295153952415e+02 -2.918975276816622e+03
-1.156915701987252e+03 -1.697159214442150e+02 -2.918975276816622e+03
-1.156724220795054e+03 -1.715629107977546e+02 -2.918975276816622e+03
-1.156991658814946e+03 -1.727957263539329e+02 -2.918975276816622e+03
-1.156633206694957e+03 -1.739824033226709e+02 -2.918975276816622e+03
-1.157001023895205e+03 -1.750633730823481e+02 -2.918975276816622e+03
-1.156668006588470e+03 -1.762765448867069e+02 -2.918975276816622e+03
-1.157585813457165e+03 -1.768882934478985e+02 -2.918975276816622e+03
-1.157254460972302e+03 -1.786535923697862e+02 -2.918975276816622e+03
-1.159130514087356e+03 -1.812701089672119e+02 -2.918975276816622e+03
-1.157499814523495e+03 -1.815049123172535e+02 -2.918975276816622e+03
-1.157446818374837e+03 -1.828400243513530e+02 -2.918975276816622e+03
-1.157162039592976e+03 -1.846807919044808e+02 -2.918975276816622e+03
-1.157026527736764e+03 -1.858200452082344e+02 -2.918975276816622e+03
-1.156976477479051e+03 -1.872228998031592e+02 -2.918975276816622e+03
-1.157056797504728e+03 -1.896385336862876e+02 -2.918975276816622e+03
-1.156929033640763e+03 -1.913046532592462e+02 -2.918975276816622e+03
-1.157011094412067e+03 -1.924497494682903e+02 -2.918975276816622e+03
-1.156960868008096e+03 -1.935710265503529e+02 -2.918975276816622e+03
-1.157090962866472e+03 -1.953248001443770e+02 -2.918975276816622e+03
-1.157013555074655e+03 -1.966697966214131e+02 -2.918975276816622e+03
-1.157186819317972e+03 -1.970469323490256e+02 -2.918975276816622e+03
-1.157059246727212e+03 -1.985460276899462e+02 -2.918975276816622e+03
-1.157440668364911e+03 -2.000552125936517e+02 -2.918975276816622e+03
-1.156993356831963e+03 -2.009472148101521e+02 -2.918975276816622e+03
-1.157270203554463e+03 -2.032381233239633e+02 -2.918975276816622e+03
-1.157300910194548e+03 -2.045227317784173e+02 -2.918975276816622e+03
-1.157245815553146e+03 -2.055651046607977e+02 -2.918975276816622e+03
-1.157170358045534e+03 -2.071985396297789e+02 -2.918975276816622e+03
-1.157154001569356e+03 -2.095684998180886e+02 -2.918975276816622e+03
-1.157185415561630e+03 -2.107501627111063e+02 -2.918975276816622e+03
-1.156997318753649e+03 -2.122904144173939e+02 -2.918975276816622e+03
-1.157296825258356e+03 -2.153027397704075e+02 -2.918975276816622e+03
-1.157180918682686e+03 -2.158454878971133e+02 -2.918975276816622e+03
-1.156925211413077e+03 -2.183592972095177e+02 -2.918975276816622e+03
-1.157033051551328e+03 -2.206185615290675e+02 -2.918975276816622e+03
-1.157028749268239e+03 -2.208740641352896e+02 -2.918975276816622e+03
-1.156853012306415e+03 -2.231996292494770e+02 -2.918975276816622e+03
-1.156764095535963e+03 -2.246847118534929e+02 -2.918975276816622e+03
-1.156686700611765e+03 -2.257719121887654e+02 -2.918975276816622e+03
-1.156641536455371e+03 -2.271985690714171e+02 -2.918975276816622e+03
-1.156775799183627e+03 -2.296699643910688e+02 -2.918975276816622e+03
-1.156750099156871e+03 -2.311716285764302e+02 -2.918975276816622e+03
-1.156655227124894e+03 -2.318488454507926e+02 -2.918975276816622e+03
-1.156520529194980e+03 -2.347695737669184e+02 -2.918975276816622e+03
-1.157044468800384e+03 -2.349835202360776e+02 -2.918975276816622e+03
-1.156862525264177e+03 -2.385363652150717e+02 -2.918975276816622e+03
-1.157324786819911e+03 -2.401919697622294e+02 -2.918975276816622e+03
-1.157407974608540e+03 -2.410183068224878e+02 -2.918975276816622e+03
-1.157343835018988e+03 -2.432636858109395e+02 -2.918975276816622e+03
-1.158029649958026e+03 -2.454950727597921e+02 -2.918975276816622e+03
-1.158428403913429e+03 -2.456114238716854e+02 -2.918975276816622e+03
-1.157967800019142e+03 -2.470424177654504e+02 -2.918975276816622e+03
-1.157289197358070e+03 -2.493808129588764e+02 -2.918975276816622e+03
-1.157318477629947e+03 -2.502691711983986e+02 -2.918975276816622e+03
-1.157007611181369e+03 -2.517455774366751e+02 -2.918975276816622e+03
-1.156990750214814e+03 -2.544527946947429e+02 -2.918975276816622e+03
-1.156743718822373e+03 -2.563848027447151e+02 -2.918975276816622e+03
-1.156687819926103e+03 -2.601843132712564e+02 -2.918975276816622e+03
-1.156483535972679e+03 -2.609388108255122e+02 -2.918975276816622e+03
-1.156556604281706e+03 -2.628218982143449e+02 -2.918975276816622e+03
-1.156372949215188e+03 -2.642759433879234e+02 -2.918975276816622e+03
-1.156458120498528e+03 -2.660342137843650e+02 -2.918975276816622e+03
-1.155932145600562e+03 -2.669850180417557e+02 -2.918975276816622e+03
-1.155821211571386e+03 -2.676814925546216e+02 -2.918975276816622e+03
-1.153438702767761e+03 -2.689059385064656e+02 -2.918975276816622e+03
-1.155686273720813e+03 -2.701036760337518e+02 -2.918975276816622e+03
-1.155436055053846e+03 -2.712404160546366e+02 -2.918975276816622e+03
-1.156676735978485e+03 -2.719157695606972e+02 -2.918975276816622e+03
-1.156059897264701e+03 -2.736603910361946e+02 -2.918975276816622e+03
-1.156736105740248e+03 -2.754160740126953e+02 -2.918975276816622e+03
-1.156191813829814e+03 -2.772307787614959e+02 -2.918975276816622e+03
-1.156801774067111e+03 -2.783796865106135e+02 -2.918975276816622e+03
-1.156234310785811e+03 -2.802957670403042e+02 -2.918975276816622e+03
-1.156751365368890e+03 -2.823209473953522e+02 -2.918975276816622e+03
-1.156084795082625e+03 -2.843092386541246e+02 -2.918975276816622e+03
-1.156642253019014e+03 -2.844846263863043e+02 -2.918975276816622e+03
-1.156418091366593e+03 -2.863325509464217e+02 -2.918975276816622e+03
-1.157018936589416e+03 -2.885925856182085e+02 -2.918975276816622e+03
-1.156706173700392e+03 -2.895204120879416e+02 -2.918975276816622e+03
-1.157142229286838e+03 -2.934888732535053e+02 -2.918975276816622e+03
-1.156917673785782e+03 -2.950188378620663e+02 -2.918975276816622e+03
-1.157245925839413e+03 -2.989189199465338e+02 -2.918975276816622e+03
-1.157125086838580e+03 -2.997444501669656e+02 -2.918975276816622e+03
-1.157285380833296e+03 -3.014041634647286e+02 -2.918975276816622e+03
-1.157362692171689e+03 -3.018741956192146e+02 -2.918975276816622e+03
-1.157392492320178e+03 -3.038379537567777e+02 -2.918975276816622e+03
-1.157494261785349e+03 -3.052807793979268e+02 -2.918975276816622e+03
-1.156966781832851e+03 -3.073336255810779e+02 -2.918975276816622e+03
-1.157620771352154e+03 -3.090473291021336e+02 -2.918975276816622e+03
-1.155809649020810e+03 -3.088395109362411e+02 -2.918975276816622e+03
-1.156282244705054e+03 -3.109255999932003e+02 -2.918975276816622e+03
-1.155870654509867e+03 -3.129991067011291e+02 -2.918975276816622e+03
-1.158081299121240e+03 -3.118510946112390e+02 -2.918975276816622e+03
-1.157674654565308e+03 -3.150399474423662e+02 -2.918975276816622e+03
-1.157824939289990e+03 -3.172132097550313e+02 -2.918975276816622e+03
-1.157476745434758e+03 -3.187862132768290e+02 -2.918975276816622e+03
-1.157787908150444e+03 -3.200962673738260e+02 -2.918975276816622e+03
-1.157583734044793e+03 -3.221655292213765e+02 -2.918975276816622e+03
-1.157654035550853e+03 -3.237441112525177e+02 -2.918975276816622e+03
-1.157505213713648e+03 -3.248122267854430e+02 -2.918975276816622e+03
-1.157477833098161e+03 -3.268289537614933e+02 -2.918975276816622e+03
-1.157033586664095e+03 -3.274338624801687e+02 -2.918975276816622e+03
-1.157199595477552e+03 -3.289379719317137e+02 -2.918975276816622e+03
-1.157286854335611e+03 -3.297904432889861e+02 -2.918975276816622e+03
-1.156982107900381e+03 -3.312686094181624e+02 -2.918975276816622e+03
-1.156972240012824e+03 -3.349868205563265e+02 -2.918975276816622e+03
-1.156456026943765e+03 -3.355772127972810e+02 -2.918975276816622e+03
-1.156674412654205e+03 -3.365403826903479e+02 -2.918975276816622e+03
-1.156512774924600e+03 -3.385025782527720e+02 -2.918975276816622e+03
-1.156756457848112e+03 -3.413265417776826e+02 -2.918975276816622e+03
-1.156483964696719e+03 -3.428125140592023e+02 -2.918975276816622e+03
-1.156752673726151e+03 -3.441289175673040e+02 -2.918975276816622e+03
-1.156481135622151e+03 -3.479212138492107e+02 -2.918975276816622e+03
-1.156541844725153e+03 -3.484007369664153e+02 -2.918975276816622e+03
-1.156527759181791e+03 -3.532556553852809e+02 -2.918975276816622e+03
-1.156605867529907e+03 -3.575624351537643e+02 -2.918975276816622e+03
-1.156572359230928e+03 -3.586990439500691e+02 -2.918975276816622e+03
-1.156704067379684e+03 -3.622867484743813e+02 -2.918975276816622e+03
-1.156630272290324e+03 -3.629079243432514e+02 -2.918975276816622e+03
-1.156745333193969e+03 -3.647258902382147e+02 -2.918975276816622e+03
-1.156689358190068e+03 -3.672136666808707e+02 -2.918975276816622e+03
-1.156840217035930e+03 -3.710841116737555e+02 -2.918975276816622e+03
-1.156814877908784e+03 -3.725641333024809e+02 -2.918975276816622e+03
-1.156833477285110e+03 -3.741934489221737e+02 -2.918975276816622e+03
-1.156757934850892e+03 -3.768399527326279e+02 -2.918975276816622e+03
-1.156869134532215e+03 -3.776552964502678e+02 -2.918975276816622e+03
-1.156900403863479e+03 -3.798978043303440e+02 -2.918975276816622e+03
-1.156850347805605e+03 -3.803250347628858e+02 -2.918975276816622e+03
-1.156827987719392e+03 -3.825131688498886e+02 -2.918975276816622e+03
-1.156906048168108e+03 -3.861319958665163e+02 -2.918975276816622e+03
-1.156922344397819e+03  3.832727258328895e+02 -2.918975276816622e+03
-1.156952672006562e+03  3.822503822178418e+02 -2.918975276816622e+03
-1.156928547230246e+03  3.786473367598848e+02 -2.918975276816622e+03
-1.156891535418010e+03  3.775401733032095e+02 -2.918975276816622e+03
-1.156925934955475e+03  3.765422835880720e+02 -2.918975276816622e+03
-1.156945923666080e+03  3.736105124483166e+02 -2.918975276816622e+03
-1.156939514108981e+03  3.694439451468726e+02 -2.918975276816622e+03
-1.156836399410436e+03  3.642187496374556e+02 -2.918975276816622e+03
-1.157000599484549e+03  3.601576413005337e+02 -2.918975276816622e+03
-1.157103721490136e+03  3.563091417548869e+02 -2.918975276816622e+03
-1.156628647256626e+03  3.551719911996913e+02 -2.918975276816622e+03
-1.156857790733184e+03  3.532341889021231e+02 -2.918975276816622e+03
-1.157117992695633e+03  3.470798797233556e+02 -2.918975276816622e+03
-1.157237243264121e+03  3.433302402025308e+02 -2.918975276816622e+03
-1.157207506518519e+03  3.380622246869075e+02 -2.918975276816622e+03
-1.157221212649729e+03  3.353810003957968e+02 -2.918975276816622e+03
-1.157007775688362e+03  3.276184399594666e+02 -2.918975276816622e+03
-1.156949947314811e+03  3.263413155729858e+02 -2.918975276816622e+03
-1.156862021388287e+03  3.242167249200397e+02 -2.918975276816622e+03
-1.156819056648150e+03  3.217117763514229e+02 -2.918975276816622e+03
-1.156805826402530e+03  3.202333463375330e+02 -2.918975276816622e+03
-1.156751835702340e+03  3.177811712570867e+02 -2.918975276816622e+03
-1.156549633373504e+03  3.124914532726269e+02 -2.918975276816622e+03
-1.156491997687481e+03  3.104702398121255e+02 -2.918975276816622e+03
-1.156488514139389e+03  3.075242066361783e+02 -2.918975276816622e+03
-1.157764990613927e+03  3.031698692869381e+02 -2.918975276816622e+03
-1.158215422875213e+03  3.010384526380008e+02 -2.918975276816622e+03
-1.154755746371292e+03  3.009977928715255e+02 -2.918975276816622e+03
-1.155345732501109e+03  2.994936066788892e+02 -2.918975276816622e+03
-1.155857553474234e+03  2.975944861366851e+02 -2.918975276816622e+03
-1.156282451741548e+03  2.954943185275562e+02 -2.918975276816622e+03
-1.156303838824645e+03  2.940853927256940e+02 -2.918975276816622e+03
-1.156573305453196e+03  2.918635198080050e+02 -2.918975276816622e+03
-1.156682998256957e+03  2.902650812254325e+02 -2.918975276816622e+03
-1.156810916347128e+03  2.890410484512025e+02 -2.918975276816622e+03
-1.156943006036744e+03  2.884870260038060e+02 -2.918975276816622e+03
-1.156866079140976e+03  2.878385782176876e+02 -2.918975276816622e+03
-1.156952860033758e+03  2.865936535617373e+02 -2.918975276816622e+03
-1.156865569726615e+03  2.843886990131147e+02 -2.918975276816622e+03
-1.156799474864508e+03  2.820307027890491e+02 -2.918975276816622e+03
-1.156907090356921e+03  2.779857048487556e+02 -2.918975276816622e+03
-1.156861558451393e+03  2.776861743459294e+02 -2.918975276816622e+03
-1.156946610401701e+03  2.753482930150423e+02 -2.918975276816622e+03
-1.156849379829423e+03  2.740186587303243e+02 -2.918975276816622e+03
-1.156870677539393e+03  2.717546118599362e+02 -2.918975276816622e+03
-1.156842663050598e+03  2.711808467107788e+02 -2.918975276816622e+03
-1.156811678957080e+03  2.695955452050896e+02 -2.918975276816622e+03
-1.156815145224812e+03  2.661943069138928e+02 -2.918975276816622e+03
-1.156725458511776e+03  2.649969434418120e+02 -2.918975276816622e+03
-1.156885696256063e+03  2.628556580583469e+02 -2.918975276816622e+03
-1.156686858057970e+03  2.609439871520046e+02 -2.918975276816622e+03
-1.156885614885254e+03  2.600445477943570e+02 -2.918975276816622e+03
-1.156662095955533e+03  2.577858245389200e+02 -2.918975276816622e+03
-1.156934521754587e+03  2.568259138245469e+02 -2.918975276816622e+03
-1.156637389851443e+03  2.552246252245848e+02 -2.918975276816622e+03
-1.156970155810506e+03  2.540593284776920e+02 -2.918975276816622e+03
-1.156727030206231e+03  2.515737303586378e+02 -2.918975276816622e+03
-1.157096489725147e+03  2.502053943836471e+02 -2.918975276816622e+03
-1.156763921223719e+03  2.497111891494532e+02 -2.918975276816622e+03
-1.156910330405588e+03  2.471863134776674e+02 -2.918975276816622e+03
-1.156794734758908e+03  2.459289358685747e+02 -2.918975276816622e+03
-1.156923585772046e+03  2.443954130284235e+02 -2.918975276816622e+03
-1.156743415951479e+03  2.431490935892221e+02 -2.918975276816622e+03
-1.156742568384154e+03  2.407928751051595e+02 -2.918975276816622e+03
-1.156636265217496e+03  2.400225433782244e+02 -2.918975276816622e+03
-1.156724057307502e+03  2.384603600680309e+02 -2.918975276816622e+03
-1.156699337335148e+03  2.353406944012813e+02 -2.918975276816622e+03
-1.156642976264779e+03  2.341435616848791e+02 -2.918975276816622e+03
-1.156675538910260e+03  2.317136259321812e+02 -2.918975276816622e+03
-1.156581842016054e+03  2.299820483183041e+02 -2.918975276816622e+03
-1.156653905710998e+03  2.293112855550082e+02 -2.918975276816622e+03
-1.156496951844093e+03  2.269948823800777e+02 -2.918975276816622e+03
-1.156637799115965e+03  2.257486465339764e+02 -2.918975276816622e+03
-1.156584743926002e+03  2.248896329393316e+02 -2.918975276816622e+03
-1.156627160108641e+03  2.233011255581822e+02 -2.918975276816622e+03
-1.156512649403161e+03  2.207508933465415e+02 -2.918975276816622e+03
-1.156469664683852e+03  2.198771292760150e+02 -2.918975276816622e+03
-1.156470162060835e+03  2.185076192578079e+02 -2.918975276816622e+03
-1.156504717615702e+03  2.153948580387166e+02 -2.918975276816622e+03
-1.156462414154655e+03  2.141990710600705e+02 -2.918975276816622e+03
-1.156493439330355e+03  2.118769213007244e+02 -2.918975276816622e+03
-1.156555935910322e+03  2.100380190226514e+02 -2.918975276816622e+03
-1.156543106390572e+03  2.091816377007117e+02 -2.918975276816622e+03
-1.156610960695564e+03  2.070565548598717e+02 -2.918975276816622e+03
-1.156642723337485e+03  2.054674845979568e+02 -2.918975276816622e+03
-1.156642125852977e+03  2.044268879129568e+02 -2.918975276816622e+03
-1.156587951422099e+03  2.032327925102827e+02 -2.918975276816622e+03
-1.156690762913134e+03  2.008258543939901e+02 -2.918975276816622e+03
-1.156650139171216e+03  1.999981630888664e+02 -2.918975276816622e+03
-1.156713377056475e+03  1.985063107679736e+02 -2.918975276816622e+03
-1.156631533259296e+03  1.953326899786389e+02 -2.918975276816622e+03
-1.156680436265424e+03  1.942610280318498e+02 -2.918975276816622e+03
-1.156644791328285e+03  1.919226048800225e+02 -2.918975276816622e+03
-1.156713103455780e+03  1.901354325367809e+02 -2.918975276816622e+03
-1.156650696921658e+03  1.892457705731547e+02 -2.918975276816622e+03
-1.156725642104425e+03  1.871181377864301e+02 -2.918975276816622e+03
-1.156493633443777e+03  1.857165784189633e+02 -2.918975276816622e+03
-1.156691521156594e+03  1.845319118822448e+02 -2.918975276816622e+03
-1.156727649190530e+03  1.831891827327501e+02 -2.918975276816622e+03
-1.156749624313049e+03  1.808472096661307e+02 -2.918975276816622e+03
-1.156540078849457e+03  1.802287969586307e+02 -2.918975276816622e+03
-1.156563827419594e+03  1.787013343471289e+02 -2.918975276816622e+03
-1.156647900791991e+03  1.753605605185909e+02 -2.918975276816622e+03
-1.156565518410079e+03  1.743804557611065e+02 -2.918975276816622e+03
-1.156675546444178e+03  1.719347675887124e+02 -2.918975276816622e+03
-1.156640748660070e+03  1.701603284749229e+02 -2.918975276816622e+03
-1.156704577583902e+03  1.692097396079030e+02 -2.918975276816622e+03
-1.156593824980168e+03  1.671529910487743e+02 -2.918975276816622e+03
-1.156672426281120e+03  1.657815579987905e+02 -2.918975276816622e+03
-1.156679539606770e+03  1.646478462048700e+02 -2.918975276816622e+03
-1.156634600353710e+03  1.632946850559180e+02 -2.918975276816622e+03
-1.156662339394201e+03  1.608978465563624e+02 -2.918975276816622e+03
-1.156477735127776e+03  1.600013045996737e+02 -2.918975276816622e+03
-1.156639631566308e+03  1.585530160533876e+02 -2.918975276816622e+03
-1.156886168108763e+03  1.554835822237065e+02 -2.918975276816622e+03
-1.156597114580074e+03  1.541599995580213e+02 -2.918975276816622e+03
-1.156456714488078e+03  1.519075003947432e+02 -2.918975276816622e+03
-1.156610616761854e+03  1.501436903586859e+02 -2.918975276816622e+03
-1.156583319892878e+03  1.493316466107722e+02 -2.918975276816622e+03
-1.156619966840483e+03  1.471615085674865e+02 -2.918975276816622e+03
-1.156488201349470e+03  1.456861346879766e+02 -2.918975276816622e+03
-1.156661989291933e+03  1.446261545886971e+02 -2.918975276816622e+03
-1.156631489576169e+03  1.432970680778616e+02 -2.918975276816622e+03
-1.156674804326377e+03  1.409257542286670e+02 -2.918975276816622e+03
-1.156571741087020e+03  1.400635994078744e+02 -2.918975276816622e+03
-1.156713703321569e+03  1.385806174949955e+02 -2.918975276816622e+03
-1.156636761795508e+03  1.354365348835727e+02 -2.918975276816622e+03
-1.156652765365849e+03  1.343145383309669e+02 -2.918975276816622e+03
-1.156682351146293e+03  1.320107192116739e+02 -2.918975276816622e+03
-1.156855827492919e+03  1.301933329449788e+02 -2.918975276816622e+03
-1.156736031999837e+03  1.293874896439137e+02 -2.918975276816622e+03
-1.156763190859016e+03  1.272000331124840e+02 -2.918975276816622e+03
-1.156738532552260e+03  1.257427267604740e+02 -2.918975276816622e+03
-1.156749743041530e+03  1.246612528249693e+02 -2.918975276816622e+03
-1.156765167566047e+03  1.233136721910062e+02 -2.918975276816622e+03
-1.156694710234479e+03  1.209320442191659e+02 -2.918975276816622e+03
-1.156784791639710e+03  1.200139559213108e+02 -2.918975276816622e+03
-1.156677616564051e+03  1.185777081726545e+02 -2.918975276816622e+03
-1.156799302386813e+03  1.154516028564836e+02 -2.918975276816622e+03
-1.156718205877986e+03  1.143296470771715e+02 -2.918975276816622e+03
-1.156837636343264e+03  1.120292206804586e+02 -2.918975276816622e+03
-1.156583814908489e+03  1.103717312727987e+02 -2.918975276816622e+03
-1.156819839260157e+03  1.094208148546858e+02 -2.918975276816622e+03
-1.156769078040604e+03  1.073248356906958e+02 -2.918975276816622e+03
-1.156812973260282e+03  1.060346490836123e+02 -2.918975276816622e+03
-1.156786911386185e+03  1.046838606897339e+02 -2.918975276816622e+03
-1.156705409456974e+03  1.032529472618208e+02 -2.918975276816622e+03
-1.156804728858995e+03  1.010718439549612e+02 -2.918975276816622e+03
-1.156767634557774e+03  1.003245040737225e+02 -2.918975276816622e+03
-1.157004233387332e+03  9.828808821039794e+01 -2.918975276816622e+03
-1.156587265221251e+03  9.692868811154675e+01 -2.918975276816622e+03
-1.156798398148526e+03  9.516903890175466e+01 -2.918975276816622e+03
-1.156639736533577e+03  9.123935937370423e+01 -2.918975276816622e+03
-1.156874188812460e+03  8.998203198919558e+01 -2.918975276816622e+03
-1.156541010498945e+03  8.807594923936898e+01 -2.918975276816622e+03
-1.156787574239873e+03  8.667523467460829e+01 -2.918975276816622e+03
-1.156650022068052e+03  8.627277960701296e+01 -2.918975276816622e+03
-1.156678871258406e+03  8.504119042201877e+01 -2.918975276816622e+03
-1.156235487590578e+03  8.263026157790478e+01 -2.918975276816622e+03
-1.156532394992539e+03  7.905207361565225e+01 -2.918975276816622e+03
-1.156492819151125e+03  7.357144262075285e+01 -2.918975276816622e+03
-1.156470095215429e+03  7.198143892436079e+01 -2.918975276816622e+03
-1.156303863600417e+03  7.047374714319562e+01 -2.918975276816622e+03
-1.156094941805582e+03  6.696970257581326e+01 -2.918975276816622e+03
-1.155703806786013e+03  6.543950703800023e+01 -2.918975276816622e+03
-1.155814144764829e+03  6.262847390589773e+01 -2.918975276816622e+03
-1.153549822284927e+03  6.137391237407262e+01 -2.918975276816622e+03
-1.156495661926343e+03  5.956377363190279e+01 -2.918975276816622e+03
-1.155143641338839e+03  5.711109623776723e+01 -2.918975276816622e+03
-1.156553506504832e+03  5.608645118908208e+01 -2.918975276816622e+03
-1.155109077020011e+03  5.288937097105596e+01 -2.918975276816622e+03
-1.155041313883725e+03  5.182072624754311e+01 -2.918975276816622e+03
-1.155591366938642e+03  5.159406890899564e+01 -2.918975276816622e+03
-1.156232488640483e+03  4.964026193092123e+01 -2.918975276816622e+03
-1.156563413007720e+03  4.902340052859029e+01 -2.918975276816622e+03
-1.156711462841372e+03  4.783429791949348e+01 -2.918975276816622e+03
-1.157134344007474e+03  4.689350835622911e+01 -2.918975276816622e+03
-1.157009284931055e+03  4.666578280721921e+01 -2.918975276816622e+03
-1.157113446064463e+03  4.496644482201781e+01 -2.918975276816622e+03
-1.156907911870042e+03  4.421577105911259e+01 -2.918975276816622e+03
-1.157031530041828e+03  4.210058657184216e+01 -2.918975276816622e+03
-1.157153362587335e+03  4.157774665515768e+01 -2.918975276816622e+03
-1.156997859927391e+03  3.899121494797063e+01 -2.918975276816622e+03
-1.157070179811736e+03  3.658985990996219e+01 -2.918975276816622e+03
-1.157054337205333e+03  3.496107633646979e+01 -2.918975276816622e+03
-1.157269432589130e+03  3.322078218451701e+01 -2.918975276816622e+03
-1.157282865073299e+03  2.995570282851312e+01 -2.918975276816622e+03
-1.157401697831856e+03  2.882794975607573e+01 -2.918975276816622e+03
-1.158037445484691e+03  2.370952007966966e+01 -2.918975276816622e+03
-1.158525809595249e+03  2.187827564166665e+01 -2.918975276816622e+03
-1.158335164763116e+03  2.175035455193258e+01 -2.918975276816622e+03
-1.157671855155642e+03  1.901914568419174e+01 -2.918975276816622e+03
-1.157731860694532e+03  1.707927279619117e+01 -2.918975276816622e+03
-1.157873623546627e+03  1.585013105946931e+01 -2.918975276816622e+03
-1.157713602025258e+03  1.463840442044018e+01 -2.918975276816622e+03
-1.157565842096826e+03  1.325459021594725e+01 -2.918975276816622e+03
-1.157658757440175e+03  1.195238372063058e+01 -2.918975276816622e+03
-1.157670880847493e+03  7.563752546136057e+00 -2.918975276816622e+03
1.154291405676900e+03 5.926847561672343e-01 2.918975276816622e+03
 1.154296871172189e+03 -9.736573494571257e-01  2.918975276816622e+03
 1.154406328691923e+03 -2.091555592143556e+00  2.918975276816622e+03
 1.153770264292224e+03 -4.562734178658187e+00  2.918975276816622e+03
 1.153767772722990e+03 -5.568567907021365e+00  2.918975276816622e+03
 1.153277945691594e+03 -7.108979734124150e+00  2.918975276816622e+03
 1.156699480044218e+03 -6.528644309140331e+00  2.918975276816622e+03
 1.155584058211248e+03 -9.600176539106053e+00  2.918975276816622e+03
 1.155377975114757e+03 -1.319280221797248e+01  2.918975276816622e+03
 1.154036430597051e+03 -1.282247729063701e+01  2.918975276816622e+03
 1.154519736151339e+03 -1.655123370062983e+01  2.918975276816622e+03
 1.154383021844627e+03 -2.121801353276890e+01  2.918975276816622e+03
 1.154317088762215e+03 -2.364793269537652e+01  2.918975276816622e+03
 1.154057048478994e+03 -2.388164404955092e+01  2.918975276816622e+03
 1.154363922605753e+03 -2.719131394661082e+01  2.918975276816622e+03
 1.153980819423247e+03 -2.807998029477733e+01  2.918975276816622e+03
 1.153786326044607e+03 -3.064370444038469e+01  2.918975276816622e+03
 1.152975377754716e+03 -3.463882785142980e+01  2.918975276816622e+03
 1.152337241157908e+03 -3.737644690564353e+01  2.918975276816622e+03
 1.151788540603261e+03 -3.894830166251344e+01  2.918975276816622e+03
 1.152005700872627e+03 -3.897833642739107e+01  2.918975276816622e+03
 1.152169531861877e+03 -4.065657071365641e+01  2.918975276816622e+03
 1.152688016539494e+03 -4.165609101549910e+01  2.918975276816622e+03
 1.152193384232903e+03 -4.326201858135469e+01  2.918975276816622e+03
 1.152765322738492e+03 -4.335492367492223e+01  2.918975276816622e+03
 1.152804294227379e+03 -4.433364251789227e+01  2.918975276816622e+03
 1.152867312801218e+03 -4.591616565649196e+01  2.918975276816622e+03
 1.152821533947289e+03 -4.902062168141047e+01  2.918975276816622e+03
 1.152958943268943e+03 -5.072566292439203e+01  2.918975276816622e+03
 1.152861914392250e+03 -5.243396712746618e+01  2.918975276816622e+03
 1.153100360448434e+03 -5.456703388951033e+01  2.918975276816622e+03
 1.152901407372381e+03 -5.664260698923392e+01  2.918975276816622e+03
 1.153099632609865e+03 -5.892559339233538e+01  2.918975276816622e+03
 1.152890549728226e+03 -6.058259603991523e+01  2.918975276816622e+03
 1.153293664904535e+03 -6.186746376385859e+01  2.918975276816622e+03
 1.153051014333380e+03 -6.359186945243587e+01  2.918975276816622e+03
 1.153066488833804e+03 -6.532396278084133e+01  2.918975276816622e+03
 1.153006800692102e+03 -6.631346784593850e+01  2.918975276816622e+03
 1.153013540061906e+03 -6.909583054022151e+01  2.918975276816622e+03
 1.153137214456534e+03 -7.098793094242258e+01  2.918975276816622e+03
 1.152971130715259e+03 -7.212903083544619e+01  2.918975276816622e+03
 1.153181334323653e+03 -7.451083258958410e+01  2.918975276816622e+03
 1.153280704903778e+03 -7.812771623805257e+01  2.918975276816622e+03
 1.153417039060828e+03 -8.066013380685877e+01  2.918975276816622e+03
 1.152932252466941e+03 -8.182702497500136e+01  2.918975276816622e+03
 1.153034084637236e+03 -8.480087164129012e+01  2.918975276816622e+03
 1.153209817380409e+03 -8.600356133116044e+01  2.918975276816622e+03
 1.153067027812415e+03 -8.896332877599856e+01  2.918975276816622e+03
 1.153165832599640e+03 -9.071096896916903e+01  2.918975276816622e+03
 1.153184497923065e+03 -9.234249160894628e+01  2.918975276816622e+03
 1.153326566699321e+03 -9.468115055743091e+01  2.918975276816622e+03
 1.153351816227368e+03 -9.736400005175949e+01  2.918975276816622e+03
 1.153416199994395e+03 -9.788247863857863e+01  2.918975276816622e+03
 1.153401992312922e+03 -1.004511211929624e+02  2.918975276816622e+03
 1.153479828942043e+03 -1.036446724594158e+02  2.918975276816622e+03
 1.153441755541745e+03 -1.051883696674487e+02  2.918975276816622e+03
 1.153562516255263e+03 -1.061087019569272e+02  2.918975276816622e+03
 1.153550476434152e+03 -1.089443795537335e+02  2.918975276816622e+03
 1.153554676581779e+03 -1.106485968980094e+02  2.918975276816622e+03
 1.153410663871826e+03 -1.121466684249545e+02  2.918975276816622e+03
 1.153529707783667e+03 -1.141676930598693e+02  2.918975276816622e+03
 1.153677518364753e+03 -1.170782494065899e+02  2.918975276816622e+03
 1.153542975720105e+03 -1.207318857322926e+02  2.918975276816622e+03
 1.153674573902986e+03 -1.238591532260339e+02  2.918975276816622e+03
 1.153019554773863e+03 -1.263133772472123e+02  2.918975276816622e+03
 1.154178616278178e+03 -1.272586021500349e+02  2.918975276816622e+03
 1.153550011689790e+03 -1.291925783222557e+02  2.918975276816622e+03
 1.153681795004794e+03 -1.308602876292789e+02  2.918975276816622e+03
 1.153178519805196e+03 -1.322963094081311e+02  2.918975276816622e+03
 1.153227022413512e+03 -1.352244856294186e+02  2.918975276816622e+03
 1.152804347753624e+03 -1.358861144534502e+02  2.918975276816622e+03
 1.155050913097786e+03 -1.364458605085953e+02  2.918975276816622e+03
 1.154546376351847e+03 -1.375043769996127e+02  2.918975276816622e+03
 1.154269378776627e+03 -1.405333590541298e+02  2.918975276816622e+03
 1.152823452655080e+03 -1.435474395113091e+02  2.918975276816622e+03
 1.153105950372957e+03 -1.436457845773843e+02  2.918975276816622e+03
 1.153040623502543e+03 -1.459192494359803e+02  2.918975276816622e+03
 1.153126335209384e+03 -1.489194913643717e+02  2.918975276816622e+03
 1.153259186649882e+03 -1.506670002149760e+02  2.918975276816622e+03
 1.153062028593180e+03 -1.521163696434971e+02  2.918975276816622e+03
 1.153240681245715e+03 -1.543835078843106e+02  2.918975276816622e+03
 1.153113839568818e+03 -1.579336478713653e+02  2.918975276816622e+03
 1.153350966034265e+03 -1.603282973361749e+02  2.918975276816622e+03
 1.153234989630432e+03 -1.615979221434241e+02  2.918975276816622e+03
 1.153272708111769e+03 -1.625065961989098e+02  2.918975276816622e+03
 1.153392604993005e+03 -1.636352822314748e+02  2.918975276816622e+03
 1.153335167655044e+03 -1.652364573559654e+02  2.918975276816622e+03
 1.153329036599408e+03 -1.662739605038037e+02  2.918975276816622e+03
 1.153261413993985e+03 -1.688353151214763e+02  2.918975276816622e+03
 1.153596118044164e+03 -1.705102179322098e+02  2.918975276816622e+03
 1.153471460125763e+03 -1.720987016931694e+02  2.918975276816622e+03
 1.153669298953371e+03 -1.742819020811253e+02  2.918975276816622e+03
 1.153632690921909e+03 -1.779173001380846e+02  2.918975276816622e+03
 1.153935415024501e+03 -1.804434875517711e+02  2.918975276816622e+03
 1.154351721692273e+03 -1.835358975476934e+02  2.918975276816622e+03
 1.154158995524267e+03 -1.855012610614282e+02  2.918975276816622e+03
 1.154285761360614e+03 -1.878042582111090e+02  2.918975276816622e+03
 1.153734974597432e+03 -1.912669784880565e+02  2.918975276816622e+03
 1.154563225804458e+03 -1.939979100086349e+02  2.918975276816622e+03
 1.153764616909276e+03 -1.979025537524532e+02  2.918975276816622e+03
 1.154548580474112e+03 -1.994659339971516e+02  2.918975276816622e+03
 1.153164787325848e+03 -2.004997923465988e+02  2.918975276816622e+03
 1.153703682643633e+03 -2.020563043015746e+02  2.918975276816622e+03
 1.153344727736131e+03 -2.035227445011628e+02  2.918975276816622e+03
 1.153577150948980e+03 -2.052860894659001e+02  2.918975276816622e+03
 1.153558710367184e+03 -2.061180618779948e+02  2.918975276816622e+03
 1.153283734323066e+03 -2.087498194758267e+02  2.918975276816622e+03
 1.153843151562954e+03 -2.104265040340728e+02  2.918975276816622e+03
 1.153398864000822e+03 -2.120931948372653e+02  2.918975276816622e+03
 1.153766232614257e+03 -2.143358167835142e+02  2.918975276816622e+03
 1.153538973097870e+03 -2.179169437980707e+02  2.918975276816622e+03
 1.153821756625820e+03 -2.204183186507435e+02  2.918975276816622e+03
 1.153633473253752e+03 -2.234731823867392e+02  2.918975276816622e+03
 1.153957258400791e+03 -2.242202554307287e+02  2.918975276816622e+03
 1.153473333484091e+03 -2.258089289926446e+02  2.918975276816622e+03
 1.153499578462702e+03 -2.287825739068934e+02  2.918975276816622e+03
 1.153364484600373e+03 -2.305483225800069e+02  2.918975276816622e+03
 1.153345411609145e+03 -2.318931075660640e+02  2.918975276816622e+03
 1.153011820959528e+03 -2.344441047926085e+02  2.918975276816622e+03
 1.152571278970098e+03 -2.377063644706634e+02  2.918975276816622e+03
 1.152545309397388e+03 -2.376893527671278e+02  2.918975276816622e+03
 1.152946879621164e+03 -2.399003293715929e+02  2.918975276816622e+03
 1.152761575201915e+03 -2.419077075282996e+02  2.918975276816622e+03
 1.152600995893042e+03 -2.446415885152708e+02  2.918975276816622e+03
 1.152883850843790e+03 -2.476157722759268e+02  2.918975276816622e+03
 1.152938827722645e+03 -2.499848690619578e+02  2.918975276816622e+03
 1.153258412750054e+03 -2.499485638643081e+02  2.918975276816622e+03
 1.152745083798782e+03 -2.526270849680714e+02  2.918975276816622e+03
 1.153356673477200e+03 -2.556153074579066e+02  2.918975276816622e+03
 1.153125270654681e+03 -2.573700614085199e+02  2.918975276816622e+03
 1.153277314332472e+03 -2.607037598753066e+02  2.918975276816622e+03
 1.152837231593267e+03 -2.613993584491884e+02  2.918975276816622e+03
 1.153473593470591e+03 -2.657452506748593e+02  2.918975276816622e+03
 1.153620237700277e+03 -2.685544201150922e+02  2.918975276816622e+03
 1.153721007285937e+03 -2.714746989216987e+02  2.918975276816622e+03
 1.153736556396012e+03 -2.723435295250100e+02  2.918975276816622e+03
 1.153868105933014e+03 -2.743403050249726e+02  2.918975276816622e+03
 1.154052192376050e+03 -2.774288245574324e+02  2.918975276816622e+03
 1.154180472879842e+03 -2.794894765530111e+02  2.918975276816622e+03
 1.154170367200257e+03 -2.801839462862516e+02  2.918975276816622e+03
 1.154378985819529e+03 -2.834553126518460e+02  2.918975276816622e+03
 1.154454680693228e+03 -2.861347416752370e+02  2.918975276816622e+03
 1.154613288552978e+03 -2.913519549201564e+02  2.918975276816622e+03
 1.154704589036496e+03 -2.951147458592396e+02  2.918975276816622e+03
 1.154794718767270e+03 -2.964870406495197e+02  2.918975276816622e+03
 1.154734624050504e+03 -2.974978736082121e+02  2.918975276816622e+03
 1.154871673823317e+03 -2.983020115888238e+02  2.918975276816622e+03
 1.154830627258727e+03 -2.988614240673152e+02  2.918975276816622e+03
 1.154356445633457e+03 -3.032915254934667e+02  2.918975276816622e+03
 1.154231497752274e+03 -3.038141139996723e+02  2.918975276816622e+03
 1.154250238663314e+03 -3.073739297088068e+02  2.918975276816622e+03
 1.154088494580630e+03 -3.093406095241253e+02  2.918975276816622e+03
 1.154291086212190e+03 -3.099538787152965e+02  2.918975276816622e+03
 1.154062433035601e+03 -3.110709909454496e+02  2.918975276816622e+03
 1.154083887766975e+03 -3.116219646156420e+02  2.918975276816622e+03
 1.153753168345337e+03 -3.134667218469401e+02  2.918975276816622e+03
 1.153971435316298e+03 -3.145997776143025e+02  2.918975276816622e+03
 1.153702299933102e+03 -3.177137840397841e+02  2.918975276816622e+03
 1.153762861159180e+03 -3.214379679411726e+02  2.918975276816622e+03
 1.153696424135085e+03 -3.260505118729668e+02  2.918975276816622e+03
 1.153644097741741e+03 -3.285953123817822e+02  2.918975276816622e+03
 1.153544561689481e+03 -3.314586876250847e+02  2.918975276816622e+03
 1.153576434511347e+03 -3.322735695676657e+02  2.918975276816622e+03
 1.153496045451885e+03 -3.348007075407883e+02  2.918975276816622e+03
 1.153354087084760e+03 -3.383561042009299e+02  2.918975276816622e+03
 1.153551360022962e+03 -3.394853924787522e+02  2.918975276816622e+03
 1.153318228540215e+03 -3.431594375204464e+02  2.918975276816622e+03
 1.152690012646106e+03 -3.466064049925066e+02  2.918975276816622e+03
 1.154091491188331e+03 -3.507148279096439e+02  2.918975276816622e+03
 1.153878665374142e+03 -3.527516617164577e+02  2.918975276816622e+03
 1.153935789679329e+03 -3.548301628752578e+02  2.918975276816622e+03
 1.153826743022814e+03 -3.571588842095823e+02  2.918975276816622e+03
 1.154140087119690e+03 -3.600841773933910e+02  2.918975276816622e+03
 1.153849817329236e+03 -3.631081683674657e+02  2.918975276816622e+03
 1.154182627034660e+03 -3.647294501980858e+02  2.918975276816622e+03
 1.153799829381102e+03 -3.659025447307018e+02  2.918975276816622e+03
 1.154034071093550e+03 -3.666968699884018e+02  2.918975276816622e+03
 1.153728987387957e+03 -3.689583295717673e+02  2.918975276816622e+03
 1.154081738484267e+03 -3.708666993365617e+02  2.918975276816622e+03
 1.153897912090794e+03 -3.742660184512329e+02  2.918975276816622e+03
 1.153975437535125e+03 -3.760791310078617e+02  2.918975276816622e+03
 1.153818109254870e+03 -3.815142580038378e+02  2.918975276816622e+03
 1.153781731956411e+03 -3.833152289636458e+02  2.918975276816622e+03
 1.153863960195735e+03 -3.837743433813924e+02  2.918975276816622e+03
1.153675450989865e+03 3.851823482380422e+02 2.918975276816622e+03
1.153550022302139e+03 3.840006228095521e+02 2.918975276816622e+03
1.153418970536079e+03 3.815843184742643e+02 2.918975276816622e+03
1.153517060586563e+03 3.811225151494981e+02 2.918975276816622e+03
1.153849106857514e+03 3.765733556784342e+02 2.918975276816622e+03
1.153942607595117e+03 3.733978914917379e+02 2.918975276816622e+03
1.153856971317387e+03 3.723555319991286e+02 2.918975276816622e+03
1.153833909289062e+03 3.708931929889927e+02 2.918975276816622e+03
1.153805554840081e+03 3.677216916248770e+02 2.918975276816622e+03
1.153852094900736e+03 3.667017695975039e+02 2.918975276816622e+03
1.154082685541637e+03 3.650060726146795e+02 2.918975276816622e+03
1.153829650814748e+03 3.627139805355521e+02 2.918975276816622e+03
1.154084506364130e+03 3.597564194212194e+02 2.918975276816622e+03
1.153602258931464e+03 3.579248803388976e+02 2.918975276816622e+03
1.153920256290634e+03 3.565340333241716e+02 2.918975276816622e+03
1.153330128623698e+03 3.560277818254860e+02 2.918975276816622e+03
1.154101671235848e+03 3.547553653405507e+02 2.918975276816622e+03
1.153948212622854e+03 3.528434751543802e+02 2.918975276816622e+03
1.153882331331872e+03 3.524569423866148e+02 2.918975276816622e+03
1.154318070814685e+03 3.503738019519054e+02 2.918975276816622e+03
1.154747388618206e+03 3.452605513930704e+02 2.918975276816622e+03
1.155318903762942e+03 3.430548512149596e+02 2.918975276816622e+03
1.154957837140220e+03 3.420395796296485e+02 2.918975276816622e+03
1.154401854626918e+03 3.398002236429037e+02 2.918975276816622e+03
1.155134508546606e+03 3.371210658892631e+02 2.918975276816622e+03
1.156241643426501e+03 3.375029065526275e+02 2.918975276816622e+03
1.154704681773361e+03 3.327203950962643e+02 2.918975276816622e+03
1.155025315251567e+03 3.320304963106489e+02 2.918975276816622e+03
1.152581038607406e+03 3.323345732803745e+02 2.918975276816622e+03
1.153522847909734e+03 3.304061023921755e+02 2.918975276816622e+03
1.153642771431238e+03 3.288063597137788e+02 2.918975276816622e+03
1.154366548907453e+03 3.274628976864385e+02 2.918975276816622e+03
1.151998448839641e+03 3.268586898501313e+02 2.918975276816622e+03
1.152879450335500e+03 3.256663377568518e+02 2.918975276816622e+03
1.153066385090969e+03 3.252899304272593e+02 2.918975276816622e+03
1.154004254707261e+03 3.235675439981519e+02 2.918975276816622e+03
1.153724816924832e+03 3.217108179385060e+02 2.918975276816622e+03
1.154279332918829e+03 3.192207980555708e+02 2.918975276816622e+03
1.153894824874954e+03 3.184997705334562e+02 2.918975276816622e+03
1.154341669036337e+03 3.171692888511204e+02 2.918975276816622e+03
1.153846010728254e+03 3.151773999213511e+02 2.918975276816622e+03
1.154553520368115e+03 3.136023761227626e+02 2.918975276816622e+03
1.154547962099774e+03 3.108841840494044e+02 2.918975276816622e+03
1.154340239613355e+03 3.084544313153924e+02 2.918975276816622e+03
1.153706304669233e+03 3.050508410995462e+02 2.918975276816622e+03
1.154429154530995e+03 3.047136261808790e+02 2.918975276816622e+03
1.155051078814762e+03 3.022247410000441e+02 2.918975276816622e+03
1.155175990953697e+03 2.997494025114449e+02 2.918975276816622e+03
1.155514155294876e+03 2.948079883812978e+02 2.918975276816622e+03
1.155877848423806e+03 2.935931475508889e+02 2.918975276816622e+03
1.155204270339183e+03 2.880303200485696e+02 2.918975276816622e+03
1.155141777622370e+03 2.877812751764404e+02 2.918975276816622e+03
1.154467827688040e+03 2.818231926551670e+02 2.918975276816622e+03
1.153855468036185e+03 2.799675891442478e+02 2.918975276816622e+03
1.153969269047790e+03 2.769573137878466e+02 2.918975276816622e+03
1.153472472687000e+03 2.770702045501342e+02 2.918975276816622e+03
1.153472388867832e+03 2.750962173358969e+02 2.918975276816622e+03
1.151962536791005e+03 2.723611246531254e+02 2.918975276816622e+03
1.153021472178136e+03 2.726324368925418e+02 2.918975276816622e+03
1.153585801899539e+03 2.710162550021141e+02 2.918975276816622e+03
1.153922612855364e+03 2.683331581979236e+02 2.918975276816622e+03
1.154194687061706e+03 2.669311472153180e+02 2.918975276816622e+03
1.153556311458716e+03 2.665753394891028e+02 2.918975276816622e+03
1.153921494560844e+03 2.638512564669425e+02 2.918975276816622e+03
1.153289271393630e+03 2.624383950129057e+02 2.918975276816622e+03
1.153470517515979e+03 2.605399316433924e+02 2.918975276816622e+03
1.153474582394266e+03 2.579872895717750e+02 2.918975276816622e+03
1.153269800746352e+03 2.565179505942501e+02 2.918975276816622e+03
1.153287677660485e+03 2.547900566677216e+02 2.918975276816622e+03
1.152871493972120e+03 2.550779993358902e+02 2.918975276816622e+03
1.153032401176624e+03 2.536302885806523e+02 2.918975276816622e+03
1.152662363833718e+03 2.524239040350439e+02 2.918975276816622e+03
1.153375540806122e+03 2.504874274712397e+02 2.918975276816622e+03
1.153230871033450e+03 2.486947353450919e+02 2.918975276816622e+03
1.153340511579683e+03 2.482515266230386e+02 2.918975276816622e+03
1.153191393337762e+03 2.465245921040397e+02 2.918975276816622e+03
1.153467684100155e+03 2.455700186340627e+02 2.918975276816622e+03
1.153392287593891e+03 2.434013114368098e+02 2.918975276816622e+03
1.153511045751692e+03 2.416875883622958e+02 2.918975276816622e+03
1.153391069660932e+03 2.400018884966271e+02 2.918975276816622e+03
1.153548401976578e+03 2.383447992447482e+02 2.918975276816622e+03
1.153454086637472e+03 2.358316765362584e+02 2.918975276816622e+03
1.153540490156579e+03 2.331151997881003e+02 2.918975276816622e+03
1.153449425755968e+03 2.327892267728139e+02 2.918975276816622e+03
1.153517336132167e+03 2.299183055228746e+02 2.918975276816622e+03
1.153430272165113e+03 2.286562350554283e+02 2.918975276816622e+03
1.153506283316509e+03 2.268537627640956e+02 2.918975276816622e+03
1.153302903292837e+03 2.256122374814712e+02 2.918975276816622e+03
1.153328694787738e+03 2.243793252429420e+02 2.918975276816622e+03
1.153084963412174e+03 2.213670841895274e+02 2.918975276816622e+03
1.153270770450693e+03 2.190147842962564e+02 2.918975276816622e+03
1.152671929426360e+03 2.178737609052335e+02 2.918975276816622e+03
1.153178386270431e+03 2.158824754849989e+02 2.918975276816622e+03
1.152140300799393e+03 2.124534453853257e+02 2.918975276816622e+03
1.151960184645845e+03 2.121584258040029e+02 2.918975276816622e+03
1.153682433748826e+03 2.107085838993240e+02 2.918975276816622e+03
1.154199788038512e+03 2.094116512901908e+02 2.918975276816622e+03
1.154893555387026e+03 2.083898289998954e+02 2.918975276816622e+03
1.153416274985173e+03 2.069467193128465e+02 2.918975276816622e+03
1.155359400052027e+03 2.043877994754075e+02 2.918975276816622e+03
1.153517570715717e+03 2.043609999012636e+02 2.918975276816622e+03
1.153595427413105e+03 2.016246796691952e+02 2.918975276816622e+03
1.153318525049484e+03 1.997210960567987e+02 2.918975276816622e+03
1.153714576334103e+03 1.978689371439696e+02 2.918975276816622e+03
1.153924129612097e+03 1.957495119348401e+02 2.918975276816622e+03
1.154501616035698e+03 1.928483310081565e+02 2.918975276816622e+03
1.153918003191839e+03 1.927001690175048e+02 2.918975276816622e+03
1.153358183187893e+03 1.899504615707762e+02 2.918975276816622e+03
1.153191578358614e+03 1.877552364849524e+02 2.918975276816622e+03
1.153044247428494e+03 1.849707655492727e+02 2.918975276816622e+03
1.153364959969884e+03 1.816696539929044e+02 2.918975276816622e+03
1.154533361676073e+03 1.814378181254192e+02 2.918975276816622e+03
1.153347165004554e+03 1.790293105715899e+02 2.918975276816622e+03
1.153631320172696e+03 1.758361543333928e+02 2.918975276816622e+03
1.152935634419574e+03 1.731626750887643e+02 2.918975276816622e+03
1.152995860795910e+03 1.721761423868959e+02 2.918975276816622e+03
1.152143961664212e+03 1.718122215538213e+02 2.918975276816622e+03
1.153780822188130e+03 1.701227148287307e+02 2.918975276816622e+03
1.153864131643413e+03 1.693044382829267e+02 2.918975276816622e+03
1.156110631734906e+03 1.663631754544500e+02 2.918975276816622e+03
1.152915123728663e+03 1.663882838793632e+02 2.918975276816622e+03
1.154378976625259e+03 1.635832749222031e+02 2.918975276816622e+03
1.154093438142260e+03 1.619332066037771e+02 2.918975276816622e+03
1.156062398706838e+03 1.599078598213418e+02 2.918975276816622e+03
1.154172501867998e+03 1.587652091008691e+02 2.918975276816622e+03
1.155049854571973e+03 1.566632486177026e+02 2.918975276816622e+03
1.154168852001917e+03 1.539102262654352e+02 2.918975276816622e+03
1.155192738676793e+03 1.500220597687455e+02 2.918975276816622e+03
1.151952143230642e+03 1.488755929539869e+02 2.918975276816622e+03
1.152131986421014e+03 1.487353045986923e+02 2.918975276816622e+03
1.152628602348201e+03 1.470272068979326e+02 2.918975276816622e+03
1.152697235875776e+03 1.457852369054274e+02 2.918975276816622e+03
1.152935470070087e+03 1.447622419485061e+02 2.918975276816622e+03
1.153096636728218e+03 1.415067664987860e+02 2.918975276816622e+03
1.153196648066755e+03 1.392827105318161e+02 2.918975276816622e+03
1.153175703409521e+03 1.388627063432861e+02 2.918975276816622e+03
1.153286336970029e+03 1.363019738419854e+02 2.918975276816622e+03
1.153332534702319e+03 1.302994343763117e+02 2.918975276816622e+03
1.153182117260770e+03 1.282640366669253e+02 2.918975276816622e+03
1.153173821163271e+03 1.269386059390123e+02 2.918975276816622e+03
1.153369790389711e+03 1.256442376783201e+02 2.918975276816622e+03
1.153178296390827e+03 1.246403326471173e+02 2.918975276816622e+03
1.153125636749717e+03 1.216177719674065e+02 2.918975276816622e+03
1.152851815103156e+03 1.198300836273835e+02 2.918975276816622e+03
1.153038446965331e+03 1.186674278411379e+02 2.918975276816622e+03
1.152854448947745e+03 1.163566578298800e+02 2.918975276816622e+03
1.152678684548840e+03 1.131092720572233e+02 2.918975276816622e+03
1.152255872754609e+03 1.116796439287307e+02 2.918975276816622e+03
1.152355601032219e+03 1.102832369170467e+02 2.918975276816622e+03
1.151878106062915e+03 1.085314941993478e+02 2.918975276816622e+03
1.151808941910538e+03 1.084854962913808e+02 2.918975276816622e+03
1.152357018152665e+03 1.068909063332737e+02 2.918975276816622e+03
1.152616910080086e+03 1.055835108306455e+02 2.918975276816622e+03
1.152799490333153e+03 1.045710059238613e+02 2.918975276816622e+03
1.153177941324975e+03 1.015522084959979e+02 2.918975276816622e+03
1.153303495219998e+03 9.941288467941042e+01 2.918975276816622e+03
1.153691739473129e+03 9.689007452630830e+01 2.918975276816622e+03
1.153764907545826e+03 9.655948726499406e+01 2.918975276816622e+03
1.154099666799893e+03 9.372350991308298e+01 2.918975276816622e+03
1.154487627345139e+03 9.074754139647563e+01 2.918975276816622e+03
1.156069792034074e+03 9.042420279155091e+01 2.918975276816622e+03
1.154835792814082e+03 8.956431688969732e+01 2.918975276816622e+03
1.154485388299848e+03 8.745140015369056e+01 2.918975276816622e+03
1.154164227206707e+03 8.564332303005470e+01 2.918975276816622e+03
1.153846575377856e+03 8.241569306378969e+01 2.918975276816622e+03
1.154313484777866e+03 7.996630898823979e+01 2.918975276816622e+03
1.154250084097908e+03 7.859263406407433e+01 2.918975276816622e+03
1.154994407130978e+03 7.768589677827768e+01 2.918975276816622e+03
1.154659419140239e+03 7.629005119098815e+01 2.918975276816622e+03
1.155956439380506e+03 7.420224188096491e+01 2.918975276816622e+03
1.156447642000658e+03 7.258600036273025e+01 2.918975276816622e+03
1.156940911869679e+03 7.228144546636095e+01 2.918975276816622e+03
1.155306774597237e+03 6.955061480680376e+01 2.918975276816622e+03
1.156029692409350e+03 6.739833517633963e+01 2.918975276816622e+03
1.155584819398199e+03 6.569953612798790e+01 2.918975276816622e+03
1.157509848677033e+03 6.470664578130553e+01 2.918975276816622e+03
1.155178136086141e+03 6.344310346503418e+01 2.918975276816622e+03
1.155848567607922e+03 6.264375352515243e+01 2.918975276816622e+03
1.154995928879273e+03 5.991131540155256e+01 2.918975276816622e+03
1.155454469455468e+03 5.800049270195903e+01 2.918975276816622e+03
1.155281332955552e+03 5.742554351347997e+01 2.918975276816622e+03
1.156288262064622e+03 5.514446854776482e+01 2.918975276816622e+03
1.156357073474868e+03 5.476788275827686e+01 2.918975276816622e+03
1.154920903032918e+03 5.223990530324600e+01 2.918975276816622e+03
1.155358103181633e+03 5.078554348768018e+01 2.918975276816622e+03
1.154341811216937e+03 4.797896140817969e+01 2.918975276816622e+03
1.154617568964112e+03 4.768391270788142e+01 2.918975276816622e+03
1.154312264155245e+03 4.421204630007185e+01 2.918975276816622e+03
1.154560175620305e+03 4.239384345171779e+01 2.918975276816622e+03
1.154368257990800e+03 4.188362526814938e+01 2.918975276816622e+03
1.154651705541531e+03 4.040991076156300e+01 2.918975276816622e+03
1.154482126363449e+03 3.868154630254772e+01 2.918975276816622e+03
1.154747757971735e+03 3.547593038288499e+01 2.918975276816622e+03
1.154707943530148e+03 3.402980805737530e+01 2.918975276816622e+03
1.154916537689391e+03 3.207751085116720e+01 2.918975276816622e+03
1.154840538589442e+03 3.002044206831101e+01 2.918975276816622e+03
1.155046023366892e+03 2.820578791204304e+01 2.918975276816622e+03
1.155043181715958e+03 2.544276691456555e+01 2.918975276816622e+03
1.155521907523950e+03 1.943969474913455e+01 2.918975276816622e+03
1.155534615246249e+03 1.934946960135178e+01 2.918975276816622e+03
1.155082057482560e+03 1.594157935696905e+01 2.918975276816622e+03
1.155146998300534e+03 1.431150269427461e+01 2.918975276816622e+03
1.154968670488629e+03 1.330648027257145e+01 2.918975276816622e+03
1.154990393260427e+03 1.160735599504863e+01 2.918975276816622e+03
1.154875208029614e+03 1.023263945941926e+01 2.918975276816622e+03
1.154702548937330e+03 5.462793883652806e+00 2.918975276816622e+03
1.154715984787681e+03 4.635075183313003e+00 2.918975276816622e+03
1.154532235529133e+03 2.640273412092390e+00 2.918975276816622e+03
1.154618843748269e+03 1.464043149991601e+00 2.918975276816622e+03
-1.148063237280402e+03 -3.863858941524650e+02 -2.918975276816622e+03
-1.148063237280402e+03  3.863858941524653e+02 -2.918975276816622e+03
 1.145256466542494e+03 -3.863858941524653e+02  2.918975276816622e+03
1.145256466542494e+03 3.863858941524650e+02 2.918975276816622e+03
-1.156907277007711e+03 -3.863858941524650e+02 -2.918975276816622e+03
-1.156907277007711e+03  3.863858941524653e+02 -2.918975276816622e+03
 1.153734919858746e+03 -3.863858941524653e+02  2.918975276816622e+03
1.153734919858746e+03 3.863858941524650e+02 2.918975276816622e+03
-1.148856868691866e+03  7.917849457638794e-02 -2.918975276816622e+03
-1.148791268399648e+03  3.184384312068211e+00 -2.918975276816622e+03
-1.148626020553451e+03 -1.261401469638073e+00 -2.918975276816622e+03
-1.148538597331751e+03 -2.766317519816841e+00 -2.918975276816622e+03
-1.148897796466899e+03 -4.398691056378270e+00 -2.918975276816622e+03
-1.149011280690202e+03 -5.664223613931741e+00 -2.918975276816622e+03
-1.148780397609691e+03 -7.375778094408166e+00 -2.918975276816622e+03
-1.148770764776722e+03 -9.485256018784360e+00 -2.918975276816622e+03
-1.148784457288437e+03 -1.190151797525113e+01 -2.918975276816622e+03
-1.148796532929221e+03 -1.345007320361781e+01 -2.918975276816622e+03
-1.148787766561904e+03 -1.520262136363890e+01 -2.918975276816622e+03
-1.148761670452892e+03 -1.835641835662006e+01 -2.918975276816622e+03
-1.148808161320261e+03 -2.150722258399351e+01 -2.918975276816622e+03
-1.148845445197782e+03 -2.492104326612456e+01 -2.918975276816622e+03
-1.148818513254467e+03 -2.751419999370188e+01 -2.918975276816622e+03
-1.148769311382791e+03 -2.923225649951947e+01 -2.918975276816622e+03
-1.148682156832839e+03 -3.149143513170200e+01 -2.918975276816622e+03
-1.148665872545325e+03 -3.326296388221518e+01 -2.918975276816622e+03
-1.148547405774940e+03 -3.436295634295993e+01 -2.918975276816622e+03
-1.148472363754475e+03 -3.529943532992199e+01 -2.918975276816622e+03
-1.148339191655685e+03 -3.709918568638248e+01 -2.918975276816622e+03
-1.148204322737593e+03 -3.918315137013897e+01 -2.918975276816622e+03
-1.148164337475298e+03 -4.058123840090500e+01 -2.918975276816622e+03
-1.148052140985178e+03 -4.223800828168510e+01 -2.918975276816622e+03
-1.147972231271538e+03 -4.408186147372087e+01 -2.918975276816622e+03
-1.147811769309629e+03 -4.611738596253057e+01 -2.918975276816622e+03
-1.147644284193600e+03 -4.854337683197699e+01 -2.918975276816622e+03
-1.147523779303046e+03 -5.003010460373920e+01 -2.918975276816622e+03
-1.147402230455498e+03 -5.122965566595556e+01 -2.918975276816622e+03
-1.147164093663034e+03 -5.313536072234965e+01 -2.918975276816622e+03
-1.146995049594203e+03 -5.422836455973102e+01 -2.918975276816622e+03
-1.147166849592824e+03 -5.514333461614311e+01 -2.918975276816622e+03
-1.147375223477456e+03 -5.720606383635252e+01 -2.918975276816622e+03
-1.147487216438187e+03 -5.932051703676046e+01 -2.918975276816622e+03
-1.147578037906483e+03 -6.078300543198447e+01 -2.918975276816622e+03
-1.147628611518646e+03 -6.235426436994918e+01 -2.918975276816622e+03
-1.147690606577486e+03 -6.382431694644445e+01 -2.918975276816622e+03
-1.147707724007611e+03 -6.529016397954702e+01 -2.918975276816622e+03
-1.147753122685285e+03 -6.677471595106383e+01 -2.918975276816622e+03
-1.147765615950593e+03 -6.857418926007739e+01 -2.918975276816622e+03
-1.147787799560697e+03 -7.019262170446437e+01 -2.918975276816622e+03
-1.147779835202411e+03 -7.131808260354498e+01 -2.918975276816622e+03
-1.147806547124885e+03 -7.317729744667523e+01 -2.918975276816622e+03
-1.147820983192217e+03 -7.479188796155576e+01 -2.918975276816622e+03
-1.147822256239647e+03 -7.579604083734762e+01 -2.918975276816622e+03
-1.147820890235704e+03 -7.729096131719334e+01 -2.918975276816622e+03
-1.147842418640541e+03 -7.933450446733259e+01 -2.918975276816622e+03
-1.147859219251570e+03 -8.090783704072429e+01 -2.918975276816622e+03
-1.147868685216800e+03 -8.241900973721546e+01 -2.918975276816622e+03
-1.147873291384620e+03 -8.420394476291079e+01 -2.918975276816622e+03
-1.147876455600949e+03 -8.635791560258394e+01 -2.918975276816622e+03
-1.147888856758961e+03 -8.859446561533622e+01 -2.918975276816622e+03
-1.147871655556471e+03 -8.998225355900303e+01 -2.918975276816622e+03
-1.147865843986213e+03 -9.126716580269645e+01 -2.918975276816622e+03
-1.147844857906778e+03 -9.347096869523025e+01 -2.918975276816622e+03
-1.147825336275111e+03 -9.533362028813620e+01 -2.918975276816622e+03
-1.147813183367877e+03 -9.715217858215432e+01 -2.918975276816622e+03
-1.147814357167541e+03 -9.939509653849376e+01 -2.918975276816622e+03
-1.147784503538683e+03 -1.008245424762543e+02 -2.918975276816622e+03
-1.147720797371229e+03 -1.023048708738520e+02 -2.918975276816622e+03
-1.147687016808469e+03 -1.037381669203647e+02 -2.918975276816622e+03
-1.147696959962152e+03 -1.051993453357656e+02 -2.918975276816622e+03
-1.147662698876667e+03 -1.066826349445805e+02 -2.918975276816622e+03
-1.147612314551910e+03 -1.084454969412583e+02 -2.918975276816622e+03
-1.147578854976293e+03 -1.100531805938158e+02 -2.918975276816622e+03
-1.147522448524821e+03 -1.113327664751674e+02 -2.918975276816622e+03
-1.147462948932649e+03 -1.132012240318076e+02 -2.918975276816622e+03
-1.147444384318542e+03 -1.142512731118350e+02 -2.918975276816622e+03
-1.147489528683797e+03 -1.150713356623988e+02 -2.918975276816622e+03
-1.147505094606694e+03 -1.170566130169428e+02 -2.918975276816622e+03
-1.147495944271255e+03 -1.192769325331845e+02 -2.918975276816622e+03
-1.147501826404180e+03 -1.207860282357758e+02 -2.918975276816622e+03
-1.147489172521207e+03 -1.223414496169937e+02 -2.918975276816622e+03
-1.147568813859955e+03 -1.240876151021730e+02 -2.918975276816622e+03
-1.147580269038275e+03 -1.260260799635691e+02 -2.918975276816622e+03
-1.147516510355212e+03 -1.284044811881512e+02 -2.918975276816622e+03
-1.147479999125565e+03 -1.299679623881491e+02 -2.918975276816622e+03
-1.147373613170388e+03 -1.312747004910118e+02 -2.918975276816622e+03
-1.147254946958305e+03 -1.331825564551617e+02 -2.918975276816622e+03
-1.147245952938482e+03 -1.342910619396971e+02 -2.918975276816622e+03
-1.147341435406584e+03 -1.350956625218436e+02 -2.918975276816622e+03
-1.147425913548714e+03 -1.370848598346490e+02 -2.918975276816622e+03
-1.147502049342695e+03 -1.392359260538836e+02 -2.918975276816622e+03
-1.147569557780211e+03 -1.406674970881348e+02 -2.918975276816622e+03
-1.147621062154427e+03 -1.422223116377679e+02 -2.918975276816622e+03
-1.147647155970743e+03 -1.436606891291480e+02 -2.918975276816622e+03
-1.147673145276090e+03 -1.451244531937236e+02 -2.918975276816622e+03
-1.147729241143855e+03 -1.466276542067048e+02 -2.918975276816622e+03
-1.147763004933244e+03 -1.483950522902319e+02 -2.918975276816622e+03
-1.147803078506054e+03 -1.499913078287840e+02 -2.918975276816622e+03
-1.147835214849586e+03 -1.511885172481642e+02 -2.918975276816622e+03
-1.147882866570142e+03 -1.530334302921887e+02 -2.918975276816622e+03
-1.147879414619970e+03 -1.540598000426505e+02 -2.918975276816622e+03
-1.147864514856175e+03 -1.550278169169800e+02 -2.918975276816622e+03
-1.147879091474252e+03 -1.580704288574052e+02 -2.918975276816622e+03
-1.147891441518016e+03 -1.607027176980828e+02 -2.918975276816622e+03
-1.147891375364285e+03 -1.622131606758800e+02 -2.918975276816622e+03
-1.147889697073815e+03 -1.639672234610234e+02 -2.918975276816622e+03
-1.147888442703336e+03 -1.659601687706422e+02 -2.918975276816622e+03
-1.147886891796280e+03 -1.684006326248696e+02 -2.918975276816622e+03
-1.147888251310938e+03 -1.699873477094254e+02 -2.918975276816622e+03
-1.147896541382712e+03 -1.713862307584218e+02 -2.918975276816622e+03
-1.147891766635908e+03 -1.740387607001207e+02 -2.918975276816622e+03
-1.147883849761735e+03 -1.769821746765848e+02 -2.918975276816622e+03
-1.147871959472994e+03 -1.792457186395278e+02 -2.918975276816622e+03
-1.147869256696833e+03 -1.807311049074069e+02 -2.918975276816622e+03
-1.147873210631680e+03 -1.822176654020837e+02 -2.918975276816622e+03
-1.147878688813993e+03 -1.839359361598416e+02 -2.918975276816622e+03
-1.147903088993589e+03 -1.859173986363543e+02 -2.918975276816622e+03
-1.147924439880254e+03 -1.883266506007065e+02 -2.918975276816622e+03
-1.147875528652213e+03 -1.898759737092057e+02 -2.918975276816622e+03
-1.147866681221445e+03 -1.910814023658932e+02 -2.918975276816622e+03
-1.147888938068111e+03 -1.929299822520101e+02 -2.918975276816622e+03
-1.147817758838894e+03 -1.941156244655294e+02 -2.918975276816622e+03
-1.147781004672508e+03 -1.951820830865858e+02 -2.918975276816622e+03
-1.147829824386771e+03 -1.980563692261919e+02 -2.918975276816622e+03
-1.147910439506282e+03 -2.005756303878468e+02 -2.918975276816622e+03
-1.147963453652093e+03 -2.021021693153024e+02 -2.918975276816622e+03
-1.147933187057749e+03 -2.035838819829548e+02 -2.918975276816622e+03
-1.147851602101040e+03 -2.050441927771297e+02 -2.918975276816622e+03
-1.147865662416580e+03 -2.065555030369066e+02 -2.918975276816622e+03
-1.147933983624594e+03 -2.083311847804173e+02 -2.918975276816622e+03
-1.147947011458068e+03 -2.099924142262996e+02 -2.918975276816622e+03
-1.147921048280384e+03 -2.114105030550439e+02 -2.918975276816622e+03
-1.147921302084008e+03 -2.140146877606592e+02 -2.918975276816622e+03
-1.147895795180414e+03 -2.169194069191392e+02 -2.918975276816622e+03
-1.147857346208048e+03 -2.191733715114691e+02 -2.918975276816622e+03
-1.147842457565030e+03 -2.206642813158223e+02 -2.918975276816622e+03
-1.147812890392592e+03 -2.221495137863972e+02 -2.918975276816622e+03
-1.147781292895271e+03 -2.238656463372410e+02 -2.918975276816622e+03
-1.147717215888455e+03 -2.258526424650398e+02 -2.918975276816622e+03
-1.147639068099081e+03 -2.282644189598529e+02 -2.918975276816622e+03
-1.147588102227804e+03 -2.298332996326102e+02 -2.918975276816622e+03
-1.147497671272813e+03 -2.310944861073660e+02 -2.918975276816622e+03
-1.147346286981919e+03 -2.328736809207535e+02 -2.918975276816622e+03
-1.147252651551228e+03 -2.337886186269143e+02 -2.918975276816622e+03
-1.147375325480186e+03 -2.346815151871576e+02 -2.918975276816622e+03
-1.147530088302393e+03 -2.368321141685456e+02 -2.918975276816622e+03
-1.147620051362892e+03 -2.391222676278909e+02 -2.918975276816622e+03
-1.147674093874255e+03 -2.406547820536990e+02 -2.918975276816622e+03
-1.147704312162631e+03 -2.421721263455840e+02 -2.918975276816622e+03
-1.147729167424059e+03 -2.438098508628707e+02 -2.918975276816622e+03
-1.147737232139591e+03 -2.457405592563669e+02 -2.918975276816622e+03
-1.147758217559885e+03 -2.470462068870941e+02 -2.918975276816622e+03
-1.147800991885346e+03 -2.484460996236459e+02 -2.918975276816622e+03
-1.147834424636429e+03 -2.503148509652554e+02 -2.918975276816622e+03
-1.147840821090071e+03 -2.512182079998156e+02 -2.918975276816622e+03
-1.147827743542759e+03 -2.527755952401211e+02 -2.918975276816622e+03
-1.147856478566442e+03 -2.545777646326649e+02 -2.918975276816622e+03
-1.147898910686850e+03 -2.563196339792036e+02 -2.918975276816622e+03
-1.147894985828568e+03 -2.575940636395526e+02 -2.918975276816622e+03
-1.147877525701642e+03 -2.589886698011622e+02 -2.918975276816622e+03
-1.147907832670434e+03 -2.605629219602373e+02 -2.918975276816622e+03
-1.148267275357292e+03 -2.620370322781122e+02 -2.918975276816622e+03
-1.148732486088815e+03 -2.644643154415044e+02 -2.918975276816622e+03
-1.149260881861279e+03 -2.662470459990001e+02 -2.918975276816622e+03
-1.148271264254472e+03 -2.670228496286775e+02 -2.918975276816622e+03
-1.146776711495005e+03 -2.681761131797240e+02 -2.918975276816622e+03
-1.147240489387731e+03 -2.695732205576895e+02 -2.918975276816622e+03
-1.147823131241412e+03 -2.707269052998050e+02 -2.918975276816622e+03
-1.147903827953582e+03 -2.726247681308849e+02 -2.918975276816622e+03
-1.148000873336289e+03 -2.748099867567205e+02 -2.918975276816622e+03
-1.147776645098903e+03 -2.765163644451740e+02 -2.918975276816622e+03
-1.147996249062965e+03 -2.787721259983426e+02 -2.918975276816622e+03
-1.148274361134777e+03 -2.817946576987182e+02 -2.918975276816622e+03
-1.148511759510872e+03 -2.833432933006230e+02 -2.918975276816622e+03
-1.148846875868935e+03 -2.839629911535773e+02 -2.918975276816622e+03
-1.148612262086674e+03 -2.853108766129070e+02 -2.918975276816622e+03
-1.148278610823875e+03 -2.868802067388635e+02 -2.918975276816622e+03
-1.148153148849322e+03 -2.889710732372026e+02 -2.918975276816622e+03
-1.148190064945255e+03 -2.913990641105169e+02 -2.918975276816622e+03
-1.148226981041188e+03 -2.938270549838312e+02 -2.918975276816622e+03
-1.148274348223131e+03 -2.967728925064503e+02 -2.918975276816622e+03
-1.148331554611744e+03 -2.993200202239922e+02 -2.918975276816622e+03
-1.148395104159290e+03 -3.019255852126911e+02 -2.918975276816622e+03
-1.148438665184066e+03 -3.040408003539424e+02 -2.918975276816622e+03
-1.148503211432138e+03 -3.058306422423372e+02 -2.918975276816622e+03
-1.148631785047724e+03 -3.089506891948097e+02 -2.918975276816622e+03
-1.148930288098788e+03 -3.123388159416771e+02 -2.918975276816622e+03
-1.149281414685773e+03 -3.157718921301756e+02 -2.918975276816622e+03
-1.150295720290192e+03 -3.191686528226925e+02 -2.918975276816622e+03
-1.150162812362731e+03 -3.213119989578679e+02 -2.918975276816622e+03
-1.149330156677623e+03 -3.227415259118476e+02 -2.918975276816622e+03
-1.148933172572887e+03 -3.243342244525849e+02 -2.918975276816622e+03
-1.148187402946548e+03 -3.262219479775951e+02 -2.918975276816622e+03
-1.147254362494154e+03 -3.277679883722842e+02 -2.918975276816622e+03
-1.147604025954638e+03 -3.291559474492950e+02 -2.918975276816622e+03
-1.147379032351042e+03 -3.315479763651542e+02 -2.918975276816622e+03
-1.146323217061838e+03 -3.332482214800067e+02 -2.918975276816622e+03
-1.146995364423225e+03 -3.340481235633445e+02 -2.918975276816622e+03
-1.148785824118136e+03 -3.353579307380073e+02 -2.918975276816622e+03
-1.150192481842063e+03 -3.366030921955762e+02 -2.918975276816622e+03
-1.149256399811685e+03 -3.378856369466604e+02 -2.918975276816622e+03
-1.147972869729914e+03 -3.409646915021075e+02 -2.918975276816622e+03
-1.148079266320894e+03 -3.443826306634866e+02 -2.918975276816622e+03
-1.148121821829325e+03 -3.463806707284924e+02 -2.918975276816622e+03
-1.148207484802845e+03 -3.471022117945565e+02 -2.918975276816622e+03
-1.148346362513219e+03 -3.481709109389674e+02 -2.918975276816622e+03
-1.147971669734284e+03 -3.508573633203837e+02 -2.918975276816622e+03
-1.147742389724633e+03 -3.530522925764080e+02 -2.918975276816622e+03
-1.149044493996712e+03 -3.536125242900561e+02 -2.918975276816622e+03
-1.149690017828105e+03 -3.545483154877103e+02 -2.918975276816622e+03
-1.148674884444185e+03 -3.561282656826057e+02 -2.918975276816622e+03
-1.148095705136853e+03 -3.573217373475850e+02 -2.918975276816622e+03
-1.147882052312493e+03 -3.579759548382572e+02 -2.918975276816622e+03
-1.148005184850824e+03 -3.584182378732656e+02 -2.918975276816622e+03
-1.148093005289195e+03 -3.594245124688601e+02 -2.918975276816622e+03
-1.148204623696700e+03 -3.602584070350354e+02 -2.918975276816622e+03
-1.148111091218898e+03 -3.613733999795082e+02 -2.918975276816622e+03
-1.147912048218669e+03 -3.631865782237510e+02 -2.918975276816622e+03
-1.147749177204003e+03 -3.643719410778121e+02 -2.918975276816622e+03
-1.147814943558692e+03 -3.659420720840899e+02 -2.918975276816622e+03
-1.147907088878920e+03 -3.683964938063230e+02 -2.918975276816622e+03
-1.147995614204282e+03 -3.706982362393387e+02 -2.918975276816622e+03
-1.148015628435523e+03 -3.728951972616301e+02 -2.918975276816622e+03
-1.148115172231649e+03 -3.741833906854926e+02 -2.918975276816622e+03
-1.148219735721794e+03 -3.753677159241043e+02 -2.918975276816622e+03
-1.148175284152888e+03 -3.769678362806957e+02 -2.918975276816622e+03
-1.148039790567211e+03 -3.786211001712960e+02 -2.918975276816622e+03
-1.148012118574173e+03 -3.798812591320382e+02 -2.918975276816622e+03
-1.148036074459590e+03 -3.812196589373106e+02 -2.918975276816622e+03
-1.148018164591123e+03 -3.842120863854348e+02 -2.918975276816622e+03
-1.148060162440680e+03 -3.862202311711712e+02 -2.918975276816622e+03
-1.148120624780357e+03  3.821495991505446e+02 -2.918975276816622e+03
-1.148122248957486e+03  3.797732301961118e+02 -2.918975276816622e+03
-1.148091524986097e+03  3.848618388901131e+02 -2.918975276816622e+03
-1.148127721325226e+03  3.779375884233967e+02 -2.918975276816622e+03
-1.148129293887877e+03  3.769183532275241e+02 -2.918975276816622e+03
-1.148131243391561e+03  3.751065810446502e+02 -2.918975276816622e+03
-1.148139401800731e+03  3.723643457980148e+02 -2.918975276816622e+03
-1.148145644178655e+03  3.697598638697430e+02 -2.918975276816622e+03
-1.148161726631827e+03  3.670240216057547e+02 -2.918975276816622e+03
-1.148187649160245e+03  3.641568190060503e+02 -2.918975276816622e+03
-1.148213571688663e+03  3.612896164063461e+02 -2.918975276816622e+03
-1.148219606270846e+03  3.586903906268675e+02 -2.918975276816622e+03
-1.148288294238016e+03  3.560965626294756e+02 -2.918975276816622e+03
-1.148313321371400e+03  3.537269138154572e+02 -2.918975276816622e+03
-1.148375063461999e+03  3.519301333885752e+02 -2.918975276816622e+03
-1.148463251815258e+03  3.498853416258832e+02 -2.918975276816622e+03
-1.148527234891108e+03  3.474769208624745e+02 -2.918975276816622e+03
-1.148665483381854e+03  3.454318687090937e+02 -2.918975276816622e+03
-1.148771763855098e+03  3.431226168871707e+02 -2.918975276816622e+03
-1.148921593790675e+03  3.411920335295240e+02 -2.918975276816622e+03
-1.148957300795148e+03  3.395029113085379e+02 -2.918975276816622e+03
-1.149258518374913e+03  3.363518115368914e+02 -2.918975276816622e+03
-1.149719795351486e+03  3.344474981965369e+02 -2.918975276816622e+03
-1.149540557929709e+03  3.332672287946293e+02 -2.918975276816622e+03
-1.148977897531754e+03  3.308965224546873e+02 -2.918975276816622e+03
-1.148624075025566e+03  3.286922787578545e+02 -2.918975276816622e+03
-1.148330920133873e+03  3.268851560038551e+02 -2.918975276816622e+03
-1.148156497553250e+03  3.247942660705094e+02 -2.918975276816622e+03
-1.147914337879273e+03  3.234495524909171e+02 -2.918975276816622e+03
-1.147744858870326e+03  3.222907327766283e+02 -2.918975276816622e+03
-1.147846755551533e+03  3.207229876320482e+02 -2.918975276816622e+03
-1.147935471164262e+03  3.187714590777895e+02 -2.918975276816622e+03
-1.147876756060526e+03  3.153620775701070e+02 -2.918975276816622e+03
-1.147837437173205e+03  3.129184264335320e+02 -2.918975276816622e+03
-1.147651698271924e+03  3.110763771907168e+02 -2.918975276816622e+03
-1.147656832873771e+03  3.083813343231061e+02 -2.918975276816622e+03
-1.147730579314149e+03  3.056790005633810e+02 -2.918975276816622e+03
-1.147649213640883e+03  3.038799244754407e+02 -2.918975276816622e+03
-1.147334348932935e+03  3.024567764482856e+02 -2.918975276816622e+03
-1.147282577192864e+03  3.014165986125217e+02 -2.918975276816622e+03
-1.147725453266544e+03  3.007509107553205e+02 -2.918975276816622e+03
-1.147791244694220e+03  2.981624460537025e+02 -2.918975276816622e+03
-1.147976004039839e+03  2.957799386697570e+02 -2.918975276816622e+03
-1.148002602232174e+03  2.945019100526497e+02 -2.918975276816622e+03
-1.147853779746281e+03  2.924474121067607e+02 -2.918975276816622e+03
-1.147778646024689e+03  2.901781776523304e+02 -2.918975276816622e+03
-1.147697077031874e+03  2.887718434238598e+02 -2.918975276816622e+03
-1.147680557867946e+03  2.873670322955166e+02 -2.918975276816622e+03
-1.147743112572587e+03  2.847030528590630e+02 -2.918975276816622e+03
-1.147854854860263e+03  2.825946756552979e+02 -2.918975276816622e+03
-1.147889814619287e+03  2.810580657551531e+02 -2.918975276816622e+03
-1.147837266266820e+03  2.790556830589897e+02 -2.918975276816622e+03
-1.147844767030241e+03  2.771050866423200e+02 -2.918975276816622e+03
-1.147868347974161e+03  2.759443707813405e+02 -2.918975276816622e+03
-1.147863057859018e+03  2.749544291838592e+02 -2.918975276816622e+03
-1.147868785748700e+03  2.729580356775498e+02 -2.918975276816622e+03
-1.147851414627742e+03  2.712882409967929e+02 -2.918975276816622e+03
-1.147846732787880e+03  2.700137106916979e+02 -2.918975276816622e+03
-1.147827904208024e+03  2.679228728066865e+02 -2.918975276816622e+03
-1.147826064810703e+03  2.661475985017322e+02 -2.918975276816622e+03
-1.147786120825971e+03  2.643160174577362e+02 -2.918975276816622e+03
-1.147776444426974e+03  2.620304675780891e+02 -2.918975276816622e+03
-1.147777258658115e+03  2.605048269456037e+02 -2.918975276816622e+03
-1.147783926229562e+03  2.590063943726406e+02 -2.918975276816622e+03
-1.147796722351739e+03  2.573661297184740e+02 -2.918975276816622e+03
-1.147748721817519e+03  2.553783078068618e+02 -2.918975276816622e+03
-1.147791248533983e+03  2.527316555640404e+02 -2.918975276816622e+03
-1.147712026114457e+03  2.508738299874630e+02 -2.918975276816622e+03
-1.147718486630637e+03  2.499352122826114e+02 -2.918975276816622e+03
-1.147726348798937e+03  2.483650097598327e+02 -2.918975276816622e+03
-1.147720159979642e+03  2.465115686440754e+02 -2.918975276816622e+03
-1.147720727228697e+03  2.447743256363949e+02 -2.918975276816622e+03
-1.147696044965435e+03  2.435436334697845e+02 -2.918975276816622e+03
-1.147678537503121e+03  2.420344045420584e+02 -2.918975276816622e+03
-1.147656488646049e+03  2.403987159704240e+02 -2.918975276816622e+03
-1.147630483582052e+03  2.393381180674953e+02 -2.918975276816622e+03
-1.147615604506413e+03  2.374397145403757e+02 -2.918975276816622e+03
-1.147600075699888e+03  2.358423744587902e+02 -2.918975276816622e+03
-1.147587320022342e+03  2.347192834416493e+02 -2.918975276816622e+03
-1.147511609104887e+03  2.330617183085109e+02 -2.918975276816622e+03
-1.147424850026715e+03  2.312616694103024e+02 -2.918975276816622e+03
-1.147393593009652e+03  2.297938844878832e+02 -2.918975276816622e+03
-1.147257315263788e+03  2.282059820780251e+02 -2.918975276816622e+03
-1.147181442851197e+03  2.267705418160855e+02 -2.918975276816622e+03
-1.147133763744898e+03  2.253397936266335e+02 -2.918975276816622e+03
-1.146925364310208e+03  2.238664424010844e+02 -2.918975276816622e+03
-1.146600142647091e+03  2.219578001250014e+02 -2.918975276816622e+03
-1.146300074132748e+03  2.202448512785654e+02 -2.918975276816622e+03
-1.146399695551461e+03  2.191303205174302e+02 -2.918975276816622e+03
-1.146103960166600e+03  2.171829371049929e+02 -2.918975276816622e+03
-1.145568687206960e+03  2.157820285243835e+02 -2.918975276816622e+03
-1.145879294812840e+03  2.147880330737522e+02 -2.918975276816622e+03
-1.146290255403460e+03  2.134438292144811e+02 -2.918975276816622e+03
-1.146623382063701e+03  2.123651559625410e+02 -2.918975276816622e+03
-1.146794037024675e+03  2.110600395437809e+02 -2.918975276816622e+03
-1.146918783096222e+03  2.097236438148976e+02 -2.918975276816622e+03
-1.147114490739370e+03  2.082159937181331e+02 -2.918975276816622e+03
-1.147259630475873e+03  2.067134681338786e+02 -2.918975276816622e+03
-1.147320207076551e+03  2.052371003682977e+02 -2.918975276816622e+03
-1.147413504175909e+03  2.038051216400848e+02 -2.918975276816622e+03
-1.147479429693562e+03  2.020389974552787e+02 -2.918975276816622e+03
-1.147498156833583e+03  2.003498674911350e+02 -2.918975276816622e+03
-1.147526402536069e+03  1.992806691835712e+02 -2.918975276816622e+03
-1.147531035958196e+03  1.974842629350741e+02 -2.918975276816622e+03
-1.147545210797458e+03  1.942370519549870e+02 -2.918975276816622e+03
-1.147505969741787e+03  1.912170945724171e+02 -2.918975276816622e+03
-1.147480164043226e+03  1.897290360563400e+02 -2.918975276816622e+03
-1.147431660028565e+03  1.882247519944035e+02 -2.918975276816622e+03
-1.147371187932304e+03  1.868019211002645e+02 -2.918975276816622e+03
-1.147292419657385e+03  1.853730349586315e+02 -2.918975276816622e+03
-1.147072582556896e+03  1.839104446334085e+02 -2.918975276816622e+03
-1.146792720891276e+03  1.820747674513476e+02 -2.918975276816622e+03
-1.146583259946448e+03  1.805783195814817e+02 -2.918975276816622e+03
-1.146719051722157e+03  1.793935583597931e+02 -2.918975276816622e+03
-1.146625521693424e+03  1.772453062968118e+02 -2.918975276816622e+03
-1.146342663322508e+03  1.760520878187585e+02 -2.918975276816622e+03
-1.146578456153955e+03  1.747079574756038e+02 -2.918975276816622e+03
-1.146948641510688e+03  1.725767358223443e+02 -2.918975276816622e+03
-1.147237422834549e+03  1.709774349112863e+02 -2.918975276816622e+03
-1.147357011792884e+03  1.696697736479464e+02 -2.918975276816622e+03
-1.147408789060379e+03  1.682354847253216e+02 -2.918975276816622e+03
-1.147406644485849e+03  1.668135140741642e+02 -2.918975276816622e+03
-1.147375729364589e+03  1.653395813463621e+02 -2.918975276816622e+03
-1.147324215503910e+03  1.638610693745574e+02 -2.918975276816622e+03
-1.147288473207567e+03  1.620970043443957e+02 -2.918975276816622e+03
-1.147231724490687e+03  1.605822695893295e+02 -2.918975276816622e+03
-1.147062365676450e+03  1.592785556013421e+02 -2.918975276816622e+03
-1.146733820299869e+03  1.573755084790546e+02 -2.918975276816622e+03
-1.146482224965785e+03  1.563635449058107e+02 -2.918975276816622e+03
-1.146374913479232e+03  1.547523321602142e+02 -2.918975276816622e+03
-1.146152561614066e+03  1.524688494848345e+02 -2.918975276816622e+03
-1.146367533558657e+03  1.508248424491606e+02 -2.918975276816622e+03
-1.146695185602641e+03  1.495253978190515e+02 -2.918975276816622e+03
-1.146835247452711e+03  1.482387298207082e+02 -2.918975276816622e+03
-1.146913905008393e+03  1.468679668145217e+02 -2.918975276816622e+03
-1.146910712567547e+03  1.454050246045937e+02 -2.918975276816622e+03
-1.147067830781076e+03  1.439501650120822e+02 -2.918975276816622e+03
-1.147130284119455e+03  1.421950031556825e+02 -2.918975276816622e+03
-1.147068047637345e+03  1.408386336034924e+02 -2.918975276816622e+03
-1.147042278869271e+03  1.396522347052467e+02 -2.918975276816622e+03
-1.146808719642258e+03  1.376825529660818e+02 -2.918975276816622e+03
-1.146559978435862e+03  1.366252632191387e+02 -2.918975276816622e+03
-1.146735106341981e+03  1.353472042048992e+02 -2.918975276816622e+03
-1.146972749233868e+03  1.336299948485876e+02 -2.918975276816622e+03
-1.147216119122560e+03  1.317863168243654e+02 -2.918975276816622e+03
-1.147355778606744e+03  1.298708599184533e+02 -2.918975276816622e+03
-1.147412916702465e+03  1.282855884981045e+02 -2.918975276816622e+03
-1.147506011575649e+03  1.265618697392271e+02 -2.918975276816622e+03
-1.147546540859176e+03  1.245806370026138e+02 -2.918975276816622e+03
-1.147605050704390e+03  1.221920043363316e+02 -2.918975276816622e+03
-1.147633046989243e+03  1.205586257334281e+02 -2.918975276816622e+03
-1.147668905144495e+03  1.189938051679639e+02 -2.918975276816622e+03
-1.147693929560649e+03  1.163407372286362e+02 -2.918975276816622e+03
-1.147716671548257e+03  1.138507266736962e+02 -2.918975276816622e+03
-1.147729741818672e+03  1.124697009402489e+02 -2.918975276816622e+03
-1.147776615995887e+03  1.112736047853401e+02 -2.918975276816622e+03
-1.147804457514630e+03  1.099967165550419e+02 -2.918975276816622e+03
-1.147802220178937e+03  1.083622315320036e+02 -2.918975276816622e+03
-1.147842188476893e+03  1.066769302606528e+02 -2.918975276816622e+03
-1.147862011102979e+03  1.053879490005284e+02 -2.918975276816622e+03
-1.147869345940225e+03  1.040507987750470e+02 -2.918975276816622e+03
-1.147846669822668e+03  1.022566859732813e+02 -2.918975276816622e+03
-1.147815641241429e+03  1.006121983035821e+02 -2.918975276816622e+03
-1.147878869038444e+03  9.941158405596366e+01 -2.918975276816622e+03
-1.147856014332144e+03  9.791267323671946e+01 -2.918975276816622e+03
-1.147765810835231e+03  9.621111806255512e+01 -2.918975276816622e+03
-1.147673092260953e+03  9.330771948018042e+01 -2.918975276816622e+03
-1.147662259137474e+03  9.013325900578631e+01 -2.918975276816622e+03
-1.147600383783409e+03  8.741779962976754e+01 -2.918975276816622e+03
-1.147553300855560e+03  8.562707279599437e+01 -2.918975276816622e+03
-1.146674560261205e+03  8.476818760449379e+01 -2.918975276816622e+03
-1.146021874206836e+03  8.388183553750895e+01 -2.918975276816622e+03
-1.146635992120285e+03  8.312009546826997e+01 -2.918975276816622e+03
-1.147092160539185e+03  8.161044040241150e+01 -2.918975276816622e+03
-1.147311146835399e+03  7.955030371827883e+01 -2.918975276816622e+03
-1.147347541725215e+03  7.734227833020641e+01 -2.918975276816622e+03
-1.147508235594289e+03  7.491445478811590e+01 -2.918975276816622e+03
-1.147693507140577e+03  7.271145052079646e+01 -2.918975276816622e+03
-1.147762872349977e+03  7.123171781745408e+01 -2.918975276816622e+03
-1.147868807513250e+03  6.937435755234304e+01 -2.918975276816622e+03
-1.147919276895354e+03  6.768763844012913e+01 -2.918975276816622e+03
-1.147886190208594e+03  6.648779333622480e+01 -2.918975276816622e+03
-1.147805062545859e+03  6.377572424348691e+01 -2.918975276816622e+03
-1.147758229000705e+03  6.024021330267537e+01 -2.918975276816622e+03
-1.147777004148015e+03  5.681269795069040e+01 -2.918975276816622e+03
-1.147805250408589e+03  5.406308753938792e+01 -2.918975276816622e+03
-1.147863351903035e+03  5.216034724926469e+01 -2.918975276816622e+03
-1.147906472236945e+03  5.044879167240947e+01 -2.918975276816622e+03
-1.147975653039021e+03  4.875044310052009e+01 -2.918975276816622e+03
-1.148035781908901e+03  4.719096343571935e+01 -2.918975276816622e+03
-1.148085334885678e+03  4.633170031734370e+01 -2.918975276816622e+03
-1.147990421968480e+03  4.535953844295008e+01 -2.918975276816622e+03
-1.148040975067365e+03  4.379295912264350e+01 -2.918975276816622e+03
-1.148028617318382e+03  4.238798212800034e+01 -2.918975276816622e+03
-1.148042055492552e+03  4.101860384074705e+01 -2.918975276816622e+03
-1.148041257523472e+03  3.898911666387383e+01 -2.918975276816622e+03
-1.148119154215202e+03  3.650288380714590e+01 -2.918975276816622e+03
-1.148147685474380e+03  3.350089481802398e+01 -2.918975276816622e+03
-1.148198029164083e+03  3.019079856509500e+01 -2.918975276816622e+03
-1.148237336711708e+03  2.706623532491533e+01 -2.918975276816622e+03
-1.148292497090910e+03  2.507971121135465e+01 -2.918975276816622e+03
-1.148127642264118e+03  2.362501822435410e+01 -2.918975276816622e+03
-1.147826541304550e+03  2.217125963129903e+01 -2.918975276816622e+03
-1.147555069249528e+03  2.100772188489417e+01 -2.918975276816622e+03
-1.147125738694759e+03  2.004066959483600e+01 -2.918975276816622e+03
-1.147339403504482e+03  1.886284106204237e+01 -2.918975276816622e+03
-1.147707111374704e+03  1.709841453209225e+01 -2.918975276816622e+03
-1.148032140393839e+03  1.502524871720507e+01 -2.918975276816622e+03
-1.148270802862606e+03  1.217563898695702e+01 -2.918975276816622e+03
-1.148502645107291e+03  9.166201744530481e+00 -2.918975276816622e+03
-1.148669581492745e+03  7.032889826949528e+00 -2.918975276816622e+03
-1.148667075433365e+03  5.840587116382300e+00 -2.918975276816622e+03
 1.145773301425890e+03 -1.291302254203248e+00  2.918975276816622e+03
1.145619368669240e+03 1.163863487482256e+00 2.918975276816622e+03
 1.145973452497650e+03 -2.843948400627884e+00  2.918975276816622e+03
 1.145949494828365e+03 -4.049993903430432e+00  2.918975276816622e+03
 1.145836160845881e+03 -5.557194867766127e+00  2.918975276816622e+03
 1.145823161628689e+03 -7.752294128159066e+00  2.918975276816622e+03
 1.145823770491383e+03 -9.367296812683421e+00  2.918975276816622e+03
 1.145787718942538e+03 -1.082158606805724e+01  2.918975276816622e+03
 1.145728059963857e+03 -1.258916654009414e+01  2.918975276816622e+03
 1.145660378907248e+03 -1.524318747167971e+01  2.918975276816622e+03
 1.145576643051714e+03 -1.820909869289606e+01  2.918975276816622e+03
 1.145511535536777e+03 -2.049436781413953e+01  2.918975276816622e+03
 1.145425683387902e+03 -2.277169723068183e+01  2.918975276816622e+03
 1.145364175305634e+03 -2.501013528602249e+01  2.918975276816622e+03
 1.145280860723356e+03 -2.697373854378801e+01  2.918975276816622e+03
 1.145217242487699e+03 -2.886462605892583e+01  2.918975276816622e+03
 1.145187778860716e+03 -3.011637721152212e+01  2.918975276816622e+03
 1.145173428394096e+03 -3.108597375331891e+01  2.918975276816622e+03
 1.145110767281232e+03 -3.255711966805818e+01  2.918975276816622e+03
 1.144963544047912e+03 -3.448553626742627e+01  2.918975276816622e+03
 1.144847619439241e+03 -3.689782332866967e+01  2.918975276816622e+03
 1.144901177082500e+03 -3.864190944319657e+01  2.918975276816622e+03
 1.144865524369708e+03 -4.047649576585461e+01  2.918975276816622e+03
 1.144778559236501e+03 -4.338156578834101e+01  2.918975276816622e+03
 1.144848942089619e+03 -4.521449154840770e+01  2.918975276816622e+03
 1.144885447035456e+03 -4.630778684129430e+01  2.918975276816622e+03
 1.144813402188450e+03 -4.817293735005420e+01  2.918975276816622e+03
 1.144813459984560e+03 -4.974274821918508e+01  2.918975276816622e+03
 1.144888869541142e+03 -5.198794495456428e+01  2.918975276816622e+03
 1.144930315246651e+03 -5.428786391327888e+01  2.918975276816622e+03
 1.144834050107208e+03 -5.562481256999304e+01  2.918975276816622e+03
 1.144871926886996e+03 -5.748703062825755e+01  2.918975276816622e+03
 1.144946808619023e+03 -5.953345334138288e+01  2.918975276816622e+03
 1.144964487568735e+03 -6.138560534662213e+01  2.918975276816622e+03
 1.145031694884933e+03 -6.300368920087350e+01  2.918975276816622e+03
 1.145107993419274e+03 -6.447833096054435e+01  2.918975276816622e+03
 1.144992399591324e+03 -6.555959356104118e+01  2.918975276816622e+03
 1.144628432008260e+03 -6.650662066575325e+01  2.918975276816622e+03
 1.144744764204715e+03 -6.794445718465124e+01  2.918975276816622e+03
 1.144990578525851e+03 -6.950539240987790e+01  2.918975276816622e+03
 1.144959613894034e+03 -7.148194513530962e+01  2.918975276816622e+03
 1.144834470357269e+03 -7.382585416639810e+01  2.918975276816622e+03
 1.144844089296655e+03 -7.684665076071462e+01  2.918975276816622e+03
 1.144879211526120e+03 -7.966481892344898e+01  2.918975276816622e+03
 1.144981660510978e+03 -8.145859791914607e+01  2.918975276816622e+03
 1.145064259880261e+03 -8.305893248084337e+01  2.918975276816622e+03
 1.145164526417443e+03 -8.440612364942207e+01  2.918975276816622e+03
 1.145159181286493e+03 -8.522911259160739e+01  2.918975276816622e+03
 1.145054266328520e+03 -8.590788971974740e+01  2.918975276816622e+03
 1.145022970402092e+03 -8.676846942161397e+01  2.918975276816622e+03
 1.144800282226172e+03 -8.791343344378606e+01  2.918975276816622e+03
 1.144854803306396e+03 -8.942702865049709e+01  2.918975276816622e+03
 1.145014698959492e+03 -9.134836365844376e+01  2.918975276816622e+03
 1.144957893214332e+03 -9.358680731066848e+01  2.918975276816622e+03
 1.144981724254009e+03 -9.637012726744491e+01  2.918975276816622e+03
 1.145008402606172e+03 -9.870540568625445e+01  2.918975276816622e+03
 1.145028189400809e+03 -1.005681858838602e+02  2.918975276816622e+03
 1.145104805071654e+03 -1.022586479564096e+02  2.918975276816622e+03
 1.145216579277708e+03 -1.034461184314439e+02  2.918975276816622e+03
 1.145130984285501e+03 -1.042899727083360e+02  2.918975276816622e+03
 1.144933849124717e+03 -1.049570855164834e+02  2.918975276816622e+03
 1.145021763440488e+03 -1.057693854681382e+02  2.918975276816622e+03
 1.145009321339779e+03 -1.065787576071725e+02  2.918975276816622e+03
 1.144952419704964e+03 -1.078655807078060e+02  2.918975276816622e+03
 1.145061120688696e+03 -1.094275796306576e+02  2.918975276816622e+03
 1.144979370822773e+03 -1.114158793127252e+02  2.918975276816622e+03
 1.144747457244071e+03 -1.138242489712641e+02  2.918975276816622e+03
 1.144622240002369e+03 -1.161766782136802e+02  2.918975276816622e+03
 1.144603719097669e+03 -1.184731670399733e+02  2.918975276816622e+03
 1.144616200275656e+03 -1.204789587815625e+02  2.918975276816622e+03
 1.144194195864371e+03 -1.214355754345958e+02  2.918975276816622e+03
 1.143117823527634e+03 -1.220520988145640e+02  2.918975276816622e+03
 1.144366700377085e+03 -1.230659451355708e+02  2.918975276816622e+03
 1.146064047597828e+03 -1.239409337478147e+02  2.918975276816622e+03
 1.145952240222259e+03 -1.250031089082876e+02  2.918975276816622e+03
 1.145483175645831e+03 -1.257252518388801e+02  2.918975276816622e+03
 1.145096569967940e+03 -1.264630882604700e+02  2.918975276816622e+03
 1.145296545980917e+03 -1.279203486651806e+02  2.918975276816622e+03
 1.145339972971157e+03 -1.294293899755488e+02  2.918975276816622e+03
 1.145308888342483e+03 -1.313092371626756e+02  2.918975276816622e+03
 1.145250202237031e+03 -1.335668251159023e+02  2.918975276816622e+03
 1.145285633694548e+03 -1.362727913797051e+02  2.918975276816622e+03
 1.145243017325637e+03 -1.385507433374314e+02  2.918975276816622e+03
 1.145178217074739e+03 -1.411263678714579e+02  2.918975276816622e+03
 1.145215485626391e+03 -1.438969823223459e+02  2.918975276816622e+03
 1.145240582364850e+03 -1.453169797938028e+02  2.918975276816622e+03
 1.145546096059230e+03 -1.458960242700102e+02  2.918975276816622e+03
 1.145704551987457e+03 -1.464455760983604e+02  2.918975276816622e+03
 1.145284847975672e+03 -1.478286126601996e+02  2.918975276816622e+03
 1.144926543373712e+03 -1.494594551960301e+02  2.918975276816622e+03
 1.144851515047967e+03 -1.513757135019408e+02  2.918975276816622e+03
 1.144811937479008e+03 -1.537231476933771e+02  2.918975276816622e+03
 1.144833242875268e+03 -1.567930729320177e+02  2.918975276816622e+03
 1.144807142926655e+03 -1.596087976147148e+02  2.918975276816622e+03
 1.144833790328540e+03 -1.612876684171374e+02  2.918975276816622e+03
 1.144884085733144e+03 -1.629906777224682e+02  2.918975276816622e+03
 1.144869906732176e+03 -1.644945738698426e+02  2.918975276816622e+03
 1.145001330894412e+03 -1.652496453672429e+02  2.918975276816622e+03
 1.145005788486926e+03 -1.663593252248856e+02  2.918975276816622e+03
 1.144802664767962e+03 -1.679716834250962e+02  2.918975276816622e+03
 1.144796386666033e+03 -1.694343623870996e+02  2.918975276816622e+03
 1.144933746252464e+03 -1.714007825517729e+02  2.918975276816622e+03
 1.145009973079367e+03 -1.738032824276665e+02  2.918975276816622e+03
 1.145224162014418e+03 -1.766679027901788e+02  2.918975276816622e+03
 1.145185118857436e+03 -1.794542958678788e+02  2.918975276816622e+03
 1.145160309059655e+03 -1.812025247515694e+02  2.918975276816622e+03
 1.145145557109870e+03 -1.821184347819002e+02  2.918975276816622e+03
 1.145051848958110e+03 -1.828989845129487e+02  2.918975276816622e+03
 1.145114063627237e+03 -1.846137604776114e+02  2.918975276816622e+03
 1.145017601318482e+03 -1.865769355424201e+02  2.918975276816622e+03
 1.145087881814403e+03 -1.880465579104750e+02  2.918975276816622e+03
 1.145265521844568e+03 -1.895164675931246e+02  2.918975276816622e+03
 1.145267163981594e+03 -1.914140084331933e+02  2.918975276816622e+03
 1.145150377785269e+03 -1.937320254213018e+02  2.918975276816622e+03
 1.144963480487275e+03 -1.967116451197097e+02  2.918975276816622e+03
 1.144788770811171e+03 -1.996234045430731e+02  2.918975276816622e+03
 1.144608114339764e+03 -2.012968942098337e+02  2.918975276816622e+03
 1.144635693825009e+03 -2.024094265019210e+02  2.918975276816622e+03
 1.144771730661875e+03 -2.036943199214555e+02  2.918975276816622e+03
 1.145109892287975e+03 -2.051686661902708e+02  2.918975276816622e+03
 1.145185980446373e+03 -2.064404935094499e+02  2.918975276816622e+03
 1.144890446821349e+03 -2.076873869209597e+02  2.918975276816622e+03
 1.144964778829202e+03 -2.092560976820816e+02  2.918975276816622e+03
 1.145057628338632e+03 -2.112839820060518e+02  2.918975276816622e+03
 1.145079730314167e+03 -2.135917487036437e+02  2.918975276816622e+03
 1.145117699985023e+03 -2.159003380182207e+02  2.918975276816622e+03
 1.145152951636709e+03 -2.178335016098217e+02  2.918975276816622e+03
 1.145158579584489e+03 -2.194984403065653e+02  2.918975276816622e+03
 1.145111458309315e+03 -2.215829741975321e+02  2.918975276816622e+03
 1.145140455906438e+03 -2.235968875713037e+02  2.918975276816622e+03
 1.145091396603595e+03 -2.248457924884381e+02  2.918975276816622e+03
 1.145042494664835e+03 -2.270797281006096e+02  2.918975276816622e+03
 1.145056786715539e+03 -2.295241270507786e+02  2.918975276816622e+03
 1.145047910209986e+03 -2.315391580104837e+02  2.918975276816622e+03
 1.144931568470674e+03 -2.334971259969094e+02  2.918975276816622e+03
 1.144758402448116e+03 -2.354223912004547e+02  2.918975276816622e+03
 1.144652799916733e+03 -2.377554562344542e+02  2.918975276816622e+03
 1.144627396773617e+03 -2.400507359919755e+02  2.918975276816622e+03
 1.144500310030139e+03 -2.430807948980272e+02  2.918975276816622e+03
 1.144400397225517e+03 -2.461584590794741e+02  2.918975276816622e+03
 1.144342184056963e+03 -2.482182238940291e+02  2.918975276816622e+03
 1.144311900768517e+03 -2.500417165094293e+02  2.918975276816622e+03
 1.144413509461328e+03 -2.511513461235304e+02  2.918975276816622e+03
 1.144502488364181e+03 -2.520757648814392e+02  2.918975276816622e+03
 1.144499197597063e+03 -2.541293179885525e+02  2.918975276816622e+03
 1.144517088803153e+03 -2.561057836511588e+02  2.918975276816622e+03
 1.144575136636210e+03 -2.573597334928732e+02  2.918975276816622e+03
 1.144596166023828e+03 -2.583893210400562e+02  2.918975276816622e+03
 1.144699431956227e+03 -2.600298204773594e+02  2.918975276816622e+03
 1.144750331566417e+03 -2.622227143483191e+02  2.918975276816622e+03
 1.144846429564207e+03 -2.645789185755377e+02  2.918975276816622e+03
 1.145032889855821e+03 -2.674279900178124e+02  2.918975276816622e+03
 1.145157955576611e+03 -2.695666985208462e+02  2.918975276816622e+03
 1.145302348236227e+03 -2.714053124461884e+02  2.918975276816622e+03
 1.145398476435405e+03 -2.731145717618347e+02  2.918975276816622e+03
 1.145438008135034e+03 -2.746446304303589e+02  2.918975276816622e+03
 1.145492500574859e+03 -2.772031067175755e+02  2.918975276816622e+03
 1.145527662988026e+03 -2.797508085473060e+02  2.918975276816622e+03
 1.145691286398703e+03 -2.821126078400374e+02  2.918975276816622e+03
 1.145787466625475e+03 -2.849551723571228e+02  2.918975276816622e+03
 1.145597757248062e+03 -2.875741804661514e+02  2.918975276816622e+03
 1.145656800195114e+03 -2.896842030028209e+02  2.918975276816622e+03
 1.145890115329859e+03 -2.918977684564745e+02  2.918975276816622e+03
 1.145820369869149e+03 -2.939265069344627e+02  2.918975276816622e+03
 1.145677491861442e+03 -2.968649439550878e+02  2.918975276816622e+03
 1.145726025649352e+03 -2.990321778095040e+02  2.918975276816622e+03
 1.145713011537327e+03 -3.009491534570836e+02  2.918975276816622e+03
 1.145528239148144e+03 -3.031486791350065e+02  2.918975276816622e+03
 1.145416022182160e+03 -3.047672425214508e+02  2.918975276816622e+03
 1.145232160712383e+03 -3.070459709206795e+02  2.918975276816622e+03
 1.145039888795607e+03 -3.091223849134018e+02  2.918975276816622e+03
 1.144885145759813e+03 -3.111314884700167e+02  2.918975276816622e+03
 1.144642044503232e+03 -3.127899010268381e+02  2.918975276816622e+03
 1.144464303635871e+03 -3.140982537413601e+02  2.918975276816622e+03
 1.144313548659797e+03 -3.160915908157153e+02  2.918975276816622e+03
 1.144141421548709e+03 -3.182217792831498e+02  2.918975276816622e+03
 1.144481754364063e+03 -3.202753368556247e+02  2.918975276816622e+03
 1.144458584548006e+03 -3.222757623764104e+02  2.918975276816622e+03
 1.144429865820922e+03 -3.246850257347197e+02  2.918975276816622e+03
 1.144761631722290e+03 -3.264267540488411e+02  2.918975276816622e+03
 1.144837158727016e+03 -3.278216245814227e+02  2.918975276816622e+03
 1.144853341054860e+03 -3.303948144672578e+02  2.918975276816622e+03
 1.144842306661913e+03 -3.330285054671160e+02  2.918975276816622e+03
 1.144849405862523e+03 -3.361335378148416e+02  2.918975276816622e+03
 1.144829138612272e+03 -3.383938808807033e+02  2.918975276816622e+03
 1.144828105800123e+03 -3.397066206264133e+02  2.918975276816622e+03
 1.144800590639460e+03 -3.417726831262191e+02  2.918975276816622e+03
 1.144729120737150e+03 -3.440050219093651e+02  2.918975276816622e+03
 1.144683710056687e+03 -3.466552184700179e+02  2.918975276816622e+03
 1.144471147949845e+03 -3.496667639124508e+02  2.918975276816622e+03
 1.144286806119640e+03 -3.523181112047268e+02  2.918975276816622e+03
 1.143970253456634e+03 -3.537383650395664e+02  2.918975276816622e+03
 1.144134572208249e+03 -3.547021524667521e+02  2.918975276816622e+03
 1.144720473568482e+03 -3.561714877779910e+02  2.918975276816622e+03
 1.145376715091909e+03 -3.582153636582890e+02  2.918975276816622e+03
 1.146215037298361e+03 -3.607253565611784e+02  2.918975276816622e+03
 1.146778613972505e+03 -3.622093760591343e+02  2.918975276816622e+03
 1.146226733937697e+03 -3.634869264460843e+02  2.918975276816622e+03
 1.145627340713318e+03 -3.647529930787005e+02  2.918975276816622e+03
 1.145457706739918e+03 -3.660247145966766e+02  2.918975276816622e+03
 1.145031464731237e+03 -3.678043055514122e+02  2.918975276816622e+03
 1.145090015592788e+03 -3.700085647437296e+02  2.918975276816622e+03
 1.145161206682447e+03 -3.715043955047803e+02  2.918975276816622e+03
 1.145173295527990e+03 -3.734727364183147e+02  2.918975276816622e+03
 1.145184192060128e+03 -3.765683234595811e+02  2.918975276816622e+03
 1.145229402490719e+03 -3.791157517801674e+02  2.918975276816622e+03
 1.145227892709783e+03 -3.816290270950647e+02  2.918975276816622e+03
 1.145233702036232e+03 -3.831861080200728e+02  2.918975276816622e+03
 1.145248366397821e+03 -3.849362227200488e+02  2.918975276816622e+03
1.145233606971751e+03 3.831033788421182e+02 2.918975276816622e+03
1.145260700347708e+03 3.856281760231006e+02 2.918975276816622e+03
1.145256578213878e+03 3.801333345734521e+02 2.918975276816622e+03
1.145358083068188e+03 3.785084462628303e+02 2.918975276816622e+03
1.145597360885462e+03 3.772161505127859e+02 2.918975276816622e+03
1.145805626693256e+03 3.756676016997264e+02 2.918975276816622e+03
1.145806925963575e+03 3.749650376332489e+02 2.918975276816622e+03
1.145557188118835e+03 3.743037739117917e+02 2.918975276816622e+03
1.145330775906746e+03 3.731452924992822e+02 2.918975276816622e+03
1.145169053030314e+03 3.719327239958805e+02 2.918975276816622e+03
1.144867663610361e+03 3.696823166636362e+02 2.918975276816622e+03
1.144452335967736e+03 3.676152400871574e+02 2.918975276816622e+03
1.144262188750192e+03 3.670327018388024e+02 2.918975276816622e+03
1.144376952215817e+03 3.661319376802517e+02 2.918975276816622e+03
1.144709168108430e+03 3.639516738221301e+02 2.918975276816622e+03
1.145029514689891e+03 3.612683131784864e+02 2.918975276816622e+03
1.145139734372794e+03 3.591208749180801e+02 2.918975276816622e+03
1.145234216197220e+03 3.577714334143670e+02 2.918975276816622e+03
1.145251250424538e+03 3.563675848467858e+02 2.918975276816622e+03
1.145386668545152e+03 3.547714050273991e+02 2.918975276816622e+03
1.145457318880107e+03 3.532260038435771e+02 2.918975276816622e+03
1.145762067134459e+03 3.516681858296378e+02 2.918975276816622e+03
1.145871179258897e+03 3.496001739475042e+02 2.918975276816622e+03
1.145875879713654e+03 3.478457205278229e+02 2.918975276816622e+03
1.145924237535839e+03 3.461470607875360e+02 2.918975276816622e+03
1.146078108549621e+03 3.442129162109075e+02 2.918975276816622e+03
1.146165119841847e+03 3.426001715428667e+02 2.918975276816622e+03
1.146237764242879e+03 3.410359788951538e+02 2.918975276816622e+03
1.146184977665670e+03 3.397222485458029e+02 2.918975276816622e+03
1.147107685279271e+03 3.384416296244135e+02 2.918975276816622e+03
1.147701927485358e+03 3.371556561874146e+02 2.918975276816622e+03
1.146883760446056e+03 3.353765082833680e+02 2.918975276816622e+03
1.146571673667866e+03 3.328679407355044e+02 2.918975276816622e+03
1.146250946941462e+03 3.301776874660192e+02 2.918975276816622e+03
1.146382099336133e+03 3.288539112996389e+02 2.918975276816622e+03
1.146308198783538e+03 3.277209300968946e+02 2.918975276816622e+03
1.146419304588492e+03 3.262265004314522e+02 2.918975276816622e+03
1.146441273529754e+03 3.252325875549408e+02 2.918975276816622e+03
1.146121656169330e+03 3.238707017461235e+02 2.918975276816622e+03
1.145877914360346e+03 3.221778148129555e+02 2.918975276816622e+03
1.145770616751192e+03 3.202801370001914e+02 2.918975276816622e+03
1.145843144570050e+03 3.188350936935053e+02 2.918975276816622e+03
1.145851062959509e+03 3.171267551471308e+02 2.918975276816622e+03
1.145882425432831e+03 3.146089784626283e+02 2.918975276816622e+03
1.145840716879233e+03 3.125481164566872e+02 2.918975276816622e+03
1.145789725132247e+03 3.114901077230514e+02 2.918975276816622e+03
1.145749542417689e+03 3.104051093702797e+02 2.918975276816622e+03
1.145852699196547e+03 3.086725445122848e+02 2.918975276816622e+03
1.145868594469921e+03 3.071342418593766e+02 2.918975276816622e+03
1.145914584600970e+03 3.053514858264053e+02 2.918975276816622e+03
1.145986544168336e+03 3.030785080289527e+02 2.918975276816622e+03
1.146110399505569e+03 3.015485486896200e+02 2.918975276816622e+03
1.146128684306058e+03 3.000750669076735e+02 2.918975276816622e+03
1.146181230723452e+03 2.983230540659706e+02 2.918975276816622e+03
1.146175645394625e+03 2.966046638863725e+02 2.918975276816622e+03
1.146253375177975e+03 2.947670657897494e+02 2.918975276816622e+03
1.146437162189086e+03 2.929925357236503e+02 2.918975276816622e+03
1.146760545559227e+03 2.912740552734638e+02 2.918975276816622e+03
1.146762760573198e+03 2.903677598481077e+02 2.918975276816622e+03
1.146407025490546e+03 2.885971377507650e+02 2.918975276816622e+03
1.146137952336985e+03 2.859884307292302e+02 2.918975276816622e+03
1.145988060956149e+03 2.839448842970186e+02 2.918975276816622e+03
1.145893356584611e+03 2.819202476802326e+02 2.918975276816622e+03
1.145710982483992e+03 2.790169325052428e+02 2.918975276816622e+03
1.145577977853472e+03 2.760880024744191e+02 2.918975276816622e+03
1.145350570456665e+03 2.731163787634371e+02 2.918975276816622e+03
1.145209163391357e+03 2.700361163047859e+02 2.918975276816622e+03
1.145077933615960e+03 2.677869876324838e+02 2.918975276816622e+03
1.144902022826690e+03 2.659077717824817e+02 2.918975276816622e+03
1.144800482910944e+03 2.637830052190267e+02 2.918975276816622e+03
1.144658795696457e+03 2.609660408561676e+02 2.918975276816622e+03
1.144530732451321e+03 2.589068924746246e+02 2.918975276816622e+03
1.144627473438866e+03 2.570764452712901e+02 2.918975276816622e+03
1.144776195503597e+03 2.546401490011972e+02 2.918975276816622e+03
1.144679567493284e+03 2.529055181229003e+02 2.918975276816622e+03
1.144571305047512e+03 2.512458620684961e+02 2.918975276816622e+03
1.144474155873141e+03 2.494436140028918e+02 2.918975276816622e+03
1.144362483075584e+03 2.481417790086980e+02 2.918975276816622e+03
1.143966957259226e+03 2.466735244131059e+02 2.918975276816622e+03
1.144364922131439e+03 2.458985502480695e+02 2.918975276816622e+03
1.145088841677506e+03 2.456187113115062e+02 2.918975276816622e+03
1.145145436503862e+03 2.447612823238029e+02 2.918975276816622e+03
1.145210905548840e+03 2.434553818602057e+02 2.918975276816622e+03
1.145145622531788e+03 2.423114488668780e+02 2.918975276816622e+03
1.145153948634362e+03 2.410929716875693e+02 2.918975276816622e+03
1.145135244735766e+03 2.390702202911314e+02 2.918975276816622e+03
1.145168418494526e+03 2.367314670767574e+02 2.918975276816622e+03
1.145033857434476e+03 2.347504816842166e+02 2.918975276816622e+03
1.145058613172172e+03 2.326289521040315e+02 2.918975276816622e+03
1.145248522018801e+03 2.300857705027328e+02 2.918975276816622e+03
1.145355754630794e+03 2.280136805760277e+02 2.918975276816622e+03
1.145399597905442e+03 2.267027723615115e+02 2.918975276816622e+03
1.145414181582546e+03 2.256441626343655e+02 2.918975276816622e+03
1.145232310557594e+03 2.248094524429672e+02 2.918975276816622e+03
1.145096673528110e+03 2.240369819618411e+02 2.918975276816622e+03
1.145194965275892e+03 2.226616854502062e+02 2.918975276816622e+03
1.145181478755586e+03 2.210151254141457e+02 2.918975276816622e+03
1.145167779866588e+03 2.191184618813765e+02 2.918975276816622e+03
1.145143534943944e+03 2.169162437098793e+02 2.918975276816622e+03
1.145186291205361e+03 2.142731905031707e+02 2.918975276816622e+03
1.145265889499130e+03 2.119697062543086e+02 2.918975276816622e+03
1.145368675123239e+03 2.099859558687717e+02 2.918975276816622e+03
1.145469942676230e+03 2.082593418248294e+02 2.918975276816622e+03
1.145544862538868e+03 2.070503756374567e+02 2.918975276816622e+03
1.145593220928913e+03 2.062611391225790e+02 2.918975276816622e+03
1.145628492441323e+03 2.054264603532983e+02 2.918975276816622e+03
1.145744484122403e+03 2.043362873461614e+02 2.918975276816622e+03
1.145784869305297e+03 2.033256316973315e+02 2.918975276816622e+03
1.145885348868140e+03 2.019790479513171e+02 2.918975276816622e+03
1.146017648943173e+03 2.007702334931252e+02 2.918975276816622e+03
1.146343273555235e+03 1.981254677820068e+02 2.918975276816622e+03
1.147070848087188e+03 1.944118304514532e+02 2.918975276816622e+03
1.146613908779274e+03 1.931002150340038e+02 2.918975276816622e+03
1.145542882603486e+03 1.923176826500386e+02 2.918975276816622e+03
1.145477364055465e+03 1.900128630385695e+02 2.918975276816622e+03
1.145484282817361e+03 1.883579500288020e+02 2.918975276816622e+03
1.145461834084049e+03 1.873791532562492e+02 2.918975276816622e+03
1.145539003141761e+03 1.865316967555805e+02 2.918975276816622e+03
1.145622207641384e+03 1.856214846347811e+02 2.918975276816622e+03
1.145491706203405e+03 1.848839226685556e+02 2.918975276816622e+03
1.145365644346668e+03 1.840834588481623e+02 2.918975276816622e+03
1.145457981121361e+03 1.826352805368753e+02 2.918975276816622e+03
1.145400875155525e+03 1.810884253362970e+02 2.918975276816622e+03
1.145373340293382e+03 1.791831856844702e+02 2.918975276816622e+03
1.145351395192528e+03 1.769337686659257e+02 2.918975276816622e+03
1.145385147222242e+03 1.743464949309912e+02 2.918975276816622e+03
1.145463433477515e+03 1.721200795346158e+02 2.918975276816622e+03
1.145549095674478e+03 1.700167372185457e+02 2.918975276816622e+03
1.145625129530623e+03 1.683776112589914e+02 2.918975276816622e+03
1.145651851270138e+03 1.674566681920226e+02 2.918975276816622e+03
1.145740827190279e+03 1.663687623063605e+02 2.918975276816622e+03
1.145819494492863e+03 1.653563417335570e+02 2.918975276816622e+03
1.145878134843009e+03 1.645541471847849e+02 2.918975276816622e+03
1.145961653917011e+03 1.635898071381523e+02 2.918975276816622e+03
1.146140785490434e+03 1.622961092784024e+02 2.918975276816622e+03
1.146254492505745e+03 1.610399448608108e+02 2.918975276816622e+03
1.146148533313562e+03 1.583408386930653e+02 2.918975276816622e+03
1.146089297995114e+03 1.550986300845483e+02 2.918975276816622e+03
1.145797315820550e+03 1.525796109523871e+02 2.918975276816622e+03
1.145546929971903e+03 1.493145990610956e+02 2.918975276816622e+03
1.145387035288329e+03 1.467778381718193e+02 2.918975276816622e+03
1.145397377408835e+03 1.456523687449912e+02 2.918975276816622e+03
1.145480358988248e+03 1.449826550837420e+02 2.918975276816622e+03
1.145328982362119e+03 1.443013733680737e+02 2.918975276816622e+03
1.145246823210656e+03 1.427960409738156e+02 2.918975276816622e+03
1.145299065234677e+03 1.411283628488574e+02 2.918975276816622e+03
1.145249411079478e+03 1.393092234053365e+02 2.918975276816622e+03
1.144929034914944e+03 1.371152515546709e+02 2.918975276816622e+03
1.144925294096512e+03 1.344567540018729e+02 2.918975276816622e+03
1.145075924575517e+03 1.320943273603375e+02 2.918975276816622e+03
1.145105164244031e+03 1.301004612595259e+02 2.918975276816622e+03
1.145134272232681e+03 1.283792052511498e+02 2.918975276816622e+03
1.145247061340549e+03 1.271423512863979e+02 2.918975276816622e+03
1.145258135229951e+03 1.263380370197889e+02 2.918975276816622e+03
1.145212141968776e+03 1.256087379759384e+02 2.918975276816622e+03
1.145209964270251e+03 1.248488016631960e+02 2.918975276816622e+03
1.145155995098261e+03 1.241453442939716e+02 2.918975276816622e+03
1.145066057503195e+03 1.227552197294157e+02 2.918975276816622e+03
1.145010651978717e+03 1.211903911840108e+02 2.918975276816622e+03
1.145013603934723e+03 1.193305374574353e+02 2.918975276816622e+03
1.144930685808523e+03 1.171143477196644e+02 2.918975276816622e+03
1.144864905077710e+03 1.143197983299357e+02 2.918975276816622e+03
1.144872128547785e+03 1.119880056192284e+02 2.918975276816622e+03
1.144967402559619e+03 1.101766330689781e+02 2.918975276816622e+03
1.144923413352364e+03 1.085494207386726e+02 2.918975276816622e+03
1.144924192048586e+03 1.073319332489681e+02 2.918975276816622e+03
1.144593147757732e+03 1.067012784508876e+02 2.918975276816622e+03
1.144498320205000e+03 1.059205404161742e+02 2.918975276816622e+03
1.144762009567986e+03 1.047576796115584e+02 2.918975276816622e+03
1.144719516518041e+03 1.038815421305951e+02 2.918975276816622e+03
1.144656181548262e+03 1.024779145371088e+02 2.918975276816622e+03
1.144623403699142e+03 1.011272538179591e+02 2.918975276816622e+03
1.144686578363452e+03 9.932017941822605e+01 2.918975276816622e+03
1.144674751245335e+03 9.683943573561805e+01 2.918975276816622e+03
1.144647055885417e+03 9.459281509390956e+01 2.918975276816622e+03
1.144441631397857e+03 9.175003099030793e+01 2.918975276816622e+03
1.144102648080771e+03 8.952122614845966e+01 2.918975276816622e+03
1.144142623988868e+03 8.784145507145794e+01 2.918975276816622e+03
1.144533257065834e+03 8.526645199475669e+01 2.918975276816622e+03
1.144776247799186e+03 8.212576732971331e+01 2.918975276816622e+03
1.144875463338165e+03 7.977829411039379e+01 2.918975276816622e+03
1.144888941399155e+03 7.838817041251606e+01 2.918975276816622e+03
1.144907569990927e+03 7.660256676907635e+01 2.918975276816622e+03
1.144878489322288e+03 7.482299924051061e+01 2.918975276816622e+03
1.144932898182485e+03 7.345537761517927e+01 2.918975276816622e+03
1.144902420938498e+03 7.214875302194045e+01 2.918975276816622e+03
1.144848146738238e+03 7.016619520343298e+01 2.918975276816622e+03
1.144884532185028e+03 6.856057198165887e+01 2.918975276816622e+03
1.145363934797944e+03 6.781731070108346e+01 2.918975276816622e+03
1.145511799278402e+03 6.696648448856240e+01 2.918975276816622e+03
1.145235419752509e+03 6.614157930558329e+01 2.918975276816622e+03
1.145372361388058e+03 6.518365635138933e+01 2.918975276816622e+03
1.145558051284425e+03 6.309481077773865e+01 2.918975276816622e+03
1.144862295302652e+03 6.186671686855719e+01 2.918975276816622e+03
1.144287545701027e+03 6.115319224433754e+01 2.918975276816622e+03
1.144688131135401e+03 5.936082660569982e+01 2.918975276816622e+03
1.144812508273164e+03 5.783706994657346e+01 2.918975276816622e+03
1.145115172796726e+03 5.708770727015439e+01 2.918975276816622e+03
1.145216704882010e+03 5.599846646108577e+01 2.918975276816622e+03
1.145083265800486e+03 5.464314788799020e+01 2.918975276816622e+03
1.144973913233115e+03 5.320932521705821e+01 2.918975276816622e+03
1.145042532115100e+03 5.127013641739870e+01 2.918975276816622e+03
1.145263808132339e+03 4.983799441270432e+01 2.918975276816622e+03
1.145362521389212e+03 4.860662725752631e+01 2.918975276816622e+03
1.145410876330628e+03 4.747445022001394e+01 2.918975276816622e+03
1.145500034130757e+03 4.562662261995029e+01 2.918975276816622e+03
1.145567585782052e+03 4.331740940741749e+01 2.918975276816622e+03
1.145600863417749e+03 4.206129209931923e+01 2.918975276816622e+03
1.145636182413057e+03 4.094608629101247e+01 2.918975276816622e+03
1.145702985289336e+03 3.915764616159616e+01 2.918975276816622e+03
1.145811181127550e+03 3.700178923376370e+01 2.918975276816622e+03
1.145870108381033e+03 3.485623759318621e+01 2.918975276816622e+03
1.145995654524834e+03 3.266906116730971e+01 2.918975276816622e+03
1.146080462345401e+03 3.035930164988221e+01 2.918975276816622e+03
1.146246374534384e+03 2.828975396431363e+01 2.918975276816622e+03
1.146298737913525e+03 2.555183148956328e+01 2.918975276816622e+03
1.146519569020803e+03 2.246657987817611e+01 2.918975276816622e+03
1.146776144791603e+03 2.057300159984681e+01 2.918975276816622e+03
1.147101581071917e+03 1.905311533330888e+01 2.918975276816622e+03
1.145684065104217e+03 1.822112042002352e+01 2.918975276816622e+03
1.144670059603068e+03 1.699370593307729e+01 2.918975276816622e+03
1.145400431357197e+03 1.451804771514385e+01 2.918975276816622e+03
1.145592631244395e+03 1.248676813320542e+01 2.918975276816622e+03
1.145483547035843e+03 1.124199091992454e+01 2.918975276816622e+03
1.145612608731742e+03 1.019171745043799e+01 2.918975276816622e+03
1.146014998084332e+03 8.523181515860985e+00 2.918975276816622e+03
1.145988877669106e+03 5.961307841753770e+00 2.918975276816622e+03
1.145803699600729e+03 3.642952554029088e+00 2.918975276816622e+03
-1.158258257608130e+03  5.152658912539096e-02 -2.918975276816622e+03
-1.157913293971298e+03  2.931747993497312e+00 -2.918975276816622e+03
-1.157751685222095e+03  6.019751028589806e+00 -2.918975276816622e+03
-1.158620989885055e+03 -2.160906379804608e+00 -2.918975276816622e+03
-1.158201766687616e+03 -3.071396413623710e+00 -2.918975276816622e+03
-1.157671884782846e+03 -3.767221308059192e+00 -2.918975276816622e+03
-1.157647114377746e+03 -5.348209446869798e+00 -2.918975276816622e+03
-1.157342357782751e+03 -7.398868103965026e+00 -2.918975276816622e+03
-1.156758214017687e+03 -9.661305025975686e+00 -2.918975276816622e+03
-1.156561073456521e+03 -1.114809702858681e+01 -2.918975276816622e+03
-1.157130934736473e+03 -1.261131982538308e+01 -2.918975276816622e+03
-1.157161395592466e+03 -1.435881243387900e+01 -2.918975276816622e+03
-1.157105235959282e+03 -1.602986887941485e+01 -2.918975276816622e+03
-1.157117749295562e+03 -1.873439056232287e+01 -2.918975276816622e+03
-1.156997908989594e+03 -2.141485893376830e+01 -2.918975276816622e+03
-1.156843733036107e+03 -2.259998445044676e+01 -2.918975276816622e+03
-1.157244380254296e+03 -2.398344584082529e+01 -2.918975276816622e+03
-1.158025996831715e+03 -2.547176738564009e+01 -2.918975276816622e+03
-1.158468883458446e+03 -2.701654852718027e+01 -2.918975276816622e+03
-1.157516709106408e+03 -2.802465441585823e+01 -2.918975276816622e+03
-1.156469120425239e+03 -2.910947054105733e+01 -2.918975276816622e+03
-1.156818753525577e+03 -3.151581302394213e+01 -2.918975276816622e+03
-1.156985991623646e+03 -3.355430361638449e+01 -2.918975276816622e+03
-1.157047592960120e+03 -3.519811896059058e+01 -2.918975276816622e+03
-1.157035857014858e+03 -3.658811496770682e+01 -2.918975276816622e+03
-1.157058277252700e+03 -3.892462692117820e+01 -2.918975276816622e+03
-1.157045781100706e+03 -4.094170459624868e+01 -2.918975276816622e+03
-1.157021690169687e+03 -4.246112014073607e+01 -2.918975276816622e+03
-1.156964585063130e+03 -4.444608362784152e+01 -2.918975276816622e+03
-1.156964508371846e+03 -4.556383252708484e+01 -2.918975276816622e+03
-1.156957988380542e+03 -4.662693884040523e+01 -2.918975276816622e+03
-1.156921886728460e+03 -4.857106003622899e+01 -2.918975276816622e+03
-1.156876569891847e+03 -5.014772709139599e+01 -2.918975276816622e+03
-1.156848534906211e+03 -5.139159496736696e+01 -2.918975276816622e+03
-1.156802950803761e+03 -5.368901838912369e+01 -2.918975276816622e+03
-1.156792646819933e+03 -5.573011733823963e+01 -2.918975276816622e+03
-1.156769538272723e+03 -5.746830480480507e+01 -2.918975276816622e+03
-1.156757046306800e+03 -5.955626505538927e+01 -2.918975276816622e+03
-1.156741456766365e+03 -6.092311390909180e+01 -2.918975276816622e+03
-1.156745516460945e+03 -6.246203037419630e+01 -2.918975276816622e+03
-1.156765207757013e+03 -6.417252222464730e+01 -2.918975276816622e+03
-1.156849938648510e+03 -6.539888874517224e+01 -2.918975276816622e+03
-1.156827632047240e+03 -6.671775148483154e+01 -2.918975276816622e+03
-1.156691178595495e+03 -6.872163967547796e+01 -2.918975276816622e+03
-1.156749874704696e+03 -7.027103012907575e+01 -2.918975276816622e+03
-1.156888588155734e+03 -7.126334593250353e+01 -2.918975276816622e+03
-1.156808327418980e+03 -7.264398116669528e+01 -2.918975276816622e+03
-1.156695092822974e+03 -7.429500811844234e+01 -2.918975276816622e+03
-1.156669324901132e+03 -7.570211311598787e+01 -2.918975276816622e+03
-1.156721121795001e+03 -7.646083057378439e+01 -2.918975276816622e+03
-1.156733450575958e+03 -7.773061355544452e+01 -2.918975276816622e+03
-1.156707852629670e+03 -7.955823564213192e+01 -2.918975276816622e+03
-1.156711259748084e+03 -8.087344868952938e+01 -2.918975276816622e+03
-1.156750831765355e+03 -8.238257997333632e+01 -2.918975276816622e+03
-1.156793072344103e+03 -8.417169201145907e+01 -2.918975276816622e+03
-1.156784712693834e+03 -8.540780914259604e+01 -2.918975276816622e+03
-1.156714111832992e+03 -8.663332084235429e+01 -2.918975276816622e+03
-1.156676341100154e+03 -8.852027569559836e+01 -2.918975276816622e+03
-1.156770429106117e+03 -9.011197086765668e+01 -2.918975276816622e+03
-1.156752527750317e+03 -9.126966053813938e+01 -2.918975276816622e+03
-1.156695844613129e+03 -9.361544839169223e+01 -2.918975276816622e+03
-1.156620090622093e+03 -9.580830274721646e+01 -2.918975276816622e+03
-1.156606343271987e+03 -9.760680173133120e+01 -2.918975276816622e+03
-1.156537385384984e+03 -9.972436389052376e+01 -2.918975276816622e+03
-1.156493949360044e+03 -1.009723192976197e+02 -2.918975276816622e+03
-1.156424005411568e+03 -1.024442452388293e+02 -2.918975276816622e+03
-1.156376307328435e+03 -1.044256705669243e+02 -2.918975276816622e+03
-1.156283014863465e+03 -1.059718858138470e+02 -2.918975276816622e+03
-1.156232473892638e+03 -1.069370621916442e+02 -2.918975276816622e+03
-1.156233534003966e+03 -1.084018834255006e+02 -2.918975276816622e+03
-1.156174130369532e+03 -1.102396377601459e+02 -2.918975276816622e+03
-1.156117388527545e+03 -1.118741060930593e+02 -2.918975276816622e+03
-1.156009361856987e+03 -1.131814307474961e+02 -2.918975276816622e+03
-1.156113933258714e+03 -1.146701817665795e+02 -2.918975276816622e+03
-1.156243242392837e+03 -1.170563371364877e+02 -2.918975276816622e+03
-1.156337587006088e+03 -1.193239244577725e+02 -2.918975276816622e+03
-1.156378078840894e+03 -1.207908463215556e+02 -2.918975276816622e+03
-1.156411164117393e+03 -1.222717889751698e+02 -2.918975276816622e+03
-1.156473468784265e+03 -1.240365080130602e+02 -2.918975276816622e+03
-1.156543659401186e+03 -1.253289808807844e+02 -2.918975276816622e+03
-1.156580872899290e+03 -1.266428765248521e+02 -2.918975276816622e+03
-1.156642419826101e+03 -1.285744219796012e+02 -2.918975276816622e+03
-1.156635453512347e+03 -1.305694617590254e+02 -2.918975276816622e+03
-1.156684846682345e+03 -1.318949610582202e+02 -2.918975276816622e+03
-1.156765648433862e+03 -1.328853385614472e+02 -2.918975276816622e+03
-1.156762613160095e+03 -1.341818249300964e+02 -2.918975276816622e+03
-1.156736613186715e+03 -1.356354815350696e+02 -2.918975276816622e+03
-1.156710848299989e+03 -1.373824705464777e+02 -2.918975276816622e+03
-1.156722208452889e+03 -1.394479555128948e+02 -2.918975276816622e+03
-1.156707055358365e+03 -1.408128957001654e+02 -2.918975276816622e+03
-1.156702755524058e+03 -1.423637373220349e+02 -2.918975276816622e+03
-1.156659500083183e+03 -1.440774247468466e+02 -2.918975276816622e+03
-1.156675516562796e+03 -1.451961812418981e+02 -2.918975276816622e+03
-1.156618363145133e+03 -1.465400770848251e+02 -2.918975276816622e+03
-1.156529891685607e+03 -1.485341383329950e+02 -2.918975276816622e+03
-1.155302808271491e+03 -1.501482316493781e+02 -2.918975276816622e+03
-1.155039218470290e+03 -1.512660438182821e+02 -2.918975276816622e+03
-1.156215857676570e+03 -1.524975112445117e+02 -2.918975276816622e+03
-1.156604921549632e+03 -1.540110767276873e+02 -2.918975276816622e+03
-1.156777832463904e+03 -1.555257952918344e+02 -2.918975276816622e+03
-1.156822440613402e+03 -1.573583277218619e+02 -2.918975276816622e+03
-1.156844805962453e+03 -1.595595929762864e+02 -2.918975276816622e+03
-1.156790585076977e+03 -1.608457222358228e+02 -2.918975276816622e+03
-1.156804799789712e+03 -1.622551354569195e+02 -2.918975276816622e+03
-1.156817343896665e+03 -1.639623037213662e+02 -2.918975276816622e+03
-1.156833665720460e+03 -1.652364827724354e+02 -2.918975276816622e+03
-1.156803595856249e+03 -1.666055706883713e+02 -2.918975276816622e+03
-1.156832585855045e+03 -1.685227184197283e+02 -2.918975276816622e+03
-1.156819961391153e+03 -1.706394161209848e+02 -2.918975276816622e+03
-1.156857939805000e+03 -1.721793185758438e+02 -2.918975276816622e+03
-1.156812432754951e+03 -1.733890648383019e+02 -2.918975276816622e+03
-1.156817115295082e+03 -1.745228882025095e+02 -2.918975276816622e+03
-1.156834515241838e+03 -1.756699589845275e+02 -2.918975276816622e+03
-1.157126910022817e+03 -1.765824191673027e+02 -2.918975276816622e+03
-1.157420137214734e+03 -1.777709429088423e+02 -2.918975276816622e+03
-1.158192487529829e+03 -1.799618506684991e+02 -2.918975276816622e+03
-1.158315164305426e+03 -1.813875106422327e+02 -2.918975276816622e+03
-1.157473316449166e+03 -1.821724683343033e+02 -2.918975276816622e+03
-1.157304428983906e+03 -1.837604081279169e+02 -2.918975276816622e+03
-1.157094283664870e+03 -1.852504185563576e+02 -2.918975276816622e+03
-1.157001502607908e+03 -1.865214725056967e+02 -2.918975276816622e+03
-1.157016637491890e+03 -1.884307167447234e+02 -2.918975276816622e+03
-1.156992915572746e+03 -1.904715934727669e+02 -2.918975276816622e+03
-1.156970064026415e+03 -1.918772013637683e+02 -2.918975276816622e+03
-1.156985981210082e+03 -1.930103880093216e+02 -2.918975276816622e+03
-1.157025915437284e+03 -1.944479133473650e+02 -2.918975276816622e+03
-1.157052258970563e+03 -1.959972983828951e+02 -2.918975276816622e+03
-1.157100187196314e+03 -1.968583644852194e+02 -2.918975276816622e+03
-1.157123033022592e+03 -1.977964800194859e+02 -2.918975276816622e+03
-1.157249957546062e+03 -1.993006201417990e+02 -2.918975276816622e+03
-1.157217012598436e+03 -2.005012137019019e+02 -2.918975276816622e+03
-1.157131780193213e+03 -2.020926690670577e+02 -2.918975276816622e+03
-1.157285556874506e+03 -2.038804275511903e+02 -2.918975276816622e+03
-1.157273362873847e+03 -2.050439182196075e+02 -2.918975276816622e+03
-1.157208086799340e+03 -2.063818221452883e+02 -2.918975276816622e+03
-1.157162179807445e+03 -2.083835197239338e+02 -2.918975276816622e+03
-1.157169708565493e+03 -2.101593312645975e+02 -2.918975276816622e+03
-1.157091367157639e+03 -2.115202885642501e+02 -2.918975276816622e+03
-1.157147072006003e+03 -2.137965770939007e+02 -2.918975276816622e+03
-1.157238871970521e+03 -2.155741138337604e+02 -2.918975276816622e+03
-1.157053065047882e+03 -2.171023925533155e+02 -2.918975276816622e+03
-1.156979131482203e+03 -2.194889293692926e+02 -2.918975276816622e+03
-1.157030900409783e+03 -2.207463128321786e+02 -2.918975276816622e+03
-1.156940880787327e+03 -2.220368466923833e+02 -2.918975276816622e+03
-1.156808553921189e+03 -2.239421705514849e+02 -2.918975276816622e+03
-1.156725398073864e+03 -2.252283120211291e+02 -2.918975276816622e+03
-1.156664118533568e+03 -2.264852406300912e+02 -2.918975276816622e+03
-1.156708667819499e+03 -2.284342667312429e+02 -2.918975276816622e+03
-1.156762949170249e+03 -2.304207964837495e+02 -2.918975276816622e+03
-1.156702663140883e+03 -2.315102370136114e+02 -2.918975276816622e+03
-1.156587878159937e+03 -2.333092096088555e+02 -2.918975276816622e+03
-1.156782498997682e+03 -2.348765470014980e+02 -2.918975276816622e+03
-1.156953497032281e+03 -2.367599427255747e+02 -2.918975276816622e+03
-1.157093656042044e+03 -2.393641674886505e+02 -2.918975276816622e+03
-1.157366380714225e+03 -2.406051382923586e+02 -2.918975276816622e+03
-1.157375904813764e+03 -2.421409963167137e+02 -2.918975276816622e+03
-1.157686742488507e+03 -2.443793792853658e+02 -2.918975276816622e+03
-1.158229026935727e+03 -2.455532483157388e+02 -2.918975276816622e+03
-1.158198101966286e+03 -2.463269208185679e+02 -2.918975276816622e+03
-1.157628498688606e+03 -2.482116153621634e+02 -2.918975276816622e+03
-1.157303837494008e+03 -2.498249920786375e+02 -2.918975276816622e+03
-1.157163044405658e+03 -2.510073743175369e+02 -2.918975276816622e+03
-1.156999180698092e+03 -2.530991860657090e+02 -2.918975276816622e+03
-1.156867234518593e+03 -2.554187987197290e+02 -2.918975276816622e+03
-1.156715769374238e+03 -2.582845580079858e+02 -2.918975276816622e+03
-1.156585677949391e+03 -2.605615620483843e+02 -2.918975276816622e+03
-1.156520070127192e+03 -2.618803545199286e+02 -2.918975276816622e+03
-1.156464776748447e+03 -2.635489208011342e+02 -2.918975276816622e+03
-1.156415534856858e+03 -2.651550785861442e+02 -2.918975276816622e+03
-1.156195133049546e+03 -2.665096159130603e+02 -2.918975276816622e+03
-1.155876678585974e+03 -2.673332552981886e+02 -2.918975276816622e+03
-1.154629957169573e+03 -2.682937155305436e+02 -2.918975276816622e+03
-1.154562488244287e+03 -2.695048072701087e+02 -2.918975276816622e+03
-1.155561164387330e+03 -2.706720460441941e+02 -2.918975276816622e+03
-1.156056395516166e+03 -2.715780928076669e+02 -2.918975276816622e+03
-1.156368316621593e+03 -2.727880802984459e+02 -2.918975276816622e+03
-1.156398001502474e+03 -2.745382325244449e+02 -2.918975276816622e+03
-1.156463959785031e+03 -2.763234263870956e+02 -2.918975276816622e+03
-1.156496793948462e+03 -2.778052326360547e+02 -2.918975276816622e+03
-1.156518042426460e+03 -2.793377267754589e+02 -2.918975276816622e+03
-1.156492838077350e+03 -2.813083572178282e+02 -2.918975276816622e+03
-1.156418080225757e+03 -2.833150930247384e+02 -2.918975276816622e+03
-1.156363524050819e+03 -2.843969325202144e+02 -2.918975276816622e+03
-1.156530172192803e+03 -2.854085886663631e+02 -2.918975276816622e+03
-1.156718513978004e+03 -2.874625682823151e+02 -2.918975276816622e+03
-1.156862555144904e+03 -2.890564988530751e+02 -2.918975276816622e+03
-1.156924201493615e+03 -2.915046426707235e+02 -2.918975276816622e+03
-1.157029951536310e+03 -2.942538555577859e+02 -2.918975276816622e+03
-1.157081799812597e+03 -2.969688789042999e+02 -2.918975276816622e+03
-1.157185506338996e+03 -2.993316850567495e+02 -2.918975276816622e+03
-1.157205233835937e+03 -3.005743068158470e+02 -2.918975276816622e+03
-1.157324036502492e+03 -3.016391795419717e+02 -2.918975276816622e+03
-1.157377592245933e+03 -3.028560746879960e+02 -2.918975276816622e+03
-1.157443377052763e+03 -3.045593665773521e+02 -2.918975276816622e+03
-1.157230521809100e+03 -3.063072024895022e+02 -2.918975276816622e+03
-1.157293776592503e+03 -3.081904773416057e+02 -2.918975276816622e+03
-1.156715210186482e+03 -3.089434200191874e+02 -2.918975276816622e+03
-1.156045946862932e+03 -3.098825554647208e+02 -2.918975276816622e+03
-1.156076449607460e+03 -3.119623533471648e+02 -2.918975276816622e+03
-1.156975976815553e+03 -3.124251006561842e+02 -2.918975276816622e+03
-1.157877976843274e+03 -3.134455210268024e+02 -2.918975276816622e+03
-1.157749796927649e+03 -3.161265785986986e+02 -2.918975276816622e+03
-1.157650842362373e+03 -3.179997115159301e+02 -2.918975276816622e+03
-1.157632326792600e+03 -3.194412403253277e+02 -2.918975276816622e+03
-1.157685821097618e+03 -3.211308982976014e+02 -2.918975276816622e+03
-1.157618884797823e+03 -3.229548202369472e+02 -2.918975276816622e+03
-1.157579624632250e+03 -3.242781690189804e+02 -2.918975276816622e+03
-1.157491523405905e+03 -3.258205902734683e+02 -2.918975276816622e+03
-1.157255709881128e+03 -3.271314081208310e+02 -2.918975276816622e+03
-1.157116591070823e+03 -3.281859172059411e+02 -2.918975276816622e+03
-1.157243224906582e+03 -3.293642076103500e+02 -2.918975276816622e+03
-1.157134481117996e+03 -3.305295263535742e+02 -2.918975276816622e+03
-1.156977173956603e+03 -3.331277149872444e+02 -2.918975276816622e+03
-1.156714133478295e+03 -3.352820166768037e+02 -2.918975276816622e+03
-1.156565219798985e+03 -3.360587977438146e+02 -2.918975276816622e+03
-1.156593593789402e+03 -3.375214804715600e+02 -2.918975276816622e+03
-1.156634616386356e+03 -3.399145600152274e+02 -2.918975276816622e+03
-1.156620211272415e+03 -3.420695279184426e+02 -2.918975276816622e+03
-1.156618319211435e+03 -3.434707158132533e+02 -2.918975276816622e+03
-1.156616904674151e+03 -3.460250657082574e+02 -2.918975276816622e+03
-1.156511490173652e+03 -3.481609754078129e+02 -2.918975276816622e+03
-1.156538323339313e+03 -3.496144665711317e+02 -2.918975276816622e+03
-1.156531280567632e+03 -3.520419257805644e+02 -2.918975276816622e+03
-1.156547286268820e+03 -3.543323503274017e+02 -2.918975276816622e+03
-1.156586340442878e+03 -3.564857402116434e+02 -2.918975276816622e+03
-1.156589113380418e+03 -3.581307395519167e+02 -2.918975276816622e+03
-1.156638213305306e+03 -3.604928962122250e+02 -2.918975276816622e+03
-1.156667169835004e+03 -3.625973364088164e+02 -2.918975276816622e+03
-1.156687802742147e+03 -3.638169072907329e+02 -2.918975276816622e+03
-1.156717345692019e+03 -3.659697784595427e+02 -2.918975276816622e+03
-1.156764787612999e+03 -3.691488891773131e+02 -2.918975276816622e+03
-1.156827547472357e+03 -3.718241224881182e+02 -2.918975276816622e+03
-1.156824177596947e+03 -3.733787911123272e+02 -2.918975276816622e+03
-1.156795706068001e+03 -3.755167008274009e+02 -2.918975276816622e+03
-1.156813534691554e+03 -3.772476245914479e+02 -2.918975276816622e+03
-1.156884769197847e+03 -3.787765503903061e+02 -2.918975276816622e+03
-1.156875375834542e+03 -3.801114195466150e+02 -2.918975276816622e+03
-1.156839167762499e+03 -3.814191018063872e+02 -2.918975276816622e+03
-1.156867017943750e+03 -3.843225823582025e+02 -2.918975276816622e+03
-1.156906662587909e+03 -3.862589450094907e+02 -2.918975276816622e+03
-1.156937508202190e+03  3.827615540253657e+02 -2.918975276816622e+03
-1.156914810702765e+03  3.848293099926772e+02 -2.918975276816622e+03
-1.156940609618404e+03  3.804488594888634e+02 -2.918975276816622e+03
-1.156910041324128e+03  3.780937550315471e+02 -2.918975276816622e+03
-1.156908735186742e+03  3.770412284456409e+02 -2.918975276816622e+03
-1.156935929310778e+03  3.750763980181942e+02 -2.918975276816622e+03
-1.156942718887531e+03  3.715272287975945e+02 -2.918975276816622e+03
-1.156913735434345e+03  3.681376462695183e+02 -2.918975276816622e+03
-1.156862178085073e+03  3.655250485148099e+02 -2.918975276816622e+03
-1.156918499447493e+03  3.621881954689945e+02 -2.918975276816622e+03
-1.157052160487343e+03  3.582333915277103e+02 -2.918975276816622e+03
-1.156866184373381e+03  3.557405664772892e+02 -2.918975276816622e+03
-1.156743218994905e+03  3.542030900509072e+02 -2.918975276816622e+03
-1.156922841223796e+03  3.516956116074312e+02 -2.918975276816622e+03
-1.157052942205021e+03  3.486184570180475e+02 -2.918975276816622e+03
-1.157177617979877e+03  3.452050599629432e+02 -2.918975276816622e+03
-1.157229809077721e+03  3.420132363236249e+02 -2.918975276816622e+03
-1.157214940704919e+03  3.393792285658134e+02 -2.918975276816622e+03
-1.157214359584124e+03  3.367216125413523e+02 -2.918975276816622e+03
-1.157185639822835e+03  3.340872403230752e+02 -2.918975276816622e+03
-1.157114494169046e+03  3.314997201776317e+02 -2.918975276816622e+03
-1.157043348515256e+03  3.289122000321884e+02 -2.918975276816622e+03
-1.156978861501586e+03  3.269798777662263e+02 -2.918975276816622e+03
-1.156905984351549e+03  3.252790202465126e+02 -2.918975276816622e+03
-1.156840539018218e+03  3.229642506357313e+02 -2.918975276816622e+03
-1.156812441525340e+03  3.209725613444779e+02 -2.918975276816622e+03
-1.156778831052435e+03  3.190072587973100e+02 -2.918975276816622e+03
-1.156701285120131e+03  3.164587417609718e+02 -2.918975276816622e+03
-1.156600183955713e+03  3.138138827687421e+02 -2.918975276816622e+03
-1.156520815530493e+03  3.114808465423764e+02 -2.918975276816622e+03
-1.156490255913435e+03  3.089972232241520e+02 -2.918975276816622e+03
-1.156807633258024e+03  3.064356222988683e+02 -2.918975276816622e+03
-1.157445871495292e+03  3.042584536242482e+02 -2.918975276816622e+03
-1.157990206744570e+03  3.021041609624696e+02 -2.918975276816622e+03
-1.156485584623253e+03  3.010181227547631e+02 -2.918975276816622e+03
-1.155050739436201e+03  3.002456997752075e+02 -2.918975276816622e+03
-1.155601642987671e+03  2.985440464077872e+02 -2.918975276816622e+03
-1.156070002607891e+03  2.965444023321205e+02 -2.918975276816622e+03
-1.156293145283097e+03  2.947898556266250e+02 -2.918975276816622e+03
-1.156438572138920e+03  2.929744562668495e+02 -2.918975276816622e+03
-1.156628151855076e+03  2.910643005167186e+02 -2.918975276816622e+03
-1.156746957302042e+03  2.896530648383174e+02 -2.918975276816622e+03
-1.156876961191936e+03  2.887640372275044e+02 -2.918975276816622e+03
-1.156904542588860e+03  2.881628021107470e+02 -2.918975276816622e+03
-1.156909469587367e+03  2.872161158897125e+02 -2.918975276816622e+03
-1.156909214880186e+03  2.854911762874259e+02 -2.918975276816622e+03
-1.156832522295562e+03  2.832097009010819e+02 -2.918975276816622e+03
-1.156853282610715e+03  2.800082038189024e+02 -2.918975276816622e+03
-1.156884324404157e+03  2.778359395973425e+02 -2.918975276816622e+03
-1.156904084426547e+03  2.765172336804858e+02 -2.918975276816622e+03
-1.156897995115562e+03  2.746834758726833e+02 -2.918975276816622e+03
-1.156860028684408e+03  2.728866352951302e+02 -2.918975276816622e+03
-1.156856670294996e+03  2.714677292853575e+02 -2.918975276816622e+03
-1.156827171003839e+03  2.703881959579342e+02 -2.918975276816622e+03
-1.156813412090946e+03  2.678949260594912e+02 -2.918975276816622e+03
-1.156770301868294e+03  2.655956251778524e+02 -2.918975276816622e+03
-1.156805577383920e+03  2.639263007500794e+02 -2.918975276816622e+03
-1.156786277157017e+03  2.618998226051758e+02 -2.918975276816622e+03
-1.156786236471612e+03  2.604942674731808e+02 -2.918975276816622e+03
-1.156773855420394e+03  2.589151861666385e+02 -2.918975276816622e+03
-1.156798308855060e+03  2.573058691817334e+02 -2.918975276816622e+03
-1.156785955803015e+03  2.560252695245659e+02 -2.918975276816622e+03
-1.156803772830974e+03  2.546419768511384e+02 -2.918975276816622e+03
-1.156848593008369e+03  2.528165294181649e+02 -2.918975276816622e+03
-1.156911759965689e+03  2.508895623711424e+02 -2.918975276816622e+03
-1.156930205474433e+03  2.499582917665502e+02 -2.918975276816622e+03
-1.156837125814653e+03  2.484487513135603e+02 -2.918975276816622e+03
-1.156852532582248e+03  2.465576246731210e+02 -2.918975276816622e+03
-1.156859160265477e+03  2.451621744484991e+02 -2.918975276816622e+03
-1.156833500861763e+03  2.437722533088228e+02 -2.918975276816622e+03
-1.156742992167817e+03  2.419709843471908e+02 -2.918975276816622e+03
-1.156689416800825e+03  2.404077092416920e+02 -2.918975276816622e+03
-1.156680161262499e+03  2.392414517231277e+02 -2.918975276816622e+03
-1.156711697321325e+03  2.369005272346561e+02 -2.918975276816622e+03
-1.156671156799963e+03  2.347421280430802e+02 -2.918975276816622e+03
-1.156659257587519e+03  2.329285938085302e+02 -2.918975276816622e+03
-1.156628690463157e+03  2.308478371252427e+02 -2.918975276816622e+03
-1.156617873863526e+03  2.296466669366561e+02 -2.918975276816622e+03
-1.156575428777545e+03  2.281530839675429e+02 -2.918975276816622e+03
-1.156567375480029e+03  2.263717644570270e+02 -2.918975276816622e+03
-1.156611271520984e+03  2.253191397366540e+02 -2.918975276816622e+03
-1.156605952017321e+03  2.240953792487569e+02 -2.918975276816622e+03
-1.156569904755901e+03  2.220260094523618e+02 -2.918975276816622e+03
-1.156491157043507e+03  2.203140113112782e+02 -2.918975276816622e+03
-1.156469913372344e+03  2.191923742669115e+02 -2.918975276816622e+03
-1.156487439838269e+03  2.169512386482623e+02 -2.918975276816622e+03
-1.156483565885178e+03  2.147969645493936e+02 -2.918975276816622e+03
-1.156477926742505e+03  2.130379961803975e+02 -2.918975276816622e+03
-1.156524687620339e+03  2.109574701616879e+02 -2.918975276816622e+03
-1.156549521150447e+03  2.096098283616816e+02 -2.918975276816622e+03
-1.156577033543068e+03  2.081190962802917e+02 -2.918975276816622e+03
-1.156626842016524e+03  2.062620197289143e+02 -2.918975276816622e+03
-1.156642424595231e+03  2.049471862554568e+02 -2.918975276816622e+03
-1.156615038637538e+03  2.038298402116198e+02 -2.918975276816622e+03
-1.156639357167617e+03  2.020293234521364e+02 -2.918975276816622e+03
-1.156670451042175e+03  2.004120087414283e+02 -2.918975276816622e+03
-1.156681758113846e+03  1.992522369284200e+02 -2.918975276816622e+03
-1.156672455157886e+03  1.969195003733062e+02 -2.918975276816622e+03
-1.156655984762360e+03  1.947968590052444e+02 -2.918975276816622e+03
-1.156662613796854e+03  1.930918164559362e+02 -2.918975276816622e+03
-1.156678947392033e+03  1.910290187084017e+02 -2.918975276816622e+03
-1.156681900188719e+03  1.896906015549678e+02 -2.918975276816622e+03
-1.156688169513042e+03  1.881819541797924e+02 -2.918975276816622e+03
-1.156609637774101e+03  1.864173581026967e+02 -2.918975276816622e+03
-1.156592577300185e+03  1.851242451506041e+02 -2.918975276816622e+03
-1.156709585173562e+03  1.838605473074975e+02 -2.918975276816622e+03
-1.156738636751789e+03  1.820181961994404e+02 -2.918975276816622e+03
-1.156644851581253e+03  1.805380033123807e+02 -2.918975276816622e+03
-1.156551953134526e+03  1.794650656528798e+02 -2.918975276816622e+03
-1.156605864105793e+03  1.770309474328598e+02 -2.918975276816622e+03
-1.156606709601035e+03  1.748705081398487e+02 -2.918975276816622e+03
-1.156620532427129e+03  1.731576116749094e+02 -2.918975276816622e+03
-1.156658147552124e+03  1.710475480318177e+02 -2.918975276816622e+03
-1.156672663121986e+03  1.696850340414129e+02 -2.918975276816622e+03
-1.156649201282035e+03  1.681813653283387e+02 -2.918975276816622e+03
-1.156633125630644e+03  1.664672745237824e+02 -2.918975276816622e+03
-1.156675982943945e+03  1.652147021018302e+02 -2.918975276816622e+03
-1.156657069980240e+03  1.639712656303940e+02 -2.918975276816622e+03
-1.156648469873955e+03  1.620962658061402e+02 -2.918975276816622e+03
-1.156570037260988e+03  1.604495755780180e+02 -2.918975276816622e+03
-1.156558683347042e+03  1.592771603265306e+02 -2.918975276816622e+03
-1.156762899837536e+03  1.570182991385471e+02 -2.918975276816622e+03
-1.156741641344419e+03  1.548217908908639e+02 -2.918975276816622e+03
-1.156526914534076e+03  1.530337499763822e+02 -2.918975276816622e+03
-1.156533665624966e+03  1.510255953767146e+02 -2.918975276816622e+03
-1.156596968327366e+03  1.497376684847290e+02 -2.918975276816622e+03
-1.156601643366680e+03  1.482465775891294e+02 -2.918975276816622e+03
-1.156554084094977e+03  1.464238216277316e+02 -2.918975276816622e+03
-1.156575095320701e+03  1.451561446383369e+02 -2.918975276816622e+03
-1.156646739434051e+03  1.439616113332793e+02 -2.918975276816622e+03
-1.156653146951273e+03  1.421114111532643e+02 -2.918975276816622e+03
-1.156623272706698e+03  1.404946768182707e+02 -2.918975276816622e+03
-1.156642722204294e+03  1.393221084514350e+02 -2.918975276816622e+03
-1.156675232558538e+03  1.370085761892841e+02 -2.918975276816622e+03
-1.156644763580678e+03  1.348755366072698e+02 -2.918975276816622e+03
-1.156667558256071e+03  1.331626287713204e+02 -2.918975276816622e+03
-1.156769089319606e+03  1.311020260783263e+02 -2.918975276816622e+03
-1.156795929746378e+03  1.297904112944462e+02 -2.918975276816622e+03
-1.156749611429427e+03  1.282937613781988e+02 -2.918975276816622e+03
-1.156750861705638e+03  1.264713799364790e+02 -2.918975276816622e+03
-1.156744137796895e+03  1.252019897927216e+02 -2.918975276816622e+03
-1.156757455303789e+03  1.239874625079877e+02 -2.918975276816622e+03
-1.156729938900264e+03  1.221228582050860e+02 -2.918975276816622e+03
-1.156739750937095e+03  1.204730000702383e+02 -2.918975276816622e+03
-1.156731204101880e+03  1.192958320469827e+02 -2.918975276816622e+03
-1.156738459475432e+03  1.170146555145690e+02 -2.918975276816622e+03
-1.156758754132399e+03  1.148906249668275e+02 -2.918975276816622e+03
-1.156777921110625e+03  1.131794338788150e+02 -2.918975276816622e+03
-1.156710725625876e+03  1.112004759766287e+02 -2.918975276816622e+03
-1.156701827084323e+03  1.098962730637423e+02 -2.918975276816622e+03
-1.156794458650380e+03  1.083728252726908e+02 -2.918975276816622e+03
-1.156791025650442e+03  1.066797423871540e+02 -2.918975276816622e+03
-1.156799942323233e+03  1.053592548866731e+02 -2.918975276816622e+03
-1.156746160421579e+03  1.039684039757774e+02 -2.918975276816622e+03
-1.156755069157985e+03  1.021623956083910e+02 -2.918975276816622e+03
-1.156786181708385e+03  1.006981740143419e+02 -2.918975276816622e+03
-1.156885933972553e+03  9.930629614206021e+01 -2.918975276816622e+03
-1.156795749304292e+03  9.760838816097232e+01 -2.918975276816622e+03
-1.156692831684888e+03  9.604886350665068e+01 -2.918975276816622e+03
-1.156719067341052e+03  9.320419913772945e+01 -2.918975276816622e+03
-1.156756962673019e+03  9.061069568144988e+01 -2.918975276816622e+03
-1.156707599655702e+03  8.902899061428225e+01 -2.918975276816622e+03
-1.156664292369410e+03  8.737559195698864e+01 -2.918975276816622e+03
-1.156718798153963e+03  8.647400714081063e+01 -2.918975276816622e+03
-1.156664446663229e+03  8.565698501451588e+01 -2.918975276816622e+03
-1.156457179424493e+03  8.383572599996181e+01 -2.918975276816622e+03
-1.156383941291559e+03  8.084116759677852e+01 -2.918975276816622e+03
-1.156522501032186e+03  7.768191586692741e+01 -2.918975276816622e+03
-1.156502713111478e+03  7.494160036947770e+01 -2.918975276816622e+03
-1.156481457183277e+03  7.277644077255684e+01 -2.918975276816622e+03
-1.156386979407923e+03  7.122759303377821e+01 -2.918975276816622e+03
-1.156199402703000e+03  6.872172485950443e+01 -2.918975276816622e+03
-1.155899374295797e+03  6.620460480690673e+01 -2.918975276816622e+03
-1.155758975775421e+03  6.403399047194898e+01 -2.918975276816622e+03
-1.154681983524878e+03  6.200119313998515e+01 -2.918975276816622e+03
-1.155022742105635e+03  6.046884300298771e+01 -2.918975276816622e+03
-1.155819651632592e+03  5.833743493483502e+01 -2.918975276816622e+03
-1.155848573921835e+03  5.659877371342466e+01 -2.918975276816622e+03
-1.155831291762421e+03  5.448791108006901e+01 -2.918975276816622e+03
-1.155075195451868e+03  5.235504860929952e+01 -2.918975276816622e+03
-1.155316340411183e+03  5.170739757826937e+01 -2.918975276816622e+03
-1.155911927789562e+03  5.061716541995845e+01 -2.918975276816622e+03
-1.156397950824101e+03  4.933183122975576e+01 -2.918975276816622e+03
-1.156637437924545e+03  4.842884922404189e+01 -2.918975276816622e+03
-1.156922903424422e+03  4.736390313786129e+01 -2.918975276816622e+03
-1.157071814469264e+03  4.677964558172416e+01 -2.918975276816622e+03
-1.157061365497759e+03  4.581611381461851e+01 -2.918975276816622e+03
-1.157010678967253e+03  4.459110794056522e+01 -2.918975276816622e+03
-1.156969720955935e+03  4.315817881547738e+01 -2.918975276816622e+03
-1.157092446314582e+03  4.183916661349991e+01 -2.918975276816622e+03
-1.157075611257363e+03  4.028448080156417e+01 -2.918975276816622e+03
-1.157034019869563e+03  3.779053742896640e+01 -2.918975276816622e+03
-1.157062258508534e+03  3.577546812321599e+01 -2.918975276816622e+03
-1.157161884897232e+03  3.409092926049342e+01 -2.918975276816622e+03
-1.157276148831215e+03  3.158824250651507e+01 -2.918975276816622e+03
-1.157342281452578e+03  2.939182629229444e+01 -2.918975276816622e+03
-1.157560634745065e+03  2.754834233697421e+01 -2.918975276816622e+03
-1.157878508571483e+03  2.498912749877118e+01 -2.918975276816622e+03
-1.158281627539971e+03  2.279389786066816e+01 -2.918975276816622e+03
-1.158430487179183e+03  2.181431509679962e+01 -2.918975276816622e+03
-1.158003509959379e+03  2.038475011806216e+01 -2.918975276816622e+03
-1.157701857925087e+03  1.804920924019145e+01 -2.918975276816622e+03
-1.157802742120579e+03  1.646470192783024e+01 -2.918975276816622e+03
-1.157793612785943e+03  1.524426773995475e+01 -2.918975276816622e+03
-1.157639722061042e+03  1.394649731819372e+01 -2.918975276816622e+03
-1.157612299768501e+03  1.260348696828892e+01 -2.918975276816622e+03
-1.157661788292005e+03  1.085522592700695e+01 -2.918975276816622e+03
-1.157667849995664e+03  8.660910339759686e+00 -2.918975276816622e+03
 1.154351599932056e+03 -1.532606470800341e+00  2.918975276816622e+03
1.154457857460229e+03 2.451929002672375e-01 2.918975276816622e+03
 1.154088296492073e+03 -3.327144885400874e+00  2.918975276816622e+03
 1.153769018507607e+03 -5.065651042839776e+00  2.918975276816622e+03
 1.153522859207292e+03 -6.338773820572756e+00  2.918975276816622e+03
 1.154988712867906e+03 -6.818812021632239e+00  2.918975276816622e+03
 1.156141769127733e+03 -8.064410424123190e+00  2.918975276816622e+03
 1.155481016663003e+03 -1.139648937853927e+01  2.918975276816622e+03
 1.154707202855904e+03 -1.300763975430474e+01  2.918975276816622e+03
 1.154278083374195e+03 -1.468685549563342e+01  2.918975276816622e+03
 1.154485557574661e+03 -1.771792865866460e+01  2.918975276816622e+03
 1.154417200421305e+03 -2.005131857473413e+01  2.918975276816622e+03
 1.154350055303421e+03 -2.243297311407271e+01  2.918975276816622e+03
 1.154187068620605e+03 -2.376478837246373e+01  2.918975276816622e+03
 1.154210485542374e+03 -2.553647899808087e+01  2.918975276816622e+03
 1.154172371014500e+03 -2.763564712069407e+01  2.918975276816622e+03
 1.153883572733927e+03 -2.936184236758101e+01  2.918975276816622e+03
 1.153380851899661e+03 -3.264126614590725e+01  2.918975276816622e+03
 1.152656309456312e+03 -3.600763737853668e+01  2.918975276816622e+03
 1.152062890880585e+03 -3.816237428407847e+01  2.918975276816622e+03
 1.151897120737944e+03 -3.896331904495224e+01  2.918975276816622e+03
 1.152087616367252e+03 -3.981745357052375e+01  2.918975276816622e+03
 1.152428774200685e+03 -4.115633086457776e+01  2.918975276816622e+03
 1.152440700386199e+03 -4.245905479842690e+01  2.918975276816622e+03
 1.152479353485698e+03 -4.330847112813848e+01  2.918975276816622e+03
 1.152784808482936e+03 -4.384428309640725e+01  2.918975276816622e+03
 1.152835803514299e+03 -4.512490408719210e+01  2.918975276816622e+03
 1.152844423374253e+03 -4.746839366895119e+01  2.918975276816622e+03
 1.152890238608116e+03 -4.987314230290124e+01  2.918975276816622e+03
 1.152910428830597e+03 -5.157981502592911e+01  2.918975276816622e+03
 1.152981137420342e+03 -5.350050050848827e+01  2.918975276816622e+03
 1.153000883910408e+03 -5.560482043937212e+01  2.918975276816622e+03
 1.153000519991123e+03 -5.778410019078466e+01  2.918975276816622e+03
 1.152995091169046e+03 -5.975409471612529e+01  2.918975276816622e+03
 1.153092107316380e+03 -6.122502990188691e+01  2.918975276816622e+03
 1.153172339618957e+03 -6.272966660814722e+01  2.918975276816622e+03
 1.153058751583592e+03 -6.445791611663861e+01  2.918975276816622e+03
 1.153036644762953e+03 -6.581871531338993e+01  2.918975276816622e+03
 1.153010170377004e+03 -6.770464919308002e+01  2.918975276816622e+03
 1.153075377259220e+03 -7.004188074132203e+01  2.918975276816622e+03
 1.153054172585897e+03 -7.155848088893438e+01  2.918975276816622e+03
 1.153076232519456e+03 -7.331993171251514e+01  2.918975276816622e+03
 1.153231019613715e+03 -7.631927441381835e+01  2.918975276816622e+03
 1.153348871982303e+03 -7.939392502245568e+01  2.918975276816622e+03
 1.153174645763885e+03 -8.124357939093007e+01  2.918975276816622e+03
 1.152983168552089e+03 -8.331394830814575e+01  2.918975276816622e+03
 1.153121951008822e+03 -8.540221648622529e+01  2.918975276816622e+03
 1.153138422596412e+03 -8.748344505357952e+01  2.918975276816622e+03
 1.153116430206028e+03 -8.983714887258380e+01  2.918975276816622e+03
 1.153175165261353e+03 -9.152673028905767e+01  2.918975276816622e+03
 1.153255532311193e+03 -9.351182108318858e+01  2.918975276816622e+03
 1.153339191463345e+03 -9.602257530459519e+01  2.918975276816622e+03
 1.153384008110881e+03 -9.762323934516904e+01  2.918975276816622e+03
 1.153409096153658e+03 -9.916679991577053e+01  2.918975276816622e+03
 1.153440910627482e+03 -1.020478968261891e+02  2.918975276816622e+03
 1.153460792241894e+03 -1.044165210634323e+02  2.918975276816622e+03
 1.153502135898504e+03 -1.056485358121880e+02  2.918975276816622e+03
 1.153556496344708e+03 -1.075265407553303e+02  2.918975276816622e+03
 1.153552576507966e+03 -1.097964882258715e+02  2.918975276816622e+03
 1.153482670226803e+03 -1.113976326614819e+02  2.918975276816622e+03
 1.153470185827746e+03 -1.131571807424119e+02  2.918975276816622e+03
 1.153603613074210e+03 -1.156229712332296e+02  2.918975276816622e+03
 1.153610247042429e+03 -1.189050675694412e+02  2.918975276816622e+03
 1.153608774811545e+03 -1.222955194791633e+02  2.918975276816622e+03
 1.153347064338424e+03 -1.250862652366231e+02  2.918975276816622e+03
 1.153599085526020e+03 -1.267859896986236e+02  2.918975276816622e+03
 1.153864313983983e+03 -1.282255902361453e+02  2.918975276816622e+03
 1.153615903347292e+03 -1.300264329757673e+02  2.918975276816622e+03
 1.153430157404995e+03 -1.315782985187051e+02  2.918975276816622e+03
 1.153202771109354e+03 -1.337603975187749e+02  2.918975276816622e+03
 1.153015685083568e+03 -1.355553000414345e+02  2.918975276816622e+03
 1.153927630425705e+03 -1.361659874810228e+02  2.918975276816622e+03
 1.154798644724817e+03 -1.369751187541040e+02  2.918975276816622e+03
 1.154407877564237e+03 -1.390188680268712e+02  2.918975276816622e+03
 1.153546415715854e+03 -1.420403992827195e+02  2.918975276816622e+03
 1.152964701514019e+03 -1.435966120443467e+02  2.918975276816622e+03
 1.153073286937750e+03 -1.447825170066823e+02  2.918975276816622e+03
 1.153083479355964e+03 -1.474193704001760e+02  2.918975276816622e+03
 1.153192760929633e+03 -1.497932457896739e+02  2.918975276816622e+03
 1.153160607621531e+03 -1.513916849292365e+02  2.918975276816622e+03
 1.153151354919448e+03 -1.532499387639039e+02  2.918975276816622e+03
 1.153177260407267e+03 -1.561585778778380e+02  2.918975276816622e+03
 1.153232402801541e+03 -1.591309726037701e+02  2.918975276816622e+03
 1.153292977832348e+03 -1.609631097397995e+02  2.918975276816622e+03
 1.153253848871100e+03 -1.620522591711669e+02  2.918975276816622e+03
 1.153332656552387e+03 -1.630709392151923e+02  2.918975276816622e+03
 1.153363886324024e+03 -1.644358697937201e+02  2.918975276816622e+03
 1.153332102127226e+03 -1.657552089298845e+02  2.918975276816622e+03
 1.153295225296697e+03 -1.675546378126400e+02  2.918975276816622e+03
 1.153428766019074e+03 -1.696727665268430e+02  2.918975276816622e+03
 1.153533789084963e+03 -1.713044598126896e+02  2.918975276816622e+03
 1.153570379539567e+03 -1.731903018871474e+02  2.918975276816622e+03
 1.153650994937640e+03 -1.760996011096049e+02  2.918975276816622e+03
 1.153784052973205e+03 -1.791803938449278e+02  2.918975276816622e+03
 1.154143568358387e+03 -1.819896925497322e+02  2.918975276816622e+03
 1.154255358608270e+03 -1.845185793045608e+02  2.918975276816622e+03
 1.154222378442440e+03 -1.866527596362686e+02  2.918975276816622e+03
 1.154010367979023e+03 -1.895356183495828e+02  2.918975276816622e+03
 1.154149100200945e+03 -1.926324442483457e+02  2.918975276816622e+03
 1.154163921356866e+03 -1.959502318805441e+02  2.918975276816622e+03
 1.154156598691694e+03 -1.986842438748024e+02  2.918975276816622e+03
 1.153856683899980e+03 -1.999828631718752e+02  2.918975276816622e+03
 1.153434234984741e+03 -2.012780483240867e+02  2.918975276816622e+03
 1.153524205189882e+03 -2.027895244013687e+02  2.918975276816622e+03
 1.153460939342556e+03 -2.044044169835315e+02  2.918975276816622e+03
 1.153567930658082e+03 -2.057020756719475e+02  2.918975276816622e+03
 1.153421222345125e+03 -2.074339406769108e+02  2.918975276816622e+03
 1.153563442943010e+03 -2.095881617549498e+02  2.918975276816622e+03
 1.153621007781888e+03 -2.112598494356691e+02  2.918975276816622e+03
 1.153582548307539e+03 -2.132145058103898e+02  2.918975276816622e+03
 1.153652602856063e+03 -2.161263802907925e+02  2.918975276816622e+03
 1.153680364861845e+03 -2.191676312244071e+02  2.918975276816622e+03
 1.153727614939786e+03 -2.219457505187414e+02  2.918975276816622e+03
 1.153795365827271e+03 -2.238467189087339e+02  2.918975276816622e+03
 1.153715295942441e+03 -2.250145922116867e+02  2.918975276816622e+03
 1.153486455973396e+03 -2.272957514497691e+02  2.918975276816622e+03
 1.153432031531537e+03 -2.296654482434501e+02  2.918975276816622e+03
 1.153354948104758e+03 -2.312207150730354e+02  2.918975276816622e+03
 1.153178616284336e+03 -2.331686061793363e+02  2.918975276816622e+03
 1.152791549964813e+03 -2.360752346316359e+02  2.918975276816622e+03
 1.152558294183743e+03 -2.376978586188956e+02  2.918975276816622e+03
 1.152746094509276e+03 -2.387948410693603e+02  2.918975276816622e+03
 1.152854227411540e+03 -2.409040184499463e+02  2.918975276816622e+03
 1.152681285547478e+03 -2.432746480217852e+02  2.918975276816622e+03
 1.152742423368416e+03 -2.461286803955988e+02  2.918975276816622e+03
 1.152911339283218e+03 -2.488003206689423e+02  2.918975276816622e+03
 1.153098620236349e+03 -2.499667164631329e+02  2.918975276816622e+03
 1.153001748274418e+03 -2.512878244161897e+02  2.918975276816622e+03
 1.153050878637991e+03 -2.541211962129890e+02  2.918975276816622e+03
 1.153240972065940e+03 -2.564926844332132e+02  2.918975276816622e+03
 1.153201292493576e+03 -2.590369106419132e+02  2.918975276816622e+03
 1.153057272962870e+03 -2.610515591622475e+02  2.918975276816622e+03
 1.152996322062598e+03 -2.624858315056061e+02  2.918975276816622e+03
 1.153314503001260e+03 -2.646587776184415e+02  2.918975276816622e+03
 1.153546915585434e+03 -2.671498353949757e+02  2.918975276816622e+03
 1.153670622493107e+03 -2.700145595183955e+02  2.918975276816622e+03
 1.153728781840974e+03 -2.719091142233543e+02  2.918975276816622e+03
 1.153802331164513e+03 -2.733419172749913e+02  2.918975276816622e+03
 1.153960149154532e+03 -2.758845647912025e+02  2.918975276816622e+03
 1.154116332627946e+03 -2.784591505552218e+02  2.918975276816622e+03
 1.154175420040050e+03 -2.798367114196314e+02  2.918975276816622e+03
 1.154274676509893e+03 -2.818196294690488e+02  2.918975276816622e+03
 1.154416833256378e+03 -2.847950271635415e+02  2.918975276816622e+03
 1.154494332658165e+03 -2.874390449864668e+02  2.918975276816622e+03
 1.154573636588041e+03 -2.900476516089263e+02  2.918975276816622e+03
 1.154658938794737e+03 -2.932333503896980e+02  2.918975276816622e+03
 1.154749653901883e+03 -2.958008932543797e+02  2.918975276816622e+03
 1.154764671408887e+03 -2.969924571288660e+02  2.918975276816622e+03
 1.154803148936911e+03 -2.978999425985180e+02  2.918975276816622e+03
 1.154851150541022e+03 -2.985817178280697e+02  2.918975276816622e+03
 1.154712081852409e+03 -2.999689494238531e+02  2.918975276816622e+03
 1.154474991039775e+03 -3.021840001369289e+02  2.918975276816622e+03
 1.154293971692865e+03 -3.035528197465695e+02  2.918975276816622e+03
 1.154240868207793e+03 -3.055940218542394e+02  2.918975276816622e+03
 1.154169366621972e+03 -3.083572696164661e+02  2.918975276816622e+03
 1.154189790396410e+03 -3.096472441197109e+02  2.918975276816622e+03
 1.154176759623895e+03 -3.105124348303732e+02  2.918975276816622e+03
 1.154073160401288e+03 -3.113464777805459e+02  2.918975276816622e+03
 1.153918528056156e+03 -3.125443432312910e+02  2.918975276816622e+03
 1.153862301830818e+03 -3.140332497306213e+02  2.918975276816622e+03
 1.153836867624700e+03 -3.161567808270432e+02  2.918975276816622e+03
 1.153732580546141e+03 -3.195758759904783e+02  2.918975276816622e+03
 1.153746251903156e+03 -3.225911039241210e+02  2.918975276816622e+03
 1.153713033391109e+03 -3.248973758900181e+02  2.918975276816622e+03
 1.153670260938413e+03 -3.273229121273746e+02  2.918975276816622e+03
 1.153594329715611e+03 -3.300270000034336e+02  2.918975276816622e+03
 1.153560498100414e+03 -3.318661285963752e+02  2.918975276816622e+03
 1.153536239981616e+03 -3.335371385542270e+02  2.918975276816622e+03
 1.153425066268323e+03 -3.365784058708591e+02  2.918975276816622e+03
 1.153452723553861e+03 -3.389207483398411e+02  2.918975276816622e+03
 1.153434794281589e+03 -3.413224149995992e+02  2.918975276816622e+03
 1.153004120593160e+03 -3.448829212564765e+02  2.918975276816622e+03
 1.153040382281662e+03 -3.476335107217907e+02  2.918975276816622e+03
 1.153741121552774e+03 -3.496877221803594e+02  2.918975276816622e+03
 1.153985078281236e+03 -3.517332448130507e+02  2.918975276816622e+03
 1.153907227526735e+03 -3.537909122958579e+02  2.918975276816622e+03
 1.153881266351071e+03 -3.559945235424200e+02  2.918975276816622e+03
 1.153983415071252e+03 -3.586215308014868e+02  2.918975276816622e+03
 1.153994952224464e+03 -3.615961728804285e+02  2.918975276816622e+03
 1.154016222181948e+03 -3.639188092827759e+02  2.918975276816622e+03
 1.153991228207881e+03 -3.653159974643939e+02  2.918975276816622e+03
 1.153916950237326e+03 -3.662997073595516e+02  2.918975276816622e+03
 1.153881529240754e+03 -3.678275997800844e+02  2.918975276816622e+03
 1.153905362936112e+03 -3.699125144541644e+02  2.918975276816622e+03
 1.153989825287530e+03 -3.725663588938971e+02  2.918975276816622e+03
 1.153936674812959e+03 -3.751725747295471e+02  2.918975276816622e+03
 1.153936105465061e+03 -3.774379127568558e+02  2.918975276816622e+03
 1.153857441324934e+03 -3.801554762548437e+02  2.918975276816622e+03
 1.153799920605641e+03 -3.824147434837419e+02  2.918975276816622e+03
 1.153822846076073e+03 -3.835447861725191e+02  2.918975276816622e+03
 1.153799440027241e+03 -3.850801187669288e+02  2.918975276816622e+03
1.153612736646002e+03 3.845914855237972e+02 2.918975276816622e+03
1.153705185424306e+03 3.857841211952536e+02 2.918975276816622e+03
1.153484496419109e+03 3.827924706419082e+02 2.918975276816622e+03
1.153468015561321e+03 3.813534168118812e+02 2.918975276816622e+03
1.153600072154301e+03 3.799852252817321e+02 2.918975276816622e+03
1.153766095289777e+03 3.777106455461999e+02 2.918975276816622e+03
1.153895857226316e+03 3.749856235850862e+02 2.918975276816622e+03
1.153899789456252e+03 3.728767117454333e+02 2.918975276816622e+03
1.153845440303224e+03 3.716243624940607e+02 2.918975276816622e+03
1.153819732064571e+03 3.693074423069348e+02 2.918975276816622e+03
1.153828824870408e+03 3.672117306111903e+02 2.918975276816622e+03
1.153967390221187e+03 3.658539211060917e+02 2.918975276816622e+03
1.153956168178192e+03 3.638600265751159e+02 2.918975276816622e+03
1.153957078589439e+03 3.612351999783857e+02 2.918975276816622e+03
1.153843382647797e+03 3.588406498800583e+02 2.918975276816622e+03
1.153761257611049e+03 3.572294568315344e+02 2.918975276816622e+03
1.153625192457166e+03 3.562809075748288e+02 2.918975276816622e+03
1.153715899929773e+03 3.553915735830182e+02 2.918975276816622e+03
1.154024941929351e+03 3.537994202474655e+02 2.918975276816622e+03
1.153915271977363e+03 3.526502087704973e+02 2.918975276816622e+03
1.154100201073279e+03 3.514153721692600e+02 2.918975276816622e+03
1.154425400265565e+03 3.490954893121968e+02 2.918975276816622e+03
1.154640059167326e+03 3.465388640327791e+02 2.918975276816622e+03
1.155033146190574e+03 3.441577013040149e+02 2.918975276816622e+03
1.155138370451581e+03 3.425472154223039e+02 2.918975276816622e+03
1.154679845883569e+03 3.409199016362759e+02 2.918975276816622e+03
1.154768181586762e+03 3.384606447660832e+02 2.918975276816622e+03
1.155688075986553e+03 3.373119862209452e+02 2.918975276816622e+03
1.155857403013216e+03 3.363072786885365e+02 2.918975276816622e+03
1.155088922186646e+03 3.339160229603552e+02 2.918975276816622e+03
1.154864998512464e+03 3.323754457034566e+02 2.918975276816622e+03
1.153803176929486e+03 3.321825347955117e+02 2.918975276816622e+03
1.153051943258570e+03 3.313703378362749e+02 2.918975276816622e+03
1.153582809670486e+03 3.296062310529772e+02 2.918975276816622e+03
1.154004660169346e+03 3.281346287001085e+02 2.918975276816622e+03
1.153182498873547e+03 3.271607937682847e+02 2.918975276816622e+03
1.152438949587570e+03 3.262625138034914e+02 2.918975276816622e+03
1.152972917713234e+03 3.254781340920555e+02 2.918975276816622e+03
1.153535319899115e+03 3.244287372127055e+02 2.918975276816622e+03
1.153864535816047e+03 3.226391809683288e+02 2.918975276816622e+03
1.154002074921831e+03 3.204658079970384e+02 2.918975276816622e+03
1.154087078896891e+03 3.188602842945136e+02 2.918975276816622e+03
1.154118246955646e+03 3.178345296922885e+02 2.918975276816622e+03
1.154093839882295e+03 3.161733443862359e+02 2.918975276816622e+03
1.154199765548185e+03 3.143898880220570e+02 2.918975276816622e+03
1.154550741233945e+03 3.122432800860833e+02 2.918975276816622e+03
1.154444100856564e+03 3.096693076823984e+02 2.918975276816622e+03
1.154023272141294e+03 3.067526362074695e+02 2.918975276816622e+03
1.154067729600114e+03 3.048822336402125e+02 2.918975276816622e+03
1.154740116672879e+03 3.034691835904615e+02 2.918975276816622e+03
1.155113534884229e+03 3.009870717557446e+02 2.918975276816622e+03
1.155260532038991e+03 2.985140489789081e+02 2.918975276816622e+03
1.155429614209581e+03 2.960433419138347e+02 2.918975276816622e+03
1.155696001859341e+03 2.942005679660933e+02 2.918975276816622e+03
1.155709453902650e+03 2.922024406753089e+02 2.918975276816622e+03
1.155372664860338e+03 2.894210269241494e+02 2.918975276816622e+03
1.155173023980776e+03 2.879057976125051e+02 2.918975276816622e+03
1.154973290138787e+03 2.862917545461222e+02 2.918975276816622e+03
1.154636315171622e+03 2.833127132854854e+02 2.918975276816622e+03
1.154161647862112e+03 2.808953908997074e+02 2.918975276816622e+03
1.153912368541987e+03 2.784624514660472e+02 2.918975276816622e+03
1.153720870867395e+03 2.770137591689904e+02 2.918975276816622e+03
1.153472430777416e+03 2.760832109430155e+02 2.918975276816622e+03
1.152717462829419e+03 2.737286709945112e+02 2.918975276816622e+03
1.152492004484570e+03 2.724967807728336e+02 2.918975276816622e+03
1.153303637038837e+03 2.718243459473279e+02 2.918975276816622e+03
1.153754207377451e+03 2.696747066000188e+02 2.918975276816622e+03
1.154058649958535e+03 2.676321527066208e+02 2.918975276816622e+03
1.153875499260211e+03 2.667532433522103e+02 2.918975276816622e+03
1.153738903009780e+03 2.652132979780226e+02 2.918975276816622e+03
1.153605382977237e+03 2.631448257399241e+02 2.918975276816622e+03
1.153379894454804e+03 2.614891633281490e+02 2.918975276816622e+03
1.153472549955122e+03 2.592636106075837e+02 2.918975276816622e+03
1.153372191570309e+03 2.572526200830125e+02 2.918975276816622e+03
1.153278739203419e+03 2.556540036309859e+02 2.918975276816622e+03
1.153079585816302e+03 2.549340280018060e+02 2.918975276816622e+03
1.152951947574372e+03 2.543541439582713e+02 2.918975276816622e+03
1.152847382505171e+03 2.530270963078481e+02 2.918975276816622e+03
1.153018952319919e+03 2.514556657531418e+02 2.918975276816622e+03
1.153303205919786e+03 2.495910814081658e+02 2.918975276816622e+03
1.153285691306566e+03 2.484731309840653e+02 2.918975276816622e+03
1.153265952458722e+03 2.473880593635392e+02 2.918975276816622e+03
1.153329538718959e+03 2.460473053690512e+02 2.918975276816622e+03
1.153429985847023e+03 2.444856650354362e+02 2.918975276816622e+03
1.153451666672791e+03 2.425444498995528e+02 2.918975276816622e+03
1.153451057706312e+03 2.408447384294614e+02 2.918975276816622e+03
1.153469735818755e+03 2.391733438706876e+02 2.918975276816622e+03
1.153501244307025e+03 2.370882378905033e+02 2.918975276816622e+03
1.153497288397026e+03 2.344734381621794e+02 2.918975276816622e+03
1.153494957956274e+03 2.329522132804571e+02 2.918975276816622e+03
1.153483380944067e+03 2.313537661478442e+02 2.918975276816622e+03
1.153473804148640e+03 2.292872702891515e+02 2.918975276816622e+03
1.153468277740811e+03 2.277549989097620e+02 2.918975276816622e+03
1.153404593304673e+03 2.262330001227834e+02 2.918975276816622e+03
1.153315799040288e+03 2.249957813622066e+02 2.918975276816622e+03
1.153206829099956e+03 2.228732047162347e+02 2.918975276816622e+03
1.153177866931434e+03 2.201909342428919e+02 2.918975276816622e+03
1.152971349938527e+03 2.184442726007450e+02 2.918975276816622e+03
1.152925157848395e+03 2.168781181951162e+02 2.918975276816622e+03
1.152659343534912e+03 2.141679604351623e+02 2.918975276816622e+03
1.152050242722619e+03 2.123059355946643e+02 2.918975276816622e+03
1.152821309197335e+03 2.114335048516634e+02 2.918975276816622e+03
1.153941110893669e+03 2.100601175947574e+02 2.918975276816622e+03
1.154546671712769e+03 2.089007401450431e+02 2.918975276816622e+03
1.154154915186099e+03 2.076682741563710e+02 2.918975276816622e+03
1.154387837518600e+03 2.056672593941270e+02 2.918975276816622e+03
1.154438485383872e+03 2.043743996883356e+02 2.918975276816622e+03
1.153556499064411e+03 2.029928397852294e+02 2.918975276816622e+03
1.153456976231294e+03 2.006728878629970e+02 2.918975276816622e+03
1.153516550691793e+03 1.987950166003842e+02 2.918975276816622e+03
1.153819352973100e+03 1.968092245394048e+02 2.918975276816622e+03
1.154212872823898e+03 1.942989214714983e+02 2.918975276816622e+03
1.154209809613769e+03 1.927742500128306e+02 2.918975276816622e+03
1.153638093189866e+03 1.913253152941406e+02 2.918975276816622e+03
1.153274880773253e+03 1.888528490278643e+02 2.918975276816622e+03
1.153117912893554e+03 1.863630010171125e+02 2.918975276816622e+03
1.153204603699189e+03 1.833202097710885e+02 2.918975276816622e+03
1.153949160822978e+03 1.815537360591618e+02 2.918975276816622e+03
1.153940263340314e+03 1.802335643485046e+02 2.918975276816622e+03
1.153489242588625e+03 1.774327324524914e+02 2.918975276816622e+03
1.153283477296135e+03 1.744994147110785e+02 2.918975276816622e+03
1.152965747607742e+03 1.726694087378301e+02 2.918975276816622e+03
1.152569911230061e+03 1.719941819703586e+02 2.918975276816622e+03
1.152962391926171e+03 1.709674681912761e+02 2.918975276816622e+03
1.153822476915771e+03 1.697135765558287e+02 2.918975276816622e+03
1.154987381689160e+03 1.678338068686884e+02 2.918975276816622e+03
1.154512877731784e+03 1.663757296669066e+02 2.918975276816622e+03
1.153647050176961e+03 1.649857794007831e+02 2.918975276816622e+03
1.154236207383759e+03 1.627582407629901e+02 2.918975276816622e+03
1.155077918424549e+03 1.609205332125595e+02 2.918975276816622e+03
1.155117450287418e+03 1.593365344611055e+02 2.918975276816622e+03
1.154611178219986e+03 1.577142288592859e+02 2.918975276816622e+03
1.154609353286945e+03 1.552867374415689e+02 2.918975276816622e+03
1.154680795339355e+03 1.519661430170904e+02 2.918975276816622e+03
1.153572440953718e+03 1.494488263613662e+02 2.918975276816622e+03
1.152042064825828e+03 1.488054487763395e+02 2.918975276816622e+03
1.152380294384607e+03 1.478812557483124e+02 2.918975276816622e+03
1.152662919111988e+03 1.464062219016800e+02 2.918975276816622e+03
1.152816352972932e+03 1.452737394269668e+02 2.918975276816622e+03
1.153016053399153e+03 1.431345042236460e+02 2.918975276816622e+03
1.153146642397486e+03 1.403947385153011e+02 2.918975276816622e+03
1.153186175738138e+03 1.390727084375511e+02 2.918975276816622e+03
1.153231020189775e+03 1.375823400926358e+02 2.918975276816622e+03
1.153297886403102e+03 1.348013389755670e+02 2.918975276816622e+03
1.153320985269247e+03 1.318000692427302e+02 2.918975276816622e+03
1.153257325981545e+03 1.292817355216185e+02 2.918975276816622e+03
1.153177969212020e+03 1.276013213029688e+02 2.918975276816622e+03
1.153271805776491e+03 1.262914218086662e+02 2.918975276816622e+03
1.153274043390269e+03 1.251422851627187e+02 2.918975276816622e+03
1.153151966570272e+03 1.231290523072619e+02 2.918975276816622e+03
1.152988725926436e+03 1.207239277973950e+02 2.918975276816622e+03
1.152945131034244e+03 1.192487557342607e+02 2.918975276816622e+03
1.152946447956538e+03 1.175120428355090e+02 2.918975276816622e+03
1.152766566748293e+03 1.147329649435517e+02 2.918975276816622e+03
1.152467278651725e+03 1.123944579929770e+02 2.918975276816622e+03
1.152305736893414e+03 1.109814404228887e+02 2.918975276816622e+03
1.152116853547567e+03 1.094073655581972e+02 2.918975276816622e+03
1.151843523986726e+03 1.085084952453643e+02 2.918975276816622e+03
1.152082980031602e+03 1.076882013123272e+02 2.918975276816622e+03
1.152486964116375e+03 1.062372085819596e+02 2.918975276816622e+03
1.152708200206619e+03 1.050772583772534e+02 2.918975276816622e+03
1.152988715829064e+03 1.030616072099296e+02 2.918975276816622e+03
1.153240718272486e+03 1.004825465877042e+02 2.918975276816622e+03
1.153497617346564e+03 9.815147960285937e+01 2.918975276816622e+03
1.153728323509477e+03 9.672478089565121e+01 2.918975276816622e+03
1.153932287172859e+03 9.514149858903853e+01 2.918975276816622e+03
1.154293647072516e+03 9.223552565477931e+01 2.918975276816622e+03
1.155278709689607e+03 9.058587209401327e+01 2.918975276816622e+03
1.155452792424079e+03 8.999425984062414e+01 2.918975276816622e+03
1.154660590556965e+03 8.850785852169395e+01 2.918975276816622e+03
1.154324807753278e+03 8.654736159187263e+01 2.918975276816622e+03
1.154005401292281e+03 8.402950804692219e+01 2.918975276816622e+03
1.154080030077861e+03 8.119100102601473e+01 2.918975276816622e+03
1.154281784437887e+03 7.927947152615708e+01 2.918975276816622e+03
1.154622245614443e+03 7.813926542117601e+01 2.918975276816622e+03
1.154826913135608e+03 7.698797398463290e+01 2.918975276816622e+03
1.155307929260373e+03 7.524614653597654e+01 2.918975276816622e+03
1.156202040690582e+03 7.339412112184758e+01 2.918975276816622e+03
1.156694276935169e+03 7.243372291454560e+01 2.918975276816622e+03
1.156123843233459e+03 7.091603013658238e+01 2.918975276816622e+03
1.155668233503294e+03 6.847447499157170e+01 2.918975276816622e+03
1.155807255903774e+03 6.654893565216376e+01 2.918975276816622e+03
1.156547334037615e+03 6.520309095464670e+01 2.918975276816622e+03
1.156343992381587e+03 6.407487462316983e+01 2.918975276816622e+03
1.155513351847032e+03 6.304342849509330e+01 2.918975276816622e+03
1.155422248243597e+03 6.127753446335250e+01 2.918975276816622e+03
1.155225199167370e+03 5.895590405175579e+01 2.918975276816622e+03
1.155367901205510e+03 5.771301810771949e+01 2.918975276816622e+03
1.155784797510087e+03 5.628500603062240e+01 2.918975276816622e+03
1.156322667769745e+03 5.495617565302084e+01 2.918975276816622e+03
1.155638988253893e+03 5.350389403076142e+01 2.918975276816622e+03
1.155139503107275e+03 5.151272439546307e+01 2.918975276816622e+03
1.154849957199285e+03 4.938225244792991e+01 2.918975276816622e+03
1.154479690090525e+03 4.783143705803057e+01 2.918975276816622e+03
1.154464916559678e+03 4.594797950397664e+01 2.918975276816622e+03
1.154436219887775e+03 4.330294487589482e+01 2.918975276816622e+03
1.154464216805553e+03 4.213873435993358e+01 2.918975276816622e+03
1.154509981766166e+03 4.114676801485619e+01 2.918975276816622e+03
1.154566915952490e+03 3.954572853205538e+01 2.918975276816622e+03
1.154614942167592e+03 3.707873834271636e+01 2.918975276816622e+03
1.154727850750942e+03 3.475286922013014e+01 2.918975276816622e+03
1.154812240609769e+03 3.305365945427125e+01 2.918975276816622e+03
1.154878538139416e+03 3.104897645973909e+01 2.918975276816622e+03
1.154943280978167e+03 2.911311499017702e+01 2.918975276816622e+03
1.155044602541425e+03 2.682427741330429e+01 2.918975276816622e+03
1.155162863167955e+03 2.394199887320780e+01 2.918975276816622e+03
1.155402226071951e+03 2.094046279049230e+01 2.918975276816622e+03
1.155528261385099e+03 1.939458217524317e+01 2.918975276816622e+03
1.155308336364404e+03 1.764552447916041e+01 2.918975276816622e+03
1.155114527891547e+03 1.512654102562183e+01 2.918975276816622e+03
1.155057834394582e+03 1.380899148342302e+01 2.918975276816622e+03
1.154979531874528e+03 1.245691813381004e+01 2.918975276816622e+03
1.154932800645021e+03 1.091999772723395e+01 2.918975276816622e+03
1.154832043256543e+03 9.040178065477646e+00 2.918975276816622e+03
1.154745713710401e+03 6.655255277594417e+00 2.918975276816622e+03
1.154709266862505e+03 5.048934533482906e+00 2.918975276816622e+03
1.154624110158407e+03 3.637674297702696e+00 2.918975276816622e+03
1.154575539638701e+03 2.052158281041995e+00 2.918975276816622e+03

CELLS 1651 6682
3 6 1663 7
3 6 1664 419
3 7 1665 8
3 8 1666 9
3 9 1667 10
3 10 1668 11
3 11 1669 12
4 12 1670 1671 13
3 13 1672 14
3 14 1673 15
3 15 1674 16
3 16 1675 17
3 17 1676 18
3 18 1677 19
4 19 1678 1679 20
3 20 1680 21
3 21 1681 22
3 22 1682 23
3 23 1683 24
3 24 1684 25
3 25 1685 26
3 26 1686 27
3 27 1687 28
4 28 1688 1689 29
3 29 1690 30
3 30 1691 31
3 31 1692 32
3 32 1693 33
3 33 1694 34
3 34 1695 35
3 35 1696 36
3 36 1697 37
3 37 1698 38
3 38 1699 39
3 39 1700 40
3 40 1701 41
3 41 1702 42
3 42 1703 43
3 43 1704 44
3 44 1705 45
3 45 1706 46
3 46 1707 47
3 47 1708 48
3 48 1709 49
3 49 1710 50
3 50 1711 51
3 51 1712 52
3 52 1713 53
3 53 1714 54
3 54 1715 55
3 55 1716 56
3 56 1717 57
3 57 1718 58
3 58 1719 59
3 59 1720 60
3 60 1721 61
3 61 1722 62
3 62 1723 63
3 63 1724 64
3 64 1725 65
3 65 1726 66
3 66 1727 67
3 67 1728 68
3 68 1729 69
3 69 1730 70
3 70 1731 71
3 71 1732 72
3 72 1733 73
3 73 1734 74
3 74 1735 75
3 75 1736 76
4 76 1737 1738 77
3 77 1739 78
3 78 1740 79
3 79 1741 80
3 80 1742 81
3 81 1743 82
3 82 1744 83
3 83 1745 84
3 84 1746 85
3 85 1747 86
3 86 1748 87
3 87 1749 88
3 88 1750 89
3 89 1751 90
3 90 1752 91
3 91 1753 92
3 92 1754 93
3 93 1755 94
3 94 1756 95
3 95 1757 96
3 96 1758 97
3 97 1759 98
3 98 1760 99
4 99 1761 1762 100
3 100 1763 101
3 101 1764 102
3 102 1765 103
3 103 1766 104
3 104 1767 105
3 105 1768 106
3 106 1769 107
3 107 1770 108
4 108 1771 1772 109
3 109 1773 110
3 110 1774 111
3 111 1775 112
3 112 1776 113
3 113 1777 114
3 114 1778 115
3 115 1779 116
3 116 1780 117
3 117 1781 118
3 118 1782 119
3 119 1783 120
3 120 1784 121
3 121 1785 122
3 122 1786 123
3 123 1787 124
3 124 1788 125
3 125 1789 126
3 126 1790 127
3 127 1791 128
3 128 1792 129
4 129 1793 1794 130
3 130 1795 131
3 131 1796 132
3 132 1797 133
3 133 1798 134
3 134 1799 135
3 135 1800 136
3 136 1801 137
3 137 1802 138
3 138 1803 139
3 139 1804 140
3 140 1805 141
3 141 1806 142
3 142 1807 143
3 143 1808 144
3 144 1809 145
3 145 1810 146
3 146 1811 147
3 147 1812 148
3 148 1813 149
3 149 1814 150
3 150 1815 151
3 151 1816 152
3 152 1817 153
3 153 1818 154
3 154 1819 155
3 155 1820 156
3 156 1821 157
3 157 1822 158
3 158 1823 159
3 159 1824 160
3 160 1825 161
3 161 1826 162
3 162 1827 163
3 163 1828 164
3 164 1829 165
3 165 1830 166
3 166 1831 167
5 167 1832 1833 1834 168
3 168 1835 169
3 169 1836 170
3 170 1837 171
3 171 1838 172
3 172 1839 173
3 173 1840 174
3 174 1841 175
3 175 1842 176
3 176 1843 177
3 177 1844 178
3 178 1845 179
3 179 1846 180
3 180 1847 181
3 181 1848 182
3 182 1849 183
3 183 1850 184
3 184 1851 185
3 185 1852 186
3 186 1853 187
3 187 1854 188
3 188 1855 189
3 189 1856 190
3 190 1857 191
3 191 1858 192
3 192 1859 193
3 193 1860 194
3 194 1861 195
3 195 1862 196
3 196 1863 197
3 197 1864 198
3 198 1865 199
3 199 1866 200
3 200 1867 201
3 201 1868 202
3 202 1869 203
3 203 1870 204
3 204 1871 205
3 205 1872 206
3 206 1873 207
4 207 1874 1875 208
3 208 1876 209
3 209 1877 210
3 210 1878 211
3 211 1879 212
3 212 1880 213
3 213 1881 214
3 214 1882 215
3 215 1883 216
3 216 1884 217
3 217 1885 1655
4 218 1886 1887 219
3 218 1888 1656
3 219 1889 220
3 220 1890 221
3 221 1891 222
4 222 1892 1893 223
5 223 1894 1895 1896 224
3 224 1897 225
3 225 1898 226
3 226 1899 227
3 227 1900 228
3 228 1901 229
3 229 1902 230
3 230 1903 231
3 231 1904 232
3 232 1905 233
3 233 1906 234
3 234 1907 235
3 235 1908 236
4 236 1909 1910 237
3 237 1911 238
3 238 1912 239
3 239 1913 240
3 240 1914 241
3 241 1915 242
3 242 1916 243
3 243 1917 244
3 244 1918 245
3 245 1919 246
3 246 1920 247
3 247 1921 248
3 248 1922 249
3 249 1923 250
3 250 1924 251
3 251 1925 252
3 252 1926 253
3 253 1927 254
3 254 1928 255
3 255 1929 256
4 256 1930 1931 257
3 257 1932 258
3 258 1933 259
3 259 1934 260
3 260 1935 261
3 261 1936 262
3 262 1937 263
3 263 1938 264
3 264 1939 265
3 265 1940 266
3 266 1941 267
3 267 1942 268
3 268 1943 269
3 269 1944 270
3 270 1945 271
3 271 1946 272
3 272 1947 273
3 273 1948 274
3 274 1949 275
3 275 1950 276
4 276 1951 1952 277
3 277 1953 278
3 278 1954 279
3 279 1955 280
3 280 1956 281
3 281 1957 282
3 282 1958 283
3 283 1959 284
3 284 1960 285
3 285 1961 286
3 286 1962 287
3 287 1963 288
3 288 1964 289
3 289 1965 290
3 290 1966 291
3 291 1967 292
3 292 1968 293
3 293 1969 294
3 294 1970 295
3 295 1971 296
3 296 1972 297
3 297 1973 298
3 298 1974 299
3 299 1975 300
3 300 1976 301
3 301 1977 302
3 302 1978 303
3 303 1979 304
3 304 1980 305
3 305 1981 306
3 306 1982 307
3 307 1983 308
3 308 1984 309
3 309 1985 310
3 310 1986 311
3 311 1987 312
3 312 1988 313
3 313 1989 314
3 314 1990 315
3 315 1991 316
3 316 1992 317
3 317 1993 318
3 318 1994 319
3 319 1995 320
3 320 1996 321
3 321 1997 322
3 322 1998 323
3 323 1999 324
3 324 2000 325
3 325 2001 326
3 326 2002 327
3 327 2003 328
3 328 2004 329
3 329 2005 330
3 330 2006 331
3 331 2007 332
3 332 2008 333
3 333 2009 334
3 334 2010 335
3 335 2011 336
3 336 2012 337
3 337 2013 338
3 338 2014 339
3 339 2015 340
3 340 2016 341
3 341 2017 342
3 342 2018 343
3 343 2019 344
3 344 2020 345
3 345 2021 346
3 346 2022 347
3 347 2023 348
3 348 2024 349
3 349 2025 350
3 350 2026 351
3 351 2027 352
3 352 2028 353
3 353 2029 354
3 354 2030 355
3 355 2031 356
3 356 2032 357
3 357 2033 358
4 358 2034 2035 359
3 359 2036 360
3 360 2037 361
3 361 2038 362
3 362 2039 363
3 363 2040 364
3 364 2041 365
3 365 2042 366
3 366 2043 367
3 367 2044 368
3 368 2045 369
3 369 2046 370
3 370 2047 371
3 371 2048 372
3 372 2049 373
3 373 2050 374
3 374 2051 375
3 375 2052 376
3 376 2053 377
3 377 2054 378
3 378 2055 379
3 379 2056 380
3 380 2057 381
3 381 2058 382
3 382 2059 383
3 383 2060 384
3 384 2061 385
3 385 2062 386
3 386 2063 387
3 387 2064 388
3 388 2065 389
3 389 2066 390
3 390 2067 391
3 391 2068 392
4 392 2069 2070 393
3 393 2071 394
3 394 2072 395
3 395 2073 396
3 396 2074 397
3 397 2075 398
3 398 2076 399
3 399 2077 400
3 400 2078 401
3 401 2079 402
3 402 2080 403
3 403 2081 404
3 404 2082 405
3 405 2083 406
3 406 2084 407
3 407 2085 408
3 408 2086 409
3 409 2087 410
3 410 2088 411
3 411 2089 412
3 412 2090 413
3 413 2091 414
3 414 2092 415
3 415 2093 416
4 416 2094 2095 417
3 417 2096 418
3 418 2097 419
3 421 2098 422
3 421 2099 829
3 422 2100 423
3 423 2101 424
4 424 2102 2103 425
3 425 2104 426
3 426 2105 427
3 427 2106 428
3 428 2107 429
4 429 2108 2109 430
3 430 2110 431
3 431 2111 432
3 432 2112 433
3 433 2113 434
3 434 2114 435
3 435 2115 436
3 436 2116 437
4 437 2117 2118 438
3 438 2119 439
3 439 2120 440
3 440 2121 441
3 441 2122 442
3 442 2123 443
3 443 2124 444
3 444 2125 445
3 445 2126 446
3 446 2127 447
3 447 2128 448
3 448 2129 449
3 449 2130 450
3 450 2131 451
3 451 2132 452
3 452 2133 453
3 453 2134 454
3 454 2135 455
3 455 2136 456
3 456 2137 457
4 457 2138 2139 458
3 458 2140 459
3 459 2141 460
3 460 2142 461
3 461 2143 462
3 462 2144 463
3 463 2145 464
3 464 2146 465
3 465 2147 466
3 466 2148 467
3 467 2149 468
4 468 2150 2151 469
3 469 2152 470
3 470 2153 471
3 471 2154 472
3 472 2155 473
3 473 2156 474
3 474 2157 475
3 475 2158 476
3 476 2159 477
3 477 2160 478
3 478 2161 479
3 479 2162 480
4 480 2163 2164 481
4 481 2165 2166 482
3 482 2167 483
3 483 2168 484
3 484 2169 485
3 485 2170 486
3 486 2171 487
3 487 2172 488
3 488 2173 489
3 489 2174 490
3 490 2175 491
3 491 2176 492
4 492 2177 2178 493
3 493 2179 494
3 494 2180 495
3 495 2181 496
3 496 2182 497
3 497 2183 498
3 498 2184 499
3 499 2185 500
3 500 2186 501
3 501 2187 502
4 502 2188 2189 503
3 503 2190 504
3 504 2191 505
3 505 2192 506
3 506 2193 507
3 507 2194 508
3 508 2195 509
3 509 2196 510
3 510 2197 511
3 511 2198 512
4 512 2199 2200 513
3 513 2201 514
3 514 2202 515
3 515 2203 516
3 516 2204 517
3 517 2205 518
3 518 2206 519
3 519 2207 520
3 520 2208 521
3 521 2209 522
4 522 2210 2211 523
3 523 2212 524
3 524 2213 525
3 525 2214 526
3 526 2215 527
3 527 2216 528
3 528 2217 529
3 529 2218 530
3 530 2219 531
3 531 2220 532
4 532 2221 2222 533
3 533 2223 534
3 534 2224 535
3 535 2225 536
3 536 2226 537
3 537 2227 538
3 538 2228 539
3 539 2229 540
3 540 2230 541
3 541 2231 542
3 542 2232 543
3 543 2233 544
3 544 2234 545
3 545 2235 546
3 546 2236 547
3 547 2237 548
3 548 2238 549
3 549 2239 550
3 550 2240 551
3 551 2241 552
3 552 2242 553
3 553 2243 554
3 554 2244 555
3 555 2245 556
3 556 2246 557
4 557 2247 2248 558
3 558 2249 559
3 559 2250 560
3 560 2251 561
3 561 2252 562
3 562 2253 563
3 563 2254 564
4 564 2255 2256 565
3 565 2257 566
3 566 2258 567
3 567 2259 568
3 568 2260 569
3 569 2261 570
3 570 2262 571
3 571 2263 572
3 572 2264 573
3 573 2265 574
4 574 2266 2267 575
3 575 2268 576
3 576 2269 577
3 577 2270 578
3 578 2271 579
3 579 2272 580
3 580 2273 581
3 581 2274 582
3 582 2275 583
3 583 2276 584
3 584 2277 585
3 585 2278 586
3 586 2279 587
3 587 2280 588
3 588 2281 589
3 589 2282 590
3 590 2283 591
3 591 2284 592
3 592 2285 593
3 593 2286 594
3 594 2287 595
3 595 2288 596
3 596 2289 597
3 597 2290 598
3 598 2291 599
3 599 2292 600
3 600 2293 601
3 601 2294 602
3 602 2295 603
3 603 2296 604
3 604 2297 605
3 605 2298 606
3 606 2299 607
3 607 2300 608
3 608 2301 609
3 609 2302 610
4 610 2303 2304 611
3 611 2305 612
3 612 2306 1657
3 613 2307 614
3 613 2308 1658
3 614 2309 615
3 615 2310 616
3 616 2311 617
3 617 2312 618
3 618 2313 619
3 619 2314 620
3 620 2315 621
3 621 2316 622
3 622 2317 623
3 623 2318 624
3 624 2319 625
3 625 2320 626
3 626 2321 627
3 627 2322 628
3 628 2323 629
3 629 2324 630
3 630 2325 631
3 631 2326 632
3 632 2327 633
3 633 2328 634
3 634 2329 635
3 635 2330 636
3 636 2331 637
3 637 2332 638
3 638 2333 639
3 639 2334 640
3 640 2335 641
3 641 2336 642
3 642 2337 643
3 643 2338 644
3 644 2339 645
3 645 2340 646
3 646 2341 647
3 647 2342 648
3 648 2343 649
3 649 2344 650
3 650 2345 651
3 651 2346 652
3 652 2347 653
3 653 2348 654
3 654 2349 655
3 655 2350 656
3 656 2351 657
3 657 2352 658
3 658 2353 659
3 659 2354 660
3 660 2355 661
4 661 2356 2357 662
3 662 2358 663
3 663 2359 664
3 664 2360 665
3 665 2361 666
3 666 2362 667
3 667 2363 668
3 668 2364 669
3 669 2365 670
3 670 2366 671
3 671 2367 672
3 672 2368 673
3 673 2369 674
3 674 2370 675
3 675 2371 676
3 676 2372 677
4 677 2373 2374 678
3 678 2375 679
3 679 2376 680
3 680 2377 681
3 681 2378 682
4 682 2379 2380 683
3 683 2381 684
3 684 2382 685
3 685 2383 686
3 686 2384 687
3 687 2385 688
3 688 2386 689
3 689 2387 690
3 690 2388 691
3 691 2389 692
3 692 2390 693
3 693 2391 694
4 694 2392 2393 695
3 695 2394 696
3 696 2395 697
3 697 2396 698
3 698 2397 699
3 699 2398 700
3 700 2399 701
3 701 2400 702
3 702 2401 703
3 703 2402 704
3 704 2403 705
4 705 2404 2405 706
3 706 2406 707
3 707 2407 708
3 708 2408 709
3 709 2409 710
3 710 2410 711
3 711 2411 712
3 712 2412 713
3 713 2413 714
3 714 2414 715
3 715 2415 716
3 716 2416 717
3 717 2417 718
3 718 2418 719
3 719 2419 720
3 720 2420 721
3 721 2421 722
3 722 2422 723
3 723 2423 724
3 724 2424 725
3 725 2425 726
3 726 2426 727
3 727 2427 728
3 728 2428 729
3 729 2429 730
4 730 2430 2431 731
3 731 2432 732
3 732 2433 733
3 733 2434 734
3 734 2435 735
3 735 2436 736
3 736 2437 737
3 737 2438 738
3 738 2439 739
3 739 2440 740
3 740 2441 741
3 741 2442 742
3 742 2443 743
3 743 2444 744
3 744 2445 745
3 745 2446 746
3 746 2447 747
3 747 2448 748
3 748 2449 749
3 749 2450 750
3 750 2451 751
3 751 2452 752
4 752 2453 2454 753
3 753 2455 754
3 754 2456 755
3 755 2457 756
3 756 2458 757
3 757 2459 758
3 758 2460 759
3 759 2461 760
3 760 2462 761
3 761 2463 762
3 762 2464 763
3 763 2465 764
4 764 2466 2467 765
3 765 2468 766
3 766 2469 767
3 767 2470 768
3 768 2471 769
3 769 2472 770
3 770 2473 771
3 771 2474 772
3 772 2475 773
3 773 2476 774
3 774 2477 775
3 775 2478 776
4 776 2479 2480 777
3 777 2481 778
3 778 2482 779
3 779 2483 780
4 780 2484 2485 781
3 781 2486 782
3 782 2487 783
3 783 2488 784
3 784 2489 785
3 785 2490 786
3 786 2491 787
3 787 2492 788
3 788 2493 789
3 789 2494 790
3 790 2495 791
3 791 2496 792
3 792 2497 793
3 793 2498 794
3 794 2499 795
3 795 2500 796
3 796 2501 797
3 797 2502 798
3 798 2503 799
3 799 2504 800
3 800 2505 801
3 801 2506 802
3 802 2507 803
3 803 2508 804
3 804 2509 805
3 805 2510 806
3 806 2511 807
3 807 2512 808
3 808 2513 809
3 809 2514 810
3 810 2515 811
3 811 2516 812
3 812 2517 813
3 813 2518 814
4 814 2519 2520 815
3 815 2521 816
3 816 2522 817
3 817 2523 818
3 818 2524 819
3 819 2525 820
3 820 2526 821
3 821 2527 822
3 822 2528 823
3 823 2529 824
3 824 2530 825
3 825 2531 826
3 826 2532 827
3 827 2533 828
3 828 2534 829
3 830 2535 831
4 830 2536 2537 1261
3 831 2538 832
3 832 2539 833
3 833 2540 834
3 834 2541 835
4 835 2542 2543 836
3 836 2544 837
3 837 2545 838
3 838 2546 839
3 839 2547 840
3 840 2548 841
3 841 2549 842
3 842 2550 843
3 843 2551 844
3 844 2552 845
3 845 2553 846
3 846 2554 847
3 847 2555 848
3 848 2556 849
3 849 2557 850
3 850 2558 851
3 851 2559 852
3 852 2560 853
3 853 2561 854
3 854 2562 855
3 855 2563 856
3 856 2564 857
3 857 2565 858
3 858 2566 859
3 859 2567 860
3 860 2568 861
3 861 2569 862
3 862 2570 863
3 863 2571 864
3 864 2572 865
3 865 2573 866
3 866 2574 867
3 867 2575 868
3 868 2576 869
3 869 2577 870
3 870 2578 871
3 871 2579 872
3 872 2580 873
3 873 2581 874
3 874 2582 875
3 875 2583 876
3 876 2584 877
3 877 2585 878
3 878 2586 879
3 879 2587 880
3 880 2588 881
3 881 2589 882
3 882 2590 883
3 883 2591 884
3 884 2592 885
3 885 2593 886
3 886 2594 887
3 887 2595 888
3 888 2596 889
3 889 2597 890
3 890 2598 891
3 891 2599 892
3 892 2600 893
3 893 2601 894
3 894 2602 895
3 895 2603 896
3 896 2604 897
3 897 2605 898
3 898 2606 899
3 899 2607 900
4 900 2608 2609 901
3 901 2610 902
3 902 2611 903
3 903 2612 904
3 904 2613 905
3 905 2614 906
3 906 2615 907
3 907 2616 908
3 908 2617 909
3 909 2618 910
3 910 2619 911
3 911 2620 912
3 912 2621 913
3 913 2622 914
3 914 2623 915
3 915 2624 916
3 916 2625 917
3 917 2626 918
3 918 2627 919
3 919 2628 920
3 920 2629 921
3 921 2630 922
3 922 2631 923
3 923 2632 924
3 924 2633 925
3 925 2634 926
3 926 2635 927
3 927 2636 928
3 928 2637 929
3 929 2638 930
3 930 2639 931
3 931 2640 932
3 932 2641 933
3 933 2642 934
3 934 2643 935
3 935 2644 936
3 936 2645 937
3 937 2646 938
3 938 2647 939
3 939 2648 940
3 940 2649 941
3 941 2650 942
3 942 2651 943
3 943 2652 944
3 944 2653 945
3 945 2654 946
3 946 2655 947
3 947 2656 948
3 948 2657 949
3 949 2658 950
3 950 2659 951
3 951 2660 952
3 952 2661 953
3 953 2662 954
3 954 2663 955
3 955 2664 956
3 956 2665 957
3 957 2666 958
3 958 2667 959
3 959 2668 960
3 960 2669 961
3 961 2670 962
3 962 2671 963
3 963 2672 964
3 964 2673 965
3 965 2674 966
3 966 2675 967
3 967 2676 968
3 968 2677 969
3 969 2678 970
3 970 2679 971
3 971 2680 972
3 972 2681 973
3 973 2682 974
3 974 2683 975
3 975 2684 976
3 976 2685 977
3 977 2686 978
3 978 2687 979
3 979 2688 980
3 980 2689 981
3 981 2690 982
3 982 2691 983
3 983 2692 984
3 984 2693 985
3 985 2694 986
3 986 2695 987
3 987 2696 988
3 988 2697 989
3 989 2698 990
3 990 2699 991
3 991 2700 992
3 992 2701 993
3 993 2702 994
3 994 2703 995
3 995 2704 996
3 996 2705 997
3 997 2706 998
3 998 2707 999
3 999 2708 1000
3 1000 2709 1001
3 1001 2710 1002
3 1002 2711 1003
3 1003 2712 1004
3 1004 2713 1005
3 1005 2714 1006
3 1006 2715 1007
3 1007 2716 1008
3 1008 2717 1009
3 1009 2718 1010
3 1010 2719 1011
3 1011 2720 1012
3 1012 2721 1013
3 1013 2722 1014
3 1014 2723 1015
3 1015 2724 1016
3 1016 2725 1017
3 1017 2726 1018
3 1018 2727 1019
3 1019 2728 1020
3 1020 2729 1021
3 1021 2730 1022
3 1022 2731 1023
3 1023 2732 1024
3 1024 2733 1025
3 1025 2734 1026
3 1026 2735 1027
3 1027 2736 1028
3 1028 2737 1029
3 1029 2738 1030
3 1030 2739 1031
3 1031 2740 1032
3 1032 2741 1033
3 1033 2742 1034
3 1034 2743 1035
3 1035 2744 1036
3 1036 2745 1037
3 1037 2746 1038
3 1038 2747 1039
3 1039 2748 1040
3 1040 2749 1041
3 1041 2750 1042
3 1042 2751 1043
3 1043 2752 1044
3 1044 2753 1045
3 1045 2754 1046
3 1046 2755 1047
4 1047 2756 2757 1048
4 1048 2758 2759 1049
3 1049 2760 1050
3 1050 2761 1051
3 1051 2762 1052
3 1052 2763 1053
3 1053 2764 1054
3 1054 2765 1055
3 1055 2766 1056
3 1056 2767 1057
3 1057 2768 1058
3 1058 2769 1059
3 1059 2770 1060
3 1060 2771 1061
3 1061 2772 1062
3 1062 2773 1063
3 1063 2774 1659
3 1064 2775 1065
3 1064 2776 1660
3 1065 2777 1066
3 1066 2778 1067
3 1067 2779 1068
3 1068 2780 1069
3 1069 2781 1070
4 1070 2782 2783 1071
3 1071 2784 1072
3 1072 2785 1073
3 1073 2786 1074
3 1074 2787 1075
4 1075 2788 2789 1076
3 1076 2790 1077
4 1077 2791 2792 1078
3 1078 2793 1079
5 1079 2794 2795 2796 1080
3 1080 2797 1081
3 1081 2798 1082
3 1082 2799 1083
3 1083 2800 1084
3 1084 2801 1085
4 1085 2802 2803 1086
3 1086 2804 1087
3 1087 2805 1088
4 1088 2806 2807 1089
3 1089 2808 1090
3 1090 2809 1091
3 1091 2810 1092
3 1092 2811 1093
3 1093 2812 1094
3 1094 2813 1095
3 1095 2814 1096
3 1096 2815 1097
3 1097 2816 1098
3 1098 2817 1099
3 1099 2818 1100
3 1100 2819 1101
3 1101 2820 1102
3 1102 2821 1103
3 1103 2822 1104
3 1104 2823 1105
3 1105 2824 1106
3 1106 2825 1107
3 1107 2826 1108
3 1108 2827 1109
3 1109 2828 1110
3 1110 2829 1111
3 1111 2830 1112
3 1112 2831 1113
3 1113 2832 1114
3 1114 2833 1115
3 1115 2834 1116
3 1116 2835 1117
3 1117 2836 1118
3 1118 2837 1119
3 1119 2838 1120
3 1120 2839 1121
3 1121 2840 1122
3 1122 2841 1123
3 1123 2842 1124
3 1124 2843 1125
3 1125 2844 1126
3 1126 2845 1127
3 1127 2846 1128
3 1128 2847 1129
3 1129 2848 1130
3 1130 2849 1131
3 1131 2850 1132
3 1132 2851 1133
3 1133 2852 1134
3 1134 2853 1135
3 1135 2854 1136
3 1136 2855 1137
3 1137 2856 1138
3 1138 2857 1139
3 1139 2858 1140
3 1140 2859 1141
3 1141 2860 1142
3 1142 2861 1143
3 1143 2862 1144
3 1144 2863 1145
3 1145 2864 1146
3 1146 2865 1147
3 1147 2866 1148
3 1148 2867 1149
3 1149 2868 1150
3 1150 2869 1151
3 1151 2870 1152
3 1152 2871 1153
3 1153 2872 1154
3 1154 2873 1155
3 1155 2874 1156
3 1156 2875 1157
3 1157 2876 1158
3 1158 2877 1159
3 1159 2878 1160
3 1160 2879 1161
3 1161 2880 1162
3 1162 2881 1163
3 1163 2882 1164
3 1164 2883 1165
3 1165 2884 1166
3 1166 2885 1167
3 1167 2886 1168
3 1168 2887 1169
3 1169 2888 1170
3 1170 2889 1171
3 1171 2890 1172
3 1172 2891 1173
3 1173 2892 1174
3 1174 2893 1175
3 1175 2894 1176
3 1176 2895 1177
3 1177 2896 1178
3 1178 2897 1179
3 1179 2898 1180
3 1180 2899 1181
3 1181 2900 1182
3 1182 2901 1183
3 1183 2902 1184
3 1184 2903 1185
3 1185 2904 1186
3 1186 2905 1187
3 1187 2906 1188
3 1188 2907 1189
3 1189 2908 1190
3 1190 2909 1191
3 1191 2910 1192
3 1192 2911 1193
3 1193 2912 1194
3 1194 2913 1195
3 1195 2914 1196
3 1196 2915 1197
3 1197 2916 1198
3 1198 2917 1199
3 1199 2918 1200
3 1200 2919 1201
3 1201 2920 1202
3 1202 2921 1203
3 1203 2922 1204
3 1204 2923 1205
3 1205 2924 1206
3 1206 2925 1207
3 1207 2926 1208
3 1208 2927 1209
3 1209 2928 1210
3 1210 2929 1211
3 1211 2930 1212
3 1212 2931 1213
3 1213 2932 1214
3 1214 2933 1215
3 1215 2934 1216
3 1216 2935 1217
3 1217 2936 1218
3 1218 2937 1219
3 1219 2938 1220
3 1220 2939 1221
3 1221 2940 1222
3 1222 2941 1223
4 1223 2942 2943 1224
3 1224 2944 1225
3 1225 2945 1226
3 1226 2946 1227
3 1227 2947 1228
3 1228 2948 1229
3 1229 2949 1230
3 1230 2950 1231
3 1231 2951 1232
3 1232 2952 1233
3 1233 2953 1234
3 1234 2954 1235
3 1235 2955 1236
3 1236 2956 1237
3 1237 2957 1238
3 1238 2958 1239
3 1239 2959 1240
3 1240 2960 1241
3 1241 2961 1242
3 1242 2962 1243
3 1243 2963 1244
3 1244 2964 1245
3 1245 2965 1246
3 1246 2966 1247
3 1247 2967 1248
3 1248 2968 1249
3 1249 2969 1250
3 1250 2970 1251
4 1251 2971 2972 1252
3 1252 2973 1253
3 1253 2974 1254
3 1254 2975 1255
3 1255 2976 1256
3 1256 2977 1257
3 1257 2978 1258
3 1258 2979 1259
3 1259 2980 1260
4 1260 2981 2982 1261
3 1263 2983 1264
3 1263 2984 1654
3 1264 2985 1265
3 1265 2986 1266
3 1266 2987 1267
3 1267 2988 1268
3 1268 2989 1269
3 1269 2990 1270
3 1270 2991 1271
3 1271 2992 1272
4 1272 2993 2994 1273
3 1273 2995 1274
3 1274 2996 1275
3 1275 2997 1276
3 1276 2998 1277
3 1277 2999 1278
3 1278 3000 1279
3 1279 3001 1280
3 1280 3002 1281
3 1281 3003 1282
3 1282 3004 1283
3 1283 3005 1284
3 1284 3006 1285
3 1285 3007 1286
3 1286 3008 1287
3 1287 3009 1288
3 1288 3010 1289
3 1289 3011 1290
3 1290 3012 1291
3 1291 3013 1292
3 1292 3014 1293
3 1293 3015 1294
3 1294 3016 1295
3 1295 3017 1296
3 1296 3018 1297
3 1297 3019 1298
3 1298 3020 1299
3 1299 3021 1300
3 1300 3022 1301
3 1301 3023 1302
3 1302 3024 1303
3 1303 3025 1304
3 1304 3026 1305
3 1305 3027 1306
3 1306 3028 1307
3 1307 3029 1308
3 1308 3030 1309
3 1309 3031 1310
3 1310 3032 1311
3 1311 3033 1312
3 1312 3034 1313
3 1313 3035 1314
3 1314 3036 1315
3 1315 3037 1316
3 1316 3038 1317
3 1317 3039 1318
3 1318 3040 1319
3 1319 3041 1320
3 1320 3042 1321
3 1321 3043 1322
3 1322 3044 1323
3 1323 3045 1324
3 1324 3046 1325
3 1325 3047 1326
3 1326 3048 1327
3 1327 3049 1328
3 1328 3050 1329
3 1329 3051 1330
3 1330 3052 1331
3 1331 3053 1332
3 1332 3054 1333
3 1333 3055 1334
3 1334 3056 1335
3 1335 3057 1336
3 1336 3058 1337
3 1337 3059 1338
3 1338 3060 1339
3 1339 3061 1340
3 1340 3062 1341
3 1341 3063 1342
3 1342 3064 1343
3 1343 3065 1344
3 1344 3066 1345
3 1345 3067 1346
3 1346 3068 1347
3 1347 3069 1348
3 1348 3070 1349
3 1349 3071 1350
3 1350 3072 1351
3 1351 3073 1352
3 1352 3074 1353
3 1353 3075 1354
3 1354 3076 1355
3 1355 3077 1356
3 1356 3078 1357
3 1357 3079 1358
3 1358 3080 1359
3 1359 3081 1360
3 1360 3082 1361
3 1361 3083 1362
3 1362 3084 1363
3 1363 3085 1364
3 1364 3086 1365
3 1365 3087 1366
3 1366 3088 1367
3 1367 3089 1368
3 1368 3090 1369
3 1369 3091 1370
3 1370 3092 1371
3 1371 3093 1372
3 1372 3094 1373
3 1373 3095 1374
3 1374 3096 1375
3 1375 3097 1376
3 1376 3098 1377
3 1377 3099 1378
3 1378 3100 1379
3 1379 3101 1380
3 1380 3102 1381
3 1381 3103 1382
3 1382 3104 1383
3 1383 3105 1384
3 1384 3106 1385
3 1385 3107 1386
3 1386 3108 1387
3 1387 3109 1388
3 1388 3110 1389
3 1389 3111 1390
3 1390 3112 1391
3 1391 3113 1392
3 1392 3114 1393
4 1393 3115 3116 1394
3 1394 3117 1395
3 1395 3118 1396
3 1396 3119 1397
3 1397 3120 1398
3 1398 3121 1399
3 1399 3122 1400
3 1400 3123 1401
3 1401 3124 1402
3 1402 3125 1403
4 1403 3126 3127 1404
3 1404 3128 1405
3 1405 3129 1406
3 1406 3130 1407
3 1407 3131 1408
3 1408 3132 1409
4 1409 3133 3134 1410
3 1410 3135 1411
3 1411 3136 1412
3 1412 3137 1413
3 1413 3138 1414
3 1414 3139 1415
3 1415 3140 1416
3 1416 3141 1417
3 1417 3142 1418
3 1418 3143 1419
3 1419 3144 1420
4 1420 3145 3146 1421
3 1421 3147 1422
3 1422 3148 1423
3 1423 3149 1424
3 1424 3150 1425
3 1425 3151 1426
3 1426 3152 1427
3 1427 3153 1428
3 1428 3154 1429
4 1429 3155 3156 1430
3 1430 3157 1431
3 1431 3158 1432
3 1432 3159 1433
3 1433 3160 1434
3 1434 3161 1435
3 1435 3162 1436
3 1436 3163 1437
3 1437 3164 1438
3 1438 3165 1439
3 1439 3166 1440
3 1440 3167 1441
3 1441 3168 1442
4 1442 3169 3170 1443
3 1443 3171 1444
3 1444 3172 1445
3 1445 3173 1661
3 1446 3174 1447
3 1446 3175 1662
3 1447 3176 1448
3 1448 3177 1449
4 1449 3178 3179 1450
3 1450 3180 1451
3 1451 3181 1452
3 1452 3182 1453
3 1453 3183 1454
3 1454 3184 1455
3 1455 3185 1456
3 1456 3186 1457
3 1457 3187 1458
3 1458 3188 1459
3 1459 3189 1460
3 1460 3190 1461
3 1461 3191 1462
3 1462 3192 1463
3 1463 3193 1464
3 1464 3194 1465
4 1465 3195 3196 1466
3 1466 3197 1467
3 1467 3198 1468
3 1468 3199 1469
3 1469 3200 1470
3 1470 3201 1471
4 1471 3202 3203 1472
3 1472 3204 1473
3 1473 3205 1474
3 1474 3206 1475
3 1475 3207 1476
3 1476 3208 1477
3 1477 3209 1478
3 1478 3210 1479
3 1479 3211 1480
3 1480 3212 1481
3 1481 3213 1482
3 1482 3214 1483
3 1483 3215 1484
3 1484 3216 1485
3 1485 3217 1486
3 1486 3218 1487
3 1487 3219 1488
3 1488 3220 1489
3 1489 3221 1490
3 1490 3222 1491
3 1491 3223 1492
3 1492 3224 1493
4 1493 3225 3226 1494
3 1494 3227 1495
4 1495 3228 3229 1496
3 1496 3230 1497
4 1497 3231 3232 1498
3 1498 3233 1499
3 1499 3234 1500
3 1500 3235 1501
3 1501 3236 1502
3 1502 3237 1503
3 1503 3238 1504
3 1504 3239 1505
3 1505 3240 1506
3 1506 3241 1507
3 1507 3242 1508
3 1508 3243 1509
3 1509 3244 1510
3 1510 3245 1511
3 1511 3246 1512
3 1512 3247 1513
3 1513 3248 1514
3 1514 3249 1515
3 1515 3250 1516
3 1516 3251 1517
3 1517 3252 1518
3 1518 3253 1519
3 1519 3254 1520
3 1520 3255 1521
3 1521 3256 1522
3 1522 3257 1523
3 1523 3258 1524
3 1524 3259 1525
3 1525 3260 1526
3 1526 3261 1527
3 1527 3262 1528
3 1528 3263 1529
3 1529 3264 1530
3 1530 3265 1531
3 1531 3266 1532
3 1532 3267 1533
3 1533 3268 1534
3 1534 3269 1535
3 1535 3270 1536
3 1536 3271 1537
3 1537 3272 1538
3 1538 3273 1539
3 1539 3274 1540
3 1540 3275 1541
3 1541 3276 1542
3 1542 3277 1543
3 1543 3278 1544
3 1544 3279 1545
3 1545 3280 1546
3 1546 3281 1547
3 1547 3282 1548
3 1548 3283 1549
3 1549 3284 1550
3 1550 3285 1551
3 1551 3286 1552
3 1552 3287 1553
3 1553 3288 1554
3 1554 3289 1555
3 1555 3290 1556
3 1556 3291 1557
3 1557 3292 1558
3 1558 3293 1559
3 1559 3294 1560
3 1560 3295 1561
3 1561 3296 1562
3 1562 3297 1563
3 1563 3298 1564
3 1564 3299 1565
3 1565 3300 1566
3 1566 3301 1567
3 1567 3302 1568
3 1568 3303 1569
3 1569 3304 1570
3 1570 3305 1571
3 1571 3306 1572
3 1572 3307 1573
3 1573 3308 1574
3 1574 3309 1575
3 1575 3310 1576
3 1576 3311 1577
3 1577 3312 1578
3 1578 3313 1579
3 1579 3314 1580
3 1580 3315 1581
3 1581 3316 1582
4 1582 3317 3318 1583
3 1583 3319 1584
3 1584 3320 1585
3 1585 3321 1586
3 1586 3322 1587
3 1587 3323 1588
3 1588 3324 1589
3 1589 3325 1590
3 1590 3326 1591
3 1591 3327 1592
3 1592 3328 1593
3 1593 3329 1594
3 1594 3330 1595
3 1595 3331 1596
3 1596 3332 1597
3 1597 3333 1598
3 1598 3334 1599
3 1599 3335 1600
3 1600 3336 1601
3 1601 3337 1602
3 1602 3338 1603
3 1603 3339 1604
3 1604 3340 1605
3 1605 3341 1606
3 1606 3342 1607
3 1607 3343 1608
3 1608 3344 1609
3 1609 3345 1610
3 1610 3346 1611
3 1611 3347 1612
3 1612 3348 1613
3 1613 3349 1614
3 1614 3350 1615
3 1615 3351 1616
3 1616 3352 1617
3 1617 3353 1618
3 1618 3354 1619
3 1619 3355 1620
3 1620 3356 1621
3 1621 3357 1622
3 1622 3358 1623
3 1623 3359 1624
3 1624 3360 1625
3 1625 3361 1626
3 1626 3362 1627
3 1627 3363 1628
3 1628 3364 1629
3 1629 3365 1630
3 1630 3366 1631
3 1631 3367 1632
3 1632 3368 1633
3 1633 3369 1634
3 1634 3370 1635
3 1635 3371 1636
3 1636 3372 1637
3 1637 3373 1638
3 1638 3374 1639
3 1639 3375 1640
3 1640 3376 1641
3 1641 3377 1642
3 1642 3378 1643
4 1643 3379 3380 1644
3 1644 3381 1645
3 1645 3382 1646
3 1646 3383 1647
3 1647 3384 1648
3 1648 3385 1649
3 1649 3386 1650
4 1650 3387 3388 1651
3 1651 3389 1652
3 1652 3390 1653
3 1653 3391 1654

CELL_TYPES 1651
4
4
4
4
4
4
4
4
4
4
4
4
4
4
4
4
4
4
4
4
4
4
4
4
4
4
4
4
4
4
4
4
4
4
4
4
4
4
4
4
4
4
4
4
4
4
4
4
4
4
4
4
4
4
4
4
4
4
4
4
4
4
4
4
4
4
4
4
4
4
4
4
4
4
4
4
4
4
4
4
4
4
4
4
4
4
4
4
4
4
4
4
4
4
4
4
4
4
4
4
4
4
4
4
4
4
4
4
4
4
4
4
4
4
4
4
4
4
4
4
4
4
4
4
4
4
4
4
4
4
4
4
4
4
4
4
4
4
4
4
4
4
4
4
4
4
4
4
4
4
4
4
4
4
4
4
4
4
4
4
4
4
4
4
4
4
4
4
4
4
4
4
4
4
4
4
4
4
4
4
4
4
4
4
4
4
4
4
4
4
4
4
4
4
4
4
4
4
4
4
4
4
4
4
4
4
4
4
4
4
4
4
4
4
4
4
4
4
4
4
4
4
4
4
4
4
4
4
4
4
4
4
4
4
4
4
4
4
4
4
4
4
4
4
4
4
4
4
4
4
4
4
4
4
4
4
4
4
4
4
4
4
4
4
4
4
4
4
4
4
4
4
4
4
4
4
4
4
4
4
4
4
4
4
4
4
4
4
4
4
4
4
4
4
4
4
4
4
4
4
4
4
4
4
4
4
4
4
4
4
4
4
4
4
4
4
4
4
4
4
4
4
4
4
4
4
4
4
4
4
4
4
4
4
4
4
4
4
4
4
4
4
4
4
4
4
4
4
4
4
4
4
4
4
4
4
4
4
4
4
4
4
4
4
4
4
4
4
4
4
4
4
4
4
4
4
4
4
4
4
4
4
4
4
4
4
4
4
4
4
4
4
4
4
4
4
4
4
4
4
4
4
4
4
4
4
4
4
4
4
4
4
4
4
4
4
4
4
4
4
4
4
4
4
4
4
4
4
4
4
4
4
4
4
4
4
4
4
4
4
4
4
4
4
4
4
4
4
4
4
4
4
4
4
4
4
4
4
4
4
4
4
4
4
4
4
4
4
4
4
4
4
4
4
4
4
4
4
4
4
4
4
4
4
4
4
4
4
4
4
4
4
4
4
4
4
4
4
4
4
4
4
4
4
4
4
4
4
4
4
4
4
4
4
4
4
4
4
4
4
4
4
4
4
4
4
4
4
4
4
4
4
4
4
4
4
4
4
4
4
4
4
4
4
4
4
4
4
4
4
4
4
4
4
4
4
4
4
4
4
4
4
4
4
4
4
4
4
4
4
4
4
4
4
4
4
4
4
4
4
4
4
4
4
4
4
4
4
4
4
4
4
4
4
4
4
4
4
4
4
4
4
4
4
4
4
4
4
4
4
4
4
4
4
4
4
4
4
4
4
4
4
4
4
4
4
4
4
4
4
4
4
4
4
4
4
4
4
4
4
4
4
4
4
4
4
4
4
4
4
4
4
4
4
4
4
4
4
4
4
4
4
4
4
4
4
4
4
4
4
4
4
4
4
4
4
4
4
4
4
4
4
4
4
4
4
4
4
4
4
4
4
4
4
4
4
4
4
4
4
4
4
4
4
4
4
4
4
4
4
4
4
4
4
4
4
4
4
4
4
4
4
4
4
4
4
4
4
4
4
4
4
4
4
4
4
4
4
4
4
4
4
4
4
4
4
4
4
4
4
4
4
4
4
4
4
4
4
4
4
4
4
4
4
4
4
4
4
4
4
4
4
4
4
4
4
4
4
4
4
4
4
4
4
4
4
4
4
4
4
4
4
4
4
4
4
4
4
4
4
4
4
4
4
4
4
4
4
4
4
4
4
4
4
4
4
4
4
4
4
4
4
4
4
4
4
4
4
4
4
4
4
4
4
4
4
4
4
4
4
4
4
4
4
4
4
4
4
4
4
4
4
4
4
4
4
4
4
4
4
4
4
4
4
4
4
4
4
4
4
4
4
4
4
4
4
4
4
4
4
4
4
4
4
4
4
4
4
4
4
4
4
4
4
4
4
4
4
4
4
4
4
4
4
4
4
4
4
4
4
4
4
4
4
4
4
4
4
4
4
4
4
4
4
4
4
4
4
4
4
4
4
4
4
4
4
4
4
4
4
4
4
4
4
4
4
4
4
4
4
4
4
4
4
4
4
4
4
4
4
4
4
4
4
4
4
4
4
4
4
4
4
4
4
4
4
4
4
4
4
4
4
4
4
4
4
4
4
4
4
4
4
4
4
4
4
4
4
4
4
4
4
4
4
4
4
4
4
4
4
4
4
4
4
4
4
4
4
4
4
4
4
4
4
4
4
4
4
4
4
4
4
4
4
4
4
4
4
4
4
4
4
4
4
4
4
4
4
4
4
4
4
4
4
4
4
4
4
4
4
4
4
4
4
4
4
4
4
4
4
4
4
4
4
4
4
4
4
4
4
4
4
4
4
4
4
4
4
4
4
4
4
4
4
4
4
4
4
4
4
4
4
4
4
4
4
4
4
4
4
4
4
4
4
4
4
4
4
4
4
4
4
4
4
4
4
4
4
4
4
4
4
4
4
4
4
4
4
4
4
4
4
4
4
4
4
4
4
4
4
4
4
4
4
4
4
4
4
4
4
4
4
4
4
4
4
4
4
4
4
4
4
4
4
4
4
4
4
4
4
4
4
4
4
4
4
4
4
4
4
4
4
4
4
4
4
4
4
4
4
4
4
4
4
4
4
4
4
4
4
4
4
4
4
4
4
4
4
4
4
4
4
4
4
4
4
4
4
4
4
4
4
4
4
4
4
4
4
4
4
4
4
4
4
4
4
4
4
4
4
4
4
4
4
4
4
4
4
4
4
4
4
4
4
4
4
4
4
4
4
4
4
4
4
4
4
4
4
4
4
4
4
4
4
4
4
4
4
4
4
4
4
4
4
4
4
4
4
4
4
4
4
4
4
4
4
4
4
4
4
4
4
4
4
4
4
4
4
4
4
4
4
4
4
4
4
4
4
4
4
4
4
4
4
4
4
4
4
4
4
4
4
4
4
4
4
4
4
4
4
4
4
4
4
4
4
4
4
4
4
4
4
4
4
4
4
4
4
4
4
4
4
4
4
4
4
4
4
4
4
4
4
4
4
4
4
4
4
4
4
4
4
4
4
4
4
4
4
4
4
4
4
4
4
4
4
4
4
4
4
4
4
4
4
4
4
4
4
4
4
4
4
4
4
4
4
4
4
4
4
4
4
4
4
4
4
4
4
4
4
4
4
4
4
4
4
4
4
4
4
4
4
4
4
4
4
4
4
4
4
4
4
4
4
4
4
4
4
4
4
4
4
4
4
4
4
4
4
4
4
4
4
4
4
4
4
4
4
4
4
4
4
4
4
4
4
4
4
4
4
4
4
4
4
4
4
4
4
4
4
4
4
4
4
4
4
4
4
4
4
4
4
4
4
4
4
4
4
4
4
4
4
4
4
4
4
4
4
4
4
4
4
4
4
4
4
4
4
4
4
4
4
4
4
4
4
4
4
4
4
4
4
4
4
4
4
4
4
4
4
4
4
4
4
4
4
4
4
4
4
4
4
4
4
4
4
4
4
4
4
4
4
4
4
4
4
4
4
4
4
4
4
4
4
4
4
4
4
4
4
4
4
4
4
4
4
4
4
4
4
4
4
4
4
4
4
4
4
4
4
4
4
4
4
4
4
4
4
4
4
4
4
4
4
4
4
4
4
4
4
4

POINT_DATA 3392
VECTORS PK_force double
0.000000000000000e+00 0.000000000000000e+00 0.000000000000000e+00
0.000000000000000e+00 0.000000000000000e+00 0.000000000000000e+00
0.000000000000000e+00 0.000000000000000e+00 0.000000000000000e+00
0.000000000000000e+00 0.000000000000000e+00 0.000000000000000e+00
0.000000000000000e+00 0.000000000000000e+00 0.000000000000000e+00
0.000000000000000e+00 0.000000000000000e+00 0.000000000000000e+00
0.000000000000000e+00 0.000000000000000e+00 0.000000000000000e+00
0.000000000000000e+00 0.000000000000000e+00 0.000000000000000e+00
0.000000000000000e+00 0.000000000000000e+00 0.000000000000000e+00
0.000000000000000e+00 0.000000000000000e+00 0.000000000000000e+00
0.000000000000000e+00 0.000000000000000e+00 0.000000000000000e+00
0.000000000000000e+00 0.000000000000000e+00 0.000000000000000e+00
0.000000000000000e+00 0.000000000000000e+00 0.000000000000000e+00
0.000000000000000e+00 0.000000000000000e+00 0.000000000000000e+00
0.000000000000000e+00 0.000000000000000e+00 0.000000000000000e+00
0.000000000000000e+00 0.000000000000000e+00 0.000000000000000e+00
0.000000000000000e+00 0.000000000000000e+00 0.000000000000000e+00
0.000000000000000e+00 0.000000000000000e+00 0.000000000000000e+00
0.000000000000000e+00 0.000000000000000e+00 0.000000000000000e+00
0.000000000000000e+00 0.000000000000000e+00 0.000000000000000e+00
0.000000000000000e+00 0.000000000000000e+00 0.000000000000000e+00
0.000000000000000e+00 0.000000000000000e+00 0.000000000000000e+00
0.000000000000000e+00 0.000000000000000e+00 0.000000000000000e+00
0.000000000000000e+00 0.000000000000000e+00 0.000000000000000e+00
0.000000000000000e+00 0.000000000000000e+00 0.000000000000000e+00
0.000000000000000e+00 0.000000000000000e+00 0.000000000000000e+00
0.000000000000000e+00 0.000000000000000e+00 0.000000000000000e+00
0.000000000000000e+00 0.000000000000000e+00 0.000000000000000e+00
0.000000000000000e+00 0.000000000000000e+00 0.000000000000000e+00
0.000000000000000e+00 0.000000000000000e+00 0.000000000000000e+00
0.000000000000000e+00 0.000000000000000e+00 0.000000000000000e+00
0.000000000000000e+00 0.000000000000000e+00 0.000000000000000e+00
0.000000000000000e+00 0.000000000000000e+00 0.000000000000000e+00
0.000000000000000e+00 0.000000000000000e+00 0.000000000000000e+00
0.000000000000000e+00 0.000000000000000e+00 0.000000000000000e+00
0.000000000000000e+00 0.000000000000000e+00 0.000000000000000e+00
0.000000000000000e+00 0.000000000000000e+00 0.000000000000000e+00
0.000000000000000e+00 0.000000000000000e+00 0.000000000000000e+00
0.000000000000000e+00 0.000000000000000e+00 0.000000000000000e+00
0.000000000000000e+00 0.000000000000000e+00 0.000000000000000e+00
0.000000000000000e+00 0.000000000000000e+00 0.000000000000000e+00
0.000000000000000e+00 0.000000000000000e+00 0.000000000000000e+00
0.000000000000000e+00 0.000000000000000e+00 0.000000000000000e+00
0.000000000000000e+00 0.000000000000000e+00 0.000000000000000e+00
0.000000000000000e+00 0.000000000000000e+00 0.000000000000000e+00
0.000000000000000e+00 0.000000000000000e+00 0.000000000000000e+00
0.000000000000000e+00 0.000000000000000e+00 0.000000000000000e+00
0.000000000000000e+00 0.000000000000000e+00 0.000000000000000e+00
0.000000000000000e+00 0.000000000000000e+00 0.000000000000000e+00
0.000000000000000e+00 0.000000000000000e+00 0.000000000000000e+00
0.000000000000000e+00 0.000000000000000e+00 0.000000000000000e+00
0.000000000000000e+00 0.000000000000000e+00 0.000000000000000e+00
0.000000000000000e+00 0.000000000000000e+00 0.000000000000000e+00
0.000000000000000e+00 0.000000000000000e+00 0.000000000000000e+00
0.000000000000000e+00 0.000000000000000e+00 0.000000000000000e+00
0.000000000000000e+00 0.000000000000000e+00 0.000000000000000e+00
0.000000000000000e+00 0.000000000000000e+00 0.000000000000000e+00
0.000000000000000e+00 0.000000000000000e+00 0.000000000000000e+00
0.000000000000000e+00 0.000000000000000e+00 0.000000000000000e+00
0.000000000000000e+00 0.000000000000000e+00 0.000000000000000e+00
0.000000000000000e+00 0.000000000000000e+00 0.000000000000000e+00
0.000000000000000e+00 0.000000000000000e+00 0.000000000000000e+00
0.000000000000000e+00 0.000000000000000e+00 0.000000000000000e+00
0.000000000000000e+00 0.000000000000000e+00 0.000000000000000e+00
0.000000000000000e+00 0.000000000000000e+00 0.000000000000000e+00
0.000000000000000e+00 0.000000000000000e+00 0.000000000000000e+00
0.000000000000000e+00 0.000000000000000e+00 0.000000000000000e+00
0.000000000000000e+00 0.000000000000000e+00 0.000000000000000e+00
0.000000000000000e+00 0.000000000000000e+00 0.000000000000000e+00
0.000000000000000e+00 0.000000000000000e+00 0.000000000000000e+00
0.000000000000000e+00 0.000000000000000e+00 0.000000000000000e+00
0.000000000000000e+00 0.000000000000000e+00 0.000000000000000e+00
0.000000000000000e+00 0.000000000000000e+00 0.000000000000000e+00
0.000000000000000e+00 0.000000000000000e+00 0.000000000000000e+00
0.000000000000000e+00 0.000000000000000e+00 0.000000000000000e+00
0.000000000000000e+00 0.000000000000000e+00 0.000000000000000e+00
0.000000000000000e+00 0.000000000000000e+00 0.000000000000000e+00
0.000000000000000e+00 0.000000000000000e+00 0.000000000000000e+00
0.000000000000000e+00 0.000000000000000e+00 0.000000000000000e+00
0.000000000000000e+00 0.000000000000000e+00 0.000000000000000e+00
0.000000000000000e+00 0.000000000000000e+00 0.000000000000000e+00
0.000000000000000e+00 0.000000000000000e+00 0.000000000000000e+00
0.000000000000000e+00 0.000000000000000e+00 0.000000000000000e+00
0.000000000000000e+00 0.000000000000000e+00 0.000000000000000e+00
0.000000000000000e+00 0.000000000000000e+00 0.000000000000000e+00
0.000000000000000e+00 0.000000000000000e+00 0.000000000000000e+00
0.000000000000000e+00 0.000000000000000e+00 0.000000000000000e+00
0.000000000000000e+00 0.000000000000000e+00 0.000000000000000e+00
0.000000000000000e+00 0.000000000000000e+00 0.000000000000000e+00
0.000000000000000e+00 0.000000000000000e+00 0.000000000000000e+00
0.000000000000000e+00 0.000000000000000e+00 0.000000000000000e+00
0.000000000000000e+00 0.000000000000000e+00 0.000000000000000e+00
0.000000000000000e+00 0.000000000000000e+00 0.000000000000000e+00
0.000000000000000e+00 0.000000000000000e+00 0.000000000000000e+00
0.000000000000000e+00 0.000000000000000e+00 0.000000000000000e+00
0.000000000000000e+00 0.000000000000000e+00 0.000000000000000e+00
0.000000000000000e+00 0.000000000000000e+00 0.000000000000000e+00
0.000000000000000e+00 0.000000000000000e+00 0.000000000000000e+00
0.000000000000000e+00 0.000000000000000e+00 0.000000000000000e+00
0.000000000000000e+00 0.000000000000000e+00 0.000000000000000e+00
0.000000000000000e+00 0.000000000000000e+00 0.000000000000000e+00
0.000000000000000e+00 0.000000000000000e+00 0.000000000000000e+00
0.000000000000000e+00 0.000000000000000e+00 0.000000000000000e+00
0.000000000000000e+00 0.000000000000000e+00 0.000000000000000e+00
0.000000000000000e+00 0.000000000000000e+00 0.000000000000000e+00
0.000000000000000e+00 0.000000000000000e+00 0.000000000000000e+00
0.000000000000000e+00 0.000000000000000e+00 0.000000000000000e+00
0.000000000000000e+00 0.000000000000000e+00 0.000000000000000e+00
0.000000000000000e+00 0.000000000000000e+00 0.000000000000000e+00
0.000000000000000e+00 0.000000000000000e+00 0.000000000000000e+00
0.000000000000000e+00 0.000000000000000e+00 0.000000000000000e+00
0.000000000000000e+00 0.000000000000000e+00 0.000000000000000e+00
0.000000000000000e+00 0.000000000000000e+00 0.000000000000000e+00
0.000000000000000e+00 0.000000000000000e+00 0.000000000000000e+00
0.000000000000000e+00 0.000000000000000e+00 0.000000000000000e+00
0.000000000000000e+00 0.000000000000000e+00 0.000000000000000e+00
0.000000000000000e+00 0.000000000000000e+00 0.000000000000000e+00
0.000000000000000e+00 0.000000000000000e+00 0.000000000000000e+00
0.000000000000000e+00 0.000000000000000e+00 0.000000000000000e+00
0.000000000000000e+00 0.000000000000000e+00 0.000000000000000e+00
0.000000000000000e+00 0.000000000000000e+00 0.000000000000000e+00
0.000000000000000e+00 0.000000000000000e+00 0.000000000000000e+00
0.000000000000000e+00 0.000000000000000e+00 0.000000000000000e+00
0.000000000000000e+00 0.000000000000000e+00 0.000000000000000e+00
0.000000000000000e+00 0.000000000000000e+00 0.000000000000000e+00
0.000000000000000e+00 0.000000000000000e+00 0.000000000000000e+00
0.000000000000000e+00 0.000000000000000e+00 0.000000000000000e+00
0.000000000000000e+00 0.000000000000000e+00 0.000000000000000e+00
0.000000000000000e+00 0.000000000000000e+00 0.000000000000000e+00
0.000000000000000e+00 0.000000000000000e+00 0.000000000000000e+00
0.000000000000000e+00 0.000000000000000e+00 0.000000000000000e+00
0.000000000000000e+00 0.000000000000000e+00 0.000000000000000e+00
0.000000000000000e+00 0.000000000000000e+00 0.000000000000000e+00
0.000000000000000e+00 0.000000000000000e+00 0.000000000000000e+00
0.000000000000000e+00 0.000000000000000e+00 0.000000000000000e+00
0.000000000000000e+00 0.000000000000000e+00 0.000000000000000e+00
0.000000000000000e+00 0.000000000000000e+00 0.000000000000000e+00
0.000000000000000e+00 0.000000000000000e+00 0.000000000000000e+00
0.000000000000000e+00 0.000000000000000e+00 0.000000000000000e+00
0.000000000000000e+00 0.000000000000000e+00 0.000000000000000e+00
0.000000000000000e+00 0.000000000000000e+00 0.000000000000000e+00
0.000000000000000e+00 0.000000000000000e+00 0.000000000000000e+00
0.000000000000000e+00 0.000000000000000e+00 0.000000000000000e+00
0.000000000000000e+00 0.000000000000000e+00 0.000000000000000e+00
0.000000000000000e+00 0.000000000000000e+00 0.000000000000000e+00
0.000000000000000e+00 0.000000000000000e+00 0.000000000000000e+00
0.000000000000000e+00 0.000000000000000e+00 0.000000000000000e+00
0.000000000000000e+00 0.000000000000000e+00 0.000000000000000e+00
0.000000000000000e+00 0.000000000000000e+00 0.000000000000000e+00
0.000000000000000e+00 0.000000000000000e+00 0.000000000000000e+00
0.000000000000000e+00 0.000000000000000e+00 0.000000000000000e+00
0.000000000000000e+00 0.000000000000000e+00 0.000000000000000e+00
0.000000000000000e+00 0.000000000000000e+00 0.000000000000000e+00
0.000000000000000e+00 0.000000000000000e+00 0.000000000000000e+00
0.000000000000000e+00 0.000000000000000e+00 0.000000000000000e+00
0.000000000000000e+00 0.000000000000000e+00 0.000000000000000e+00
0.000000000000000e+00 0.000000000000000e+00 0.000000000000000e+00
0.000000000000000e+00 0.000000000000000e+00 0.000000000000000e+00
0.000000000000000e+00 0.000000000000000e+00 0.000000000000000e+00
0.000000000000000e+00 0.000000000000000e+00 0.000000000000000e+00
0.000000000000000e+00 0.000000000000000e+00 0.000000000000000e+00
0.000000000000000e+00 0.000000000000000e+00 0.000000000000000e+00
0.000000000000000e+00 0.000000000000000e+00 0.000000000000000e+00
0.000000000000000e+00 0.000000000000000e+00 0.000000000000000e+00
0.000000000000000e+00 0.000000000000000e+00 0.000000000000000e+00
0.000000000000000e+00 0.000000000000000e+00 0.000000000000000e+00
0.000000000000000e+00 0.000000000000000e+00 0.000000000000000e+00
0.000000000000000e+00 0.000000000000000e+00 0.000000000000000e+00
0.000000000000000e+00 0.000000000000000e+00 0.000000000000000e+00
0.000000000000000e+00 0.000000000000000e+00 0.000000000000000e+00
0.000000000000000e+00 0.000000000000000e+00 0.000000000000000e+00
0.000000000000000e+00 0.000000000000000e+00 0.000000000000000e+00
0.000000000000000e+00 0.000000000000000e+00 0.000000000000000e+00
0.000000000000000e+00 0.000000000000000e+00 0.000000000000000e+00
0.000000000000000e+00 0.000000000000000e+00 0.000000000000000e+00
0.000000000000000e+00 0.000000000000000e+00 0.000000000000000e+00
0.000000000000000e+00 0.000000000000000e+00 0.000000000000000e+00
0.000000000000000e+00 0.000000000000000e+00 0.000000000000000e+00
0.000000000000000e+00 0.000000000000000e+00 0.000000000000000e+00
0.000000000000000e+00 0.000000000000000e+00 0.000000000000000e+00
0.000000000000000e+00 0.000000000000000e+00 0.000000000000000e+00
0.000000000000000e+00 0.000000000000000e+00 0.000000000000000e+00
0.000000000000000e+00 0.000000000000000e+00 0.000000000000000e+00
0.000000000000000e+00 0.000000000000000e+00 0.000000000000000e+00
0.000000000000000e+00 0.000000000000000e+00 0.000000000000000e+00
0.000000000000000e+00 0.000000000000000e+00 0.000000000000000e+00
0.000000000000000e+00 0.000000000000000e+00 0.000000000000000e+00
0.000000000000000e+00 0.000000000000000e+00 0.000000000000000e+00
0.000000000000000e+00 0.000000000000000e+00 0.000000000000000e+00
0.000000000000000e+00 0.000000000000000e+00 0.000000000000000e+00
0.000000000000000e+00 0.000000000000000e+00 0.000000000000000e+00
0.000000000000000e+00 0.000000000000000e+00 0.000000000000000e+00
0.000000000000000e+00 0.000000000000000e+00 0.000000000000000e+00
0.000000000000000e+00 0.000000000000000e+00 0.000000000000000e+00
0.000000000000000e+00 0.000000000000000e+00 0.000000000000000e+00
0.000000000000000e+00 0.000000000000000e+00 0.000000000000000e+00
0.000000000000000e+00 0.000000000000000e+00 0.000000000000000e+00
0.000000000000000e+00 0.000000000000000e+00 0.000000000000000e+00
0.000000000000000e+00 0.000000000000000e+00 0.000000000000000e+00
0.000000000000000e+00 0.000000000000000e+00 0.000000000000000e+00
0.000000000000000e+00 0.000000000000000e+00 0.000000000000000e+00
0.000000000000000e+00 0.000000000000000e+00 0.000000000000000e+00
0.000000000000000e+00 0.000000000000000e+00 0.000000000000000e+00
0.000000000000000e+00 0.000000000000000e+00 0.000000000000000e+00
0.000000000000000e+00 0.000000000000000e+00 0.000000000000000e+00
0.000000000000000e+00 0.000000000000000e+00 0.000000000000000e+00
0.000000000000000e+00 0.000000000000000e+00 0.000000000000000e+00
0.000000000000000e+00 0.000000000000000e+00 0.000000000000000e+00
0.000000000000000e+00 0.000000000000000e+00 0.000000000000000e+00
0.000000000000000e+00 0.000000000000000e+00 0.000000000000000e+00
0.000000000000000e+00 0.000000000000000e+00 0.000000000000000e+00
0.000000000000000e+00 0.000000000000000e+00 0.000000000000000e+00
0.000000000000000e+00 0.000000000000000e+00 0.000000000000000e+00
0.000000000000000e+00 0.000000000000000e+00 0.000000000000000e+00
0.000000000000000e+00 0.000000000000000e+00 0.000000000000000e+00
0.000000000000000e+00 0.000000000000000e+00 0.000000000000000e+00
0.000000000000000e+00 0.000000000000000e+00 0.000000000000000e+00
0.000000000000000e+00 0.000000000000000e+00 0.000000000000000e+00
0.000000000000000e+00 0.000000000000000e+00 0.000000000000000e+00
0.000000000000000e+00 0.000000000000000e+00 0.000000000000000e+00
0.000000000000000e+00 0.000000000000000e+00 0.000000000000000e+00
0.000000000000000e+00 0.000000000000000e+00 0.000000000000000e+00
0.000000000000000e+00 0.000000000000000e+00 0.000000000000000e+00
0.000000000000000e+00 0.000000000000000e+00 0.000000000000000e+00
0.000000000000000e+00 0.000000000000000e+00 0.000000000000000e+00
0.000000000000000e+00 0.000000000000000e+00 0.000000000000000e+00
0.000000000000000e+00 0.000000000000000e+00 0.000000000000000e+00
0.000000000000000e+00 0.000000000000000e+00 0.000000000000000e+00
0.000000000000000e+00 0.000000000000000e+00 0.000000000000000e+00
0.000000000000000e+00 0.000000000000000e+00 0.000000000000000e+00
0.000000000000000e+00 0.000000000000000e+00 0.000000000000000e+00
0.000000000000000e+00 0.000000000000000e+00 0.000000000000000e+00
0.000000000000000e+00 0.000000000000000e+00 0.000000000000000e+00
0.000000000000000e+00 0.000000000000000e+00 0.000000000000000e+00
0.000000000000000e+00 0.000000000000000e+00 0.000000000000000e+00
0.000000000000000e+00 0.000000000000000e+00 0.000000000000000e+00
0.000000000000000e+00 0.000000000000000e+00 0.000000000000000e+00
0.000000000000000e+00 0.000000000000000e+00 0.000000000000000e+00
0.000000000000000e+00 0.000000000000000e+00 0.000000000000000e+00
0.000000000000000e+00 0.000000000000000e+00 0.000000000000000e+00
0.000000000000000e+00 0.000000000000000e+00 0.000000000000000e+00
0.000000000000000e+00 0.000000000000000e+00 0.000000000000000e+00
0.000000000000000e+00 0.000000000000000e+00 0.000000000000000e+00
0.000000000000000e+00 0.000000000000000e+00 0.000000000000000e+00
0.000000000000000e+00 0.000000000000000e+00 0.000000000000000e+00
0.000000000000000e+00 0.000000000000000e+00 0.000000000000000e+00
0.000000000000000e+00 0.000000000000000e+00 0.000000000000000e+00
0.000000000000000e+00 0.000000000000000e+00 0.000000000000000e+00
0.000000000000000e+00 0.000000000000000e+00 0.000000000000000e+00
0.000000000000000e+00 0.000000000000000e+00 0.000000000000000e+00
0.000000000000000e+00 0.000000000000000e+00 0.000000000000000e+00
0.000000000000000e+00 0.000000000000000e+00 0.000000000000000e+00
0.000000000000000e+00 0.000000000000000e+00 0.000000000000000e+00
0.000000000000000e+00 0.000000000000000e+00 0.000000000000000e+00
0.000000000000000e+00 0.000000000000000e+00 0.000000000000000e+00
0.000000000000000e+00 0.000000000000000e+00 0.000000000000000e+00
0.000000000000000e+00 0.000000000000000e+00 0.000000000000000e+00
0.000000000000000e+00 0.000000000000000e+00 0.000000000000000e+00
0.000000000000000e+00 0.000000000000000e+00 0.000000000000000e+00
0.000000000000000e+00 0.000000000000000e+00 0.000000000000000e+00
0.000000000000000e+00 0.000000000000000e+00 0.000000000000000e+00
0.000000000000000e+00 0.000000000000000e+00 0.000000000000000e+00
0.000000000000000e+00 0.000000000000000e+00 0.000000000000000e+00
0.000000000000000e+00 0.000000000000000e+00 0.000000000000000e+00
0.000000000000000e+00 0.000000000000000e+00 0.000000000000000e+00
0.000000000000000e+00 0.000000000000000e+00 0.000000000000000e+00
0.000000000000000e+00 0.000000000000000e+00 0.000000000000000e+00
0.000000000000000e+00 0.000000000000000e+00 0.000000000000000e+00
0.000000000000000e+00 0.000000000000000e+00 0.000000000000000e+00
0.000000000000000e+00 0.000000000000000e+00 0.000000000000000e+00
0.000000000000000e+00 0.000000000000000e+00 0.000000000000000e+00
0.000000000000000e+00 0.000000000000000e+00 0.000000000000000e+00
0.000000000000000e+00 0.000000000000000e+00 0.000000000000000e+00
0.000000000000000e+00 0.000000000000000e+00 0.000000000000000e+00
0.000000000000000e+00 0.000000000000000e+00 0.000000000000000e+00
0.000000000000000e+00 0.000000000000000e+00 0.000000000000000e+00
0.000000000000000e+00 0.000000000000000e+00 0.000000000000000e+00
0.000000000000000e+00 0.000000000000000e+00 0.000000000000000e+00
0.000000000000000e+00 0.000000000000000e+00 0.000000000000000e+00
0.000000000000000e+00 0.000000000000000e+00 0.000000000000000e+00
0.000000000000000e+00 0.000000000000000e+00 0.000000000000000e+00
0.000000000000000e+00 0.000000000000000e+00 0.000000000000000e+00
0.000000000000000e+00 0.000000000000000e+00 0.000000000000000e+00
0.000000000000000e+00 0.000000000000000e+00 0.000000000000000e+00
0.000000000000000e+00 0.000000000000000e+00 0.000000000000000e+00
0.000000000000000e+00 0.000000000000000e+00 0.000000000000000e+00
0.000000000000000e+00 0.000000000000000e+00 0.000000000000000e+00
0.000000000000000e+00 0.000000000000000e+00 0.000000000000000e+00
0.000000000000000e+00 0.000000000000000e+00 0.000000000000000e+00
0.000000000000000e+00 0.000000000000000e+00 0.000000000000000e+00
0.000000000000000e+00 0.000000000000000e+00 0.000000000000000e+00
0.000000000000000e+00 0.000000000000000e+00 0.000000000000000e+00
0.000000000000000e+00 0.000000000000000e+00 0.000000000000000e+00
0.000000000000000e+00 0.000000000000000e+00 0.000000000000000e+00
0.000000000000000e+00 0.000000000000000e+00 0.000000000000000e+00
0.000000000000000e+00 0.000000000000000e+00 0.000000000000000e+00
0.000000000000000e+00 0.000000000000000e+00 0.000000000000000e+00
0.000000000000000e+00 0.000000000000000e+00 0.000000000000000e+00
0.000000000000000e+00 0.000000000000000e+00 0.000000000000000e+00
0.000000000000000e+00 0.000000000000000e+00 0.000000000000000e+00
0.000000000000000e+00 0.000000000000000e+00 0.000000000000000e+00
0.000000000000000e+00 0.000000000000000e+00 0.000000000000000e+00
0.000000000000000e+00 0.000000000000000e+00 0.000000000000000e+00
0.000000000000000e+00 0.000000000000000e+00 0.000000000000000e+00
0.000000000000000e+00 0.000000000000000e+00 0.000000000000000e+00
0.000000000000000e+00 0.000000000000000e+00 0.000000000000000e+00
0.000000000000000e+00 0.000000000000000e+00 0.000000000000000e+00
0.000000000000000e+00 0.000000000000000e+00 0.000000000000000e+00
0.000000000000000e+00 0.000000000000000e+00 0.000000000000000e+00
0.000000000000000e+00 0.000000000000000e+00 0.000000000000000e+00
0.000000000000000e+00 0.000000000000000e+00 0.000000000000000e+00
0.000000000000000e+00 0.000000000000000e+00 0.000000000000000e+00
0.000000000000000e+00 0.000000000000000e+00 0.000000000000000e+00
0.000000000000000e+00 0.000000000000000e+00 0.000000000000000e+00
0.000000000000000e+00 0.000000000000000e+00 0.000000000000000e+00
0.000000000000000e+00 0.000000000000000e+00 0.000000000000000e+00
0.000000000000000e+00 0.000000000000000e+00 0.000000000000000e+00
0.000000000000000e+00 0.000000000000000e+00 0.000000000000000e+00
0.000000000000000e+00 0.000000000000000e+00 0.000000000000000e+00
0.000000000000000e+00 0.000000000000000e+00 0.000000000000000e+00
0.000000000000000e+00 0.000000000000000e+00 0.000000000000000e+00
0.000000000000000e+00 0.000000000000000e+00 0.000000000000000e+00
0.000000000000000e+00 0.000000000000000e+00 0.000000000000000e+00
0.000000000000000e+00 0.000000000000000e+00 0.000000000000000e+00
0.000000000000000e+00 0.000000000000000e+00 0.000000000000000e+00
0.000000000000000e+00 0.000000000000000e+00 0.000000000000000e+00
0.000000000000000e+00 0.000000000000000e+00 0.000000000000000e+00
0.000000000000000e+00 0.000000000000000e+00 0.000000000000000e+00
0.000000000000000e+00 0.000000000000000e+00 0.000000000000000e+00
0.000000000000000e+00 0.000000000000000e+00 0.000000000000000e+00
0.000000000000000e+00 0.000000000000000e+00 0.000000000000000e+00
0.000000000000000e+00 0.000000000000000e+00 0.000000000000000e+00
0.000000000000000e+00 0.000000000000000e+00 0.000000000000000e+00
0.000000000000000e+00 0.000000000000000e+00 0.000000000000000e+00
0.000000000000000e+00 0.000000000000000e+00 0.000000000000000e+00
0.000000000000000e+00 0.000000000000000e+00 0.000000000000000e+00
0.000000000000000e+00 0.000000000000000e+00 0.000000000000000e+00
0.000000000000000e+00 0.000000000000000e+00 0.000000000000000e+00
0.000000000000000e+00 0.000000000000000e+00 0.000000000000000e+00
0.000000000000000e+00 0.000000000000000e+00 0.000000000000000e+00
0.000000000000000e+00 0.000000000000000e+00 0.000000000000000e+00
0.000000000000000e+00 0.000000000000000e+00 0.000000000000000e+00
0.000000000000000e+00 0.000000000000000e+00 0.000000000000000e+00
0.000000000000000e+00 0.000000000000000e+00 0.000000000000000e+00
0.000000000000000e+00 0.000000000000000e+00 0.000000000000000e+00
0.000000000000000e+00 0.000000000000000e+00 0.000000000000000e+00
0.000000000000000e+00 0.000000000000000e+00 0.000000000000000e+00
0.000000000000000e+00 0.000000000000000e+00 0.000000000000000e+00
0.000000000000000e+00 0.000000000000000e+00 0.000000000000000e+00
0.000000000000000e+00 0.000000000000000e+00 0.000000000000000e+00
0.000000000000000e+00 0.000000000000000e+00 0.000000000000000e+00
0.000000000000000e+00 0.000000000000000e+00 0.000000000000000e+00
0.000000000000000e+00 0.000000000000000e+00 0.000000000000000e+00
0.000000000000000e+00 0.000000000000000e+00 0.000000000000000e+00
0.000000000000000e+00 0.000000000000000e+00 0.000000000000000e+00
0.000000000000000e+00 0.000000000000000e+00 0.000000000000000e+00
0.000000000000000e+00 0.000000000000000e+00 0.000000000000000e+00
0.000000000000000e+00 0.000000000000000e+00 0.000000000000000e+00
0.000000000000000e+00 0.000000000000000e+00 0.000000000000000e+00
0.000000000000000e+00 0.000000000000000e+00 0.000000000000000e+00
0.000000000000000e+00 0.000000000000000e+00 0.000000000000000e+00
0.000000000000000e+00 0.000000000000000e+00 0.000000000000000e+00
0.000000000000000e+00 0.000000000000000e+00 0.000000000000000e+00
0.000000000000000e+00 0.000000000000000e+00 0.000000000000000e+00
0.000000000000000e+00 0.000000000000000e+00 0.000000000000000e+00
0.000000000000000e+00 0.000000000000000e+00 0.000000000000000e+00
0.000000000000000e+00 0.000000000000000e+00 0.000000000000000e+00
0.000000000000000e+00 0.000000000000000e+00 0.000000000000000e+00
0.000000000000000e+00 0.000000000000000e+00 0.000000000000000e+00
0.000000000000000e+00 0.000000000000000e+00 0.000000000000000e+00
0.000000000000000e+00 0.000000000000000e+00 0.000000000000000e+00
0.000000000000000e+00 0.000000000000000e+00 0.000000000000000e+00
0.000000000000000e+00 0.000000000000000e+00 0.000000000000000e+00
0.000000000000000e+00 0.000000000000000e+00 0.000000000000000e+00
0.000000000000000e+00 0.000000000000000e+00 0.000000000000000e+00
0.000000000000000e+00 0.000000000000000e+00 0.000000000000000e+00
0.000000000000000e+00 0.000000000000000e+00 0.000000000000000e+00
0.000000000000000e+00 0.000000000000000e+00 0.000000000000000e+00
0.000000000000000e+00 0.000000000000000e+00 0.000000000000000e+00
0.000000000000000e+00 0.000000000000000e+00 0.000000000000000e+00
0.000000000000000e+00 0.000000000000000e+00 0.000000000000000e+00
0.000000000000000e+00 0.000000000000000e+00 0.000000000000000e+00
0.000000000000000e+00 0.000000000000000e+00 0.000000000000000e+00
0.000000000000000e+00 0.000000000000000e+00 0.000000000000000e+00
0.000000000000000e+00 0.000000000000000e+00 0.000000000000000e+00
0.000000000000000e+00 0.000000000000000e+00 0.000000000000000e+00
0.000000000000000e+00 0.000000000000000e+00 0.000000000000000e+00
0.000000000000000e+00 0.000000000000000e+00 0.000000000000000e+00
0.000000000000000e+00 0.000000000000000e+00 0.000000000000000e+00
0.000000000000000e+00 0.000000000000000e+00 0.000000000000000e+00
0.000000000000000e+00 0.000000000000000e+00 0.000000000000000e+00
0.000000000000000e+00 0.000000000000000e+00 0.000000000000000e+00
0.000000000000000e+00 0.000000000000000e+00 0.000000000000000e+00
0.000000000000000e+00 0.000000000000000e+00 0.000000000000000e+00
0.000000000000000e+00 0.000000000000000e+00 0.000000000000000e+00
0.000000000000000e+00 0.000000000000000e+00 0.000000000000000e+00
0.000000000000000e+00 0.000000000000000e+00 0.000000000000000e+00
0.000000000000000e+00 0.000000000000000e+00 0.000000000000000e+00
0.000000000000000e+00 0.000000000000000e+00 0.000000000000000e+00
0.000000000000000e+00 0.000000000000000e+00 0.000000000000000e+00
0.000000000000000e+00 0.000000000000000e+00 0.000000000000000e+00
0.000000000000000e+00 0.000000000000000e+00 0.000000000000000e+00
0.000000000000000e+00 0.000000000000000e+00 0.000000000000000e+00
0.000000000000000e+00 0.000000000000000e+00 0.000000000000000e+00
0.000000000000000e+00 0.000000000000000e+00 0.000000000000000e+00
0.000000000000000e+00 0.000000000000000e+00 0.000000000000000e+00
0.000000000000000e+00 0.000000000000000e+00 0.000000000000000e+00
0.000000000000000e+00 0.000000000000000e+00 0.000000000000000e+00
0.000000000000000e+00 0.000000000000000e+00 0.000000000000000e+00
0.000000000000000e+00 0.000000000000000e+00 0.000000000000000e+00
0.000000000000000e+00 0.000000000000000e+00 0.000000000000000e+00
0.000000000000000e+00 0.000000000000000e+00 0.000000000000000e+00
0.000000000000000e+00 0.000000000000000e+00 0.000000000000000e+00
0.000000000000000e+00 0.000000000000000e+00 0.000000000000000e+00
0.000000000000000e+00 0.000000000000000e+00 0.000000000000000e+00
0.000000000000000e+00 0.000000000000000e+00 0.000000000000000e+00
0.000000000000000e+00 0.000000000000000e+00 0.000000000000000e+00
0.000000000000000e+00 0.000000000000000e+00 0.000000000000000e+00
0.000000000000000e+00 0.000000000000000e+00 0.000000000000000e+00
0.000000000000000e+00 0.000000000000000e+00 0.000000000000000e+00
0.000000000000000e+00 0.000000000000000e+00 0.000000000000000e+00
0.000000000000000e+00 0.000000000000000e+00 0.000000000000000e+00
0.000000000000000e+00 0.000000000000000e+00 0.000000000000000e+00
0.000000000000000e+00 0.000000000000000e+00 0.000000000000000e+00
0.000000000000000e+00 0.000000000000000e+00 0.000000000000000e+00
0.000000000000000e+00 0.000000000000000e+00 0.000000000000000e+00
0.000000000000000e+00 0.000000000000000e+00 0.000000000000000e+00
0.000000000000000e+00 0.000000000000000e+00 0.000000000000000e+00
0.000000000000000e+00 0.000000000000000e+00 0.000000000000000e+00
0.000000000000000e+00 0.000000000000000e+00 0.000000000000000e+00
0.000000000000000e+00 0.000000000000000e+00 0.000000000000000e+00
0.000000000000000e+00 0.000000000000000e+00 0.000000000000000e+00
0.000000000000000e+00 0.000000000000000e+00 0.000000000000000e+00
0.000000000000000e+00 0.000000000000000e+00 0.000000000000000e+00
0.000000000000000e+00 0.000000000000000e+00 0.000000000000000e+00
0.000000000000000e+00 0.000000000000000e+00 0.000000000000000e+00
0.000000000000000e+00 0.000000000000000e+00 0.000000000000000e+00
0.000000000000000e+00 0.000000000000000e+00 0.000000000000000e+00
0.000000000000000e+00 0.000000000000000e+00 0.000000000000000e+00
0.000000000000000e+00 0.000000000000000e+00 0.000000000000000e+00
0.000000000000000e+00 0.000000000000000e+00 0.000000000000000e+00
0.000000000000000e+00 0.000000000000000e+00 0.000000000000000e+00
0.000000000000000e+00 0.000000000000000e+00 0.000000000000000e+00
0.000000000000000e+00 0.000000000000000e+00 0.000000000000000e+00
0.000000000000000e+00 0.000000000000000e+00 0.000000000000000e+00
0.000000000000000e+00 0.000000000000000e+00 0.000000000000000e+00
0.000000000000000e+00 0.000000000000000e+00 0.000000000000000e+00
0.000000000000000e+00 0.000000000000000e+00 0.000000000000000e+00
0.000000000000000e+00 0.000000000000000e+00 0.000000000000000e+00
0.000000000000000e+00 0.000000000000000e+00 0.000000000000000e+00
0.000000000000000e+00 0.000000000000000e+00 0.000000000000000e+00
0.000000000000000e+00 0.000000000000000e+00 0.000000000000000e+00
0.000000000000000e+00 0.000000000000000e+00 0.000000000000000e+00
0.000000000000000e+00 0.000000000000000e+00 0.000000000000000e+00
0.000000000000000e+00 0.000000000000000e+00 0.000000000000000e+00
0.000000000000000e+00 0.000000000000000e+00 0.000000000000000e+00
0.000000000000000e+00 0.000000000000000e+00 0.000000000000000e+00
0.000000000000000e+00 0.000000000000000e+00 0.000000000000000e+00
0.000000000000000e+00 0.000000000000000e+00 0.000000000000000e+00
0.000000000000000e+00 0.000000000000000e+00 0.000000000000000e+00
0.000000000000000e+00 0.000000000000000e+00 0.000000000000000e+00
0.000000000000000e+00 0.000000000000000e+00 0.000000000000000e+00
0.000000000000000e+00 0.000000000000000e+00 0.000000000000000e+00
0.000000000000000e+00 0.000000000000000e+00 0.000000000000000e+00
0.000000000000000e+00 0.000000000000000e+00 0.000000000000000e+00
0.000000000000000e+00 0.000000000000000e+00 0.000000000000000e+00
0.000000000000000e+00 0.000000000000000e+00 0.000000000000000e+00
0.000000000000000e+00 0.000000000000000e+00 0.000000000000000e+00
0.000000000000000e+00 0.000000000000000e+00 0.000000000000000e+00
0.000000000000000e+00 0.000000000000000e+00 0.000000000000000e+00
0.000000000000000e+00 0.000000000000000e+00 0.000000000000000e+00
0.000000000000000e+00 0.000000000000000e+00 0.000000000000000e+00
0.000000000000000e+00 0.000000000000000e+00 0.000000000000000e+00
0.000000000000000e+00 0.000000000000000e+00 0.000000000000000e+00
0.000000000000000e+00 0.000000000000000e+00 0.000000000000000e+00
0.000000000000000e+00 0.000000000000000e+00 0.000000000000000e+00
0.000000000000000e+00 0.000000000000000e+00 0.000000000000000e+00
0.000000000000000e+00 0.000000000000000e+00 0.000000000000000e+00
0.000000000000000e+00 0.000000000000000e+00 0.000000000000000e+00
0.000000000000000e+00 0.000000000000000e+00 0.000000000000000e+00
0.000000000000000e+00 0.000000000000000e+00 0.000000000000000e+00
0.000000000000000e+00 0.000000000000000e+00 0.000000000000000e+00
0.000000000000000e+00 0.000000000000000e+00 0.000000000000000e+00
0.000000000000000e+00 0.000000000000000e+00 0.000000000000000e+00
0.000000000000000e+00 0.000000000000000e+00 0.000000000000000e+00
0.000000000000000e+00 0.000000000000000e+00 0.000000000000000e+00
0.000000000000000e+00 0.000000000000000e+00 0.000000000000000e+00
0.000000000000000e+00 0.000000000000000e+00 0.000000000000000e+00
0.000000000000000e+00 0.000000000000000e+00 0.000000000000000e+00
0.000000000000000e+00 0.000000000000000e+00 0.000000000000000e+00
0.000000000000000e+00 0.000000000000000e+00 0.000000000000000e+00
0.000000000000000e+00 0.000000000000000e+00 0.000000000000000e+00
0.000000000000000e+00 0.000000000000000e+00 0.000000000000000e+00
0.000000000000000e+00 0.000000000000000e+00 0.000000000000000e+00
0.000000000000000e+00 0.000000000000000e+00 0.000000000000000e+00
0.000000000000000e+00 0.000000000000000e+00 0.000000000000000e+00
0.000000000000000e+00 0.000000000000000e+00 0.000000000000000e+00
0.000000000000000e+00 0.000000000000000e+00 0.000000000000000e+00
0.000000000000000e+00 0.000000000000000e+00 0.000000000000000e+00
0.000000000000000e+00 0.000000000000000e+00 0.000000000000000e+00
0.000000000000000e+00 0.000000000000000e+00 0.000000000000000e+00
0.000000000000000e+00 0.000000000000000e+00 0.000000000000000e+00
0.000000000000000e+00 0.000000000000000e+00 0.000000000000000e+00
0.000000000000000e+00 0.000000000000000e+00 0.000000000000000e+00
0.000000000000000e+00 0.000000000000000e+00 0.000000000000000e+00
0.000000000000000e+00 0.000000000000000e+00 0.000000000000000e+00
0.000000000000000e+00 0.000000000000000e+00 0.000000000000000e+00
0.000000000000000e+00 0.000000000000000e+00 0.000000000000000e+00
0.000000000000000e+00 0.000000000000000e+00 0.000000000000000e+00
0.000000000000000e+00 0.000000000000000e+00 0.000000000000000e+00
0.000000000000000e+00 0.000000000000000e+00 0.000000000000000e+00
0.000000000000000e+00 0.000000000000000e+00 0.000000000000000e+00
0.000000000000000e+00 0.000000000000000e+00 0.000000000000000e+00
0.000000000000000e+00 0.000000000000000e+00 0.000000000000000e+00
0.000000000000000e+00 0.000000000000000e+00 0.000000000000000e+00
0.000000000000000e+00 0.000000000000000e+00 0.000000000000000e+00
0.000000000000000e+00 0.000000000000000e+00 0.000000000000000e+00
0.000000000000000e+00 0.000000000000000e+00 0.000000000000000e+00
0.000000000000000e+00 0.000000000000000e+00 0.000000000000000e+00
0.000000000000000e+00 0.000000000000000e+00 0.000000000000000e+00
0.000000000000000e+00 0.000000000000000e+00 0.000000000000000e+00
0.000000000000000e+00 0.000000000000000e+00 0.000000000000000e+00
0.000000000000000e+00 0.000000000000000e+00 0.000000000000000e+00
0.000000000000000e+00 0.000000000000000e+00 0.000000000000000e+00
0.000000000000000e+00 0.000000000000000e+00 0.000000000000000e+00
0.000000000000000e+00 0.000000000000000e+00 0.000000000000000e+00
0.000000000000000e+00 0.000000000000000e+00 0.000000000000000e+00
0.000000000000000e+00 0.000000000000000e+00 0.000000000000000e+00
0.000000000000000e+00 0.000000000000000e+00 0.000000000000000e+00
0.000000000000000e+00 0.000000000000000e+00 0.000000000000000e+00
0.000000000000000e+00 0.000000000000000e+00 0.000000000000000e+00
0.000000000000000e+00 0.000000000000000e+00 0.000000000000000e+00
0.000000000000000e+00 0.000000000000000e+00 0.000000000000000e+00
0.000000000000000e+00 0.000000000000000e+00 0.000000000000000e+00
0.000000000000000e+00 0.000000000000000e+00 0.000000000000000e+00
0.000000000000000e+00 0.000000000000000e+00 0.000000000000000e+00
0.000000000000000e+00 0.000000000000000e+00 0.000000000000000e+00
0.000000000000000e+00 0.000000000000000e+00 0.000000000000000e+00
0.000000000000000e+00 0.000000000000000e+00 0.000000000000000e+00
0.000000000000000e+00 0.000000000000000e+00 0.000000000000000e+00
0.000000000000000e+00 0.000000000000000e+00 0.000000000000000e+00
0.000000000000000e+00 0.000000000000000e+00 0.000000000000000e+00
0.000000000000000e+00 0.000000000000000e+00 0.000000000000000e+00
0.000000000000000e+00 0.000000000000000e+00 0.000000000000000e+00
0.000000000000000e+00 0.000000000000000e+00 0.000000000000000e+00
0.000000000000000e+00 0.000000000000000e+00 0.000000000000000e+00
0.000000000000000e+00 0.000000000000000e+00 0.000000000000000e+00
0.000000000000000e+00 0.000000000000000e+00 0.000000000000000e+00
0.000000000000000e+00 0.000000000000000e+00 0.000000000000000e+00
0.000000000000000e+00 0.000000000000000e+00 0.000000000000000e+00
0.000000000000000e+00 0.000000000000000e+00 0.000000000000000e+00
0.000000000000000e+00 0.000000000000000e+00 0.000000000000000e+00
0.000000000000000e+00 0.000000000000000e+00 0.000000000000000e+00
0.000000000000000e+00 0.000000000000000e+00 0.000000000000000e+00
0.000000000000000e+00 0.000000000000000e+00 0.000000000000000e+00
0.000000000000000e+00 0.000000000000000e+00 0.000000000000000e+00
0.000000000000000e+00 0.000000000000000e+00 0.000000000000000e+00
0.000000000000000e+00 0.000000000000000e+00 0.000000000000000e+00
0.000000000000000e+00 0.000000000000000e+00 0.000000000000000e+00
0.000000000000000e+00 0.000000000000000e+00 0.000000000000000e+00
0.000000000000000e+00 0.000000000000000e+00 0.000000000000000e+00
0.000000000000000e+00 0.000000000000000e+00 0.000000000000000e+00
0.000000000000000e+00 0.000000000000000e+00 0.000000000000000e+00
0.000000000000000e+00 0.000000000000000e+00 0.000000000000000e+00
0.000000000000000e+00 0.000000000000000e+00 0.000000000000000e+00
0.000000000000000e+00 0.000000000000000e+00 0.000000000000000e+00
0.000000000000000e+00 0.000000000000000e+00 0.000000000000000e+00
0.000000000000000e+00 0.000000000000000e+00 0.000000000000000e+00
0.000000000000000e+00 0.000000000000000e+00 0.000000000000000e+00
0.000000000000000e+00 0.000000000000000e+00 0.000000000000000e+00
0.000000000000000e+00 0.000000000000000e+00 0.000000000000000e+00
0.000000000000000e+00 0.000000000000000e+00 0.000000000000000e+00
0.000000000000000e+00 0.000000000000000e+00 0.000000000000000e+00
0.000000000000000e+00 0.000000000000000e+00 0.000000000000000e+00
0.000000000000000e+00 0.000000000000000e+00 0.000000000000000e+00
0.000000000000000e+00 0.000000000000000e+00 0.000000000000000e+00
0.000000000000000e+00 0.000000000000000e+00 0.000000000000000e+00
0.000000000000000e+00 0.000000000000000e+00 0.000000000000000e+00
0.000000000000000e+00 0.000000000000000e+00 0.000000000000000e+00
0.000000000000000e+00 0.000000000000000e+00 0.000000000000000e+00
0.000000000000000e+00 0.000000000000000e+00 0.000000000000000e+00
0.000000000000000e+00 0.000000000000000e+00 0.000000000000000e+00
0.000000000000000e+00 0.000000000000000e+00 0.000000000000000e+00
0.000000000000000e+00 0.000000000000000e+00 0.000000000000000e+00
0.000000000000000e+00 0.000000000000000e+00 0.000000000000000e+00
0.000000000000000e+00 0.000000000000000e+00 0.000000000000000e+00
0.000000000000000e+00 0.000000000000000e+00 0.000000000000000e+00
0.000000000000000e+00 0.000000000000000e+00 0.000000000000000e+00
0.000000000000000e+00 0.000000000000000e+00 0.000000000000000e+00
0.000000000000000e+00 0.000000000000000e+00 0.000000000000000e+00
0.000000000000000e+00 0.000000000000000e+00 0.000000000000000e+00
0.000000000000000e+00 0.000000000000000e+00 0.000000000000000e+00
0.000000000000000e+00 0.000000000000000e+00 0.000000000000000e+00
0.000000000000000e+00 0.000000000000000e+00 0.000000000000000e+00
0.000000000000000e+00 0.000000000000000e+00 0.000000000000000e+00
0.000000000000000e+00 0.000000000000000e+00 0.000000000000000e+00
0.000000000000000e+00 0.000000000000000e+00 0.000000000000000e+00
0.000000000000000e+00 0.000000000000000e+00 0.000000000000000e+00
0.000000000000000e+00 0.000000000000000e+00 0.000000000000000e+00
0.000000000000000e+00 0.000000000000000e+00 0.000000000000000e+00
0.000000000000000e+00 0.000000000000000e+00 0.000000000000000e+00
0.000000000000000e+00 0.000000000000000e+00 0.000000000000000e+00
0.000000000000000e+00 0.000000000000000e+00 0.000000000000000e+00
0.000000000000000e+00 0.000000000000000e+00 0.000000000000000e+00
0.000000000000000e+00 0.000000000000000e+00 0.000000000000000e+00
0.000000000000000e+00 0.000000000000000e+00 0.000000000000000e+00
0.000000000000000e+00 0.000000000000000e+00 0.000000000000000e+00
0.000000000000000e+00 0.000000000000000e+00 0.000000000000000e+00
0.000000000000000e+00 0.000000000000000e+00 0.000000000000000e+00
0.000000000000000e+00 0.000000000000000e+00 0.000000000000000e+00
0.000000000000000e+00 0.000000000000000e+00 0.000000000000000e+00
0.000000000000000e+00 0.000000000000000e+00 0.000000000000000e+00
0.000000000000000e+00 0.000000000000000e+00 0.000000000000000e+00
0.000000000000000e+00 0.000000000000000e+00 0.000000000000000e+00
0.000000000000000e+00 0.000000000000000e+00 0.000000000000000e+00
0.000000000000000e+00 0.000000000000000e+00 0.000000000000000e+00
0.000000000000000e+00 0.000000000000000e+00 0.000000000000000e+00
0.000000000000000e+00 0.000000000000000e+00 0.000000000000000e+00
0.000000000000000e+00 0.000000000000000e+00 0.000000000000000e+00
0.000000000000000e+00 0.000000000000000e+00 0.000000000000000e+00
0.000000000000000e+00 0.000000000000000e+00 0.000000000000000e+00
0.000000000000000e+00 0.000000000000000e+00 0.000000000000000e+00
0.000000000000000e+00 0.000000000000000e+00 0.000000000000000e+00
0.000000000000000e+00 0.000000000000000e+00 0.000000000000000e+00
0.000000000000000e+00 0.000000000000000e+00 0.000000000000000e+00
0.000000000000000e+00 0.000000000000000e+00 0.000000000000000e+00
0.000000000000000e+00 0.000000000000000e+00 0.000000000000000e+00
0.000000000000000e+00 0.000000000000000e+00 0.000000000000000e+00
0.000000000000000e+00 0.000000000000000e+00 0.000000000000000e+00
0.000000000000000e+00 0.000000000000000e+00 0.000000000000000e+00
0.000000000000000e+00 0.000000000000000e+00 0.000000000000000e+00
0.000000000000000e+00 0.000000000000000e+00 0.000000000000000e+00
0.000000000000000e+00 0.000000000000000e+00 0.000000000000000e+00
0.000000000000000e+00 0.000000000000000e+00 0.000000000000000e+00
0.000000000000000e+00 0.000000000000000e+00 0.000000000000000e+00
0.000000000000000e+00 0.000000000000000e+00 0.000000000000000e+00
0.000000000000000e+00 0.000000000000000e+00 0.000000000000000e+00
0.000000000000000e+00 0.000000000000000e+00 0.000000000000000e+00
0.000000000000000e+00 0.000000000000000e+00 0.000000000000000e+00
0.000000000000000e+00 0.000000000000000e+00 0.000000000000000e+00
0.000000000000000e+00 0.000000000000000e+00 0.000000000000000e+00
0.000000000000000e+00 0.000000000000000e+00 0.000000000000000e+00
0.000000000000000e+00 0.000000000000000e+00 0.000000000000000e+00
0.000000000000000e+00 0.000000000000000e+00 0.000000000000000e+00
0.000000000000000e+00 0.000000000000000e+00 0.000000000000000e+00
0.000000000000000e+00 0.000000000000000e+00 0.000000000000000e+00
0.000000000000000e+00 0.000000000000000e+00 0.000000000000000e+00
0.000000000000000e+00 0.000000000000000e+00 0.000000000000000e+00
0.000000000000000e+00 0.000000000000000e+00 0.000000000000000e+00
0.000000000000000e+00 0.000000000000000e+00 0.000000000000000e+00
0.000000000000000e+00 0.000000000000000e+00 0.000000000000000e+00
0.000000000000000e+00 0.000000000000000e+00 0.000000000000000e+00
0.000000000000000e+00 0.000000000000000e+00 0.000000000000000e+00
0.000000000000000e+00 0.000000000000000e+00 0.000000000000000e+00
0.000000000000000e+00 0.000000000000000e+00 0.000000000000000e+00
0.000000000000000e+00 0.000000000000000e+00 0.000000000000000e+00
0.000000000000000e+00 0.000000000000000e+00 0.000000000000000e+00
0.000000000000000e+00 0.000000000000000e+00 0.000000000000000e+00
0.000000000000000e+00 0.000000000000000e+00 0.000000000000000e+00
0.000000000000000e+00 0.000000000000000e+00 0.000000000000000e+00
0.000000000000000e+00 0.000000000000000e+00 0.000000000000000e+00
0.000000000000000e+00 0.000000000000000e+00 0.000000000000000e+00
0.000000000000000e+00 0.000000000000000e+00 0.000000000000000e+00
0.000000000000000e+00 0.000000000000000e+00 0.000000000000000e+00
0.000000000000000e+00 0.000000000000000e+00 0.000000000000000e+00
0.000000000000000e+00 0.000000000000000e+00 0.000000000000000e+00
0.000000000000000e+00 0.000000000000000e+00 0.000000000000000e+00
0.000000000000000e+00 0.000000000000000e+00 0.000000000000000e+00
0.000000000000000e+00 0.000000000000000e+00 0.000000000000000e+00
0.000000000000000e+00 0.000000000000000e+00 0.000000000000000e+00
0.000000000000000e+00 0.000000000000000e+00 0.000000000000000e+00
0.000000000000000e+00 0.000000000000000e+00 0.000000000000000e+00
0.000000000000000e+00 0.000000000000000e+00 0.000000000000000e+00
0.000000000000000e+00 0.000000000000000e+00 0.000000000000000e+00
0.000000000000000e+00 0.000000000000000e+00 0.000000000000000e+00
0.000000000000000e+00 0.000000000000000e+00 0.000000000000000e+00
0.000000000000000e+00 0.000000000000000e+00 0.000000000000000e+00
0.000000000000000e+00 0.000000000000000e+00 0.000000000000000e+00
0.000000000000000e+00 0.000000000000000e+00 0.000000000000000e+00
0.000000000000000e+00 0.000000000000000e+00 0.000000000000000e+00
0.000000000000000e+00 0.000000000000000e+00 0.000000000000000e+00
0.000000000000000e+00 0.000000000000000e+00 0.000000000000000e+00
0.000000000000000e+00 0.000000000000000e+00 0.000000000000000e+00
0.000000000000000e+00 0.000000000000000e+00 0.000000000000000e+00
0.000000000000000e+00 0.000000000000000e+00 0.000000000000000e+00
0.000000000000000e+00 0.000000000000000e+00 0.000000000000000e+00
0.000000000000000e+00 0.000000000000000e+00 0.000000000000000e+00
0.000000000000000e+00 0.000000000000000e+00 0.000000000000000e+00
0.000000000000000e+00 0.000000000000000e+00 0.000000000000000e+00
0.000000000000000e+00 0.000000000000000e+00 0.000000000000000e+00
0.000000000000000e+00 0.000000000000000e+00 0.000000000000000e+00
0.000000000000000e+00 0.000000000000000e+00 0.000000000000000e+00
0.000000000000000e+00 0.000000000000000e+00 0.000000000000000e+00
0.000000000000000e+00 0.000000000000000e+00 0.000000000000000e+00
0.000000000000000e+00 0.000000000000000e+00 0.000000000000000e+00
0.000000000000000e+00 0.000000000000000e+00 0.000000000000000e+00
0.000000000000000e+00 0.000000000000000e+00 0.000000000000000e+00
0.000000000000000e+00 0.000000000000000e+00 0.000000000000000e+00
0.000000000000000e+00 0.000000000000000e+00 0.000000000000000e+00
0.000000000000000e+00 0.000000000000000e+00 0.000000000000000e+00
0.000000000000000e+00 0.000000000000000e+00 0.000000000000000e+00
0.000000000000000e+00 0.000000000000000e+00 0.000000000000000e+00
0.000000000000000e+00 0.000000000000000e+00 0.000000000000000e+00
0.000000000000000e+00 0.000000000000000e+00 0.000000000000000e+00
0.000000000000000e+00 0.000000000000000e+00 0.000000000000000e+00
0.000000000000000e+00 0.000000000000000e+00 0.000000000000000e+00
0.000000000000000e+00 0.000000000000000e+00 0.000000000000000e+00
0.000000000000000e+00 0.000000000000000e+00 0.000000000000000e+00
0.000000000000000e+00 0.000000000000000e+00 0.000000000000000e+00
0.000000000000000e+00 0.000000000000000e+00 0.000000000000000e+00
0.000000000000000e+00 0.000000000000000e+00 0.000000000000000e+00
0.000000000000000e+00 0.000000000000000e+00 0.000000000000000e+00
0.000000000000000e+00 0.000000000000000e+00 0.000000000000000e+00
0.000000000000000e+00 0.000000000000000e+00 0.000000000000000e+00
0.000000000000000e+00 0.000000000000000e+00 0.000000000000000e+00
0.000000000000000e+00 0.000000000000000e+00 0.000000000000000e+00
0.000000000000000e+00 0.000000000000000e+00 0.000000000000000e+00
0.000000000000000e+00 0.000000000000000e+00 0.000000000000000e+00
0.000000000000000e+00 0.000000000000000e+00 0.000000000000000e+00
0.000000000000000e+00 0.000000000000000e+00 0.000000000000000e+00
0.000000000000000e+00 0.000000000000000e+00 0.000000000000000e+00
0.000000000000000e+00 0.000000000000000e+00 0.000000000000000e+00
0.000000000000000e+00 0.000000000000000e+00 0.000000000000000e+00
0.000000000000000e+00 0.000000000000000e+00 0.000000000000000e+00
0.000000000000000e+00 0.000000000000000e+00 0.000000000000000e+00
0.000000000000000e+00 0.000000000000000e+00 0.000000000000000e+00
0.000000000000000e+00 0.000000000000000e+00 0.000000000000000e+00
0.000000000000000e+00 0.000000000000000e+00 0.000000000000000e+00
0.000000000000000e+00 0.000000000000000e+00 0.000000000000000e+00
0.000000000000000e+00 0.000000000000000e+00 0.000000000000000e+00
0.000000000000000e+00 0.000000000000000e+00 0.000000000000000e+00
0.000000000000000e+00 0.000000000000000e+00 0.000000000000000e+00
0.000000000000000e+00 0.000000000000000e+00 0.000000000000000e+00
0.000000000000000e+00 0.000000000000000e+00 0.000000000000000e+00
0.000000000000000e+00 0.000000000000000e+00 0.000000000000000e+00
0.000000000000000e+00 0.000000000000000e+00 0.000000000000000e+00
0.000000000000000e+00 0.000000000000000e+00 0.000000000000000e+00
0.000000000000000e+00 0.000000000000000e+00 0.000000000000000e+00
0.000000000000000e+00 0.000000000000000e+00 0.000000000000000e+00
0.000000000000000e+00 0.000000000000000e+00 0.000000000000000e+00
0.000000000000000e+00 0.000000000000000e+00 0.000000000000000e+00
0.000000000000000e+00 0.000000000000000e+00 0.000000000000000e+00
0.000000000000000e+00 0.000000000000000e+00 0.000000000000000e+00
0.000000000000000e+00 0.000000000000000e+00 0.000000000000000e+00
0.000000000000000e+00 0.000000000000000e+00 0.000000000000000e+00
0.000000000000000e+00 0.000000000000000e+00 0.000000000000000e+00
0.000000000000000e+00 0.000000000000000e+00 0.000000000000000e+00
0.000000000000000e+00 0.000000000000000e+00 0.000000000000000e+00
0.000000000000000e+00 0.000000000000000e+00 0.000000000000000e+00
0.000000000000000e+00 0.000000000000000e+00 0.000000000000000e+00
0.000000000000000e+00 0.000000000000000e+00 0.000000000000000e+00
0.000000000000000e+00 0.000000000000000e+00 0.000000000000000e+00
0.000000000000000e+00 0.000000000000000e+00 0.000000000000000e+00
0.000000000000000e+00 0.000000000000000e+00 0.000000000000000e+00
0.000000000000000e+00 0.000000000000000e+00 0.000000000000000e+00
0.000000000000000e+00 0.000000000000000e+00 0.000000000000000e+00
0.000000000000000e+00 0.000000000000000e+00 0.000000000000000e+00
0.000000000000000e+00 0.000000000000000e+00 0.000000000000000e+00
0.000000000000000e+00 0.000000000000000e+00 0.000000000000000e+00
0.000000000000000e+00 0.000000000000000e+00 0.000000000000000e+00
0.000000000000000e+00 0.000000000000000e+00 0.000000000000000e+00
0.000000000000000e+00 0.000000000000000e+00 0.000000000000000e+00
0.000000000000000e+00 0.000000000000000e+00 0.000000000000000e+00
0.000000000000000e+00 0.000000000000000e+00 0.000000000000000e+00
0.000000000000000e+00 0.000000000000000e+00 0.000000000000000e+00
0.000000000000000e+00 0.000000000000000e+00 0.000000000000000e+00
0.000000000000000e+00 0.000000000000000e+00 0.000000000000000e+00
0.000000000000000e+00 0.000000000000000e+00 0.000000000000000e+00
0.000000000000000e+00 0.000000000000000e+00 0.000000000000000e+00
0.000000000000000e+00 0.000000000000000e+00 0.000000000000000e+00
0.000000000000000e+00 0.000000000000000e+00 0.000000000000000e+00
0.000000000000000e+00 0.000000000000000e+00 0.000000000000000e+00
0.000000000000000e+00 0.000000000000000e+00 0.000000000000000e+00
0.000000000000000e+00 0.000000000000000e+00 0.000000000000000e+00
0.000000000000000e+00 0.000000000000000e+00 0.000000000000000e+00
0.000000000000000e+00 0.000000000000000e+00 0.000000000000000e+00
0.000000000000000e+00 0.000000000000000e+00 0.000000000000000e+00
0.000000000000000e+00 0.000000000000000e+00 0.000000000000000e+00
0.000000000000000e+00 0.000000000000000e+00 0.000000000000000e+00
0.000000000000000e+00 0.000000000000000e+00 0.000000000000000e+00
0.000000000000000e+00 0.000000000000000e+00 0.000000000000000e+00
0.000000000000000e+00 0.000000000000000e+00 0.000000000000000e+00
0.000000000000000e+00 0.000000000000000e+00 0.000000000000000e+00
0.000000000000000e+00 0.000000000000000e+00 0.000000000000000e+00
0.000000000000000e+00 0.000000000000000e+00 0.000000000000000e+00
0.000000000000000e+00 0.000000000000000e+00 0.000000000000000e+00
0.000000000000000e+00 0.000000000000000e+00 0.000000000000000e+00
0.000000000000000e+00 0.000000000000000e+00 0.000000000000000e+00
0.000000000000000e+00 0.000000000000000e+00 0.000000000000000e+00
0.000000000000000e+00 0.000000000000000e+00 0.000000000000000e+00
0.000000000000000e+00 0.000000000000000e+00 0.000000000000000e+00
0.000000000000000e+00 0.000000000000000e+00 0.000000000000000e+00
0.000000000000000e+00 0.000000000000000e+00 0.000000000000000e+00
0.000000000000000e+00 0.000000000000000e+00 0.000000000000000e+00
0.000000000000000e+00 0.000000000000000e+00 0.000000000000000e+00
0.000000000000000e+00 0.000000000000000e+00 0.000000000000000e+00
0.000000000000000e+00 0.000000000000000e+00 0.000000000000000e+00
0.000000000000000e+00 0.000000000000000e+00 0.000000000000000e+00
0.000000000000000e+00 0.000000000000000e+00 0.000000000000000e+00
0.000000000000000e+00 0.000000000000000e+00 0.000000000000000e+00
0.000000000000000e+00 0.000000000000000e+00 0.000000000000000e+00
0.000000000000000e+00 0.000000000000000e+00 0.000000000000000e+00
0.000000000000000e+00 0.000000000000000e+00 0.000000000000000e+00
0.000000000000000e+00 0.000000000000000e+00 0.000000000000000e+00
0.000000000000000e+00 0.000000000000000e+00 0.000000000000000e+00
0.000000000000000e+00 0.000000000000000e+00 0.000000000000000e+00
0.000000000000000e+00 0.000000000000000e+00 0.000000000000000e+00
0.000000000000000e+00 0.000000000000000e+00 0.000000000000000e+00
0.000000000000000e+00 0.000000000000000e+00 0.000000000000000e+00
0.000000000000000e+00 0.000000000000000e+00 0.000000000000000e+00
0.000000000000000e+00 0.000000000000000e+00 0.000000000000000e+00
0.000000000000000e+00 0.000000000000000e+00 0.000000000000000e+00
0.000000000000000e+00 0.000000000000000e+00 0.000000000000000e+00
0.000000000000000e+00 0.000000000000000e+00 0.000000000000000e+00
0.000000000000000e+00 0.000000000000000e+00 0.000000000000000e+00
0.000000000000000e+00 0.000000000000000e+00 0.000000000000000e+00
0.000000000000000e+00 0.000000000000000e+00 0.000000000000000e+00
0.000000000000000e+00 0.000000000000000e+00 0.000000000000000e+00
0.000000000000000e+00 0.000000000000000e+00 0.000000000000000e+00
0.000000000000000e+00 0.000000000000000e+00 0.000000000000000e+00
0.000000000000000e+00 0.000000000000000e+00 0.000000000000000e+00
0.000000000000000e+00 0.000000000000000e+00 0.000000000000000e+00
0.000000000000000e+00 0.000000000000000e+00 0.000000000000000e+00
0.000000000000000e+00 0.000000000000000e+00 0.000000000000000e+00
0.000000000000000e+00 0.000000000000000e+00 0.000000000000000e+00
0.000000000000000e+00 0.000000000000000e+00 0.000000000000000e+00
0.000000000000000e+00 0.000000000000000e+00 0.000000000000000e+00
0.000000000000000e+00 0.000000000000000e+00 0.000000000000000e+00
0.000000000000000e+00 0.000000000000000e+00 0.000000000000000e+00
0.000000000000000e+00 0.000000000000000e+00 0.000000000000000e+00
0.000000000000000e+00 0.000000000000000e+00 0.000000000000000e+00
0.000000000000000e+00 0.000000000000000e+00 0.000000000000000e+00
0.000000000000000e+00 0.000000000000000e+00 0.000000000000000e+00
0.000000000000000e+00 0.000000000000000e+00 0.000000000000000e+00
0.000000000000000e+00 0.000000000000000e+00 0.000000000000000e+00
0.000000000000000e+00 0.000000000000000e+00 0.000000000000000e+00
0.000000000000000e+00 0.000000000000000e+00 0.000000000000000e+00
0.000000000000000e+00 0.000000000000000e+00 0.000000000000000e+00
0.000000000000000e+00 0.000000000000000e+00 0.000000000000000e+00
0.000000000000000e+00 0.000000000000000e+00 0.000000000000000e+00
0.000000000000000e+00 0.000000000000000e+00 0.000000000000000e+00
0.000000000000000e+00 0.000000000000000e+00 0.000000000000000e+00
0.000000000000000e+00 0.000000000000000e+00 0.000000000000000e+00
0.000000000000000e+00 0.000000000000000e+00 0.000000000000000e+00
0.000000000000000e+00 0.000000000000000e+00 0.000000000000000e+00
0.000000000000000e+00 0.000000000000000e+00 0.000000000000000e+00
0.000000000000000e+00 0.000000000000000e+00 0.000000000000000e+00
0.000000000000000e+00 0.000000000000000e+00 0.000000000000000e+00
0.000000000000000e+00 0.000000000000000e+00 0.000000000000000e+00
0.000000000000000e+00 0.000000000000000e+00 0.000000000000000e+00
0.000000000000000e+00 0.000000000000000e+00 0.000000000000000e+00
0.000000000000000e+00 0.000000000000000e+00 0.000000000000000e+00
0.000000000000000e+00 0.000000000000000e+00 0.000000000000000e+00
0.000000000000000e+00 0.000000000000000e+00 0.000000000000000e+00
0.000000000000000e+00 0.000000000000000e+00 0.000000000000000e+00
0.000000000000000e+00 0.000000000000000e+00 0.000000000000000e+00
0.000000000000000e+00 0.000000000000000e+00 0.000000000000000e+00
0.000000000000000e+00 0.000000000000000e+00 0.000000000000000e+00
0.000000000000000e+00 0.000000000000000e+00 0.000000000000000e+00
0.000000000000000e+00 0.000000000000000e+00 0.000000000000000e+00
0.000000000000000e+00 0.000000000000000e+00 0.000000000000000e+00
0.000000000000000e+00 0.000000000000000e+00 0.000000000000000e+00
0.000000000000000e+00 0.000000000000000e+00 0.000000000000000e+00
0.000000000000000e+00 0.000000000000000e+00 0.000000000000000e+00
0.000000000000000e+00 0.000000000000000e+00 0.000000000000000e+00
0.000000000000000e+00 0.000000000000000e+00 0.000000000000000e+00
0.000000000000000e+00 0.000000000000000e+00 0.000000000000000e+00
0.000000000000000e+00 0.000000000000000e+00 0.000000000000000e+00
0.000000000000000e+00 0.000000000000000e+00 0.000000000000000e+00
0.000000000000000e+00 0.000000000000000e+00 0.000000000000000e+00
0.000000000000000e+00 0.000000000000000e+00 0.000000000000000e+00
0.000000000000000e+00 0.000000000000000e+00 0.000000000000000e+00
0.000000000000000e+00 0.000000000000000e+00 0.000000000000000e+00
0.000000000000000e+00 0.000000000000000e+00 0.000000000000000e+00
0.000000000000000e+00 0.000000000000000e+00 0.000000000000000e+00
0.000000000000000e+00 0.000000000000000e+00 0.000000000000000e+00
0.000000000000000e+00 0.000000000000000e+00 0.000000000000000e+00
0.000000000000000e+00 0.000000000000000e+00 0.000000000000000e+00
0.000000000000000e+00 0.000000000000000e+00 0.000000000000000e+00
0.000000000000000e+00 0.000000000000000e+00 0.000000000000000e+00
0.000000000000000e+00 0.000000000000000e+00 0.000000000000000e+00
0.000000000000000e+00 0.000000000000000e+00 0.000000000000000e+00
0.000000000000000e+00 0.000000000000000e+00 0.000000000000000e+00
0.000000000000000e+00 0.000000000000000e+00 0.000000000000000e+00
0.000000000000000e+00 0.000000000000000e+00 0.000000000000000e+00
0.000000000000000e+00 0.000000000000000e+00 0.000000000000000e+00
0.000000000000000e+00 0.000000000000000e+00 0.000000000000000e+00
0.000000000000000e+00 0.000000000000000e+00 0.000000000000000e+00
0.000000000000000e+00 0.000000000000000e+00 0.000000000000000e+00
0.000000000000000e+00 0.000000000000000e+00 0.000000000000000e+00
0.000000000000000e+00 0.000000000000000e+00 0.000000000000000e+00
0.000000000000000e+00 0.000000000000000e+00 0.000000000000000e+00
0.000000000000000e+00 0.000000000000000e+00 0.000000000000000e+00
0.000000000000000e+00 0.000000000000000e+00 0.000000000000000e+00
0.000000000000000e+00 0.000000000000000e+00 0.000000000000000e+00
0.000000000000000e+00 0.000000000000000e+00 0.000000000000000e+00
0.000000000000000e+00 0.000000000000000e+00 0.000000000000000e+00
0.000000000000000e+00 0.000000000000000e+00 0.000000000000000e+00
0.000000000000000e+00 0.000000000000000e+00 0.000000000000000e+00
0.000000000000000e+00 0.000000000000000e+00 0.000000000000000e+00
0.000000000000000e+00 0.000000000000000e+00 0.000000000000000e+00
0.000000000000000e+00 0.000000000000000e+00 0.000000000000000e+00
0.000000000000000e+00 0.000000000000000e+00 0.000000000000000e+00
0.000000000000000e+00 0.000000000000000e+00 0.000000000000000e+00
0.000000000000000e+00 0.000000000000000e+00 0.000000000000000e+00
0.000000000000000e+00 0.000000000000000e+00 0.000000000000000e+00
0.000000000000000e+00 0.000000000000000e+00 0.000000000000000e+00
0.000000000000000e+00 0.000000000000000e+00 0.000000000000000e+00
0.000000000000000e+00 0.000000000000000e+00 0.000000000000000e+00
0.000000000000000e+00 0.000000000000000e+00 0.000000000000000e+00
0.000000000000000e+00 0.000000000000000e+00 0.000000000000000e+00
0.000000000000000e+00 0.000000000000000e+00 0.000000000000000e+00
0.000000000000000e+00 0.000000000000000e+00 0.000000000000000e+00
0.000000000000000e+00 0.000000000000000e+00 0.000000000000000e+00
0.000000000000000e+00 0.000000000000000e+00 0.000000000000000e+00
0.000000000000000e+00 0.000000000000000e+00 0.000000000000000e+00
0.000000000000000e+00 0.000000000000000e+00 0.000000000000000e+00
0.000000000000000e+00 0.000000000000000e+00 0.000000000000000e+00
0.000000000000000e+00 0.000000000000000e+00 0.000000000000000e+00
0.000000000000000e+00 0.000000000000000e+00 0.000000000000000e+00
0.000000000000000e+00 0.000000000000000e+00 0.000000000000000e+00
0.000000000000000e+00 0.000000000000000e+00 0.000000000000000e+00
0.000000000000000e+00 0.000000000000000e+00 0.000000000000000e+00
0.000000000000000e+00 0.000000000000000e+00 0.000000000000000e+00
0.000000000000000e+00 0.000000000000000e+00 0.000000000000000e+00
0.000000000000000e+00 0.000000000000000e+00 0.000000000000000e+00
0.000000000000000e+00 0.000000000000000e+00 0.000000000000000e+00
0.000000000000000e+00 0.000000000000000e+00 0.000000000000000e+00
0.000000000000000e+00 0.000000000000000e+00 0.000000000000000e+00
0.000000000000000e+00 0.000000000000000e+00 0.000000000000000e+00
0.000000000000000e+00 0.000000000000000e+00 0.000000000000000e+00
0.000000000000000e+00 0.000000000000000e+00 0.000000000000000e+00
0.000000000000000e+00 0.000000000000000e+00 0.000000000000000e+00
0.000000000000000e+00 0.000000000000000e+00 0.000000000000000e+00
0.000000000000000e+00 0.000000000000000e+00 0.000000000000000e+00
0.000000000000000e+00 0.000000000000000e+00 0.000000000000000e+00
0.000000000000000e+00 0.000000000000000e+00 0.000000000000000e+00
0.000000000000000e+00 0.000000000000000e+00 0.000000000000000e+00
0.000000000000000e+00 0.000000000000000e+00 0.000000000000000e+00
0.000000000000000e+00 0.000000000000000e+00 0.000000000000000e+00
0.000000000000000e+00 0.000000000000000e+00 0.000000000000000e+00
0.000000000000000e+00 0.000000000000000e+00 0.000000000000000e+00
0.000000000000000e+00 0.000000000000000e+00 0.000000000000000e+00
0.000000000000000e+00 0.000000000000000e+00 0.000000000000000e+00
0.000000000000000e+00 0.000000000000000e+00 0.000000000000000e+00
0.000000000000000e+00 0.000000000000000e+00 0.000000000000000e+00
0.000000000000000e+00 0.000000000000000e+00 0.000000000000000e+00
0.000000000000000e+00 0.000000000000000e+00 0.000000000000000e+00
0.000000000000000e+00 0.000000000000000e+00 0.000000000000000e+00
0.000000000000000e+00 0.000000000000000e+00 0.000000000000000e+00
0.000000000000000e+00 0.000000000000000e+00 0.000000000000000e+00
0.000000000000000e+00 0.000000000000000e+00 0.000000000000000e+00
0.000000000000000e+00 0.000000000000000e+00 0.000000000000000e+00
0.000000000000000e+00 0.000000000000000e+00 0.000000000000000e+00
0.000000000000000e+00 0.000000000000000e+00 0.000000000000000e+00
0.000000000000000e+00 0.000000000000000e+00 0.000000000000000e+00
0.000000000000000e+00 0.000000000000000e+00 0.000000000000000e+00
0.000000000000000e+00 0.000000000000000e+00 0.000000000000000e+00
0.000000000000000e+00 0.000000000000000e+00 0.000000000000000e+00
0.000000000000000e+00 0.000000000000000e+00 0.000000000000000e+00
0.000000000000000e+00 0.000000000000000e+00 0.000000000000000e+00
0.000000000000000e+00 0.000000000000000e+00 0.000000000000000e+00
0.000000000000000e+00 0.000000000000000e+00 0.000000000000000e+00
0.000000000000000e+00 0.000000000000000e+00 0.000000000000000e+00
0.000000000000000e+00 0.000000000000000e+00 0.000000000000000e+00
0.000000000000000e+00 0.000000000000000e+00 0.000000000000000e+00
0.000000000000000e+00 0.000000000000000e+00 0.000000000000000e+00
0.000000000000000e+00 0.000000000000000e+00 0.000000000000000e+00
0.000000000000000e+00 0.000000000000000e+00 0.000000000000000e+00
0.000000000000000e+00 0.000000000000000e+00 0.000000000000000e+00
0.000000000000000e+00 0.000000000000000e+00 0.000000000000000e+00
0.000000000000000e+00 0.000000000000000e+00 0.000000000000000e+00
0.000000000000000e+00 0.000000000000000e+00 0.000000000000000e+00
0.000000000000000e+00 0.000000000000000e+00 0.000000000000000e+00
0.000000000000000e+00 0.000000000000000e+00 0.000000000000000e+00
0.000000000000000e+00 0.000000000000000e+00 0.000000000000000e+00
0.000000000000000e+00 0.000000000000000e+00 0.000000000000000e+00
0.000000000000000e+00 0.000000000000000e+00 0.000000000000000e+00
0.000000000000000e+00 0.000000000000000e+00 0.000000000000000e+00
0.000000000000000e+00 0.000000000000000e+00 0.000000000000000e+00
0.000000000000000e+00 0.000000000000000e+00 0.000000000000000e+00
0.000000000000000e+00 0.000000000000000e+00 0.000000000000000e+00
0.000000000000000e+00 0.000000000000000e+00 0.000000000000000e+00
0.000000000000000e+00 0.000000000000000e+00 0.000000000000000e+00
0.000000000000000e+00 0.000000000000000e+00 0.000000000000000e+00
0.000000000000000e+00 0.000000000000000e+00 0.000000000000000e+00
0.000000000000000e+00 0.000000000000000e+00 0.000000000000000e+00
0.000000000000000e+00 0.000000000000000e+00 0.000000000000000e+00
0.000000000000000e+00 0.000000000000000e+00 0.000000000000000e+00
0.000000000000000e+00 0.000000000000000e+00 0.000000000000000e+00
0.000000000000000e+00 0.000000000000000e+00 0.000000000000000e+00
0.000000000000000e+00 0.000000000000000e+00 0.000000000000000e+00
0.000000000000000e+00 0.000000000000000e+00 0.000000000000000e+00
0.000000000000000e+00 0.000000000000000e+00 0.000000000000000e+00
0.000000000000000e+00 0.000000000000000e+00 0.000000000000000e+00
0.000000000000000e+00 0.000000000000000e+00 0.000000000000000e+00
0.000000000000000e+00 0.000000000000000e+00 0.000000000000000e+00
0.000000000000000e+00 0.000000000000000e+00 0.000000000000000e+00
0.000000000000000e+00 0.000000000000000e+00 0.000000000000000e+00
0.000000000000000e+00 0.000000000000000e+00 0.000000000000000e+00
0.000000000000000e+00 0.000000000000000e+00 0.000000000000000e+00
0.000000000000000e+00 0.000000000000000e+00 0.000000000000000e+00
0.000000000000000e+00 0.000000000000000e+00 0.000000000000000e+00
0.000000000000000e+00 0.000000000000000e+00 0.000000000000000e+00
0.000000000000000e+00 0.000000000000000e+00 0.000000000000000e+00
0.000000000000000e+00 0.000000000000000e+00 0.000000000000000e+00
0.000000000000000e+00 0.000000000000000e+00 0.000000000000000e+00
0.000000000000000e+00 0.000000000000000e+00 0.000000000000000e+00
0.000000000000000e+00 0.000000000000000e+00 0.000000000000000e+00
0.000000000000000e+00 0.000000000000000e+00 0.000000000000000e+00
0.000000000000000e+00 0.000000000000000e+00 0.000000000000000e+00
0.000000000000000e+00 0.000000000000000e+00 0.000000000000000e+00
0.000000000000000e+00 0.000000000000000e+00 0.000000000000000e+00
0.000000000000000e+00 0.000000000000000e+00 0.000000000000000e+00
0.000000000000000e+00 0.000000000000000e+00 0.000000000000000e+00
0.000000000000000e+00 0.000000000000000e+00 0.000000000000000e+00
0.000000000000000e+00 0.000000000000000e+00 0.000000000000000e+00
0.000000000000000e+00 0.000000000000000e+00 0.000000000000000e+00
0.000000000000000e+00 0.000000000000000e+00 0.000000000000000e+00
0.000000000000000e+00 0.000000000000000e+00 0.000000000000000e+00
0.000000000000000e+00 0.000000000000000e+00 0.000000000000000e+00
0.000000000000000e+00 0.000000000000000e+00 0.000000000000000e+00
0.000000000000000e+00 0.000000000000000e+00 0.000000000000000e+00
0.000000000000000e+00 0.000000000000000e+00 0.000000000000000e+00
0.000000000000000e+00 0.000000000000000e+00 0.000000000000000e+00
0.000000000000000e+00 0.000000000000000e+00 0.000000000000000e+00
0.000000000000000e+00 0.000000000000000e+00 0.000000000000000e+00
0.000000000000000e+00 0.000000000000000e+00 0.000000000000000e+00
0.000000000000000e+00 0.000000000000000e+00 0.000000000000000e+00
0.000000000000000e+00 0.000000000000000e+00 0.000000000000000e+00
0.000000000000000e+00 0.000000000000000e+00 0.000000000000000e+00
0.000000000000000e+00 0.000000000000000e+00 0.000000000000000e+00
0.000000000000000e+00 0.000000000000000e+00 0.000000000000000e+00
0.000000000000000e+00 0.000000000000000e+00 0.000000000000000e+00
0.000000000000000e+00 0.000000000000000e+00 0.000000000000000e+00
0.000000000000000e+00 0.000000000000000e+00 0.000000000000000e+00
0.000000000000000e+00 0.000000000000000e+00 0.000000000000000e+00
0.000000000000000e+00 0.000000000000000e+00 0.000000000000000e+00
0.000000000000000e+00 0.000000000000000e+00 0.000000000000000e+00
0.000000000000000e+00 0.000000000000000e+00 0.000000000000000e+00
0.000000000000000e+00 0.000000000000000e+00 0.000000000000000e+00
0.000000000000000e+00 0.000000000000000e+00 0.000000000000000e+00
0.000000000000000e+00 0.000000000000000e+00 0.000000000000000e+00
0.000000000000000e+00 0.000000000000000e+00 0.000000000000000e+00
0.000000000000000e+00 0.000000000000000e+00 0.000000000000000e+00
0.000000000000000e+00 0.000000000000000e+00 0.000000000000000e+00
0.000000000000000e+00 0.000000000000000e+00 0.000000000000000e+00
0.000000000000000e+00 0.000000000000000e+00 0.000000000000000e+00
0.000000000000000e+00 0.000000000000000e+00 0.000000000000000e+00
0.000000000000000e+00 0.000000000000000e+00 0.000000000000000e+00
0.000000000000000e+00 0.000000000000000e+00 0.000000000000000e+00
0.000000000000000e+00 0.000000000000000e+00 0.000000000000000e+00
0.000000000000000e+00 0.000000000000000e+00 0.000000000000000e+00
0.000000000000000e+00 0.000000000000000e+00 0.000000000000000e+00
0.000000000000000e+00 0.000000000000000e+00 0.000000000000000e+00
0.000000000000000e+00 0.000000000000000e+00 0.000000000000000e+00
0.000000000000000e+00 0.000000000000000e+00 0.000000000000000e+00
0.000000000000000e+00 0.000000000000000e+00 0.000000000000000e+00
0.000000000000000e+00 0.000000000000000e+00 0.000000000000000e+00
0.000000000000000e+00 0.000000000000000e+00 0.000000000000000e+00
0.000000000000000e+00 0.000000000000000e+00 0.000000000000000e+00
0.000000000000000e+00 0.000000000000000e+00 0.000000000000000e+00
0.000000000000000e+00 0.000000000000000e+00 0.000000000000000e+00
0.000000000000000e+00 0.000000000000000e+00 0.000000000000000e+00
0.000000000000000e+00 0.000000000000000e+00 0.000000000000000e+00
0.000000000000000e+00 0.000000000000000e+00 0.000000000000000e+00
0.000000000000000e+00 0.000000000000000e+00 0.000000000000000e+00
0.000000000000000e+00 0.000000000000000e+00 0.000000000000000e+00
0.000000000000000e+00 0.000000000000000e+00 0.000000000000000e+00
0.000000000000000e+00 0.000000000000000e+00 0.000000000000000e+00
0.000000000000000e+00 0.000000000000000e+00 0.000000000000000e+00
0.000000000000000e+00 0.000000000000000e+00 0.000000000000000e+00
0.000000000000000e+00 0.000000000000000e+00 0.000000000000000e+00
0.000000000000000e+00 0.000000000000000e+00 0.000000000000000e+00
0.000000000000000e+00 0.000000000000000e+00 0.000000000000000e+00
0.000000000000000e+00 0.000000000000000e+00 0.000000000000000e+00
0.000000000000000e+00 0.000000000000000e+00 0.000000000000000e+00
0.000000000000000e+00 0.000000000000000e+00 0.000000000000000e+00
0.000000000000000e+00 0.000000000000000e+00 0.000000000000000e+00
0.000000000000000e+00 0.000000000000000e+00 0.000000000000000e+00
0.000000000000000e+00 0.000000000000000e+00 0.000000000000000e+00
0.000000000000000e+00 0.000000000000000e+00 0.000000000000000e+00
0.000000000000000e+00 0.000000000000000e+00 0.000000000000000e+00
0.000000000000000e+00 0.000000000000000e+00 0.000000000000000e+00
0.000000000000000e+00 0.000000000000000e+00 0.000000000000000e+00
0.000000000000000e+00 0.000000000000000e+00 0.000000000000000e+00
0.000000000000000e+00 0.000000000000000e+00 0.000000000000000e+00
0.000000000000000e+00 0.000000000000000e+00 0.000000000000000e+00
0.000000000000000e+00 0.000000000000000e+00 0.000000000000000e+00
0.000000000000000e+00 0.000000000000000e+00 0.000000000000000e+00
0.000000000000000e+00 0.000000000000000e+00 0.000000000000000e+00
0.000000000000000e+00 0.000000000000000e+00 0.000000000000000e+00
0.000000000000000e+00 0.000000000000000e+00 0.000000000000000e+00
0.000000000000000e+00 0.000000000000000e+00 0.000000000000000e+00
0.000000000000000e+00 0.000000000000000e+00 0.000000000000000e+00
0.000000000000000e+00 0.000000000000000e+00 0.000000000000000e+00
0.000000000000000e+00 0.000000000000000e+00 0.000000000000000e+00
0.000000000000000e+00 0.000000000000000e+00 0.000000000000000e+00
0.000000000000000e+00 0.000000000000000e+00 0.000000000000000e+00
0.000000000000000e+00 0.000000000000000e+00 0.000000000000000e+00
0.000000000000000e+00 0.000000000000000e+00 0.000000000000000e+00
0.000000000000000e+00 0.000000000000000e+00 0.000000000000000e+00
0.000000000000000e+00 0.000000000000000e+00 0.000000000000000e+00
0.000000000000000e+00 0.000000000000000e+00 0.000000000000000e+00
0.000000000000000e+00 0.000000000000000e+00 0.000000000000000e+00
0.000000000000000e+00 0.000000000000000e+00 0.000000000000000e+00
0.000000000000000e+00 0.000000000000000e+00 0.000000000000000e+00
0.000000000000000e+00 0.000000000000000e+00 0.000000000000000e+00
0.000000000000000e+00 0.000000000000000e+00 0.000000000000000e+00
0.000000000000000e+00 0.000000000000000e+00 0.000000000000000e+00
0.000000000000000e+00 0.000000000000000e+00 0.000000000000000e+00
0.000000000000000e+00 0.000000000000000e+00 0.000000000000000e+00
0.000000000000000e+00 0.000000000000000e+00 0.000000000000000e+00
0.000000000000000e+00 0.000000000000000e+00 0.000000000000000e+00
0.000000000000000e+00 0.000000000000000e+00 0.000000000000000e+00
0.000000000000000e+00 0.000000000000000e+00 0.000000000000000e+00
0.000000000000000e+00 0.000000000000000e+00 0.000000000000000e+00
0.000000000000000e+00 0.000000000000000e+00 0.000000000000000e+00
0.000000000000000e+00 0.000000000000000e+00 0.000000000000000e+00
0.000000000000000e+00 0.000000000000000e+00 0.000000000000000e+00
0.000000000000000e+00 0.000000000000000e+00 0.000000000000000e+00
0.000000000000000e+00 0.000000000000000e+00 0.000000000000000e+00
0.000000000000000e+00 0.000000000000000e+00 0.000000000000000e+00
0.000000000000000e+00 0.000000000000000e+00 0.000000000000000e+00
0.000000000000000e+00 0.000000000000000e+00 0.000000000000000e+00
0.000000000000000e+00 0.000000000000000e+00 0.000000000000000e+00
0.000000000000000e+00 0.000000000000000e+00 0.000000000000000e+00
0.000000000000000e+00 0.000000000000000e+00 0.000000000000000e+00
0.000000000000000e+00 0.000000000000000e+00 0.000000000000000e+00
0.000000000000000e+00 0.000000000000000e+00 0.000000000000000e+00
0.000000000000000e+00 0.000000000000000e+00 0.000000000000000e+00
0.000000000000000e+00 0.000000000000000e+00 0.000000000000000e+00
0.000000000000000e+00 0.000000000000000e+00 0.000000000000000e+00
0.000000000000000e+00 0.000000000000000e+00 0.000000000000000e+00
0.000000000000000e+00 0.000000000000000e+00 0.000000000000000e+00
0.000000000000000e+00 0.000000000000000e+00 0.000000000000000e+00
0.000000000000000e+00 0.000000000000000e+00 0.000000000000000e+00
0.000000000000000e+00 0.000000000000000e+00 0.000000000000000e+00
0.000000000000000e+00 0.000000000000000e+00 0.000000000000000e+00
0.000000000000000e+00 0.000000000000000e+00 0.000000000000000e+00
0.000000000000000e+00 0.000000000000000e+00 0.000000000000000e+00
0.000000000000000e+00 0.000000000000000e+00 0.000000000000000e+00
0.000000000000000e+00 0.000000000000000e+00 0.000000000000000e+00
0.000000000000000e+00 0.000000000000000e+00 0.000000000000000e+00
0.000000000000000e+00 0.000000000000000e+00 0.000000000000000e+00
0.000000000000000e+00 0.000000000000000e+00 0.000000000000000e+00
0.000000000000000e+00 0.000000000000000e+00 0.000000000000000e+00
0.000000000000000e+00 0.000000000000000e+00 0.000000000000000e+00
0.000000000000000e+00 0.000000000000000e+00 0.000000000000000e+00
0.000000000000000e+00 0.000000000000000e+00 0.000000000000000e+00
0.000000000000000e+00 0.000000000000000e+00 0.000000000000000e+00
0.000000000000000e+00 0.000000000000000e+00 0.000000000000000e+00
0.000000000000000e+00 0.000000000000000e+00 0.000000000000000e+00
0.000000000000000e+00 0.000000000000000e+00 0.000000000000000e+00
0.000000000000000e+00 0.000000000000000e+00 0.000000000000000e+00
0.000000000000000e+00 0.000000000000000e+00 0.000000000000000e+00
0.000000000000000e+00 0.000000000000000e+00 0.000000000000000e+00
0.000000000000000e+00 0.000000000000000e+00 0.000000000000000e+00
0.000000000000000e+00 0.000000000000000e+00 0.000000000000000e+00
0.000000000000000e+00 0.000000000000000e+00 0.000000000000000e+00
0.000000000000000e+00 0.000000000000000e+00 0.000000000000000e+00
0.000000000000000e+00 0.000000000000000e+00 0.000000000000000e+00
0.000000000000000e+00 0.000000000000000e+00 0.000000000000000e+00
0.000000000000000e+00 0.000000000000000e+00 0.000000000000000e+00
0.000000000000000e+00 0.000000000000000e+00 0.000000000000000e+00
0.000000000000000e+00 0.000000000000000e+00 0.000000000000000e+00
0.000000000000000e+00 0.000000000000000e+00 0.000000000000000e+00
0.000000000000000e+00 0.000000000000000e+00 0.000000000000000e+00
0.000000000000000e+00 0.000000000000000e+00 0.000000000000000e+00
0.000000000000000e+00 0.000000000000000e+00 0.000000000000000e+00
0.000000000000000e+00 0.000000000000000e+00 0.000000000000000e+00
0.000000000000000e+00 0.000000000000000e+00 0.000000000000000e+00
0.000000000000000e+00 0.000000000000000e+00 0.000000000000000e+00
0.000000000000000e+00 0.000000000000000e+00 0.000000000000000e+00
0.000000000000000e+00 0.000000000000000e+00 0.000000000000000e+00
0.000000000000000e+00 0.000000000000000e+00 0.000000000000000e+00
0.000000000000000e+00 0.000000000000000e+00 0.000000000000000e+00
0.000000000000000e+00 0.000000000000000e+00 0.000000000000000e+00
0.000000000000000e+00 0.000000000000000e+00 0.000000000000000e+00
0.000000000000000e+00 0.000000000000000e+00 0.000000000000000e+00
0.000000000000000e+00 0.000000000000000e+00 0.000000000000000e+00
0.000000000000000e+00 0.000000000000000e+00 0.000000000000000e+00
0.000000000000000e+00 0.000000000000000e+00 0.000000000000000e+00
0.000000000000000e+00 0.000000000000000e+00 0.000000000000000e+00
0.000000000000000e+00 0.000000000000000e+00 0.000000000000000e+00
0.000000000000000e+00 0.000000000000000e+00 0.000000000000000e+00
0.000000000000000e+00 0.000000000000000e+00 0.000000000000000e+00
0.000000000000000e+00 0.000000000000000e+00 0.000000000000000e+00
0.000000000000000e+00 0.000000000000000e+00 0.000000000000000e+00
0.000000000000000e+00 0.000000000000000e+00 0.000000000000000e+00
0.000000000000000e+00 0.000000000000000e+00 0.000000000000000e+00
0.000000000000000e+00 0.000000000000000e+00 0.000000000000000e+00
0.000000000000000e+00 0.000000000000000e+00 0.000000000000000e+00
0.000000000000000e+00 0.000000000000000e+00 0.000000000000000e+00
0.000000000000000e+00 0.000000000000000e+00 0.000000000000000e+00
0.000000000000000e+00 0.000000000000000e+00 0.000000000000000e+00
0.000000000000000e+00 0.000000000000000e+00 0.000000000000000e+00
0.000000000000000e+00 0.000000000000000e+00 0.000000000000000e+00
0.000000000000000e+00 0.000000000000000e+00 0.000000000000000e+00
0.000000000000000e+00 0.000000000000000e+00 0.000000000000000e+00
0.000000000000000e+00 0.000000000000000e+00 0.000000000000000e+00
0.000000000000000e+00 0.000000000000000e+00 0.000000000000000e+00
0.000000000000000e+00 0.000000000000000e+00 0.000000000000000e+00
0.000000000000000e+00 0.000000000000000e+00 0.000000000000000e+00
0.000000000000000e+00 0.000000000000000e+00 0.000000000000000e+00
0.000000000000000e+00 0.000000000000000e+00 0.000000000000000e+00
0.000000000000000e+00 0.000000000000000e+00 0.000000000000000e+00
0.000000000000000e+00 0.000000000000000e+00 0.000000000000000e+00
0.000000000000000e+00 0.000000000000000e+00 0.000000000000000e+00
0.000000000000000e+00 0.000000000000000e+00 0.000000000000000e+00
0.000000000000000e+00 0.000000000000000e+00 0.000000000000000e+00
0.000000000000000e+00 0.000000000000000e+00 0.000000000000000e+00
0.000000000000000e+00 0.000000000000000e+00 0.000000000000000e+00
0.000000000000000e+00 0.000000000000000e+00 0.000000000000000e+00
0.000000000000000e+00 0.000000000000000e+00 0.000000000000000e+00
0.000000000000000e+00 0.000000000000000e+00 0.000000000000000e+00
0.000000000000000e+00 0.000000000000000e+00 0.000000000000000e+00
0.000000000000000e+00 0.000000000000000e+00 0.000000000000000e+00
0.000000000000000e+00 0.000000000000000e+00 0.000000000000000e+00
0.000000000000000e+00 0.000000000000000e+00 0.000000000000000e+00
0.000000000000000e+00 0.000000000000000e+00 0.000000000000000e+00
0.000000000000000e+00 0.000000000000000e+00 0.000000000000000e+00
0.000000000000000e+00 0.000000000000000e+00 0.000000000000000e+00
0.000000000000000e+00 0.000000000000000e+00 0.000000000000000e+00
0.000000000000000e+00 0.000000000000000e+00 0.000000000000000e+00
0.000000000000000e+00 0.000000000000000e+00 0.000000000000000e+00
0.000000000000000e+00 0.000000000000000e+00 0.000000000000000e+00
0.000000000000000e+00 0.000000000000000e+00 0.000000000000000e+00
0.000000000000000e+00 0.000000000000000e+00 0.000000000000000e+00
0.000000000000000e+00 0.000000000000000e+00 0.000000000000000e+00
0.000000000000000e+00 0.000000000000000e+00 0.000000000000000e+00
0.000000000000000e+00 0.000000000000000e+00 0.000000000000000e+00
0.000000000000000e+00 0.000000000000000e+00 0.000000000000000e+00
0.000000000000000e+00 0.000000000000000e+00 0.000000000000000e+00
0.000000000000000e+00 0.000000000000000e+00 0.000000000000000e+00
0.000000000000000e+00 0.000000000000000e+00 0.000000000000000e+00
0.000000000000000e+00 0.000000000000000e+00 0.000000000000000e+00
0.000000000000000e+00 0.000000000000000e+00 0.000000000000000e+00
0.000000000000000e+00 0.000000000000000e+00 0.000000000000000e+00
0.000000000000000e+00 0.000000000000000e+00 0.000000000000000e+00
0.000000000000000e+00 0.000000000000000e+00 0.000000000000000e+00
0.000000000000000e+00 0.000000000000000e+00 0.000000000000000e+00
0.000000000000000e+00 0.000000000000000e+00 0.000000000000000e+00
0.000000000000000e+00 0.000000000000000e+00 0.000000000000000e+00
0.000000000000000e+00 0.000000000000000e+00 0.000000000000000e+00
0.000000000000000e+00 0.000000000000000e+00 0.000000000000000e+00
0.000000000000000e+00 0.000000000000000e+00 0.000000000000000e+00
0.000000000000000e+00 0.000000000000000e+00 0.000000000000000e+00
0.000000000000000e+00 0.000000000000000e+00 0.000000000000000e+00
0.000000000000000e+00 0.000000000000000e+00 0.000000000000000e+00
0.000000000000000e+00 0.000000000000000e+00 0.000000000000000e+00
0.000000000000000e+00 0.000000000000000e+00 0.000000000000000e+00
0.000000000000000e+00 0.000000000000000e+00 0.000000000000000e+00
0.000000000000000e+00 0.000000000000000e+00 0.000000000000000e+00
0.000000000000000e+00 0.000000000000000e+00 0.000000000000000e+00
0.000000000000000e+00 0.000000000000000e+00 0.000000000000000e+00
0.000000000000000e+00 0.000000000000000e+00 0.000000000000000e+00
0.000000000000000e+00 0.000000000000000e+00 0.000000000000000e+00
0.000000000000000e+00 0.000000000000000e+00 0.000000000000000e+00
0.000000000000000e+00 0.000000000000000e+00 0.000000000000000e+00
0.000000000000000e+00 0.000000000000000e+00 0.000000000000000e+00
0.000000000000000e+00 0.000000000000000e+00 0.000000000000000e+00
0.000000000000000e+00 0.000000000000000e+00 0.000000000000000e+00
0.000000000000000e+00 0.000000000000000e+00 0.000000000000000e+00
0.000000000000000e+00 0.000000000000000e+00 0.000000000000000e+00
0.000000000000000e+00 0.000000000000000e+00 0.000000000000000e+00
0.000000000000000e+00 0.000000000000000e+00 0.000000000000000e+00
0.000000000000000e+00 0.000000000000000e+00 0.000000000000000e+00
0.000000000000000e+00 0.000000000000000e+00 0.000000000000000e+00
0.000000000000000e+00 0.000000000000000e+00 0.000000000000000e+00
0.000000000000000e+00 0.000000000000000e+00 0.000000000000000e+00
0.000000000000000e+00 0.000000000000000e+00 0.000000000000000e+00
0.000000000000000e+00 0.000000000000000e+00 0.000000000000000e+00
0.000000000000000e+00 0.000000000000000e+00 0.000000000000000e+00
0.000000000000000e+00 0.000000000000000e+00 0.000000000000000e+00
0.000000000000000e+00 0.000000000000000e+00 0.000000000000000e+00
0.000000000000000e+00 0.000000000000000e+00 0.000000000000000e+00
0.000000000000000e+00 0.000000000000000e+00 0.000000000000000e+00
0.000000000000000e+00 0.000000000000000e+00 0.000000000000000e+00
0.000000000000000e+00 0.000000000000000e+00 0.000000000000000e+00
0.000000000000000e+00 0.000000000000000e+00 0.000000000000000e+00
0.000000000000000e+00 0.000000000000000e+00 0.000000000000000e+00
0.000000000000000e+00 0.000000000000000e+00 0.000000000000000e+00
0.000000000000000e+00 0.000000000000000e+00 0.000000000000000e+00
0.000000000000000e+00 0.000000000000000e+00 0.000000000000000e+00
0.000000000000000e+00 0.000000000000000e+00 0.000000000000000e+00
0.000000000000000e+00 0.000000000000000e+00 0.000000000000000e+00
0.000000000000000e+00 0.000000000000000e+00 0.000000000000000e+00
0.000000000000000e+00 0.000000000000000e+00 0.000000000000000e+00
0.000000000000000e+00 0.000000000000000e+00 0.000000000000000e+00
0.000000000000000e+00 0.000000000000000e+00 0.000000000000000e+00
0.000000000000000e+00 0.000000000000000e+00 0.000000000000000e+00
0.000000000000000e+00 0.000000000000000e+00 0.000000000000000e+00
0.000000000000000e+00 0.000000000000000e+00 0.000000000000000e+00
0.000000000000000e+00 0.000000000000000e+00 0.000000000000000e+00
0.000000000000000e+00 0.000000000000000e+00 0.000000000000000e+00
0.000000000000000e+00 0.000000000000000e+00 0.000000000000000e+00
0.000000000000000e+00 0.000000000000000e+00 0.000000000000000e+00
0.000000000000000e+00 0.000000000000000e+00 0.000000000000000e+00
0.000000000000000e+00 0.000000000000000e+00 0.000000000000000e+00
0.000000000000000e+00 0.000000000000000e+00 0.000000000000000e+00
0.000000000000000e+00 0.000000000000000e+00 0.000000000000000e+00
0.000000000000000e+00 0.000000000000000e+00 0.000000000000000e+00
0.000000000000000e+00 0.000000000000000e+00 0.000000000000000e+00
0.000000000000000e+00 0.000000000000000e+00 0.000000000000000e+00
0.000000000000000e+00 0.000000000000000e+00 0.000000000000000e+00
0.000000000000000e+00 0.000000000000000e+00 0.000000000000000e+00
0.000000000000000e+00 0.000000000000000e+00 0.000000000000000e+00
0.000000000000000e+00 0.000000000000000e+00 0.000000000000000e+00
0.000000000000000e+00 0.000000000000000e+00 0.000000000000000e+00
0.000000000000000e+00 0.000000000000000e+00 0.000000000000000e+00
0.000000000000000e+00 0.000000000000000e+00 0.000000000000000e+00
0.000000000000000e+00 0.000000000000000e+00 0.000000000000000e+00
0.000000000000000e+00 0.000000000000000e+00 0.000000000000000e+00
0.000000000000000e+00 0.000000000000000e+00 0.000000000000000e+00
0.000000000000000e+00 0.000000000000000e+00 0.000000000000000e+00
0.000000000000000e+00 0.000000000000000e+00 0.000000000000000e+00
0.000000000000000e+00 0.000000000000000e+00 0.000000000000000e+00
0.000000000000000e+00 0.000000000000000e+00 0.000000000000000e+00
0.000000000000000e+00 0.000000000000000e+00 0.000000000000000e+00
0.000000000000000e+00 0.000000000000000e+00 0.000000000000000e+00
0.000000000000000e+00 0.000000000000000e+00 0.000000000000000e+00
0.000000000000000e+00 0.000000000000000e+00 0.000000000000000e+00
0.000000000000000e+00 0.000000000000000e+00 0.000000000000000e+00
0.000000000000000e+00 0.000000000000000e+00 0.000000000000000e+00
0.000000000000000e+00 0.000000000000000e+00 0.000000000000000e+00
0.000000000000000e+00 0.000000000000000e+00 0.000000000000000e+00
0.000000000000000e+00 0.000000000000000e+00 0.000000000000000e+00
0.000000000000000e+00 0.000000000000000e+00 0.000000000000000e+00
0.000000000000000e+00 0.000000000000000e+00 0.000000000000000e+00
0.000000000000000e+00 0.000000000000000e+00 0.000000000000000e+00
0.000000000000000e+00 0.000000000000000e+00 0.000000000000000e+00
0.000000000000000e+00 0.000000000000000e+00 0.000000000000000e+00
0.000000000000000e+00 0.000000000000000e+00 0.000000000000000e+00
0.000000000000000e+00 0.000000000000000e+00 0.000000000000000e+00
0.000000000000000e+00 0.000000000000000e+00 0.000000000000000e+00
0.000000000000000e+00 0.000000000000000e+00 0.000000000000000e+00
0.000000000000000e+00 0.000000000000000e+00 0.000000000000000e+00
0.000000000000000e+00 0.000000000000000e+00 0.000000000000000e+00
0.000000000000000e+00 0.000000000000000e+00 0.000000000000000e+00
0.000000000000000e+00 0.000000000000000e+00 0.000000000000000e+00
0.000000000000000e+00 0.000000000000000e+00 0.000000000000000e+00
0.000000000000000e+00 0.000000000000000e+00 0.000000000000000e+00
0.000000000000000e+00 0.000000000000000e+00 0.000000000000000e+00
0.000000000000000e+00 0.000000000000000e+00 0.000000000000000e+00
0.000000000000000e+00 0.000000000000000e+00 0.000000000000000e+00
0.000000000000000e+00 0.000000000000000e+00 0.000000000000000e+00
0.000000000000000e+00 0.000000000000000e+00 0.000000000000000e+00
0.000000000000000e+00 0.000000000000000e+00 0.000000000000000e+00
0.000000000000000e+00 0.000000000000000e+00 0.000000000000000e+00
0.000000000000000e+00 0.000000000000000e+00 0.000000000000000e+00
0.000000000000000e+00 0.000000000000000e+00 0.000000000000000e+00
0.000000000000000e+00 0.000000000000000e+00 0.000000000000000e+00
0.000000000000000e+00 0.000000000000000e+00 0.000000000000000e+00
0.000000000000000e+00 0.000000000000000e+00 0.000000000000000e+00
0.000000000000000e+00 0.000000000000000e+00 0.000000000000000e+00
0.000000000000000e+00 0.000000000000000e+00 0.000000000000000e+00
0.000000000000000e+00 0.000000000000000e+00 0.000000000000000e+00
0.000000000000000e+00 0.000000000000000e+00 0.000000000000000e+00
0.000000000000000e+00 0.000000000000000e+00 0.000000000000000e+00
0.000000000000000e+00 0.000000000000000e+00 0.000000000000000e+00
0.000000000000000e+00 0.000000000000000e+00 0.000000000000000e+00
0.000000000000000e+00 0.000000000000000e+00 0.000000000000000e+00
0.000000000000000e+00 0.000000000000000e+00 0.000000000000000e+00
0.000000000000000e+00 0.000000000000000e+00 0.000000000000000e+00
0.000000000000000e+00 0.000000000000000e+00 0.000000000000000e+00
0.000000000000000e+00 0.000000000000000e+00 0.000000000000000e+00
0.000000000000000e+00 0.000000000000000e+00 0.000000000000000e+00
0.000000000000000e+00 0.000000000000000e+00 0.000000000000000e+00
0.000000000000000e+00 0.000000000000000e+00 0.000000000000000e+00
0.000000000000000e+00 0.000000000000000e+00 0.000000000000000e+00
0.000000000000000e+00 0.000000000000000e+00 0.000000000000000e+00
0.000000000000000e+00 0.000000000000000e+00 0.000000000000000e+00
0.000000000000000e+00 0.000000000000000e+00 0.000000000000000e+00
0.000000000000000e+00 0.000000000000000e+00 0.000000000000000e+00
0.000000000000000e+00 0.000000000000000e+00 0.000000000000000e+00
0.000000000000000e+00 0.000000000000000e+00 0.000000000000000e+00
0.000000000000000e+00 0.000000000000000e+00 0.000000000000000e+00
0.000000000000000e+00 0.000000000000000e+00 0.000000000000000e+00
0.000000000000000e+00 0.000000000000000e+00 0.000000000000000e+00
0.000000000000000e+00 0.000000000000000e+00 0.000000000000000e+00
0.000000000000000e+00 0.000000000000000e+00 0.000000000000000e+00
0.000000000000000e+00 0.000000000000000e+00 0.000000000000000e+00
0.000000000000000e+00 0.000000000000000e+00 0.000000000000000e+00
0.000000000000000e+00 0.000000000000000e+00 0.000000000000000e+00
0.000000000000000e+00 0.000000000000000e+00 0.000000000000000e+00
0.000000000000000e+00 0.000000000000000e+00 0.000000000000000e+00
0.000000000000000e+00 0.000000000000000e+00 0.000000000000000e+00
0.000000000000000e+00 0.000000000000000e+00 0.000000000000000e+00
0.000000000000000e+00 0.000000000000000e+00 0.000000000000000e+00
0.000000000000000e+00 0.000000000000000e+00 0.000000000000000e+00
0.000000000000000e+00 0.000000000000000e+00 0.000000000000000e+00
0.000000000000000e+00 0.000000000000000e+00 0.000000000000000e+00
0.000000000000000e+00 0.000000000000000e+00 0.000000000000000e+00
0.000000000000000e+00 0.000000000000000e+00 0.000000000000000e+00
0.000000000000000e+00 0.000000000000000e+00 0.000000000000000e+00
0.000000000000000e+00 0.000000000000000e+00 0.000000000000000e+00
0.000000000000000e+00 0.000000000000000e+00 0.000000000000000e+00
0.000000000000000e+00 0.000000000000000e+00 0.000000000000000e+00
0.000000000000000e+00 0.000000000000000e+00 0.000000000000000e+00
0.000000000000000e+00 0.000000000000000e+00 0.000000000000000e+00
0.000000000000000e+00 0.000000000000000e+00 0.000000000000000e+00
0.000000000000000e+00 0.000000000000000e+00 0.000000000000000e+00
0.000000000000000e+00 0.000000000000000e+00 0.000000000000000e+00
0.000000000000000e+00 0.000000000000000e+00 0.000000000000000e+00
0.000000000000000e+00 0.000000000000000e+00 0.000000000000000e+00
0.000000000000000e+00 0.000000000000000e+00 0.000000000000000e+00
0.000000000000000e+00 0.000000000000000e+00 0.000000000000000e+00
0.000000000000000e+00 0.000000000000000e+00 0.000000000000000e+00
0.000000000000000e+00 0.000000000000000e+00 0.000000000000000e+00
0.000000000000000e+00 0.000000000000000e+00 0.000000000000000e+00
0.000000000000000e+00 0.000000000000000e+00 0.000000000000000e+00
0.000000000000000e+00 0.000000000000000e+00 0.000000000000000e+00
0.000000000000000e+00 0.000000000000000e+00 0.000000000000000e+00
0.000000000000000e+00 0.000000000000000e+00 0.000000000000000e+00
0.000000000000000e+00 0.000000000000000e+00 0.000000000000000e+00
0.000000000000000e+00 0.000000000000000e+00 0.000000000000000e+00
0.000000000000000e+00 0.000000000000000e+00 0.000000000000000e+00
0.000000000000000e+00 0.000000000000000e+00 0.000000000000000e+00
0.000000000000000e+00 0.000000000000000e+00 0.000000000000000e+00
0.000000000000000e+00 0.000000000000000e+00 0.000000000000000e+00
0.000000000000000e+00 0.000000000000000e+00 0.000000000000000e+00
0.000000000000000e+00 0.000000000000000e+00 0.000000000000000e+00
0.000000000000000e+00 0.000000000000000e+00 0.000000000000000e+00
0.000000000000000e+00 0.000000000000000e+00 0.000000000000000e+00
0.000000000000000e+00 0.000000000000000e+00 0.000000000000000e+00
0.000000000000000e+00 0.000000000000000e+00 0.000000000000000e+00
0.000000000000000e+00 0.000000000000000e+00 0.000000000000000e+00
0.000000000000000e+00 0.000000000000000e+00 0.000000000000000e+00
0.000000000000000e+00 0.000000000000000e+00 0.000000000000000e+00
0.000000000000000e+00 0.000000000000000e+00 0.000000000000000e+00
0.000000000000000e+00 0.000000000000000e+00 0.000000000000000e+00
0.000000000000000e+00 0.000000000000000e+00 0.000000000000000e+00
0.000000000000000e+00 0.000000000000000e+00 0.000000000000000e+00
0.000000000000000e+00 0.000000000000000e+00 0.000000000000000e+00
0.000000000000000e+00 0.000000000000000e+00 0.000000000000000e+00
0.000000000000000e+00 0.000000000000000e+00 0.000000000000000e+00
0.000000000000000e+00 0.000000000000000e+00 0.000000000000000e+00
0.000000000000000e+00 0.000000000000000e+00 0.000000000000000e+00
0.000000000000000e+00 0.000000000000000e+00 0.000000000000000e+00
0.000000000000000e+00 0.000000000000000e+00 0.000000000000000e+00
0.000000000000000e+00 0.000000000000000e+00 0.000000000000000e+00
0.000000000000000e+00 0.000000000000000e+00 0.000000000000000e+00
0.000000000000000e+00 0.000000000000000e+00 0.000000000000000e+00
0.000000000000000e+00 0.000000000000000e+00 0.000000000000000e+00
0.000000000000000e+00 0.000000000000000e+00 0.000000000000000e+00
0.000000000000000e+00 0.000000000000000e+00 0.000000000000000e+00
0.000000000000000e+00 0.000000000000000e+00 0.000000000000000e+00
0.000000000000000e+00 0.000000000000000e+00 0.000000000000000e+00
0.000000000000000e+00 0.000000000000000e+00 0.000000000000000e+00
0.000000000000000e+00 0.000000000000000e+00 0.000000000000000e+00
0.000000000000000e+00 0.000000000000000e+00 0.000000000000000e+00
0.000000000000000e+00 0.000000000000000e+00 0.000000000000000e+00
0.000000000000000e+00 0.000000000000000e+00 0.000000000000000e+00
0.000000000000000e+00 0.000000000000000e+00 0.000000000000000e+00
0.000000000000000e+00 0.000000000000000e+00 0.000000000000000e+00
0.000000000000000e+00 0.000000000000000e+00 0.000000000000000e+00
0.000000000000000e+00 0.000000000000000e+00 0.000000000000000e+00
0.000000000000000e+00 0.000000000000000e+00 0.000000000000000e+00
0.000000000000000e+00 0.000000000000000e+00 0.000000000000000e+00
0.000000000000000e+00 0.000000000000000e+00 0.000000000000000e+00
0.000000000000000e+00 0.000000000000000e+00 0.000000000000000e+00
0.000000000000000e+00 0.000000000000000e+00 0.000000000000000e+00
0.000000000000000e+00 0.000000000000000e+00 0.000000000000000e+00
0.000000000000000e+00 0.000000000000000e+00 0.000000000000000e+00
0.000000000000000e+00 0.000000000000000e+00 0.000000000000000e+00
0.000000000000000e+00 0.000000000000000e+00 0.000000000000000e+00
0.000000000000000e+00 0.000000000000000e+00 0.000000000000000e+00
0.000000000000000e+00 0.000000000000000e+00 0.000000000000000e+00
0.000000000000000e+00 0.000000000000000e+00 0.000000000000000e+00
0.000000000000000e+00 0.000000000000000e+00 0.000000000000000e+00
0.000000000000000e+00 0.000000000000000e+00 0.000000000000000e+00
0.000000000000000e+00 0.000000000000000e+00 0.000000000000000e+00
0.000000000000000e+00 0.000000000000000e+00 0.000000000000000e+00
0.000000000000000e+00 0.000000000000000e+00 0.000000000000000e+00
0.000000000000000e+00 0.000000000000000e+00 0.000000000000000e+00
0.000000000000000e+00 0.000000000000000e+00 0.000000000000000e+00
0.000000000000000e+00 0.000000000000000e+00 0.000000000000000e+00
0.000000000000000e+00 0.000000000000000e+00 0.000000000000000e+00
0.000000000000000e+00 0.000000000000000e+00 0.000000000000000e+00
0.000000000000000e+00 0.000000000000000e+00 0.000000000000000e+00
0.000000000000000e+00 0.000000000000000e+00 0.000000000000000e+00
0.000000000000000e+00 0.000000000000000e+00 0.000000000000000e+00
0.000000000000000e+00 0.000000000000000e+00 0.000000000000000e+00
0.000000000000000e+00 0.000000000000000e+00 0.000000000000000e+00
0.000000000000000e+00 0.000000000000000e+00 0.000000000000000e+00
0.000000000000000e+00 0.000000000000000e+00 0.000000000000000e+00
0.000000000000000e+00 0.000000000000000e+00 0.000000000000000e+00
0.000000000000000e+00 0.000000000000000e+00 0.000000000000000e+00
0.000000000000000e+00 0.000000000000000e+00 0.000000000000000e+00
0.000000000000000e+00 0.000000000000000e+00 0.000000000000000e+00
0.000000000000000e+00 0.000000000000000e+00 0.000000000000000e+00
0.000000000000000e+00 0.000000000000000e+00 0.000000000000000e+00
0.000000000000000e+00 0.000000000000000e+00 0.000000000000000e+00
0.000000000000000e+00 0.000000000000000e+00 0.000000000000000e+00
0.000000000000000e+00 0.000000000000000e+00 0.000000000000000e+00
0.000000000000000e+00 0.000000000000000e+00 0.000000000000000e+00
0.000000000000000e+00 0.000000000000000e+00 0.000000000000000e+00
0.000000000000000e+00 0.000000000000000e+00 0.000000000000000e+00
0.000000000000000e+00 0.000000000000000e+00 0.000000000000000e+00
0.000000000000000e+00 0.000000000000000e+00 0.000000000000000e+00
0.000000000000000e+00 0.000000000000000e+00 0.000000000000000e+00
0.000000000000000e+00 0.000000000000000e+00 0.000000000000000e+00
0.000000000000000e+00 0.000000000000000e+00 0.000000000000000e+00
0.000000000000000e+00 0.000000000000000e+00 0.000000000000000e+00
0.000000000000000e+00 0.000000000000000e+00 0.000000000000000e+00
0.000000000000000e+00 0.000000000000000e+00 0.000000000000000e+00
0.000000000000000e+00 0.000000000000000e+00 0.000000000000000e+00
0.000000000000000e+00 0.000000000000000e+00 0.000000000000000e+00
0.000000000000000e+00 0.000000000000000e+00 0.000000000000000e+00
0.000000000000000e+00 0.000000000000000e+00 0.000000000000000e+00
0.000000000000000e+00 0.000000000000000e+00 0.000000000000000e+00
0.000000000000000e+00 0.000000000000000e+00 0.000000000000000e+00
0.000000000000000e+00 0.000000000000000e+00 0.000000000000000e+00
0.000000000000000e+00 0.000000000000000e+00 0.000000000000000e+00
0.000000000000000e+00 0.000000000000000e+00 0.000000000000000e+00
0.000000000000000e+00 0.000000000000000e+00 0.000000000000000e+00
0.000000000000000e+00 0.000000000000000e+00 0.000000000000000e+00
0.000000000000000e+00 0.000000000000000e+00 0.000000000000000e+00
0.000000000000000e+00 0.000000000000000e+00 0.000000000000000e+00
0.000000000000000e+00 0.000000000000000e+00 0.000000000000000e+00
0.000000000000000e+00 0.000000000000000e+00 0.000000000000000e+00
0.000000000000000e+00 0.000000000000000e+00 0.000000000000000e+00
0.000000000000000e+00 0.000000000000000e+00 0.000000000000000e+00
0.000000000000000e+00 0.000000000000000e+00 0.000000000000000e+00
0.000000000000000e+00 0.000000000000000e+00 0.000000000000000e+00
0.000000000000000e+00 0.000000000000000e+00 0.000000000000000e+00
0.000000000000000e+00 0.000000000000000e+00 0.000000000000000e+00
0.000000000000000e+00 0.000000000000000e+00 0.000000000000000e+00
0.000000000000000e+00 0.000000000000000e+00 0.000000000000000e+00
0.000000000000000e+00 0.000000000000000e+00 0.000000000000000e+00
0.000000000000000e+00 0.000000000000000e+00 0.000000000000000e+00
0.000000000000000e+00 0.000000000000000e+00 0.000000000000000e+00
0.000000000000000e+00 0.000000000000000e+00 0.000000000000000e+00
0.000000000000000e+00 0.000000000000000e+00 0.000000000000000e+00
0.000000000000000e+00 0.000000000000000e+00 0.000000000000000e+00
0.000000000000000e+00 0.000000000000000e+00 0.000000000000000e+00
0.000000000000000e+00 0.000000000000000e+00 0.000000000000000e+00
0.000000000000000e+00 0.000000000000000e+00 0.000000000000000e+00
0.000000000000000e+00 0.000000000000000e+00 0.000000000000000e+00
0.000000000000000e+00 0.000000000000000e+00 0.000000000000000e+00
0.000000000000000e+00 0.000000000000000e+00 0.000000000000000e+00
0.000000000000000e+00 0.000000000000000e+00 0.000000000000000e+00
0.000000000000000e+00 0.000000000000000e+00 0.000000000000000e+00
0.000000000000000e+00 0.000000000000000e+00 0.000000000000000e+00
0.000000000000000e+00 0.000000000000000e+00 0.000000000000000e+00
0.000000000000000e+00 0.000000000000000e+00 0.000000000000000e+00
0.000000000000000e+00 0.000000000000000e+00 0.000000000000000e+00
0.000000000000000e+00 0.000000000000000e+00 0.000000000000000e+00
0.000000000000000e+00 0.000000000000000e+00 0.000000000000000e+00
0.000000000000000e+00 0.000000000000000e+00 0.000000000000000e+00
0.000000000000000e+00 0.000000000000000e+00 0.000000000000000e+00
0.000000000000000e+00 0.000000000000000e+00 0.000000000000000e+00
0.000000000000000e+00 0.000000000000000e+00 0.000000000000000e+00
0.000000000000000e+00 0.000000000000000e+00 0.000000000000000e+00
0.000000000000000e+00 0.000000000000000e+00 0.000000000000000e+00
0.000000000000000e+00 0.000000000000000e+00 0.000000000000000e+00
0.000000000000000e+00 0.000000000000000e+00 0.000000000000000e+00
0.000000000000000e+00 0.000000000000000e+00 0.000000000000000e+00
0.000000000000000e+00 0.000000000000000e+00 0.000000000000000e+00
0.000000000000000e+00 0.000000000000000e+00 0.000000000000000e+00
0.000000000000000e+00 0.000000000000000e+00 0.000000000000000e+00
0.000000000000000e+00 0.000000000000000e+00 0.000000000000000e+00
0.000000000000000e+00 0.000000000000000e+00 0.000000000000000e+00
0.000000000000000e+00 0.000000000000000e+00 0.000000000000000e+00
0.000000000000000e+00 0.000000000000000e+00 0.000000000000000e+00
0.000000000000000e+00 0.000000000000000e+00 0.000000000000000e+00
0.000000000000000e+00 0.000000000000000e+00 0.000000000000000e+00
0.000000000000000e+00 0.000000000000000e+00 0.000000000000000e+00
0.000000000000000e+00 0.000000000000000e+00 0.000000000000000e+00
0.000000000000000e+00 0.000000000000000e+00 0.000000000000000e+00
0.000000000000000e+00 0.000000000000000e+00 0.000000000000000e+00
0.000000000000000e+00 0.000000000000000e+00 0.000000000000000e+00
0.000000000000000e+00 0.000000000000000e+00 0.000000000000000e+00
0.000000000000000e+00 0.000000000000000e+00 0.000000000000000e+00
0.000000000000000e+00 0.000000000000000e+00 0.000000000000000e+00
0.000000000000000e+00 0.000000000000000e+00 0.000000000000000e+00
0.000000000000000e+00 0.000000000000000e+00 0.000000000000000e+00
0.000000000000000e+00 0.000000000000000e+00 0.000000000000000e+00
0.000000000000000e+00 0.000000000000000e+00 0.000000000000000e+00
0.000000000000000e+00 0.000000000000000e+00 0.000000000000000e+00
0.000000000000000e+00 0.000000000000000e+00 0.000000000000000e+00
0.000000000000000e+00 0.000000000000000e+00 0.000000000000000e+00
0.000000000000000e+00 0.000000000000000e+00 0.000000000000000e+00
0.000000000000000e+00 0.000000000000000e+00 0.000000000000000e+00
0.000000000000000e+00 0.000000000000000e+00 0.000000000000000e+00
0.000000000000000e+00 0.000000000000000e+00 0.000000000000000e+00
0.000000000000000e+00 0.000000000000000e+00 0.000000000000000e+00
0.000000000000000e+00 0.000000000000000e+00 0.000000000000000e+00
0.000000000000000e+00 0.000000000000000e+00 0.000000000000000e+00
0.000000000000000e+00 0.000000000000000e+00 0.000000000000000e+00
0.000000000000000e+00 0.000000000000000e+00 0.000000000000000e+00
0.000000000000000e+00 0.000000000000000e+00 0.000000000000000e+00
0.000000000000000e+00 0.000000000000000e+00 0.000000000000000e+00
0.000000000000000e+00 0.000000000000000e+00 0.000000000000000e+00
0.000000000000000e+00 0.000000000000000e+00 0.000000000000000e+00
0.000000000000000e+00 0.000000000000000e+00 0.000000000000000e+00
0.000000000000000e+00 0.000000000000000e+00 0.000000000000000e+00
0.000000000000000e+00 0.000000000000000e+00 0.000000000000000e+00
0.000000000000000e+00 0.000000000000000e+00 0.000000000000000e+00
0.000000000000000e+00 0.000000000000000e+00 0.000000000000000e+00
0.000000000000000e+00 0.000000000000000e+00 0.000000000000000e+00
0.000000000000000e+00 0.000000000000000e+00 0.000000000000000e+00
0.000000000000000e+00 0.000000000000000e+00 0.000000000000000e+00
0.000000000000000e+00 0.000000000000000e+00 0.000000000000000e+00
0.000000000000000e+00 0.000000000000000e+00 0.000000000000000e+00
0.000000000000000e+00 0.000000000000000e+00 0.000000000000000e+00
0.000000000000000e+00 0.000000000000000e+00 0.000000000000000e+00
0.000000000000000e+00 0.000000000000000e+00 0.000000000000000e+00
0.000000000000000e+00 0.000000000000000e+00 0.000000000000000e+00
0.000000000000000e+00 0.000000000000000e+00 0.000000000000000e+00
0.000000000000000e+00 0.000000000000000e+00 0.000000000000000e+00
0.000000000000000e+00 0.000000000000000e+00 0.000000000000000e+00
0.000000000000000e+00 0.000000000000000e+00 0.000000000000000e+00
0.000000000000000e+00 0.000000000000000e+00 0.000000000000000e+00
0.000000000000000e+00 0.000000000000000e+00 0.000000000000000e+00
0.000000000000000e+00 0.000000000000000e+00 0.000000000000000e+00
0.000000000000000e+00 0.000000000000000e+00 0.000000000000000e+00
0.000000000000000e+00 0.000000000000000e+00 0.000000000000000e+00
0.000000000000000e+00 0.000000000000000e+00 0.000000000000000e+00
0.000000000000000e+00 0.000000000000000e+00 0.000000000000000e+00
0.000000000000000e+00 0.000000000000000e+00 0.000000000000000e+00
0.000000000000000e+00 0.000000000000000e+00 0.000000000000000e+00
0.000000000000000e+00 0.000000000000000e+00 0.000000000000000e+00
0.000000000000000e+00 0.000000000000000e+00 0.000000000000000e+00
0.000000000000000e+00 0.000000000000000e+00 0.000000000000000e+00
0.000000000000000e+00 0.000000000000000e+00 0.000000000000000e+00
0.000000000000000e+00 0.000000000000000e+00 0.000000000000000e+00
0.000000000000000e+00 0.000000000000000e+00 0.000000000000000e+00
0.000000000000000e+00 0.000000000000000e+00 0.000000000000000e+00
0.000000000000000e+00 0.000000000000000e+00 0.000000000000000e+00
0.000000000000000e+00 0.000000000000000e+00 0.000000000000000e+00
0.000000000000000e+00 0.000000000000000e+00 0.000000000000000e+00
0.000000000000000e+00 0.000000000000000e+00 0.000000000000000e+00
0.000000000000000e+00 0.000000000000000e+00 0.000000000000000e+00
0.000000000000000e+00 0.000000000000000e+00 0.000000000000000e+00
0.000000000000000e+00 0.000000000000000e+00 0.000000000000000e+00
0.000000000000000e+00 0.000000000000000e+00 0.000000000000000e+00
0.000000000000000e+00 0.000000000000000e+00 0.000000000000000e+00
0.000000000000000e+00 0.000000000000000e+00 0.000000000000000e+00
0.000000000000000e+00 0.000000000000000e+00 0.000000000000000e+00
0.000000000000000e+00 0.000000000000000e+00 0.000000000000000e+00
0.000000000000000e+00 0.000000000000000e+00 0.000000000000000e+00
0.000000000000000e+00 0.000000000000000e+00 0.000000000000000e+00
0.000000000000000e+00 0.000000000000000e+00 0.000000000000000e+00
0.000000000000000e+00 0.000000000000000e+00 0.000000000000000e+00
0.000000000000000e+00 0.000000000000000e+00 0.000000000000000e+00
0.000000000000000e+00 0.000000000000000e+00 0.000000000000000e+00
0.000000000000000e+00 0.000000000000000e+00 0.000000000000000e+00
0.000000000000000e+00 0.000000000000000e+00 0.000000000000000e+00
0.000000000000000e+00 0.000000000000000e+00 0.000000000000000e+00
0.000000000000000e+00 0.000000000000000e+00 0.000000000000000e+00
0.000000000000000e+00 0.000000000000000e+00 0.000000000000000e+00
0.000000000000000e+00 0.000000000000000e+00 0.000000000000000e+00
0.000000000000000e+00 0.000000000000000e+00 0.000000000000000e+00
0.000000000000000e+00 0.000000000000000e+00 0.000000000000000e+00
0.000000000000000e+00 0.000000000000000e+00 0.000000000000000e+00
0.000000000000000e+00 0.000000000000000e+00 0.000000000000000e+00
0.000000000000000e+00 0.000000000000000e+00 0.000000000000000e+00
0.000000000000000e+00 0.000000000000000e+00 0.000000000000000e+00
0.000000000000000e+00 0.000000000000000e+00 0.000000000000000e+00
0.000000000000000e+00 0.000000000000000e+00 0.000000000000000e+00
0.000000000000000e+00 0.000000000000000e+00 0.000000000000000e+00
6.530733891122686e-03 7.229956473140791e-04 3.013303732273576e-19
 7.088735161174956e-03 -6.020422972062702e-04  3.197817067134556e-19
6.654733045350305e-03 2.409948923480645e-03 2.935278090770744e-19
 7.386293826767035e-03 -1.964843875766456e-04  3.143569791866482e-19
 4.909589803798135e-03 -3.535489057252631e-03  2.631759593800062e-19
5.918430856827131e-03 1.566185386383407e-03 2.769063412024505e-19
7.574121565411662e-03 1.384756697673722e-04 3.351273645603330e-19
 7.106518024688665e-03 -4.027132945691619e-05  3.203778436624621e-19
 7.186581326874301e-03 -4.072503345211116e-05  3.256003951390920e-19
 7.167405845704653e-03 -1.101012165952791e-04  3.263902607688232e-19
7.209577965608516e-03 7.145510835559281e-05 3.274185737635586e-19
7.150585594484097e-03 4.967903427690940e-05 3.243364600050854e-19
 7.254295896898673e-03 -3.016313127251304e-04  3.300527522534586e-19
7.405561426358822e-03 7.871187095002599e-05 3.352181194075435e-19
7.354788861143892e-03 7.029741313047794e-05 3.334871188873031e-19
7.376322991851036e-03 2.845636469369763e-04 3.328313156904663e-19
7.463151750070411e-03 2.879133251066022e-04 3.347737940918058e-19
 6.916918071391769e-03 -2.940828185196444e-04  3.209514206972558e-19
7.160111602370428e-03 2.278461386201443e-03 3.181991876693013e-19
 7.440416363352416e-03 -1.099792765593378e-03  3.348110682073588e-19
6.881202724353134e-03 1.061818960252131e-03 3.088671011171141e-19
 6.802534795092795e-03 -6.156461815705051e-04  3.105634411392870e-19
6.556612295334815e-03 1.124740027891886e-03 2.970503597074335e-19
6.936484734315341e-03 2.166749420484507e-05 3.135521149164833e-19
6.676785414365787e-03 6.227609765061063e-04 3.033001658154407e-19
6.690396024208003e-03 4.618903428288296e-04 3.025788339461209e-19
6.453082782164454e-03 4.455067544240921e-04 2.945735219706162e-19
6.165723176319677e-03 8.280584172612689e-04 2.815729621077979e-19
5.977803805398149e-03 5.474475059492916e-04 2.752209169017094e-19
5.799949122473347e-03 9.076805939863720e-04 2.596543046707005e-19
7.481184058326762e-03 1.037930783991024e-03 3.182853459785124e-19
 5.874601810391974e-03 -1.373633291822943e-03  2.712184286312087e-19
 6.063172384119502e-03 -1.004060239873703e-04  2.833156099189462e-19
 6.438431175953424e-03 -6.872540383636564e-04  2.970747600699801e-19
6.513587464697185e-03 3.117109657126988e-06 2.987562884964301e-19
 6.762771637143601e-03 -3.574473869991222e-04  3.071669955794755e-19
 6.671416236069772e-03 -1.462524796417042e-04  3.048156097783846e-19
 6.896304807298057e-03 -4.309468361536521e-05  3.106055729407183e-19
 6.764800915823413e-03 -5.064671082288755e-04  3.088173098284879e-19
6.875174864652510e-03 1.453708027428908e-04 3.100173363148229e-19
 6.582000075388170e-03 -9.357714971789365e-04  3.035431310871982e-19
6.750867837009675e-03 4.938460534372677e-04 3.039601176728284e-19
 6.781796660262181e-03 -5.265058358819670e-04  3.089536863050216e-19
6.925662931363400e-03 8.968588502791101e-04 3.103945517044793e-19
 6.898898157323309e-03 -1.039427549483055e-03  3.138570864611570e-19
6.781881027684235e-03 4.756864970141150e-04 3.053287006005083e-19
 6.752538086732508e-03 -6.206820748828526e-04  3.084954525372384e-19
6.827482581955579e-03 9.419149032953180e-04 3.062742013959476e-19
 6.925330054230110e-03 -6.248116269522547e-04  3.144775663247960e-19
6.826930796887870e-03 6.710914029025467e-04 3.070136410537749e-19
 6.932310215264793e-03 -4.435888356651687e-04  3.137678588285742e-19
7.005882216137360e-03 5.554203286078343e-04 3.145438715608138e-19
 6.925792060130122e-03 -8.031202258007847e-04  3.148233035281473e-19
6.794689734911160e-03 5.115338685291816e-04 3.065351752007647e-19
 6.894423100767103e-03 -1.975686086937363e-04  3.123804600026370e-19
6.904868256293682e-03 8.768959036502868e-04 3.088862304048481e-19
 7.017984312588234e-03 -2.459770516111854e-04  3.160033760916597e-19
7.018868009185389e-03 3.628618931140131e-04 3.161184102418282e-19
 6.929407944943749e-03 -2.103959069807162e-04  3.145223317333774e-19
7.015786916578318e-03 5.948470422731044e-04 3.129511014328887e-19
 7.067347830842525e-03 -6.670654274783457e-04  3.176953367952935e-19
6.885854708649411e-03 2.571544026312115e-04 3.112615807618293e-19
 6.995450148619279e-03 -2.758815891959380e-05  3.160996717542179e-19
6.983783597008087e-03 2.925337080264028e-04 3.136541224389272e-19
 6.739184654745384e-03 -3.579495759977275e-04  3.082477281138977e-19
6.754269379530153e-03 5.514264390979722e-04 3.031718680224445e-19
 6.793140776793953e-03 -1.138760287326441e-04  3.050725608067839e-19
6.839943148276377e-03 2.251953367059203e-03 2.983737658442833e-19
 6.847006984380787e-03 -7.613085141432130e-04  3.118302794051636e-19
6.791793925289110e-03 3.422961155585138e-04 3.061878744342666e-19
 6.739191611286915e-03 -3.888132503370319e-04  3.062191908755935e-19
6.695974037778466e-03 5.869789862413976e-04 3.002686997979811e-19
 6.976705427267632e-03 -2.540893433367256e-04  3.108350599950000e-19
 6.783413964584490e-03 -3.923261886074245e-04  3.089575237166795e-19
6.892725277501061e-03 1.847758409595984e-04 3.105619897711588e-19
6.820541333320818e-03 1.828407792165718e-04 3.065037567082816e-19
6.342346707489158e-03 7.848935076842890e-05 2.909708391666439e-19
6.348493801108094e-03 6.927769399505007e-04 2.843371509346336e-19
6.424040665407141e-03 1.113845397923915e-04 2.847868691058193e-19
 6.863636923822248e-03 -4.082964980646991e-04  3.009917275549965e-19
 6.171727010031377e-03 -8.048077646407996e-04  2.851122960764703e-19
6.428101026024002e-03 1.505528850037721e-05 2.915420637748023e-19
 6.564568653604786e-03 -6.240480616193178e-04  2.981210591284282e-19
6.649107475320040e-03 1.301965626150538e-04 2.995066962310344e-19
 6.724426729721740e-03 -4.443881411089443e-04  3.043941296419877e-19
6.828992826152919e-03 5.262251998856254e-04 3.036943640881540e-19
 6.955236410342557e-03 -4.470184258607878e-04  3.104559054903982e-19
6.887984574122206e-03 9.273984894577664e-05 3.083141842104529e-19
 7.069331176265113e-03 -2.313426547528054e-04  3.149249830934954e-19
7.156762055964223e-03 1.446966443830324e-05 3.177698038866367e-19
 7.194072703292496e-03 -2.789172525836197e-04  3.204676387127104e-19
 7.061131381326856e-03 -1.047921972154069e-04  3.167862786539206e-19
5.964442546169101e-03 3.807948412246313e-03 2.504628419603573e-19
 7.168819880665122e-03 -2.563905813445005e-05  3.176933086692013e-19
 6.952705203983489e-03 -3.708037561347426e-05  3.109437752587267e-19
 6.892975191726326e-03 -1.476346765522777e-05  2.986304238857764e-19
6.876794842831425e-03 8.404596370976258e-06 3.168093245419887e-19
6.853224884094389e-03 4.247532969775860e-06 2.770369568901488e-19
6.816769120237359e-03 4.332035202921548e-06 3.685397149980738e-19
6.790501516883804e-03 4.315342224119295e-06 3.669891235865825e-19
 6.795748275862241e-03 -3.958901268632914e-05  1.397207349133735e-19
 6.750200215045989e-03 -4.024427152997901e-05  3.508973658247971e-19
6.693434135954512e-03 4.515577851732462e-05 2.968999537106632e-19
 6.584311728650562e-03 -1.499177482435993e-05  2.927878446636950e-19
6.545794227461213e-03 1.037518366590679e-04 2.894401671119867e-19
 6.516023528291009e-03 -1.458353451102475e-04  2.887949730495895e-19
6.496393525279207e-03 5.690557670797869e-05 2.868366540507620e-19
 6.579308009015747e-03 -1.162397336864699e-04  2.897427618353172e-19
 6.630117804569306e-03 -5.875636750187007e-05  2.916275662327141e-19
 6.590384075337084e-03 -5.840424561417461e-05  2.914471967013823e-19
6.765156467012151e-03 1.169470600150797e-03 2.897433660276240e-19
 6.828858342268165e-03 -4.025541928820625e-04  2.978273070822988e-19
6.397767615029457e-03 1.844652941815113e-04 2.834159729688935e-19
6.537417336184383e-03 1.411201714197012e-03 2.787043338713762e-19
 6.701301423119631e-03 -4.584463095350670e-05  2.895812267025050e-19
 6.508317982668013e-03 -1.391376501741917e-04  2.850942113216305e-19
 6.681676131091420e-03 -4.909152219203644e-04  2.946393702447989e-19
 6.580009322537985e-03 -9.923662666484803e-05  2.915357230918743e-19
6.510472130344573e-03 6.324567054773770e-04 2.826344265840425e-19
6.790503451416232e-03 2.468441488299422e-04 2.896961161924877e-19
 6.696542138625507e-03 -6.454517674902944e-04  2.904101543433207e-19
 6.609740636290932e-03 -9.588600106499885e-05  2.889997548056157e-19
6.622928195846298e-03 8.480863174488055e-05 2.882553305963901e-19
6.759292063150946e-03 1.386421261017715e-04 2.907269050480090e-19
 6.757227682610695e-03 -8.927601996343619e-05  2.917040167728650e-19
6.772048406170628e-03 2.399554521085094e-04 2.899602840498432e-19
 6.756140188041307e-03 -5.806048191126680e-05  2.898904831478799e-19
6.734369548295381e-03 2.811796539962543e-04 2.878260317528137e-19
6.804155081863775e-03 4.798720390829067e-05 2.907713632790962e-19
6.741686382945584e-03 2.158000767835910e-04 2.877085420995134e-19
6.741344178424644e-03 2.184369679746887e-04 2.864571026438440e-19
6.646285208940634e-03 2.153568117738910e-04 2.831343515757087e-19
6.314470977194451e-03 2.068680660718929e-04 2.718268235407776e-19
6.205457634680317e-03 5.426113694134534e-04 2.629360542512593e-19
6.241197175521590e-03 5.160517188674080e-04 2.580747631255662e-19
6.294373989707113e-03 3.855997942958065e-03 2.496584843155012e-19
 6.217846457041794e-03 -1.038509143572765e-03  2.678236949641203e-19
 6.238917807615401e-03 -5.457570500837910e-05  2.679515183715506e-19
 6.375294452753356e-03 -5.022542842871043e-04  2.745554815866098e-19
6.425340888247306e-03 2.962606630506392e-04 2.704465502004219e-19
 6.472392217462554e-03 -3.609585324763229e-04  2.754065850902643e-19
6.377534783741427e-03 2.922292082993373e-04 2.667602227040843e-19
 6.407326419839550e-03 -1.910133630433735e-04  2.687371329662034e-19
5.623692595440734e-03 3.272984694786734e-03 2.134894312341993e-19
 6.491435585677809e-03 -2.834123217414449e-04  2.725725907008091e-19
6.595996019466386e-03 3.496171238393926e-04 2.724939705060644e-19
 6.545321367746008e-03 -5.298908317697106e-04  2.759125516272218e-19
6.612977377956095e-03 2.633214415865130e-04 2.706066560882843e-19
 6.602758094875547e-03 -7.579884685106843e-04  2.781251494215263e-19
6.597591069559944e-03 1.944553572782387e-04 2.723549313134654e-19
 6.478574892336667e-03 -1.003005844865764e-03  2.751436421770063e-19
6.720409327967147e-03 2.534827237672932e-04 2.682687081538810e-19
 7.932413547284972e-03 -1.665143659201835e-03  3.055332167905787e-19
 7.561759622123009e-03 -1.927380649129116e-03  3.120996230471748e-19
 9.636661440040384e-03 -1.331880948423172e-03  3.988825277149262e-19
 2.872503251230821e-03 -2.130162603556579e-03  2.625153299943556e-19
 1.405050162570995e-03  6.087476048962925e-03 -2.100144965182339e-20
8.915510211749149e-03 1.670843093167499e-03 3.218011452468216e-19
 3.832427145704136e-03 -4.317179171450526e-03  1.927421797061338e-19
3.740579628233628e-03 2.454728667599643e-04 1.700560181856580e-19
 7.162584144435579e-03 -6.638912743639483e-04  3.015851461008110e-19
6.677571160205052e-03 1.737012206857313e-04 2.725645885548371e-19
7.032328152373556e-03 1.729785074164551e-03 2.533201675375216e-19
 6.693170136027698e-03 -1.957978379732515e-03  2.790979378478986e-19
8.285369347183116e-03 7.457237747384449e-04 3.057582154365377e-19
-7.513238997614549e-04 -7.990873366114103e-03  4.453759412943678e-20
4.754753989361078e-03 3.255978812495940e-04 2.015076021821266e-19
7.262417389447201e-03 1.989875690577021e-03 2.601644391861723e-19
7.583681852083015e-03 1.244702568750060e-03 2.668639363992840e-19
 6.851811882308363e-03 -1.041775517134953e-04  3.721851501756318e-19
 6.716829118050248e-03 -1.021252224689870e-04  3.680399256657305e-19
 6.771798488650161e-03 -1.029609976692837e-04  3.660615472160587e-19
 6.772038071154407e-03 -1.130436530431029e-04  2.213966527235948e-19
 6.782881907092825e-03 -2.354229352958943e-04  2.291242989087219e-19
 6.778238586749025e-03 -1.334699253103076e-04  2.236598445740197e-19
 6.845280519067096e-03 -1.750364322719794e-04  2.197428292767077e-19
 6.801191775387003e-03 -2.610966884409539e-04  2.146911734111475e-19
 6.860794609999754e-03 -2.998434370462410e-04  2.056729962484333e-19
 7.086511463395964e-03 -9.248400099534012e-04  2.167053681604967e-19
 7.788047023387114e-03 -5.724351945025602e-04  2.076557113603449e-19
 8.477310774674446e-03 -4.443563201512427e-03  3.348219068720782e-19
 3.790497526048345e-03  8.674863181582858e-03 -8.226479201869866e-20
 9.102218998947090e-03 -1.755875563773147e-03  2.382347861525493e-19
 4.775837794541814e-03  4.593644846638685e-03 -1.203708415558176e-19
 5.241505771743552e-03  6.529436897661926e-04 -3.041018637516635e-20
 2.924475387928650e-03  8.439286682452191e-03 -1.827415985770074e-19
 4.406959117865136e-03 -4.421605947016235e-03  2.406975536042224e-19
 2.931572847677758e-03  3.107333886208332e-03 -3.945726051684846e-19
 8.413706421575065e-03 -5.753704000446432e-03  1.370124909397263e-19
 5.768879063415388e-03 -5.886174398239365e-03  1.938204044780321e-19
 3.814812119576988e-03 -5.739028374441851e-03  3.920450426769979e-19
 2.501875820194753e-03  3.541787784200355e-05 -1.687532741132104e-19
 6.882423828070312e-03  6.574983550366952e-03 -3.654433983730855e-19
 6.098108331703763e-03  1.019747858976527e-03 -4.151669628138226e-19
 5.987063764978922e-03 -2.087407505122894e-03 -1.260798280713377e-19
 7.971742990404870e-03  4.845120379109743e-03 -8.667501014527120e-19
 6.176689113734799e-04 -8.216473037418820e-03  9.676189671584166e-19
 5.271892234054824e-03  1.853185066390074e-03 -1.041364704965669e-18
 6.576292925193975e-03  4.873850283975988e-05 -9.874935614343401e-19
 1.429602687992864e-02  5.750601294342570e-03 -1.438420633736297e-18
 7.431366998309125e-05 -5.442952373055321e-03  1.771283988552700e-18
 2.292359177393994e-03  2.188497658495690e-03 -2.370413742758525e-18
 8.347516359929454e-03  1.776993238203195e-03 -2.023755063871578e-18
 6.925547307707274e-03  5.734090995264006e-03 -3.064191662182044e-18
 4.722231522953265e-03 -8.418182680344104e-03  1.164746023729007e-18
 6.974340845639616e-03  2.221396540507616e-03 -3.072068478941528e-18
 6.241907751285614e-03 -1.707676155343851e-03 -1.779957781532501e-18
 4.859856466589550e-03  2.595861732974159e-03 -4.228539630434200e-18
 6.713173351625176e-03  1.139564999169067e-04 -3.546043699490158e-18
 6.550148442032511e-03  1.419474503325091e-03 -5.410346021545536e-18
 7.264025969983691e-03 -4.171685765651633e-04 -5.104273420748490e-18
 6.369925588151109e-03 -2.391434315601522e-04 -6.586574774612995e-18
 6.615346036869932e-03 -2.483571480266088e-04 -9.653566339355784e-18
 6.738805420461778e-03 -2.662371754934571e-04 -1.416733263535589e-17
 7.296076750299577e-03  1.458555249125387e-04 -2.175885537100837e-17
 5.744344898391376e-03 -4.227142886883074e-03 -1.303925960319813e-17
 6.737068508601485e-03  1.152127502243130e-04 -3.423690069057521e-17
 6.946890817769245e-03  3.229149260258318e-04 -4.658127179397964e-17
 7.155938328018198e-03  7.242092103967581e-04 -6.550321885549897e-17
 6.453488890487392e-03 -2.766558110171849e-03 -7.315049613482098e-17
 6.550290961459794e-03  3.237299876824090e-04 -1.190177123185471e-16
 6.732303685554165e-03 -1.422220409109155e-04  2.724931379486750e-16
 6.797441263148844e-03 -1.261660404830007e-04 -6.485038269452649e-15
 6.919425903339362e-03 -4.729220721006947e-06  1.977262666205209e-16
 6.916169747807748e-03 -4.726995236056887e-06 -1.255245596359093e-16
 6.890206190069016e-03 -1.278878330052596e-04 -6.521583272049609e-15
 6.885375823608280e-03 -4.955967564854236e-05 -8.136960449816165e-17
 6.878185876709885e-03  5.712520341117828e-05 -6.484090300759545e-17
 6.888509031632543e-03 -2.409657962931689e-05 -4.586276485679695e-17
 6.875564304811585e-03 -1.647923541710611e-05 -2.751288729564490e-17
 6.870790588612238e-03 -1.646779385542827e-05 -1.719648613444049e-17
 6.875727284545332e-03 -6.216380940293417e-05 -1.075824555325454e-17
 6.890020453914409e-03 -6.229303469353293e-05 -6.816725301764143e-18
 6.870209691892008e-03 -6.211392455964851e-05 -4.464777729012148e-18
 6.869412383006882e-03  4.082123883846664e-05 -3.170167775768864e-18
 6.842766933676953e-03 -3.622826962513292e-04 -1.981738016318416e-18
 6.985576145381791e-03  3.753621640106852e-04 -1.678372312598891e-18
 6.909843349762851e-03 -9.074571545562203e-04 -1.297575491666156e-18
 6.892585623382604e-03  1.398921574037642e-04 -1.058046114834051e-18
 7.019509458717320e-03 -5.074715039192229e-04 -7.727550479407517e-19
 7.026461641591836e-03 -4.263413709369117e-04 -5.950950829768050e-19
 7.298414953942128e-03 -2.763363450607159e-04 -4.457044156376155e-19
 6.920500678621634e-03 -1.448904876365732e-03 -3.085090919908771e-19
 7.380460833846018e-03  3.445433261561452e-04 -2.752803271956329e-19
 8.181959989930100e-03 -1.539140671854277e-03 -9.681670590803804e-20
-3.215759311014221e-04 -6.457922445869820e-03  1.711618675577048e-19
 8.126623417056370e-03  1.928762364545449e-03 -5.513220926336049e-20
 7.810181509516726e-03  1.853658448625531e-03 -2.462874710973177e-20
7.090377662431294e-03 5.044681663002187e-04 3.438215053642054e-21
6.698696930417299e-03 1.875274476778669e-03 2.434406910841286e-21
 5.974128887951726e-03 -2.120616502019366e-04  3.588084590983384e-20
 9.499366410660185e-04  6.514224986910917e-03 -9.192126534597723e-20
 7.025291801965164e-03 -7.481012275190109e-04  9.273488010739817e-20
6.205404320911644e-03 2.342463553635912e-04 7.539610277601105e-20
 6.741464876526492e-03 -4.750532193865592e-04  1.268641470739793e-19
6.942025397703834e-03 5.980868840320730e-04 1.425522698296381e-19
 6.191286653692395e-03 -1.448629881267880e-03  1.693909728072360e-19
6.268721975839847e-03 1.490773355822732e-03 1.320927582488065e-19
 6.453430863486979e-03 -1.469468844823873e-03  1.891246318360279e-19
6.790621392837802e-03 1.251492117709819e-03 1.866692255344840e-19
 5.342663323597366e-03 -1.774047215080847e-03  1.854360296290090e-19
6.887021319628622e-03 3.490943129890900e-03 1.913321938494808e-19
 2.096591178307490e-03 -8.750846102338335e-03  5.303625206411974e-20
 4.274413046629104e-03 -1.431047486808225e-04  1.341288725483511e-19
 7.163513190769281e-03 -1.659825600545817e-04  2.364657039980082e-19
 6.463436614295524e-03 -2.487825322773508e-03  2.500336726662484e-19
6.930720610288784e-03 8.382409134403435e-04 2.337436426790020e-19
7.242052953193624e-03 2.397823588801788e-04 2.489599590121756e-19
6.713044494466654e-03 2.222670359571142e-04 2.346884147771106e-19
6.754816982406045e-03 1.093882043640788e-03 2.294347509340472e-19
 6.662681638820951e-03 -1.616019909541438e-04  2.383943319454242e-19
 6.685738658345966e-03 -1.531665784769413e-04  2.448554793908957e-19
 6.629014207296195e-03 -8.800992318934026e-04  2.567238014015723e-19
6.726648985694755e-03 2.925331978943408e-04 2.522838930324650e-19
6.909379314577199e-03 7.177547183912136e-05 2.587367596907550e-19
 6.831595014849643e-03 -1.380751909463423e-04  2.602979831030666e-19
 6.680431452939381e-03 -1.382208261899655e-04  2.577581819995360e-19
6.826699554741519e-03 9.762146589996321e-05 2.617324178803905e-19
 6.815285865310433e-03 -8.796446809026593e-05  2.649845141810782e-19
6.890996737156941e-03 5.653161815721524e-04 2.642232818055184e-19
 6.885346921958068e-03 -2.305536417033682e-04  2.704841409472334e-19
6.854443700333986e-03 2.670667569439464e-04 2.675821895312319e-19
 6.706628860492235e-03 -5.611873926380894e-04  2.710744317668573e-19
6.721418331985597e-03 4.500765906900170e-04 2.645691220595471e-19
 6.624008284573320e-03 -5.032953702418278e-04  2.693381594739950e-19
6.718729955394634e-03 9.691536980428159e-04 2.640678453035054e-19
 6.813977046259517e-03 -5.730404778615452e-04  2.783769050010369e-19
6.608195434708765e-03 6.888069791201556e-04 2.652137198357917e-19
 6.839396299783826e-03 -1.098962162528377e-04  2.769088510560459e-19
 6.703425862093671e-03 -1.077114274250778e-04  2.771855499661174e-19
7.147221602877528e-03 1.343676059215836e-03 2.841645072263427e-19
 6.784164062016314e-03 -1.795368569631936e-03  2.834791966030639e-19
6.656980892301584e-03 5.656547698369288e-04 2.713928470703530e-19
 6.729122727598102e-03 -9.094314312547366e-04  2.821334726870424e-19
6.859392899636837e-03 6.032219889206929e-04 2.813039878833265e-19
 6.501334581884177e-03 -2.432374678635764e-03  2.791388176948205e-19
6.774736599273308e-03 4.342674843445128e-04 2.792753771415208e-19
 6.472072718466162e-03 -1.329195980420650e-03  2.787207387866737e-19
6.627391810482272e-03 7.839347396355227e-04 2.723061347704920e-19
 6.803084923993336e-03 -4.410167684163748e-04  2.860425998638027e-19
6.924801951643291e-03 1.374325680867970e-03 2.839891065844914e-19
 6.934424568994569e-03 -7.960008975135473e-04  2.940823201392262e-19
6.795953528920536e-03 1.051783770359321e-03 2.796946044774534e-19
 6.849918453402413e-03 -5.554967329536688e-04  2.883826155774510e-19
6.501836713184914e-03 9.657437774060922e-04 2.710441476315296e-19
6.901806141618710e-03 2.888524264572156e-04 2.870889507608445e-19
6.870130728431408e-03 5.037065935238121e-04 2.869687679261229e-19
6.393224950807940e-03 7.484141128549883e-05 2.764613572974296e-19
5.878549467858132e-03 2.132082451973806e-03 2.392865093282274e-19
5.862818755922725e-03 5.488535147058404e-04 2.463288645729576e-19
6.431821167254918e-03 3.177403941257524e-03 2.609467228532270e-19
 5.134667046353637e-03 -1.824189006132507e-03  2.489763310005332e-19
4.260123822940426e-03 2.046579207108585e-03 1.634451751405609e-19
 7.850624860557378e-03 -1.162856011687381e-03  2.863009376167845e-19
 4.975609489901468e-03 -1.786068333803990e-03  2.101139999398176e-19
 4.984768061219593e-03 -1.162810763785114e-03  2.351893532470795e-19
 4.542949312698841e-03 -1.786688707965690e-03  2.442463360838271e-19
6.066070678036043e-03 2.260968606041598e-04 2.670001798195443e-19
 6.551224681428591e-03 -1.871116815274782e-03  2.856941239855642e-19
 6.685620713489817e-03 -2.855348114148694e-04  2.893942255661820e-19
 6.568832157841389e-03 -1.273785877175621e-03  2.902781968012606e-19
7.094600657719767e-03 3.262147260654057e-04 3.004309559901053e-19
 6.760820012744392e-03 -1.879965199424156e-03  2.952645141782362e-19
6.978129384800693e-03 3.865747812724832e-04 2.986329160728260e-19
 6.742513740112244e-03 -1.454980342705257e-03  2.940524352856333e-19
6.699422474975980e-03 6.250070604028868e-04 2.873461562786320e-19
 7.045588782023222e-03 -4.058810043495575e-04  3.024789405788310e-19
6.996650140012348e-03 1.713493583374471e-04 3.006489028910700e-19
 6.920039419097803e-03 -9.336705042840466e-05  2.992809370896510e-19
6.924062058391288e-03 4.600597660123550e-04 2.984984139211734e-19
6.969475090459320e-03 7.765613252534630e-05 3.016486272114610e-19
6.884129597192475e-03 7.003228769176743e-04 2.978174301746857e-19
6.493081138701241e-03 1.987553228135076e-04 2.877941694605238e-19
5.922502718263357e-03 2.151525397074472e-03 2.505073012939534e-19
5.857695983559259e-03 3.967358502242734e-04 2.539616088328555e-19
6.045869610067169e-03 3.904350468463486e-03 2.551293668851811e-19
 5.698376126781828e-03 -1.465320363672921e-03  2.648189775446469e-19
5.400608661074679e-03 1.643387861292932e-03 2.297729705032117e-19
 4.147372476106558e-03 -6.529392270453189e-03  1.398553820057185e-19
 5.580290754565905e-03 -7.227361473071709e-04  2.308493051272315e-19
 6.032975919208865e-03 -1.465934784692556e-03  2.214555022691381e-19
 6.433953717882896e-03 -7.286848287625929e-04  6.120278638201495e-19
 6.869388081110988e-03 -4.140603938841112e-04 -4.447177001133902e-19
 7.114992172504934e-03 -1.535460675312678e-04  3.038148269143057e-19
7.140109831694268e-03 2.917136178032819e-04 2.292479735410906e-19
7.096608640878002e-03 7.059641160363781e-05 3.397906776319613e-19
7.109881584737031e-03 5.640808278062452e-04 3.008490376107646e-19
 6.991964903686364e-03 -3.593368900861575e-05  3.074704992533831e-19
6.407322203273602e-03 1.438075379582563e-03 2.812516119820505e-19
6.611570698897670e-03 6.870684137369071e-04 2.911290001479866e-19
5.827117067036726e-03 1.471136816017499e-03 2.526014963530521e-19
6.378663316225723e-03 1.421797533269302e-03 2.721137825233634e-19
5.192259901717327e-03 2.736766414102042e-04 2.342084792629993e-19
5.751309813381090e-03 1.032908218853197e-03 2.428436856187612e-19
 5.217206876212046e-03 -2.231273934154817e-03  2.403065627283719e-19
5.178724088122971e-03 3.572445420343969e-04 2.426049806926106e-19
 5.945085206245770e-03 -1.233980799197636e-03  2.813445894701807e-19
6.173259344162229e-03 1.057594092579828e-03 2.729288195926361e-19
 7.005294055158573e-03 -6.847767940450995e-04  3.013376631327416e-19
 6.449641635284411e-03 -8.100447941725323e-04  2.916852291530605e-19
6.636386848737753e-03 2.596412355144879e-05 2.975323191460566e-19
6.383636955900955e-03 2.688031110952942e-03 2.755929703593560e-19
 6.429973070926472e-03 -1.941058186433570e-04  2.905815820237875e-19
5.741348649581987e-03 1.655794561935265e-03 2.483043022655351e-19
 7.546883640961222e-03 -9.060771414767978e-04  3.049827346641312e-19
 5.758240535865586e-03 -8.008131655619421e-04  2.560020620487120e-19
 5.916644638212415e-03 -8.108002092653668e-04  2.722997931468929e-19
 6.309398774331125e-03 -8.183966360887072e-04  2.908197062211991e-19
6.649422903865500e-03 2.530943028042808e-04 2.974227447955773e-19
 6.853955590677781e-03 -5.986259046293396e-04  3.043253868269607e-19
 6.720078825535196e-03 -9.628035933194081e-05  3.009231815586926e-19
 6.838032658118856e-03 -1.674984345824607e-04  3.040778563711134e-19
 6.801135315406302e-03 -1.665946297231395e-04  3.035337018754488e-19
6.861467690191700e-03 1.966942476483192e-05 3.052069875852015e-19
 6.839798805813301e-03 -2.255114596519704e-04  3.060850294934372e-19
6.813424636367997e-03 5.394485571502661e-05 3.044502046938831e-19
 6.749200605432682e-03 -2.442130374494144e-04  3.030028914459814e-19
6.962994822717288e-03 3.622622090449530e-04 3.086537622092423e-19
 6.772027198055589e-03 -5.976309748428143e-04  3.065366110989743e-19
6.717748208483273e-03 5.490944356012814e-04 3.015653645381676e-19
 6.973826879953477e-03 -2.368453821183041e-04  3.112240652308627e-19
 6.930665063151677e-03 -1.775576413764765e-05  3.109948682440011e-19
 6.941547140943267e-03 -1.729520394936638e-04  3.123154590226577e-19
6.906479167361582e-03 1.279317425285656e-04 3.105431883959902e-19
6.950680414854183e-03 6.739780838354893e-05 3.106056054555244e-19
7.338477801915278e-03 3.179576528196643e-04 3.227947268257346e-19
 6.803706155394108e-03 -7.477208169964430e-04  3.111006398531011e-19
6.790644558242885e-03 9.594705361165368e-04 3.043478003571673e-19
 7.051921725277093e-03 -1.130809214762257e-04  3.142301403866130e-19
6.788664054235471e-03 3.763552710401273e-04 3.032666171267701e-19
 7.034485562197649e-03 -5.577568786973414e-04  3.172223545498594e-19
7.220625096084701e-03 7.710668259855991e-04 3.269056303564942e-19
 2.247402197830985e-03 -8.358468219369675e-04  1.914361617051061e-19
3.239566940818069e-03 5.754178521866220e-03 1.444989599729944e-19
 7.938511443692318e-03 -8.167186576316305e-03  1.910624272555094e-19
 4.091283751130462e-03 -2.607571928960728e-03  1.967536505242605e-19
 4.819330691624274e-03 -8.062563286223964e-04  2.552055612288147e-19
 6.279461910196663e-03 -2.482881273772845e-04  2.977582926247434e-19
6.707924345159759e-03 1.368618064959427e-05 3.028387198486258e-19
 6.785650391427363e-03 -9.201637446005920e-04  3.091021362259362e-19
 7.116109914803241e-03 -1.571894604007141e-04  3.228307630406958e-19
 7.395103693331585e-03 -7.282460094805178e-04  3.325635197159018e-19
 7.495514107406229e-03 -3.192067861611361e-04  3.388632622290759e-19
7.390739890332154e-03 1.953201607503773e-04 3.360866365199248e-19
7.619227147239145e-03 2.131475254972664e-04 3.428044620811757e-19
7.484792886712411e-03 2.309881575456843e-04 3.367462968703942e-19
 7.374509347216950e-03 -4.039588013920124e-05  3.347704347003288e-19
 7.316464992384338e-03 -4.007792640286753e-05  3.335149411372447e-19
 7.293009583924310e-03 -1.327761946798996e-04  3.320377966862173e-19
 7.208010792112583e-03 -3.262967366293018e-04  3.305399277565999e-19
 7.289399393807179e-03 -3.346265956999058e-05  3.312510787443704e-19
 7.220428365020877e-03 -5.523349738058592e-04  3.315487608953733e-19
7.146412803395770e-03 5.239230138088773e-05 3.286934456703136e-19
 5.977470543735924e-03 -2.131648530374008e-03  3.011092038100090e-19
7.097877886790936e-03 1.297338874922496e-03 3.166714371330461e-19
 6.469836166727310e-03 -1.731850004056469e-03  3.070004390925202e-19
6.657865648800227e-03 2.153624377294732e-03 2.955158303131466e-19
 6.783083818780356e-03 -2.152101155646450e-03  3.120018785873395e-19
6.561576395501021e-03 1.129727546718332e-03 2.951213103769609e-19
 6.656933485862144e-03 -1.734997172680086e-03  3.072268521239911e-19
6.682565300351892e-03 1.006791220861507e-03 3.004658734828825e-19
 6.629841551520790e-03 -1.465416824920040e-03  3.040321637175387e-19
7.180258312633606e-03 1.251703137605755e-03 3.179419719207280e-19
 4.190463050034909e-03 -4.230658855837634e-03  2.336016208629810e-19
5.701199457435785e-03 2.592040907254959e-03 2.539938152139954e-19
 4.681438479117426e-03 -2.853243617207740e-03  2.441827900249510e-19
4.246486764581191e-03 2.457083382971117e-03 1.803820799954227e-19
 7.525764218807371e-03 -2.562718880675907e-03  2.884276968552882e-19
 5.249759995335722e-03 -8.381168812568403e-04  2.366529226964160e-19
 5.073074918650155e-03 -1.409111850968246e-03  2.545091048750716e-19
 6.038806352134543e-03 -5.511310302223192e-04  2.865428943228181e-19
 6.586075684415463e-03 -5.073807650190895e-04  3.000275473726163e-19
 6.843425273548857e-03 -5.272065668574784e-04  3.095038517955054e-19
 6.559485385709273e-03 -5.323535500031016e-04  3.043173851194817e-19
6.936070634836230e-03 6.585443917030520e-04 3.106883411605311e-19
-6.939848157481438e-03 -1.076184029627475e-03 -3.124577724571778e-19
-6.512320416906662e-03 -1.405198918331124e-04 -2.939692404864530e-19
-6.556081348052458e-03 -6.822581563393959e-04 -3.094886204180398e-19
-6.657357904947463e-03  1.736195159756945e-03 -3.139979208450479e-19
-7.311789062123050e-03  4.329987977948670e-05 -3.282300058660677e-19
-6.949525522981217e-03  4.115458160963250e-05 -3.171471051112232e-19
-6.799901633550441e-03 -9.341312246993439e-05 -3.134935428786574e-19
-6.828157413709312e-03  3.145730397025309e-04 -3.146129706840574e-19
-6.871438856665797e-03  1.364698966898113e-04 -3.146144899382048e-19
-6.829690829150755e-03  1.917196184898492e-04 -3.144146991550880e-19
-6.859140753968053e-03  1.954175133888050e-04 -3.171851116220593e-19
-6.859775722253950e-03  1.954356036901942e-04 -3.180715183975605e-19
-6.897698814159970e-03  3.239956974113597e-04 -3.197200187410686e-19
-6.876525187069699e-03  5.114789928408648e-05 -3.190033758724221e-19
-6.954625471699106e-03  6.074551152982054e-04 -3.230321841646428e-19
-7.016706486353863e-03 -7.817298311077929e-05 -3.239923933066683e-19
-7.074635209988027e-03  1.312538334800536e-03 -3.306894007556049e-19
-7.142813767210594e-03 -2.537113393972266e-04 -3.311708462863177e-19
-6.994289702093446e-03  8.643777864796425e-04 -3.326464796445359e-19
-7.190164556345202e-03  3.455297778877793e-04 -3.325591438697223e-19
-7.355585086446887e-03  3.534792091666050e-04 -3.357416110218893e-19
-7.017893558831423e-03 -1.454867387934116e-03 -3.209250106161167e-19
-7.201493851247346e-03  8.173895243322463e-04 -3.392969249667423e-19
-7.277212582597859e-03 -2.724047591021533e-04 -3.318875875341882e-19
-7.312780711713432e-03 -3.314481106239685e-04 -3.365329437447975e-19
-7.171162212199665e-03 -2.173283660796252e-04 -3.344824463310730e-19
-7.427438900073992e-03  7.333436054120121e-04 -3.388966626985063e-19
-7.384123743310836e-03 -1.267465657663903e-03 -3.352992761630960e-19
-7.341617653329109e-03  1.011065425868773e-04 -3.388788673995983e-19
-6.774516542741811e-03 -6.952520541918079e-04 -3.152221188402299e-19
-7.164101503157341e-03  1.624661117748465e-03 -3.313088078389775e-19
-7.182139900885941e-03 -1.236681176207307e-03 -3.270306881679787e-19
-7.254081735623774e-03  1.005109281187706e-03 -3.350318914554816e-19
-7.447430701847244e-03 -1.097944193517513e-03 -3.361882257644440e-19
-7.600560099162697e-03  8.559076361713855e-04 -3.549485310084065e-19
-6.281383889543006e-03 -1.158881905497562e-03 -2.979609208746354e-19
-4.216640134378512e-03  4.225612367401296e-03 -2.614371649595475e-19
-8.749148674983132e-03  1.256527434157754e-03 -3.626393381362074e-19
-7.059170637691866e-03 -1.999274182057665e-03 -3.074564545767887e-19
-6.742836202159105e-03 -2.648797151907306e-04 -3.168094962729081e-19
-7.301864245583714e-03  3.898534902799483e-04 -2.949665871857558e-19
-7.133362812103790e-03  3.808570381753979e-04 -2.813397315179689e-19
-6.969994582278130e-03 -2.721534996488408e-04 -1.891378221231415e-18
-7.265068933633833e-03  2.778270951299886e-04 -3.702814927452375e-19
-7.176451662597515e-03 -1.214429976805939e-03 -3.038460353452674e-19
-7.655914288925177e-03  5.616321100678158e-04 -3.460118347768769e-19
-6.689430239622475e-03 -1.840465789485154e-03 -3.114679956681670e-19
-5.735310795464358e-03  3.703754106817106e-03 -3.135531098673119e-19
-7.578970962686809e-03 -1.022391181587912e-03 -2.957203133303847e-19
-6.471709206262551e-03  1.327400898973492e-03 -4.596089622311970e-19
-7.696674612222839e-03  1.447178469875796e-03 -4.368143680824354e-19
-7.067667338289801e-03 -1.659156550359908e-03  9.826700480153020e-20
-6.957203352179134e-03  1.765553134470448e-04 -3.272973417217579e-19
-7.213946497438766e-03  1.830707714827074e-04 -3.300324306223517e-19
-7.100350834680988e-03 -2.228709327088763e-04 -3.244699613008672e-19
-7.152719972963539e-03  2.723437626890326e-04 -3.261488787223086e-19
-7.305728632989872e-03 -2.779951027437824e-04 -3.274119667230749e-19
-7.462209925211087e-03 -4.678006614914772e-04 -3.374435171683337e-19
-6.184661984174829e-03 -7.230101424534214e-04 -2.911252472029677e-19
-4.588484068447176e-03  4.909166620404289e-03 -2.446075154813742e-19
-8.807891999819521e-03  5.341049486117490e-04 -3.743016147194727e-19
-6.384795368239778e-03 -2.527998204044082e-03 -2.794994102953245e-19
-6.510204437832588e-03  1.680776647229438e-03 -3.104381028880465e-19
-7.533794801275635e-03 -7.214737848973004e-04 -3.319002739347756e-19
-6.940984500506293e-03 -3.027996784962651e-04 -3.202542215507145e-19
-7.045213189245204e-03  6.784176995619844e-04 -3.275741834830384e-19
-6.785103252024749e-03  6.533704539354512e-04 -3.114306865949145e-19
-6.567418131157814e-03  5.296543311856883e-05 -1.540285147154365e-19
-6.250580212638246e-03  5.041017361664091e-05 -1.501055915453519e-19
-2.123005817471658e-03 -5.382514312506374e-05 -1.815702552712964e-18
-6.167821189320616e-04  2.762657613253385e-03  1.751610341363133e-19
-8.151185712036706e-03  9.965434349580223e-03  3.261999773483744e-20
-1.877426450175747e-03 -7.116113634879168e-03 -8.348323334930494e-20
-2.514525140811408e-03  1.223109267747720e-03 -2.607991308748713e-19
-5.445654146349231e-03 -5.763566157861218e-04 -2.567217544833501e-19
-6.675502895577876e-04  9.371937406062701e-03 -2.364010117765309e-20
-1.174345058860567e-02 -2.599807813788044e-03 -4.993742061063429e-19
-7.530326480345388e-03 -4.487327045115017e-04 -3.331862090562241e-19
-7.298228650684231e-03  1.692346067707582e-05 -3.302753193722473e-19
-7.340397540338152e-03  1.908139806906326e-04 -3.312462297788432e-19
-7.260586349687715e-03  1.887392850208165e-04 -3.255901529136093e-19
-7.167634546173967e-03 -2.943749526295080e-04 -3.238100359413430e-19
-7.001456596121028e-03  1.072937202414900e-03 -3.217184889068358e-19
-7.038719487247597e-03 -1.598977552316498e-04 -3.173619599209775e-19
-7.627000908648229e-03  4.531464749957331e-05 -3.369447753647713e-19
-9.453661871885947e-03 -5.485576042098215e-04 -4.069292408968532e-19
-1.250027635132285e-03 -6.273213783503051e-03 -1.199562048037986e-21
-4.525129261288878e-03  1.066846046069695e-03 -3.006658543073369e-19
-7.329848029165955e-03  2.500751460926130e-03 -3.320761110122573e-19
-7.838789745797626e-03  5.831476336887630e-04 -1.990371790402297e-19
-6.829284257946242e-03  1.151412336260993e-04  1.996777135538168e-19
-6.825842592016251e-03  1.150832073899754e-04  1.976990253580144e-19
-6.938316434200957e-03 -1.503655759729942e-04 -3.363977899470117e-19
-7.064991984464576e-03  5.162778098564176e-04 -3.111400168866143e-19
-6.952997124947669e-03 -8.592562509941691e-04 -3.102124106458328e-19
-6.982831152333941e-03  3.222313619604785e-04 -3.160904668014135e-19
-7.796944139576142e-03 -4.087058883041563e-04 -3.405029213956127e-19
-5.764652371643320e-03 -3.019669209345378e-03 -2.518961953991197e-19
-6.396357577633127e-03  6.823865209424199e-04 -3.089925463367732e-19
-7.254364237272047e-03  1.097493819557625e-03 -2.908735177647728e-19
-6.975721575172070e-03 -9.047838584434815e-04 -7.144958528616873e-20
-6.716411108385418e-03 -2.130991606298709e-04  1.093081819341087e-18
-7.013885954327104e-03 -2.225374810298133e-04  1.085044856472478e-18
-7.264655937875351e-03 -7.689977317248002e-04 -3.004182834082640e-19
-7.232136405329337e-03  1.385339487592495e-03 -3.139139497299918e-19
-6.152408393629392e-03 -1.872754778199674e-03 -2.577108344536551e-19
-5.339780446923167e-03  3.766651190846495e-03 -2.615025672341177e-19
-7.533413828009320e-03 -1.712509499240441e-03 -3.178027881633906e-19
-6.504059935063607e-03  2.609100532052258e-04 -2.924615010104824e-19
-6.989575189789417e-03  4.480582089496052e-04 -3.020916761150314e-19
-6.967764309444036e-03 -1.120410015462268e-03 -2.981668990098333e-19
-6.690167410345159e-03 -5.438431723436003e-04 -2.976740409352314e-19
-7.124374343953273e-03  3.589398115271085e-04 -3.161491624223200e-19
-7.029929850817081e-03  3.541815145975193e-04 -3.090715061597427e-19
-6.684513883410328e-03  4.718130404746272e-04 -2.962287507906759e-19
-6.131528723644566e-03  2.596441070222989e-04 -2.770385064995771e-19
-6.733714423420284e-03  1.554680005488881e-03 -2.897401155949448e-19
-6.433087768801928e-03 -1.966002077640698e-03 -2.714379404887388e-19
-6.943215025250609e-03  2.391398441535628e-04 -2.997594503134171e-19
-5.591831780107735e-03 -2.829587791273089e-03 -2.331993584189180e-19
-5.271942267500262e-03  2.750304625481475e-03 -2.859560945158963e-19
-8.236695887137033e-03  8.852531635046125e-05 -3.400835044675283e-19
-6.976503021678630e-03 -6.529370672901874e-04 -2.976625742767267e-19
-6.964797868478632e-03 -6.670335968649428e-05 -3.036711252335559e-19
-7.110854291583815e-03 -6.810217330734618e-05 -3.070350469070189e-19
-7.153546337912453e-03 -1.667645725666094e-04 -3.068766167722294e-19
-7.171224168985830e-03 -7.676408301137012e-05 -3.097201517993877e-19
-7.144654788565473e-03  2.180130018658327e-05 -3.090456685983668e-19
-7.245954987684104e-03  2.686343827283365e-04 -3.105123086182441e-19
-6.784304283022869e-03 -6.104743080750024e-04 -2.949071753956998e-19
-6.717027314162191e-03  1.899702645620843e-03 -3.061068588844001e-19
-7.204542733532420e-03 -2.943248054797717e-04 -3.055409947020168e-19
-7.356898195615901e-03  6.777087205702645e-04 -3.167860382824809e-19
-7.379906367806801e-03 -2.712071444040603e-04 -3.156937344908729e-19
-6.986187069926581e-03  1.986389348798277e-03 -3.156964866204609e-19
-7.261677003934098e-03  3.483047932709503e-05 -3.048688481179883e-19
-7.086986067014605e-03  7.069625909477163e-04 -3.019825258658780e-19
-7.136355323012155e-03 -4.046810890347566e-04 -2.985545328856426e-19
-6.949477310449436e-03  8.073361479861109e-04 -2.989178475291453e-19
-6.651783713159845e-03 -4.979154250767307e-04 -2.744788043119874e-19
-6.561827851355506e-03  1.468677739264686e-03 -2.822250036121812e-19
-6.808074307288690e-03 -7.887993710954515e-04 -2.720869442732024e-19
 6.794653251229694e-04  6.766439088401003e-03 -1.171054515840413e-20
-6.675687192569298e-03 -8.370321932108425e-04 -2.735387285081723e-19
-6.880608653073902e-03  7.302279159356958e-04 -2.861134209146601e-19
-6.653690084647572e-03 -1.075725195789605e-03 -2.594027160657539e-19
-6.665683727099712e-03  1.310195352445788e-03 -2.789274966859315e-19
-7.090230739477706e-03 -1.137860089004847e-03 -2.766161662433712e-19
-6.809293206237706e-03 -1.912771559838294e-05 -2.750696978745246e-19
-6.926076502734549e-03 -2.824806427056227e-04 -2.730920475601308e-19
-6.912194994006230e-03 -2.819144841444586e-04 -2.699774322715702e-19
-6.974626743867117e-03 -5.777287992612006e-04 -2.685073227414300e-19
-7.233376869024517e-03  2.063832934822082e-04 -2.802327137329725e-19
-7.139066450830247e-03 -8.214490171625952e-04 -2.703284148590791e-19
-7.079641562481442e-03  1.288997759799450e-03 -2.798535655060425e-19
-7.345678556054354e-03 -6.234545581253278e-04 -2.709213883791610e-19
-7.099727481489011e-03  2.423154320723255e-04 -3.198564927264727e-19
-7.077304595263843e-03 -4.903095363931613e-04 -1.525757496902459e-19
-7.193916500517662e-03 -4.983883082523213e-04 -1.566604873861143e-19
-7.234508586329933e-03 -6.255725418301125e-05 -2.597341304591889e-19
-6.937529422908109e-03  1.478880688929754e-03 -2.384369224998218e-19
-6.834233819010625e-03 -1.560043097925042e-03 -2.226749630744165e-19
-7.037827340151329e-03  1.977285195099975e-04 -2.399338219855854e-19
-7.215175835059133e-03  2.977440969991554e-04 -2.369458667577227e-19
-7.024899021518333e-03  3.669625922345402e-04 -2.141770788437754e-19
-5.518026014116087e-03 -4.250344651967082e-03 -8.054903796682069e-20
-7.133469061023632e-03  6.820547877158151e-04 -2.173766022910630e-19
-7.210592648804000e-03  3.052504111637117e-04 -2.010510766961418e-19
-6.981220179285919e-03  5.632867012299333e-04 -1.887522843978260e-19
-6.844481864973320e-03  5.522538341919588e-04 -1.731202842798914e-19
-6.768158371236556e-03  7.247480498533847e-04 -1.571101895829017e-19
-6.317758529549529e-03  3.205975187476304e-04 -1.313300479000459e-19
-6.134186005678889e-03  1.974076705865432e-03 -1.370415873276575e-19
-6.397897291211486e-03 -9.710827381716354e-05 -9.920298569022446e-20
-5.586067020973045e-03  7.105418474715863e-04 -7.215851750750095e-20
-6.286416982132618e-03  7.622353980458928e-05 -5.422689971277070e-20
-5.642861013997079e-03 -1.656644315603152e-03  6.238193934755722e-21
-5.566968107767513e-03  2.583524226547634e-03 -6.747210747016324e-20
-6.229942696757135e-03 -1.341124717529069e-03  4.456171441880985e-20
-6.136724233952242e-03  5.965197879270212e-04  2.585812576043731e-20
-7.068747238983381e-03 -5.003817587248259e-04  4.484937434883056e-20
-7.115734641901062e-03  3.933593988965620e-04  8.632858630495362e-20
-7.060406817636990e-03 -3.309482325880456e-04  1.710287350611461e-19
-7.085564998745323e-03  2.165599478851917e-04  2.611998110589273e-19
-7.015106794015142e-03 -5.103602891722958e-04  3.656031112752699e-19
-6.987450003503234e-03  2.944571284194995e-04  4.113140140153876e-19
-7.057720514114506e-03 -4.544459219156530e-05  5.352727890516534e-19
-6.991488602308667e-03  5.512755947231980e-04  6.711707396624691e-19
-6.884254208954031e-03 -1.422026558603802e-04  9.401550898592064e-19
-6.185196551797840e-03  1.114689561113738e-03  1.251394857572766e-18
-4.684361272702280e-03 -2.269122786943455e-04  1.832074878923098e-18
-2.621777832037093e-03  7.260020562009957e-03  3.864640902148041e-19
-5.680526613268127e-03 -3.729988933719514e-03  2.114128744653424e-18
-5.410251483897649e-03 -3.609895861919224e-04  2.806383838192140e-18
-6.862710623203067e-03 -3.003421862189798e-03  3.430622913542366e-18
-9.568587847237308e-03 -1.941787145305394e-03  4.661358538421813e-18
-4.390496450914536e-03 -3.958578393937021e-03  4.854740386168880e-18
-6.203528352132572e-03  6.124815722696737e-03  4.801953078378634e-18
-7.609622900313412e-03 -6.084409091179085e-03  7.623580995852422e-18
-5.755500227529099e-03  2.921824989092878e-03  8.583620002826887e-18
-7.105830907748877e-03 -2.812872213994510e-04  1.391906978494647e-17
-6.361244236065588e-03 -1.147521271303533e-04  2.077119673205751e-17
-6.144547190911718e-03 -1.771763939726336e-03  2.911265276541973e-17
-6.719952913860861e-03  1.305746250096215e-04  3.904186918485563e-17
-6.860065128753548e-03 -2.442883305028855e-04  7.549731556630725e-17
-6.945075422869210e-03  4.172062809221481e-06  1.343090567872907e-16
-7.004300152548176e-03  4.207640434666146e-06  1.195681392353825e-16
-7.032106018394061e-03 -1.536405513810978e-04 -1.267384250233814e-15
-7.044174966794620e-03 -3.935984048112223e-05  6.274932626763898e-15
-6.935140225644047e-03  1.229477504655793e-04  1.201142950236653e-18
-7.003424045940490e-03 -3.913214174470021e-05  6.584136363599419e-15
-7.061088921230815e-03 -3.187174406642517e-04  1.436775022085068e-16
-7.882793700641506e-03 -8.819582589423995e-04  9.806826976046336e-17
-7.630622157820540e-03 -1.683904204698783e-03  7.614402414331675e-17
-6.935448737053614e-03 -1.656141686515912e-04  5.144837334893749e-17
-5.099229508822164e-03  3.114403610544029e-03  2.451391801995992e-17
-7.471256685423347e-03  2.754964173795229e-03  2.784015541482980e-17
-7.854124166606262e-03 -1.269427473002951e-04  3.149469659843631e-17
-6.713892458383733e-03  1.653332388904315e-03  2.028496300320965e-17
-6.088726648825910e-03  5.124007583926433e-04  1.569311206448307e-17
-5.796657216205481e-03  3.244044966669772e-03  6.369663523874636e-18
-5.065454508894281e-03 -6.352898984010390e-03  1.337416552153032e-17
-5.819899996274895e-03 -1.467141893183673e-04  9.924792921860317e-18
-5.776353239924615e-03 -1.328064199884113e-03  7.999492475415562e-18
-6.651696548350488e-03 -4.479557556896370e-05  4.579409948442151e-18
-6.686619564026323e-03 -8.273267635943311e-04  3.837465279152060e-18
-6.503055073463387e-03  8.313871610975419e-05  2.815749823631320e-18
-6.942571616242850e-03 -1.894716322619406e-04  2.474579976851877e-18
-6.505666349686649e-03 -1.003754893388628e-03  2.315828502053031e-18
-7.349943260239434e-03  3.660658089878132e-04  1.508384867839759e-18
-6.356237661256215e-03 -2.986670089576239e-03  1.943997904312188e-18
-7.218802094654880e-03  1.281864878666515e-03  7.646556498281059e-19
-6.167290636519774e-03 -3.524966901007476e-03  1.345507910829319e-18
-6.741717636407305e-03  1.018902140158443e-03  5.455938421743368e-19
-5.777771638727082e-03 -3.046844149399230e-03  9.633978526999689e-19
-6.454830025041959e-03  1.755669682934821e-03  2.235433410976614e-19
-5.424108437821491e-03 -2.960409172032428e-03  7.370396970530988e-19
-8.128104864339932e-03  4.443437595937493e-03 -9.181349562845141e-20
-3.209057790025537e-03 -7.287195011573972e-03  6.441916825201805e-19
-4.188560802199067e-03  4.210246898125282e-03 -3.472951649158232e-19
-9.836100631359097e-03  9.612754724846406e-04 -2.195133413633948e-20
-7.646932518604942e-03  1.102874461903268e-03 -1.683598074679719e-19
-7.990082372707697e-03  7.226334371789726e-04 -7.901819623720943e-19
-1.870190899410729e-03 -6.262754131502849e-03  4.298595837968939e-19
-7.447909810076431e-03  2.235562308737238e-03 -1.348344711169984e-19
-4.950478623170131e-03 -4.892244136232033e-03  2.098312377983093e-19
-5.105400165682767e-03  3.716618868203536e-03 -2.392331718175762e-19
-8.052123575789582e-03 -8.800993544075062e-04 -7.010466188480680e-20
-6.829188188957268e-03  2.541745952077526e-03 -1.687830425538642e-19
-6.712978420198005e-03 -1.493973386664338e-03 -3.333671141209691e-20
-6.213450443244038e-03  2.151379854935020e-03 -1.718768249268641e-19
-7.158881274472133e-03 -8.989569979759671e-04 -1.025761194700223e-19
-7.050966899648697e-03  7.245377766577144e-04 -1.716627068147397e-19
-6.483067832162195e-03 -6.890190064936267e-04 -1.183316783135477e-19
-5.961467858282907e-03  3.351880772310482e-03 -2.339968934019923e-19
-7.234167663881269e-03 -8.371877810314392e-04 -1.536763347103963e-19
-6.658460616014232e-03 -4.392711639757074e-05 -1.672159768425229e-19
-6.880928235595679e-03 -1.065820590032792e-04 -1.798100123668523e-19
-6.824763100450411e-03 -2.160632631951156e-04 -1.826988608245116e-19
-6.988738805844760e-03 -2.212545241181337e-04 -1.972412853673457e-19
-6.427923595509128e-03 -1.435577583046604e-03 -1.651548467490315e-19
-6.867932952533020e-03  4.425366733057506e-04 -2.190760610066637e-19
-6.571599403647994e-03 -1.194396970956339e-03 -1.853364255607948e-19
-6.742779016028893e-03  8.230255211129849e-04 -2.249966237996175e-19
-6.796553169224963e-03 -1.764851797689577e-03 -1.952140110847404e-19
-7.565136062392645e-03  1.666808553981661e-04 -2.593668295213056e-19
-5.422007865861327e-03 -2.544829634894201e-03 -1.369829006697773e-19
-2.550036852390504e-03  5.108453547049745e-03 -2.243606831944779e-19
-7.875479691864863e-03  6.352360477066868e-05 -2.785415391872174e-19
-7.027856255464018e-03  1.783889436140196e-03 -2.688240481323788e-19
-7.027284563374244e-03 -7.220761346417226e-04 -2.497159558878966e-19
-6.779752153093779e-03  1.375958408888110e-03 -2.771601796233754e-19
-7.198378378555435e-03 -7.002914169214501e-05 -2.717391587511093e-19
-7.183323093824524e-03  1.072028421953255e-03 -2.934433980631004e-19
-7.159607828844524e-03  2.774672951470616e-04 -3.309421900882482e-19
-7.083274014146418e-03  4.132873629689456e-04  7.451207476290108e-20
-6.843144058422564e-03  3.992765148819229e-04  8.035025832280980e-20
-6.798295425110749e-03  9.936031523193724e-04 -2.831513748882918e-19
-6.659105914843734e-03 -4.255630724358966e-05 -2.581817951292474e-19
-6.451614180128530e-03  6.708379895283235e-04 -2.398234082209952e-19
-6.795001062610971e-03 -2.483619967797242e-04 -2.195804389872881e-19
-6.688764254433138e-03 -4.083111083935429e-04 -7.799146741835165e-19
-6.805366462743216e-03 -4.154290116571640e-04 -7.934417889851430e-19
-6.643288359821815e-03  2.199356187069866e-03 -3.378314018753534e-19
-6.743563302774038e-03 -3.700233139428135e-04 -2.907262787826392e-19
-5.902250781908564e-03  1.431744866051549e-03 -2.955531070900137e-19
-5.221348452718579e-03 -3.915682811236575e-04 -2.173316952537075e-19
-8.644165243823420e-03  4.646506614738938e-03 -3.471425423472781e-19
 4.926055708524211e-04 -8.207074841333439e-03 -5.798539398357885e-20
-1.790608247140250e-03  6.383577335554439e-04 -1.346515468684910e-19
-5.595499861749583e-03 -1.851142452908971e-03 -2.187445739795661e-19
-7.412323377060145e-03  1.036427245362936e-03 -3.357533938366898e-19
-8.072951161467376e-03 -9.644334194370376e-04 -3.322938691635881e-19
-7.527794236531239e-03  3.113071986561361e-04 -3.156135320158136e-19
-7.428118468066575e-03 -1.053632373796701e-04 -3.039709775328884e-19
-7.038439503762742e-03 -9.983588379823292e-05 -2.957814730117887e-19
-7.016963530702984e-03  1.306786715298125e-03 -3.048127304345139e-19
-6.965803150524946e-03 -9.354079980576755e-04  1.635942165574827e-19
-7.358010473323974e-03 -8.355911689613835e-05 -5.080019623164672e-19
-7.468953980053496e-03 -8.300993144240920e-04 -2.085962281251270e-19
-7.399900962341750e-03  7.741032287971972e-04 -3.531720030690463e-19
-6.411382081265324e-03 -6.992342289928324e-04 -2.828218917843837e-19
-5.564815808240937e-03  5.512331626242606e-03 -2.445501459122338e-19
-8.632803391208026e-03 -1.814547573924305e-03 -3.442131636962848e-19
-7.031763352507083e-03  9.841175422812642e-05 -3.088628791609409e-19
-7.230399963268312e-03  1.432736961671432e-05 -3.163189414812732e-19
-7.209379887605685e-03  7.937036391352879e-05 -3.167935920620237e-19
-7.189885758795637e-03  7.915574682829357e-05 -3.149467535114414e-19
-7.121448513110399e-03 -2.534566545819205e-04 -3.102984903430572e-19
-7.168502198011895e-03 -2.326893787627726e-04 -3.137119591319965e-19
-7.124347714858146e-03 -4.550523965795146e-04 -3.127817652388194e-19
-7.168688105863064e-03 -3.297443852932472e-04 -3.137598933332934e-19
-7.118192796595376e-03 -5.225105348415435e-04 -3.124284198838102e-19
-7.126725127448812e-03  2.827971932964138e-04 -3.176622901154491e-19
-7.421426341675064e-03 -3.822652552629043e-04 -3.247687184941571e-19
-6.785082118898601e-03 -1.543045612389419e-03 -2.908169586967264e-19
-7.354065333525105e-03  4.055508033544261e-04 -3.251726948752700e-19
-7.418466363518386e-03 -1.508219943816800e-03 -3.174517756039048e-19
-7.576456772570460e-03  7.330867852068946e-05 -3.343661541622528e-19
-8.430570476230635e-03 -1.320356837384805e-03 -3.634275756948559e-19
-6.824063096303419e-03 -1.690668400220342e-03 -3.229553076668828e-19
 1.701620184764340e-03  5.009867039872822e-03 -3.935363382109440e-20
-1.145625789895926e-02  2.321055076610268e-03 -4.301500553176719e-19
-6.460872083418506e-03 -7.957274534621321e-04 -2.765076027448447e-19
-6.620834944330994e-03  2.269416374091498e-03 -3.110809052715714e-19
-7.374509952679743e-03 -1.622950575135436e-03 -3.172448656826813e-19
-6.851358151293116e-03  1.064103266462756e-03 -3.201499275322160e-19
-5.716752796301691e-03 -1.186302170544697e-03 -2.570936757482385e-19
-3.008371070618624e-03  6.567720460111997e-03 -1.472492500229822e-19
-8.323685527428817e-03 -1.622128038188900e-03 -3.500792633737958e-19
-6.871940628910657e-03  3.635714957199863e-04 -3.144220877289757e-19
-7.201016798904673e-03  1.528004180720990e-04 -3.247487864041667e-19
-7.066464912196763e-03  6.893976701467215e-05 -3.206991608745566e-19
-7.027470474884127e-03  6.855934095205045e-05 -3.183409863596218e-19
-7.023492989907688e-03 -2.147752247787554e-04 -3.164617445126626e-19
-7.074003073695134e-03 -3.108140865069663e-04 -3.725066063243000e-19
-7.072157166460075e-03 -2.750766998737356e-04 -2.993850349740885e-19
-6.952313285088739e-03 -5.553179588426529e-04 -7.480549502903599e-20
-7.263800435762565e-03 -3.259957715644042e-05 -1.076093124275125e-18
-6.990349942876934e-03 -1.291224255934806e-03  5.888917165183068e-19
-7.223839206356911e-03  9.952807282856084e-05 -6.625255593950390e-19
-7.179232503172830e-03 -1.852716513952886e-03 -3.387882168876520e-19
-7.653930429168667e-03 -1.876646537279145e-04 -2.646146159052250e-19
-7.223975769493004e-03 -1.995198859459071e-03 -3.467491088450932e-19
-7.229003141537753e-03  5.182740846592729e-04 -3.366023762326059e-19
-7.725264347506484e-03  2.204596191173712e-04 -3.437851596333414e-19
-7.526970598863742e-03  8.324825532800311e-06 -3.440425595262616e-19
-7.152547322424480e-03  1.592376181901230e-03 -3.412720518068948e-19
-7.137790491214619e-03 -1.466298222205470e-04 -3.262002961289325e-19
-7.608987759327457e-03  2.638343218206870e-03 -3.509666107502314e-19
-6.696901312662186e-03 -2.571205773763551e-03 -2.985971448433960e-19
-3.968211081820746e-03  4.165372218147896e-03 -2.751440571793280e-19
-7.551751372334906e-03  3.219668072184057e-04 -3.405246425138466e-19
-7.666301876681861e-03  4.726300325916050e-04 -3.447014383627270e-19
-7.235764145185740e-03 -1.107517177659247e-03 -3.250673231786008e-19
-6.958431982523022e-03  1.016109549925764e-03 -3.339241891092734e-19
-6.965089743234408e-03  1.017081753758027e-03 -3.159010559728097e-19
-6.730396456725300e-03 -6.743158947138671e-04 -3.153289135172605e-19
-7.027323689719983e-03  5.103716264024178e-05 -3.254716669364421e-19
-7.318111594697321e-03 -2.150524363790743e-04 -3.301998581352291e-19
-7.789777164487672e-03  8.770922348100296e-05 -3.488479717240724e-19
-6.993756486483736e-03 -1.172003090488407e-03 -3.217252684109784e-19
-4.784352442952542e-03  5.378789781549615e-03 -2.550235275392019e-19
-7.699183777112557e-03 -7.494657699705808e-04 -3.475652150746629e-19
-6.552175133926857e-03  3.309618818961030e-03 -3.078979335779382e-19
-7.599570862149113e-03 -1.301016113621127e-04 -3.452689592918448e-19
-7.477315118403843e-03  9.179529893850581e-04 -3.398384703682137e-19
-7.513475427370335e-03 -4.438672020279234e-04 -3.379469657347317e-19
-7.286418507875043e-03  2.726193335743454e-04 -3.349321176695942e-19
-7.375929572833335e-03  2.759683653174559e-04 -3.359478357945656e-19
-7.371432065099662e-03  1.063091349585045e-04 -3.352457316408376e-19
-7.743273927170344e-03 -3.785033131504797e-04 -3.457755511119974e-19
-7.604603557092571e-03 -4.156248209485788e-04 -3.442131849946427e-19
-7.413684430169851e-03  1.731626214330967e-03 -3.558460922451954e-19
-5.401160404844375e-03 -7.748262893417085e-04 -2.512032223635922e-19
2.466134694318183e-03 8.626555879438605e-03 8.100662410813464e-20
-8.825704932851416e-03 -3.356535843751520e-03 -3.826638267845311e-19
-5.790727521596894e-03  1.829423953588784e-03 -3.056925258409694e-19
-6.890420066002843e-03 -4.284469577631105e-04 -3.161172363688188e-19
-7.068330376633680e-03  9.184457673938416e-04 -3.152492335609798e-19
-7.199300835917732e-03 -8.776860045152368e-04 -3.318042371384290e-19
-6.828106099876448e-03  3.255347093357327e-05 -3.112464066778402e-19
-6.866982657414623e-03  3.273881762668327e-05 -3.106705399637576e-19
-6.609556549848883e-03  1.430740036436539e-04 -3.029193956763563e-19
-5.967107361278597e-03  5.966755040019356e-04 -2.829951363844794e-19
-5.827731935769698e-03  2.307809971013910e-03 -2.918694032809532e-19
-5.545476361887121e-03 -8.412597693899568e-04 -2.449883087166263e-19
-5.949962836789367e-03 -9.026211703574693e-04 -2.667817628330087e-19
-6.542525878812232e-03 -1.683102167260451e-04 -2.943683460871123e-19
-6.256175746838511e-03 -6.523531662526459e-04 -2.775090141983052e-19
-6.344030901118842e-03  2.695530094929409e-04 -2.868508977831831e-19
-6.142526317790383e-03 -3.913722856187898e-04 -2.757882679502809e-19
-6.286456063963314e-03  6.059865668606139e-04 -2.829869491340810e-19
-5.323308013490799e-03 -1.561722682491408e-03 -2.380011126640238e-19
-5.297248258683551e-03  1.090758596226646e-03 -2.498441632078084e-19
-5.670979760541543e-03 -5.720560220956578e-04 -2.511284000179698e-19
-8.253511336244662e-03  1.461213858027537e-03 -3.338123056698852e-19
-2.112302502190743e-03 -4.055058353532600e-03 -8.447574541094516e-20
-3.582838169288503e-03  2.635662830455937e-03 -2.231148055993117e-19
-7.774566134859628e-03 -3.958166202332657e-03 -3.350183168493636e-19
-7.012488512885085e-03 -1.806701427308978e-05 -3.119768078519530e-19
-3.900165137568548e-03 -5.136528154658359e-04 -2.062287820185242e-19
1.337089941078377e-03 6.988504743157717e-03 9.254928193891408e-20
-1.025680125616427e-02 -3.546525296558830e-03 -4.103343970114846e-19
-4.772734600124379e-03 -5.014867790095876e-04 -2.121494160833526e-19
-6.718289935469407e-03 -3.144741917328971e-04 -2.979193418092744e-19
-2.136596874878507e-03 -4.299444665188352e-03 -5.557145590112997e-22
-4.983426780992101e-03  9.015712453224678e-04 -2.697375806860200e-19
-6.071902157357718e-03 -5.885805160522459e-04 -2.759255814020750e-19
-5.930142310118261e-03  8.527415435921014e-04 -2.655303734861784e-19
-5.881973613510592e-03 -1.406098657077086e-03 -2.712823627852623e-19
-5.897922523550391e-03 -4.851833483742969e-05 -2.435925938729769e-19
-6.194348333701674e-03 -8.272834509315555e-04 -4.816579336127293e-19
-6.458525855153796e-03  6.990973587242249e-04 -3.018096011218484e-20
-6.715693675993956e-03 -6.383068248308916e-04  1.013718795197563e-18
-6.915967605420347e-03  5.276126866090256e-04 -1.879673835191084e-19
-6.475138030754982e-03 -1.769282933777792e-03 -2.605588664896567e-19
-6.562014003749317e-03  5.772300860985246e-04 -3.045857577301167e-19
-6.794283003885717e-03 -8.628763529096098e-04 -3.118763517565142e-19
-6.792043129272408e-03  1.477372144751077e-04 -3.084933919934687e-19
-6.882853290553803e-03 -5.543520712158454e-04 -3.077964882163306e-19
-6.862810319937252e-03 -2.519829366668900e-04 -3.125127083000780e-19
-7.069302425948192e-03 -2.595647413278767e-04 -3.176522754532201e-19
-7.033622217483057e-03 -9.497551489459235e-04 -3.141328242889196e-19
-7.225084897514119e-03  2.819287849454307e-04 -3.364942509449333e-19
-7.807711640101652e-03 -1.806394430823214e-03 -1.772924392278737e-19
-8.457254275032014e-03  4.740305609549549e-04 -6.889392872076541e-19
-1.362648789919767e-03 -5.535186830513335e-04 -8.407672024571216e-20
2.341044798850535e-04 7.393345053842395e-03 4.343543539887246e-20
-7.794660315866166e-03 -4.641046044830038e-03 -3.508436953238243e-19
-5.079586886293848e-03  1.447900517363001e-04 -2.530115350294704e-19
-4.908726194158001e-03 -1.322734283952115e-03 -2.303568347644143e-19
-5.790515101610510e-03  4.788294702267347e-03 -2.440192205753054e-19
-6.326465635103929e-03 -4.555394748912156e-03 -2.930426513264335e-19
-6.543545181157289e-03  3.958729754335049e-04 -3.147768399289689e-19
-7.275907577694887e-03 -1.693945875762127e-04 -3.339509985714283e-19
-6.581736036983830e-03  1.864316100245174e-03 -3.032453776868052e-19
-5.267186754918002e-03  1.041277847252142e-03 -2.715385131983267e-19
-6.416702744785503e-03  3.358142115817446e-04 -3.244700096451802e-19
-6.745812679797766e-03  3.530379786386923e-04 -3.266777649255445e-19
-8.308990946789741e-03  9.347524060308062e-04 -3.188594796541911e-19
-4.184007609713310e-04 -6.320466621054776e-03  5.653949784048446e-20
-2.424964751711417e-03 -4.430121651095598e-05 -2.628566409203241e-19
-6.805648369707540e-03 -9.389157996874578e-05 -3.152851602602703e-19
-7.515276834166160e-03 -1.940386519815961e-03 -3.586197003282939e-19
-7.661470499967966e-03 -1.978132596861941e-03 -4.145590456122795e-19
-5.974653013417851e-03  1.595117855785616e-03 -2.015851844425410e-19
-7.736643032784847e-03  3.317262696603360e-03 -4.161130302504231e-19
-5.963750527096898e-03 -4.142737173372191e-03 -3.676689422843898e-19
-6.095817624967644e-03  2.295416655792791e-03 -3.692361658282680e-19
-7.201123291822023e-03 -1.617247590998314e-03 -3.139301649137502e-19
-8.601752854597472e-03  2.186017361892608e-03 -3.634867155965290e-19
-2.425417902627273e-03 -5.589508329438323e-03 -4.221235871769567e-19
-5.001114130173853e-03  3.363594296266593e-03 -5.741150475344166e-19
-6.213559267046947e-03 -6.406854536549262e-04 -3.203728585320499e-19
-9.226303683898601e-03  3.451206267267536e-03 -1.828657249315784e-19
 1.200161240712241e-03 -6.733511977670549e-03  1.782780670716783e-19
-3.370604617185447e-03  9.483225903460532e-04 -3.975476292959223e-19
-8.133541405033307e-03 -2.056977761391334e-04 -3.490948554722974e-19
-7.449620655140381e-03  1.490514976317493e-03 -3.051493135550812e-19
-6.969331623324246e-03 -1.373548972682935e-03 -3.773278264198916e-19
-6.528199707338557e-03  1.100811100862011e-03 -3.347087575265697e-19
-6.749478726900117e-03 -4.104329934332771e-04 -3.708877137879945e-19
-6.722963332607065e-03  1.454072480429570e-03 -3.126766939978988e-19
-6.828906094857918e-03 -6.700553606223230e-04 -3.570927955660408e-19
-6.739372261871949e-03  4.136182032385320e-04 -2.892873598899696e-19
-6.552917093120701e-03 -1.365148801491215e-03 -3.167264739292792e-19
-6.552375628885736e-03  3.771004780136210e-04 -3.469266654212404e-19
-6.571822976602145e-03 -4.781652698750569e-04 -3.750273618874638e-19
-6.632070960299350e-03  5.611309165675651e-04 -3.629690675716723e-19
-6.736993917205215e-03 -5.483563729682505e-04 -2.370460041036173e-19
-6.657402744746696e-03  8.803801797073816e-05 -3.155953344842159e-19
-6.668980919935283e-03 -3.669035374575593e-04 -3.399845818732223e-19
-6.649350999336082e-03  3.883465475519713e-05 -3.329045595720027e-19
-6.721506326294866e-03 -1.458705797003764e-04 -2.828510719922040e-19
-6.691563879193297e-03  5.492302436053745e-05 -3.180582263577349e-19
-6.721707439444808e-03  1.242982818745458e-06 -3.118804704691412e-19
-6.447828883930704e-03  1.957459575522046e-04 -3.212470091321256e-19
-6.944786766559298e-03  7.754561902120900e-04 -3.779353509808228e-19
-6.927499968483275e-03 -8.255467340140636e-04 -3.528361549030112e-19
-6.522974112208181e-03 -2.513538987066745e-04 -3.250811716346894e-19
-6.030940537001336e-03  2.316755093580969e-03 -2.072822673168933e-19
-7.466584633767035e-03  3.261282473098757e-04 -3.339091534080951e-19
-6.724924578228796e-03 -1.120440409605094e-03 -3.932037823437845e-19
-6.665513195389336e-03 -1.265964281955520e-05 -3.324578751493808e-19
-6.451160731181305e-03 -3.632232558648104e-04 -3.232340821896050e-19
-6.820869881512816e-03  1.544963722449655e-03  1.271174525687642e-20
-7.043256681953017e-03 -4.770619344848122e-04 -3.505674346258750e-19
-6.872627827868021e-03  2.910090139443430e-04 -3.086239971362496e-19
-6.742637028243435e-03 -5.475534382378459e-04 -3.436464366693007e-19
-6.720690290743730e-03  4.575733731395049e-04 -2.979949914616608e-19
-6.772014533018080e-03 -3.052640008235276e-04 -3.474902262230992e-19
-6.982140597568510e-03  3.057220832084512e-04 -3.351759069459693e-19
-6.749157522896392e-03 -9.154589782917349e-04 -2.649395569436362e-19
-6.683028060861097e-03  3.142674333758434e-04 -3.459532982047280e-19
-7.114667402322398e-03  6.790995133916878e-04 -3.163701925130592e-19
-6.845673273422477e-03 -5.025548132055358e-04 -3.924278940258719e-19
-6.745493636265205e-03 -3.661054926439722e-06 -3.103535280832560e-19
-6.618765092738367e-03 -8.160134332589067e-04 -3.724634052431213e-19
-6.801327556152123e-03  3.491727317007252e-04 -3.505048502953812e-19
-6.586432133817652e-03 -9.248699933354965e-04 -1.311007421678067e-19
-6.647871680265551e-03  1.792520652198024e-03 -1.425840837561672e-19
-6.970449038181389e-03 -9.488513984238187e-04 -3.541887076372171e-19
-7.200177629064458e-03  9.437694467281207e-04 -3.930107821084161e-19
-6.419813971349744e-03 -1.814820376339800e-03 -2.368018429288692e-20
-5.589691648256718e-03  3.392626855598870e-03 -2.844861166539645e-19
-7.276030120876456e-03 -9.019466785223517e-04 -3.856924132627155e-19
-7.254148089684682e-03  1.062254816046830e-03 -2.938125293730643e-19
-7.353498736836617e-03 -1.075372865093418e-03 -2.285933534217260e-19
-6.613805039543428e-03  8.928845851293107e-04 -3.291817367974660e-19
-7.390526000256611e-03  4.005030560278345e-04 -3.416562357158678e-19
-7.092672692336714e-03  3.843619640317065e-04 -3.326661300794910e-19
-6.941226441515945e-03  1.917947747480374e-04 -3.441580971300802e-19
-6.901533992701833e-03  1.899760152714785e-04 -3.412465391108145e-19
-6.825502663808772e-03  1.397260032855408e-04 -3.283741605708337e-19
-6.716897629747010e-03  3.975490826545465e-04 -3.579131690400643e-19
-6.804630910431524e-03  3.331123388282562e-04 -3.072828329107660e-19
-6.638489396663778e-03  6.703147277564254e-05 -3.338478734053649e-19
-6.631181986809880e-03  2.928993025144882e-04 -3.393290710096651e-19
-6.283707719046966e-03 -5.074910841463492e-04 -3.449077338985632e-19
-6.303211706521739e-03  1.238123326644127e-03 -1.787153938126029e-19
-6.850334445194604e-03 -4.834106354395025e-04 -3.931887465259582e-19
-6.480489953788033e-03  2.011911022896018e-04 -3.372349728872528e-19
-6.433118462146428e-03 -5.849534378215144e-04 -3.204242099197216e-19
-6.442708682691531e-03  1.509070554718946e-04 -3.175732070053740e-19
-6.542029267613823e-03 -1.153662134251331e-04 -3.250536232304677e-19
-6.466194876155575e-03  1.042826169744979e-05 -3.298152386498557e-19
-6.530620081232797e-03 -3.030663778560419e-05 -3.334306079812735e-19
-6.210810634532364e-03 -3.789998403454406e-04 -2.443534274259291e-19
-6.568105339577648e-03  7.229803003573513e-04 -2.697651776373193e-19
-6.565619619910750e-03 -8.590263000251504e-04 -3.138234313296121e-19
-9.532191434520366e-03  1.910705606195778e-04 -3.748268389214489e-19
-1.815881196817720e-03 -4.816038028654010e-03 -6.237448841590067e-20
-2.588438863377889e-03  3.949293325275503e-03 -4.164306814384196e-21
-9.363679420798708e-03  3.045210857926581e-03 -4.044402065992536e-19
-7.059574083567468e-03  1.511540511696121e-03 -2.762868245736516e-19
-6.640093537889527e-03 -2.935820216401366e-04 -3.178532500710515e-19
-6.282112636376269e-03  3.554426019317328e-04 -3.251632457993341e-19
-6.588311933018165e-03 -3.322764321898123e-04 -2.480129557090047e-19
-6.385125492056951e-03 -1.168747995760685e-04 -2.950375729203217e-19
-6.729998054453628e-03  1.265842813613583e-04 -3.067382999638593e-19
-6.768415733042857e-03 -8.322251049163003e-05 -4.567673156075581e-19
-6.965921756778018e-03  2.597471176185899e-04 -9.965476685456207e-19
-6.789061859049034e-03 -5.075880304550342e-04  5.017404498378051e-19
-6.919902489457178e-03  4.820265439901766e-04 -6.544200685047120e-19
-6.808462594002933e-03 -7.058473466759638e-04 -3.992481204126740e-19
-7.391487270810344e-03  1.603455366747321e-03 -1.882089590836689e-19
-6.853295399084281e-03 -2.070132251176793e-03  6.835293186073643e-20
-6.756078498792718e-03  2.298863456484702e-03 -5.602666110651210e-19
-5.533654016660806e-03 -1.518995537494468e-03 -1.908727776350336e-19
-3.712522279284688e-03  5.569900224158115e-03  2.210732047901761e-19
-6.412144104475579e-03 -1.203580796414537e-03 -6.745200134673252e-19
-4.994626840811949e-03  3.581167897982373e-03  7.985644420540572e-20
-1.208742374915278e-03 -8.394665848024912e-03  2.772802263796251e-18
-1.642618172934541e-03 -6.520234606347233e-05 -3.233952037098763e-19
-6.065763504387992e-03 -9.384132933582738e-04 -4.941000687280505e-19
-6.556021682132472e-03 -7.798254036926089e-04 -4.878722497267658e-19
-6.773791132145364e-03 -2.416715125633863e-04 -3.276637227265420e-19
-7.090650714351772e-03  2.357647205674004e-04 -3.370604350246020e-19
-6.907613695285912e-03 -5.296999271931501e-04 -2.237355523712248e-19
-6.841721894765658e-03  4.902967727072019e-04 -3.543105275661382e-19
-6.889604721374957e-03 -3.086124522381533e-04 -3.853693359941757e-19
-6.842312788473635e-03  5.075625019152377e-04 -2.601851526062856e-19
-6.477065482821186e-03 -3.727707432965489e-04 -2.260042246129898e-19
-6.124955100419031e-03  2.813935761384178e-03  1.545752579018877e-19
-6.500260799684432e-03 -5.531703609472149e-04 -2.362423577392364e-19
-6.913291076307475e-03  1.747220501434914e-03 -3.937444995753345e-19
-6.153581169553196e-03 -3.085830702163896e-03  3.043457790743544e-19
-6.047674203905333e-03  7.308361604192772e-04 -4.273923490351409e-19
-6.787611790296817e-03  1.622476884347486e-04 -3.177889059286637e-19
-6.575661579546342e-03 -3.475567360106321e-04 -3.403423650848304e-19
-6.361729730147554e-03 -2.938839186451665e-04 -3.917192955712536e-19
-6.498429104271067e-03 -4.484944572672791e-05 -3.241808096849693e-19
-6.916996494866163e-03  1.838853328903812e-04 -3.246459748185746e-19
-6.477178822774108e-03 -7.909984168876841e-04 -1.939881420362150e-19
-6.476496939858098e-03  6.439387296794072e-04 -3.553542485403674e-19
-7.076719815979154e-03 -1.511268893408875e-03 -4.996420276085542e-19
-6.363424291925779e-03 -6.472940660300341e-04 -2.484703367165022e-19
-6.596087936271150e-03  3.148471955254140e-04 -3.484263824368452e-19
-7.238544303012922e-03 -1.218862977670002e-04 -3.388278363633462e-19
-6.715983928410432e-03 -5.075095958575282e-04 -3.688456517609350e-19
-6.856102340383996e-03 -4.104973530374207e-04 -3.408742859633530e-19
-6.929797824360959e-03 -4.933140286317186e-04 -3.591829713523541e-19
-6.828939375459539e-03 -2.161860288279660e-04 -3.365560790529073e-19
-6.958091575736955e-03  3.780100864409457e-04 -3.734075617028179e-19
-7.286332536091030e-03 -1.247009437629549e-04 -3.352026048859549e-19
-7.130851055769475e-03 -9.989685062412532e-04 -3.950104065711134e-19
-6.735880890896388e-03 -3.106448508546637e-04 -3.585879682634231e-19
-2.662855700013169e-03  6.521143210237924e-03 -1.108921239967707e-19
-6.926510191489602e-03 -3.547111583148138e-04 -3.324530370395576e-19
-6.124447463474613e-03  1.710007753562453e-03 -2.318350719609719e-19
-7.220319307777444e-03  7.268733611238957e-04 -2.074241261838720e-19
-5.936888856370213e-03 -1.695881258443874e-04 -2.948526145825284e-19
-4.614085286200723e-03  1.418135308579147e-03 -4.774978454562583e-21
-2.216315693580314e-03  7.595669992803015e-03  1.672022545735233e-18
-6.763243072470972e-03 -2.176931788989543e-03 -1.311582380025863e-19
-4.868348789482723e-03 -1.412795601384276e-03  8.801653659938453e-20
-5.855007688242092e-03  1.929809499412718e-04 -3.010879515436781e-19
-6.396034579045649e-03 -1.346724568766007e-03 -4.261931655400438e-19
-6.744025242948301e-03 -4.200282918913421e-05 -3.534522578758966e-19
-6.827126764518040e-03 -8.729335424014510e-04 -3.270854690804878e-19
-6.945285787093471e-03 -1.021799537248544e-04 -3.710933843820645e-19
-6.492667049932599e-03 -1.757921792783097e-03 -2.283558052038613e-19
-6.721042110936313e-03  2.607925605894678e-04 -3.748909450861527e-19
-6.712672440384925e-03 -8.478528218756209e-04 -3.424790105825530e-19
-7.817077200568179e-03  3.786621776107883e-04 -4.016236584372386e-19
-8.964297938653394e-03 -4.958955176073852e-03 -4.909674792733372e-19
-1.235805317115595e-02 -1.968383057430274e-03 -4.504217228471335e-19
-2.748954086986724e-03 -5.348874160711079e-03 -2.241313808593820e-19
-3.367950635409054e-03  6.320005716622554e-03 -2.802284970627799e-19
-9.258570211625178e-03 -2.037992024397903e-03 -4.119076868507564e-19
-4.126019288669522e-03  7.579842823358600e-03 -5.863385458520486e-19
-7.620149273394909e-03 -2.694225161537758e-03 -3.743997910966409e-19
-6.059408433892595e-03  2.333805928882994e-03 -4.204520614474750e-19
-6.270387699565920e-03 -1.880703349902748e-03 -5.388569561837311e-19
-6.050307139955018e-03  3.212134987892046e-03 -4.508317561608858e-19
-7.045995751223636e-03 -2.086730597726495e-03 -2.630475156414657e-19
-7.076827197938153e-03  1.806804972815966e-03 -3.916693589414244e-19
-6.408560058920679e-03 -2.148455712497501e-03 -2.575773673501075e-19
-1.943100550851220e-03  6.176012482805386e-03 -1.530238321517963e-19
-8.067446984532703e-03 -9.786180052461881e-04 -3.850715463162116e-19
-7.083122275007329e-03  1.883095084662235e-03 -2.689374901083852e-19
-7.031745759740388e-03 -2.370345307491028e-03 -2.485929214484789e-19
-6.742892563749124e-03  7.409108590353438e-04 -6.985070171577709e-19
-6.778519886661387e-03 -9.948948629601314e-04 -8.165563134465721e-20
-6.834447668328527e-03  5.752241706658943e-04 -3.768385814373517e-19
-6.572330299561249e-03 -9.620408882595618e-04 -4.233884096442546e-19
-6.202338623970747e-03  5.990176953811846e-04 -3.789157163951298e-19
-6.642019675224927e-03  1.092485749798445e-03 -3.996997594219082e-19
-6.336714310204857e-03  9.616002284887920e-05 -4.243626385813873e-19
-6.765043406427613e-03  4.771712046802528e-04 -4.442857558755592e-19
-6.235520927973854e-03 -1.602220521867900e-03 -2.723642821212225e-19
-1.198591426490821e-02  4.574106438014055e-03 -3.133441543167635e-19
 1.093704958829624e-03 -9.531570381886064e-03  7.686655530163251e-19
-5.807987721063780e-03  1.315777925183991e-03 -5.174256472548719e-19
-4.035842620651004e-03 -8.011130350455900e-04 -4.289790986544309e-19
 3.481702658493209e-03  6.704465299783542e-03 -7.097104803162615e-19
-8.444289289818219e-03 -1.076821179987062e-03 -4.963847096650264e-19
-6.121094168010345e-03  4.232839020068992e-04 -5.520325541166885e-19
-6.130219715743230e-03 -1.356961257025837e-03 -4.541608111495949e-19
-6.260100484931970e-03  1.486892695367196e-03 -6.384044284492931e-19
-6.825125246316587e-03 -6.734352371953163e-04 -6.240166083826284e-19
-6.600194596578969e-03  2.939369708223751e-04 -5.664328845226225e-19
-6.640046068163109e-03 -9.251657002693801e-04 -6.064475449882857e-19
-7.122620829093223e-03 -9.670210419893331e-05 -5.841641160144034e-19
-5.025621554352798e-03 -3.690828691269664e-03 -5.695261231774311e-20
-5.645479768215714e-03  6.230925527065185e-04 -5.659549962852086e-19
-7.679013090511367e-03  7.860227884344372e-04 -6.766748793772207e-19
-6.862956501709014e-03 -1.414902890653716e-03 -4.894202402229304e-19
-7.010370227251972e-03 -1.860506102616935e-05 -6.971706969372690e-19
-4.967318800952318e-03 -4.343205593433843e-03 -8.116724133946341e-20
-5.825309062846474e-03  1.320809825323715e-03 -9.031379118237264e-19
-7.666625282394357e-03 -6.315455646269781e-04 -7.207646079777440e-19
-7.450823793286995e-03  6.429397931342480e-04 -9.108133047790999e-19
-6.885820395737103e-03 -1.262701143823356e-03 -7.752525088028442e-19
-6.754020449743849e-03  1.378655001032107e-03 -1.142456787492477e-18
-7.159656872019820e-03 -5.126497266573943e-04 -1.053130445765163e-18
-6.989519382818014e-03  8.848946733163530e-04 -1.497973407774935e-18
-7.437674131124969e-03 -2.157887577966651e-05 -1.459387334103548e-18
-7.384632672797747e-03 -2.142498694019373e-05 -1.725420058725032e-18
-7.353981398855366e-03  1.333728144959971e-04 -2.107412620902518e-18
-7.349757398143262e-03  1.332962074401927e-04 -2.542108455867636e-18
-7.205400346499179e-03 -2.124219959060909e-04 -2.833826902076755e-18
-7.129743855375494e-03  2.617398835196969e-04 -3.828844238391260e-18
-6.855402837188649e-03 -8.144151927321127e-04 -4.331806301944606e-18
-6.868679920267694e-03  4.347257122176552e-04 -5.898316844325932e-18
-6.966369914567555e-03 -1.567434181218489e-04 -7.256064845507973e-18
-6.873489752817609e-03  2.679089182412390e-04 -1.229215052721005e-17
-6.848969860015744e-03 -1.172597175201254e-04 -1.838926051966734e-17
-6.866350601898463e-03  7.838250446370542e-05 -2.445466138324307e-17
-6.861012063814407e-03 -1.958423601940074e-04 -3.523450697017311e-17
-6.695949481197489e-03  9.132190907442488e-04 -5.104036359014731e-17
-7.014735790044213e-03  9.781285456905994e-05 -6.616227856384335e-17
-6.902000210947662e-03 -8.086664611995042e-04 -8.669244414949676e-17
-6.805737845602953e-03 -6.954641668222636e-05 -1.217363781506518e-16
-6.896090489383011e-03  1.487531499880904e-04  3.305621992456547e-16
-6.921052137481564e-03  3.349712633766290e-05 -6.278632491020797e-15
-6.843330998282054e-03  2.030059776039118e-04  8.743330795861790e-16
-6.823949492920238e-03  3.302716028465418e-05 -6.600085550358066e-15
-6.840900185756195e-03 -4.580435876014517e-05 -1.433212953387252e-16
-6.800756660640234e-03 -2.273452280856778e-04 -8.624506207450809e-17
-6.800946634053658e-03  2.344441625054490e-04 -7.146999032331407e-17
-6.892734665006470e-03  4.699441802549018e-05 -4.715226087797883e-17
-6.849603656691284e-03 -1.053695345985915e-05 -2.430178129202336e-17
-6.962152851290478e-03 -1.373920442191905e-04 -1.359043637568335e-17
-7.065874595985525e-03 -1.394389028329010e-04 -9.090644665183555e-18
-6.984596605018599e-03  2.824035177203007e-04 -5.749267661212566e-18
-6.763197737679345e-03  1.812224495851123e-04 -3.579041712315831e-18
-6.400097840679305e-03 -2.673807405849628e-03 -2.445651086647452e-18
-6.834951234827036e-03  8.082271808721441e-04 -2.450290359547914e-18
-7.313587091463055e-03  3.092158126060077e-04 -1.960535268887684e-18
-7.038376610473314e-03  2.975800131750737e-04 -1.556167353626302e-18
-6.909531230538138e-03  2.197452642190594e-04 -1.135438107365552e-18
-6.966396852514343e-03 -3.932372073623862e-05 -1.048924687578405e-18
-7.062100320454204e-03 -3.986394497646383e-05 -9.320845310818098e-19
-7.117441755876757e-03  3.638359943023893e-05 -8.419234892934612e-19
-7.131430302512419e-03 -1.960836023704490e-04 -7.594803910489022e-19
-7.124296414593548e-03 -1.958874511942191e-04 -7.002579894385043e-19
-7.088416781527833e-03 -1.949009158983786e-04 -6.496792864544506e-19
-7.088662930904073e-03 -3.209756639839105e-04 -6.163703457661057e-19
-7.024128462670513e-03 -2.906927046165331e-04 -5.924053767425017e-19
-6.993841475958265e-03 -1.199579845024116e-04 -5.649510950814411e-19
-6.947532435784289e-03 -6.217241243394033e-05 -5.428979931935557e-19
-6.910538074480876e-03 -1.521525898812453e-04 -5.209017052048757e-19
-6.951478046174704e-03 -2.657240053091815e-04 -5.020478210273595e-19
-7.113461778359934e-03 -2.719159210176510e-04 -4.881461056185574e-19
-7.296672432174751e-03 -2.080674453879755e-04 -4.769356301117414e-19
-7.336605830306047e-03 -8.675197364802743e-06 -4.718389889208891e-19
-5.960820586056289e-03  1.747417950602518e-03 -4.301059057922291e-19
-4.385785040991233e-03  1.285695383289919e-03 -3.730239342105681e-19
-9.475902390517751e-03  2.002542367123245e-03 -4.548950167930647e-19
-7.304081009940086e-05 -6.214929313021486e-03  1.483366948089798e-19
-1.215666565432539e-03  4.768202338233406e-04 -3.160754432216732e-19
-8.935097602643801e-03  2.408046381639437e-03 -4.803781410031956e-19
-8.391788845881326e-03  1.697796178164587e-03 -4.593832280988785e-19
-7.679201378620845e-03  1.165680391283904e-04 -4.285494921805324e-19
-7.030486102916747e-03  8.526506498827188e-04 -4.246887178906866e-19
-6.786281682729333e-03  4.657083938093901e-04 -4.027133066379580e-19
-6.364755406705023e-03  6.651515982053897e-04 -3.864533782415440e-19
-6.821989296956348e-03  1.626494473340460e-03 -3.947971036756588e-19
-6.751989968908663e-03 -8.010045522342341e-04 -3.752639924844925e-19
-6.332924073267522e-03  4.414538682105164e-04 -3.788627762227558e-19
-6.508813958664851e-03 -2.576725991667441e-04 -3.769781939854100e-19
-6.631550135097736e-03 -1.858829913550948e-04 -3.788233591844696e-19
-6.742821223727694e-03  1.793899618620621e-04 -3.796658870540961e-19
-6.517121996806888e-03 -9.906736718657580e-04 -3.550400144431171e-19
-6.616495314026448e-03  2.407076112994291e-04 -3.678448709264176e-19
-6.684128796675620e-03 -4.887822731022576e-04 -3.637135459653113e-19
-6.676811348442117e-03  6.280823665148153e-05 -3.681114698578528e-19
-6.854472523658479e-03 -3.346744639209194e-04 -3.647546078563978e-19
-6.719021151502921e-03 -1.313206219529606e-04 -3.658000260672728e-19
-6.828088333533054e-03  6.958636895509481e-06 -3.653166037074496e-19
-6.631521204863286e-03 -4.967241386276519e-04 -3.606298355362266e-19
-6.810283557525124e-03  5.096305628576622e-04 -3.654807741827294e-19
-6.601192944589684e-03 -6.866084042028666e-04 -3.525969645254096e-19
-6.637123592514378e-03  1.466662111595841e-03 -3.546586789819645e-19
-6.752756184660292e-03 -6.682398259429467e-04 -3.547052802812759e-19
-6.798601493912113e-03  1.929465331197490e-03 -3.470383474250788e-19
-6.653493578651639e-03 -1.234608932847805e-03 -3.345228176283347e-19
-6.288605217370763e-03  1.795794720881434e-03 -3.542578252236245e-19
-6.630033046500223e-03 -6.485082115399290e-04 -3.421013579219951e-19
-6.975648312101066e-03  1.883469934735170e-03 -3.525637878475948e-19
-6.121132338115069e-03 -4.119130409551106e-03 -2.500221106945657e-19
-6.355303961993159e-03  3.685230381835066e-04 -3.464261252949436e-19
-6.491686709357861e-03 -5.968061764257605e-04 -3.399167570403575e-19
-6.637345110625744e-03  5.576888844797733e-04 -3.468912354103742e-19
-6.743197122094599e-03 -9.748067608684899e-04 -3.401849289815233e-19
-6.717913722154382e-03 -2.416534883896450e-06 -3.454998056521127e-19
-6.550405248871969e-03 -9.039337164786913e-04 -3.295275172125463e-19
-6.587530941392765e-03  3.702082243149129e-04 -3.487052662527891e-19
-6.717862303439864e-03 -5.323178447955421e-05 -3.407488191266644e-19
-6.599620906302551e-03 -3.107104945078084e-04 -3.372171836782858e-19
-6.641800708840269e-03  8.900424696281359e-05 -3.381390283240666e-19
-6.521443715844631e-03 -3.528799500618091e-04 -3.322104265547077e-19
-6.635528832755370e-03  7.128909828624944e-04 -3.449049443030917e-19
-6.577593028266476e-03 -4.456817672700218e-04 -3.335949649003977e-19
-6.438352852921361e-03  7.276507392409308e-04 -3.321863870085409e-19
-6.654281062875183e-03 -4.109878447326953e-04 -3.253920959949580e-19
-6.354190574872926e-03  1.696690309068920e-04 -3.245789309348321e-19
-6.372006895839060e-03 -2.861163001689202e-04 -3.211246520758860e-19
-6.243027643705978e-03 -3.071250008486449e-04 -3.189459444029800e-19
-6.302292773108373e-03  2.288859026707237e-06 -3.212866085944598e-19
-6.406821158561114e-03  7.112375299151140e-05 -3.205296572922183e-19
-6.402488007088002e-03 -2.265013809772928e-04 -3.204959851863352e-19
-6.389179675098823e-03  8.536289324342453e-05 -3.217381206450918e-19
-6.485111699986756e-03  2.204017618485469e-04 -3.221295700211677e-19
-6.452295266455189e-03 -9.666237158254867e-05 -3.225757548215237e-19
-6.407308476113677e-03  2.045865954777761e-04 -3.235569607933717e-19
-6.517572670513432e-03  1.302744956524710e-04 -3.242152802714877e-19
-6.666493446406878e-03 -3.827733276069597e-06 -3.277554964067539e-19
-6.441063504019817e-03 -2.922220023570561e-04 -3.226877529828582e-19
-6.568591043325535e-03  2.805749905196612e-04 -3.296505126427622e-19
-6.551367602969790e-03 -3.215462879219301e-04 -3.211546798596933e-19
-6.524401649931601e-03  2.765617998122654e-04 -3.261624115972247e-19
-6.597367176744978e-03 -1.701380275004497e-04 -3.285037256224684e-19
-6.622812909179176e-03  3.022179347276920e-04 -3.300343179153530e-19
-6.644140174968861e-03 -1.012776317655728e-04 -3.274410573141000e-19
-6.637489498306043e-03  2.537086199734220e-04 -3.289052253415803e-19
-6.529951807718885e-03 -4.580522456448588e-04 -3.185405651674196e-19
-6.658624828390092e-03  2.345479247439396e-04 -3.257611350611928e-19
-6.245831252740490e-03 -1.033910497993054e-03 -3.137496136751075e-19
-5.984399041175609e-03  9.996391407498227e-04 -3.162220445221367e-19
-6.661930562129229e-03  1.792486992022724e-04 -3.204718557280386e-19
-6.522234004988661e-03  6.119920566160813e-05 -3.149825525234451e-19
-6.009929945174916e-03 -2.036428975734425e-03 -2.872042057709654e-19
-5.964733277330328e-03  9.273803857400371e-05 -3.111137413311220e-19
-6.516703633305075e-03  1.639983068237699e-04 -3.145360624159884e-19
-6.369520660055133e-03 -5.353879568562451e-04 -3.483695231975103e-19
-6.385201808971259e-03  2.872611522188272e-04 -1.215993883014471e-19
-6.387916670220334e-03 -1.252707649789016e-04 -1.849026065124379e-19
-6.513477681598182e-03  4.373586576152918e-04 -5.339258675075167e-19
-6.465830711143132e-03 -3.481745901255116e-04 -1.468852651574444e-19
-6.362688648790690e-03  3.646664380385775e-04 -3.161148510455287e-19
-6.694012510011296e-03  4.200070171812971e-05 -3.243848496840176e-19
-6.455956681495121e-03 -2.144060012936713e-04 -3.102620292738473e-19
-6.634756438071273e-03  7.678522249781927e-05 -3.184481233061390e-19
-6.110316691097454e-03 -1.258156990830593e-03 -3.053348091212236e-19
-5.929766781558911e-03  6.628569463752257e-04 -3.097543153353848e-19
-6.145251433107098e-03  4.935858288198014e-04 -3.021087182989099e-19
-6.282829213292327e-03 -1.372089557631410e-03 -2.884710556040596e-19
-6.101186646703534e-03 -3.802918910911523e-04 -3.058365075540649e-19
-6.433697896833107e-03  5.613760636745466e-04 -3.199410830442727e-19
-6.651253314672354e-03 -2.235820308029894e-04 -3.132250263423077e-19
-6.465170971951107e-03  1.091768252267153e-04 -3.111534034862976e-19
-6.159638535732788e-03 -5.501166906890232e-04 -3.037661878223597e-19
-6.173896354555405e-03  1.012234800602057e-03 -3.122796216360675e-19
-6.659545947162168e-03 -1.528224512449110e-04 -3.129198633723185e-19
-6.432337123479230e-03  1.174939689455188e-04 -3.118633860557187e-19
-6.106304679431116e-03 -7.299565293726016e-04 -2.950219163275928e-19
-6.220691782675717e-03  5.954916228196507e-04 -3.090723580568283e-19
-6.446598914483842e-03 -1.577602180628530e-04 -3.112420171723755e-19
-6.425899658301124e-03  9.165566235279750e-05 -3.155622022293920e-19
-6.439784891479390e-03  8.270009581511110e-05 -3.147079710696551e-19
-6.565098478499228e-03  6.266633132207331e-04 -3.137519963360693e-19
-6.589072560415458e-03 -9.795219433864407e-04 -3.050355097920085e-19
-6.349638768471210e-03  7.883537006280321e-05 -3.144152719251578e-19
-6.548649479288279e-03 -1.108062196250854e-04 -3.178198098708197e-19
-6.514246983399682e-03  6.752626532675491e-05 -3.195341789703819e-19
-6.699430031688203e-03  7.668225571871080e-05 -3.220117422448084e-19
-6.612578517798683e-03 -1.956244395251432e-04 -3.210063945264076e-19
-6.824740056230874e-03  6.696329492828207e-04 -3.281054225008367e-19
-6.826027220734890e-03 -5.093689333989764e-04 -3.236204372374422e-19
-6.735884982412975e-03  2.621990058605549e-04 -3.266358185092138e-19
-6.647186415440994e-03 -4.804677882634603e-04 -3.216015850453603e-19
-6.790952937552524e-03  3.525636248007560e-04 -3.292929197890447e-19
-6.463484419947338e-03 -9.897926837610311e-04 -3.230802917446810e-19
-6.258851110369374e-03  1.553492239033703e-03 -3.319034989052626e-19
-6.945837921599125e-03 -1.682169411689221e-04 -3.278695605833479e-19
-6.702006190311927e-03  2.280182048029039e-04 -3.276911753786737e-19
-6.939019345938336e-03 -1.338802208888375e-04 -3.273231841261445e-19
-6.678264216224640e-03 -3.803803967353127e-04 -3.306087619677307e-19
-6.753023274641010e-03  3.075077789143994e-04 -3.253385919537297e-19
-6.398518034984876e-03 -3.175911808286304e-04 -3.177789965087642e-19
-6.814372943867492e-03  7.917207343208385e-04 -3.189928354214625e-19
-6.329209807279208e-03 -1.941355608488913e-03 -2.966561804072926e-19
-6.289637364247164e-03  7.546672034544062e-04 -3.246017971068765e-19
-6.685315497236708e-03 -2.699209810019712e-04 -3.209885772743110e-19
-6.762944876835678e-03  1.261077948246872e-03 -3.195459663398370e-19
-6.410162750368204e-03 -1.120479798013286e-03 -3.166645009216327e-19
-6.344371528154718e-03  1.116781403703751e-03 -3.048669205275783e-19
-6.764132089611389e-03 -2.311863197486836e-03 -3.093413141190851e-19
-6.766000598839458e-03  1.584892442967085e-04 -3.209937613095913e-19
-6.680992650247579e-03 -1.228672937912562e-03 -3.078141143988475e-19
-6.908658486236792e-03  5.732599471634299e-04 -3.290111608916883e-19
-6.558283037430991e-03 -4.735760712293896e-05 -3.202134660633204e-19
-6.468288447112040e-03 -4.670775282003833e-05 -3.215499749712283e-19
-6.684352495711848e-03 -9.553109632676372e-05 -3.251737185213276e-19
-6.660838815254568e-03 -7.343954563020007e-04 -3.216101298014068e-19
-6.906571059225070e-03 -4.117907732355090e-04 -3.363757843232511e-19
-6.902440201701990e-03 -1.764340580434348e-03 -3.312206261425580e-19
-9.127971708425650e-03  3.582888929689447e-04 -3.789136544933498e-19
-3.065175695006997e-03 -5.532248562538045e-03 -2.577346996229132e-19
-4.136382195345827e-03  6.731593749821576e-03 -1.446136337241672e-19
-6.497285284618153e-03 -3.581581290998457e-03 -2.669346514479260e-19
-3.999900385190091e-03  5.503681716663022e-03 -1.866561085907887e-19
-7.711643186549260e-03 -3.484092995935913e-03 -3.125317757591864e-19
-5.555545368162066e-03 -3.522790780132187e-04 -3.603924186963512e-19
-2.748077999807158e-03  6.669048126254923e-03 -1.174062397200456e-19
-8.315783735997045e-03  2.728739062146254e-03 -3.494082923969437e-19
-6.768063609881840e-03  3.630827215087637e-03 -3.425054371570909e-19
-6.618581376786487e-03  8.240498879988498e-04 -3.263744670261848e-19
-6.167562148481654e-03  2.772294650363023e-03 -2.854463242497497e-19
-6.545401682076330e-03 -3.594510553192120e-03 -2.732090038508736e-19
-6.336864088993141e-03  3.884188734150759e-04 -3.184450057365780e-19
-5.891355471426968e-03 -1.613050915995933e-03 -3.140111451304175e-19
-5.962497483113851e-03  3.484674942431072e-04 -3.116356104099394e-19
-6.777388002556057e-03  1.579271983434963e-03 -3.101583385474410e-19
-6.707862053450921e-03 -4.032776358213461e-04 -3.215199575398424e-19
-6.851744805045115e-03  2.063490754246847e-04 -3.275908806892911e-19
-6.802224131522767e-03 -6.616284774085853e-05 -3.261899375998684e-19
-6.803786622766621e-03  8.409285828241742e-04 -3.283514785366285e-19
-6.849628141939584e-03  2.817926045517046e-05 -3.221294673393189e-19
-6.505768885712403e-03  6.855210436708226e-04 -3.170328888666161e-19
-6.479048218163473e-03  8.047467597908730e-04 -3.051031461419612e-19
-5.635957835207356e-03  7.000285618319912e-04 -2.850904444870167e-19
-5.792489931771899e-03  1.544766026173385e-03 -3.174524736472857e-19
-4.443674037659443e-03 -6.622547483966253e-03  9.229229768316989e-20
-5.353798738524325e-03 -1.300239678366693e-03 -3.509485285749036e-19
-5.884000740664288e-03  1.820081292189176e-04 -2.942534308166361e-19
-6.770690703386312e-03  7.808964548946370e-04 -2.431240358589354e-19
-6.932243375534439e-03 -9.154772171603350e-04 -3.423177155263060e-19
-6.153965619729105e-03 -6.571037618978157e-04 -3.029617542447989e-19
-6.452745924804813e-03  4.604178410251127e-04 -2.885486607409270e-19
-6.842900506217555e-03  1.890322216256313e-05 -3.192359511340879e-19
-6.765226065578190e-03  1.868864981763065e-05 -3.213861212439326e-19
7.961875504734891e-03 7.795764515090048e-04 3.448272253474354e-19
 7.111723345575110e-03 -9.393196114379894e-04  3.360550772205121e-19
 8.347926829672482e-03 -2.148699044507166e-03  3.694918379426670e-19
 7.271276878288137e-03 -1.801181373192872e-05  3.679250675370737e-19
-6.420837864678441e-04  2.041726696066856e-04  1.973550305576029e-19
-1.127942232976418e-03  6.650107733836104e-03 -7.857615332971985e-20
 7.507554573568188e-03 -2.726355986718936e-03  3.092014390165647e-19
 5.294784395172236e-03 -3.037236998630082e-04  2.835907575662225e-19
-1.479062501990883e-03 -5.358073530636573e-03 -7.756066158509909e-20
6.877798902542327e-03 8.914710550600039e-04 3.372273694716309e-19
 7.034492483018304e-03 -2.060769518765058e-04  3.295830938035824e-19
 6.615118897389838e-03 -1.937913135831299e-04  3.235355135788795e-19
 6.895908064567983e-03 -1.871125927660391e-04  3.282709671899465e-19
 4.017491747531144e-03 -4.470085313380452e-03  2.211981355430948e-19
6.336074554442014e-03 5.874837692114156e-04 3.167978231352478e-19
 6.193868643307099e-03 -2.670170637350091e-03  3.085521728857870e-19
 6.299575867287629e-03 -4.779085911122471e-04  3.237517894424093e-19
 6.909992073648432e-03 -1.402621566030664e-03  3.417724932706979e-19
 8.263754941108280e-03 -1.926274017873828e-03  3.822653695348579e-19
 7.808181702844131e-03 -2.725667630813206e-03  3.864225366489819e-19
9.422247691810228e-04 6.812564889811898e-03 4.044646056740127e-20
8.572151479691183e-03 8.368224081754640e-04 3.952322563988338e-19
8.694686726131492e-03 4.510225390988308e-03 3.287426974821206e-19
 6.871219702962826e-03 -2.116363977448888e-03  3.545251195291872e-19
9.706918121417694e-04 5.975732902312245e-03 4.206783819601860e-20
9.298619538448547e-03 3.702606224558178e-04 3.845014376748917e-19
7.699814197936890e-03 3.066187771553608e-04 3.560842283427248e-19
 7.265008786366444e-03 -1.071310958684025e-04  3.541621023790652e-19
7.405986038604134e-03 5.968486228333979e-04 3.522592171536850e-19
 7.267721859092609e-03 -4.127946807360127e-04  3.545308492607514e-19
7.247700820036619e-03 8.101882733788588e-04 3.458731532062788e-19
 7.259913374771543e-03 -6.958955567440728e-04  3.527313095824052e-19
7.346709862907029e-03 6.378939906642009e-04 3.499491658659667e-19
 6.862387387489293e-03 -8.659055143921639e-04  3.478021566548868e-19
6.855278926452480e-03 2.150779353847056e-03 3.234547681454603e-19
 7.470960809300349e-03 -1.051279823222089e-03  3.524942008762428e-19
7.093734103567260e-03 6.337533295303867e-05 3.479985294677840e-19
 7.363133594697047e-03 -4.441531194449172e-04  3.550663240656589e-19
7.359916011594541e-03 1.782700574158756e-05 3.539733638828954e-19
7.549515883412512e-03 4.934631405035944e-04 3.535557301166682e-19
 7.247588917200967e-03 -1.054865301410425e-03  3.554344217424626e-19
7.142564173567609e-03 6.303600876351652e-04 3.674088650789448e-19
 6.969193641689173e-03  1.914722403275897e-04 -1.730483351702260e-19
7.070949299497322e-03 3.806686243885673e-04 5.212878593211785e-19
 6.712379341288795e-03 -2.788667535225550e-03  3.747419286244115e-19
7.424256596903810e-03 2.542256702937999e-04 3.577544409967702e-19
7.607708725560976e-03 1.111611361484451e-03 3.585828858593216e-19
 7.396205697832407e-03 -3.568189177256213e-04  1.790819358835933e-19
7.330553910052045e-03 4.144410400722933e-04 7.536498865790629e-19
7.359533284996816e-03 8.419623833061646e-05 1.887112708070047e-19
7.204499297936277e-03 4.376586844600157e-04 3.996905333215430e-19
7.061406113338981e-03 6.645813419192776e-05 3.486644264387157e-19
7.056700032642193e-03 8.762887078164690e-04 3.380798854082603e-19
 7.099084386386723e-03 -3.926647152101031e-05  3.434963069581504e-19
7.071091899384790e-03 1.723441747867766e-04 3.420058866246644e-19
 6.846788102462706e-03 -1.688676398622081e-04  3.398681931218993e-19
6.835133939169245e-03 8.968669913264842e-04 3.329909196738799e-19
 6.918019128535521e-03 -2.937277243462886e-05  3.369077348794763e-19
7.063414512307020e-03 1.740821603722498e-05 3.392184792045876e-19
 6.909673813057071e-03 -6.642412146648393e-04  3.413261017031707e-19
6.856598263255180e-03 4.038725036198201e-04 3.366643214572412e-19
6.788777923143098e-03 3.447633682868931e-04 3.232585330618092e-19
 6.719380454416323e-03 -2.474365635067608e-04  4.516013106450569e-19
6.977528056473363e-03 2.936205537488155e-04 1.809950871995534e-18
 6.246196394288220e-03 -1.667076064455515e-03  2.870058143368042e-19
4.550415891589280e-03 5.579848640057622e-03 1.955351556716442e-19
 7.650328692731333e-03 -2.486603396670059e-03  3.274245543230061e-19
7.031428182289178e-03 5.556273573418710e-04 3.447302081808080e-19
 7.441399227087128e-03 -2.607949082983346e-03  3.531230731902471e-19
7.998693304456142e-03 1.324911682473209e-04 3.791271123869212e-19
-2.023602838667034e-04  1.292757525846199e-04  1.623070266040183e-19
1.564724444486726e-03 6.280090190605668e-03 5.616356146205100e-20
 1.066575773294513e-02 -5.083781637050362e-03  4.003138482685424e-19
 4.851585559205705e-03 -4.436729606459836e-04  2.869623030487520e-19
 6.262203206886110e-03 -3.004127900336698e-03  3.242814385859798e-19
1.965199277149464e-03 5.645065208889921e-03 1.138556612664370e-19
 8.482778545856013e-03 -2.437483793583021e-04  3.844328365068747e-19
7.850958119531874e-03 2.242882530199149e-04 3.760720292962646e-19
7.720010519466142e-03 5.869009005708255e-04 3.725619775598376e-19
 7.333818665662553e-03 -9.976210397932932e-04  3.357367497247523e-19
7.240861273860621e-03 5.705867643734631e-04 2.050944186321744e-19
 7.329320198536011e-03 -2.618666497356979e-04  6.975056105614365e-19
7.273491315742547e-03 7.202462458525268e-04 3.529559454192105e-19
 7.234419422529794e-03 -6.608424344393210e-04  3.654851226062320e-19
6.585395214984168e-03 2.733555613443698e-04 3.461726972159286e-19
7.210808457963027e-03 7.659822309775187e-04 3.470529848532173e-19
 7.319845889741257e-03 -2.625774381293445e-04  3.513983066456800e-19
 7.218914961289931e-03 -4.265969636346902e-05  3.528656241112705e-19
 7.206938825303744e-03 -1.902711858519808e-04  3.582945854531527e-19
7.171311430418159e-03 1.433078364591308e-03 3.333720824120273e-19
 7.257886696565618e-03 -5.695702215027735e-04  2.933890183893073e-19
6.926745856974371e-03 6.276928526765277e-04 4.504944715737595e-19
 7.145466211896578e-03 -7.195400553047282e-05 -7.572988143484054e-19
6.859602882546013e-03 8.220162587733625e-04 2.976044362481003e-19
6.343388553598393e-03 8.539601652489358e-04 3.084409562251768e-19
 6.167834930398247e-03 -6.048261213390858e-04  3.362797762547933e-19
6.311360121041877e-03 3.474015781319623e-04 3.226683575707231e-19
 6.787178790290213e-03 -1.079581351671129e-03  3.415769398487084e-19
6.201840123339512e-03 1.880926537056062e-03 3.081144379157428e-19
 5.912189602998536e-03 -1.209208193303071e-03  3.211172994703591e-19
7.170217962963310e-03 3.595535797487502e-03 2.902010939958831e-19
 4.313667273728453e-03 -5.773734110160754e-03  2.402893952374542e-19
5.579154010463498e-03 1.931613800866510e-03 3.138019172109307e-19
 7.669698481395200e-03 -1.877387096817806e-03  3.693364853851976e-19
7.045793471037736e-03 9.286929037458670e-04 3.471680530460848e-19
 8.109683855235944e-03 -1.797502973618418e-04  3.686642348676932e-19
 7.104866961076311e-03 -7.423435245528327e-04  3.607547944880130e-19
7.067066618802683e-03 2.357890685255188e-03 3.264380207255038e-19
 7.070256462646390e-03 -1.884708910267822e-03  3.547926905575816e-19
6.677831497495329e-03 1.093909609725587e-03 3.407482151474352e-19
 6.941023872922163e-03 -4.404796931741654e-04  3.540187596403816e-19
6.820413172445442e-03 7.710561641426973e-04 3.462704283474960e-19
 6.472321708543787e-03 -3.989148655107529e-04  3.470916487322929e-19
6.777848870490874e-03 2.937553176088601e-03 3.098532846741673e-19
 6.930969990110865e-03 -2.111238680822122e-03  3.566942680859466e-19
6.842921246954127e-03 6.039467621179554e-05 3.582287499022419e-19
 6.904459552497470e-03 -5.282462461655379e-04  3.607881109814510e-19
 7.019759843241210e-03 -9.956076198136687e-05  3.622870245571321e-19
 7.175032739263221e-03 -9.382698685839232e-04  3.701392489230452e-19
 7.769300346240142e-03 -1.049181662036702e-03  3.923871638540068e-19
-3.327184347232968e-03 -5.079183024859856e-03 -1.862816656307302e-19
7.510491684278179e-03 1.364098480385497e-03 3.704148827802760e-19
 7.686303635346500e-03 -7.095354836662734e-04  3.842597722877687e-19
 7.567134820993417e-03 -4.444689748716724e-04  3.871342335276204e-19
7.496580720786203e-03 7.129502213697010e-04 3.758660530125707e-19
6.753520239680174e-03 1.567211041133645e-04 3.655905572126743e-19
-9.420887233771663e-04  8.292957206490995e-03 -1.123939261029512e-19
 7.365780286161817e-03 -1.411625342164236e-03  3.806486291201968e-19
6.921676685775755e-03 1.416636824321839e-03 3.566277521184637e-19
 6.990802762926867e-03 -9.218907815829770e-04  3.749379821370432e-19
7.189598512709731e-03 3.279039813012384e-04 3.755776273739563e-19
 6.088998628962236e-03 -3.852312664606017e-03  3.567603947036039e-19
6.975526148898436e-03 1.021414863720639e-03 3.799932084528503e-19
7.403219465249892e-03 1.084041295205572e-03 3.767519499079909e-19
7.023156245669858e-03 3.666227187526459e-04 3.785678154871185e-19
7.020337107589038e-03 2.422496303854715e-04 3.843245283273248e-19
6.987104245581023e-03 1.250453800819636e-04 3.883798155968748e-19
7.027062466249196e-03 4.629497977822320e-04 3.875488312040564e-19
6.983776234298918e-03 4.162572107501089e-04 3.880944833329205e-19
6.953282596001726e-03 4.328584333212571e-04 3.922336018091473e-19
 6.855250370030847e-03 -9.975519508437740e-05  3.705222378912278e-19
6.773652432348277e-03 4.319632410261998e-04 2.981482177236594e-19
6.723179231063680e-03 1.899323319659792e-04 3.779453841812965e-19
6.684720339062257e-03 2.032213628688926e-04 4.046436754264034e-19
6.642111600186245e-03 2.019260198260567e-04 4.082817509917302e-19
6.510775776752873e-03 1.579776783020532e-04 4.078900941311587e-19
6.396054462188477e-03 4.200807805827020e-04 4.078198756661329e-19
 5.988813483807720e-03 -3.560390932793387e-04  4.110179341014231e-19
6.136258578472874e-03 1.045806645596239e-03 3.971494973675655e-19
 6.925180541336474e-03 -5.081310863016223e-04  4.285179409739612e-19
 6.223557456939859e-03 -6.661465068205620e-04  4.248517511115379e-19
 6.658964628972097e-03 -7.127508755760023e-04  4.459071909340505e-19
 6.251627492462741e-03 -1.494727878356107e-03  4.490462531231548e-19
6.852132040720690e-03 3.607355197665475e-05 4.612153257745365e-19
 6.354251668520518e-03 -5.225876623440907e-04  4.688947319716574e-19
6.575463905038209e-03 2.172184710993538e-03 4.295137913482146e-19
 7.037948552778169e-03 -1.440543975640280e-03  4.960146744019177e-19
6.727845133761403e-03 2.619800507312458e-04 4.831735024642716e-19
 6.365595626481915e-03 -1.141194119342158e-03  5.012460987567246e-19
6.441594291352303e-03 1.240880912164355e-03 4.820179239688032e-19
 6.811731775183272e-03 -5.887200573982466e-04  5.310976106133199e-19
6.770064855650479e-03 1.100921541860859e-04 5.577185165631793e-19
 6.660299091689826e-03 -9.593197545148548e-05  5.935650850297617e-19
 6.662418033735601e-03 -9.596249574697364e-05  6.271346394621867e-19
 6.750250720622567e-03 -1.387991998409228e-04  6.694597984140641e-19
 6.833790796984729e-03 -2.375548086116423e-04  7.288688197549518e-19
6.892632959793974e-03 2.695944664338399e-04 7.651554841737851e-19
 6.995813166375067e-03 -2.225390329277663e-04  8.219540815488144e-19
 7.044532642475554e-03 -2.812711060609787e-04  9.303748328379677e-19
6.891602636285685e-03 1.203879228786057e-03 9.819904710201557e-19
 6.917909521098723e-03 -4.389664486584287e-04  1.150087842682175e-18
 7.963058527603050e-03 -1.451281444723898e-03  1.427209151056045e-18
6.830572600137407e-03 2.330067065459743e-03 1.549904978713898e-18
6.815741374776732e-03 2.325007789791899e-03 1.772296551941688e-18
 6.350411224552285e-03 -6.635452704967340e-04  2.221169091571881e-18
6.241879032568858e-03 1.715481376038650e-04 2.672037339908074e-18
 6.653030130848092e-03 -3.115403637043202e-04  3.312957541845648e-18
6.751333003744936e-03 7.231720753589831e-04 4.294941802103969e-18
 6.804049365371989e-03 -6.531137164285883e-04  6.116387618320212e-18
7.165625766197594e-03 1.470928592045249e-03 8.134130918934388e-18
 6.646307721345130e-03 -2.168786001315198e-03  9.871477598677071e-18
6.333003402831017e-03 1.867564385798633e-03 1.103889951017770e-17
 7.123455944336905e-03 -9.609945506487580e-04  1.501736966418225e-17
6.779413361525354e-03 1.253135288417546e-03 1.986707679563038e-17
 6.784307923576554e-03 -3.668778410413807e-04  3.346951666346084e-17
6.777544268027725e-03 2.897956494392740e-04 5.120557867501063e-17
 6.854060100192205e-03 -1.984015256912306e-04  8.131687696891520e-17
 6.937337168587871e-03 -2.008121111228246e-04  1.428253113384681e-16
 6.801054264510949e-03 -1.373725542159681e-04 -1.600897824977247e-16
 6.965497819964284e-03  1.247533511505016e-03 -1.490325800065363e-15
 7.061694091965217e-03 -3.489280757772574e-04  6.504671011528769e-15
 7.386645302518766e-03 -7.840207248312539e-04 -1.920016784056316e-15
 7.291928724378416e-03 -3.603042875230473e-04  6.882081039620624e-15
 7.477991222415493e-03 -4.055796871143477e-04  1.076622669578611e-16
6.970382426279056e-03 1.480554875685667e-03 1.497165208777391e-16
7.522825456584329e-03 5.490961914533370e-04 1.137907650360971e-16
7.089587343510667e-03 5.174738443373390e-04 7.168414038570094e-17
6.800907271586020e-03 2.002509897365999e-04 4.374653924501045e-17
 6.887810178945570e-03 -5.658761968580506e-04  3.165463551812676e-17
 6.752728018049462e-03 -1.064948713963294e-04  2.446551941521206e-17
 6.950364235947088e-03 -6.213894477919968e-05  1.649201233335890e-17
6.396028997004438e-03 2.918571905403498e-04 1.140108287271006e-17
6.846768711526817e-03 9.310630385493392e-04 8.683517642247660e-18
 6.640395616303944e-03 -7.330642195857852e-04  7.637655244013704e-18
6.788600775712268e-03 5.849794859166535e-04 4.875857967344807e-18
 6.802573046808003e-03 -1.791129339806622e-03  4.807997679025122e-18
7.871396280836187e-03 1.799682642151385e-03 2.645155582217431e-18
 4.040070148856375e-03 -4.709432322464226e-03  4.050581666847443e-18
5.445250649669539e-03 3.301782835884867e-03 1.110044986326409e-18
 8.230888659130317e-03 -6.606554950028760e-04  2.691496049369469e-18
 6.028935554953793e-03 -1.027581852634755e-03  2.533861447231590e-18
6.865486624069424e-03 1.436083492492121e-03 1.665616988148955e-18
7.001008459818524e-03 5.878173854017968e-04 1.632457701638881e-18
6.385165448540771e-03 5.361100876910551e-04 1.386044252402312e-18
6.302444330486167e-03 1.633015411377622e-03 1.012808106670772e-18
 7.210205537061459e-03 -2.564205085680420e-03  1.444320554416529e-18
 6.446948232883543e-03 -1.600634514057346e-03  1.261613668810404e-18
4.575238586115805e-03 1.251164280665563e-03 7.586736402849599e-19
-3.197471854198672e-03  9.270968120773633e-03 -9.636440659095217e-19
 7.659298579000846e-03 -2.461478307639313e-03  1.050693750208302e-18
 5.135915022190027e-03 -1.650535396499553e-03  9.009548623027142e-19
1.268241355062883e-02 5.894207170055509e-03 6.705089834471937e-19
-9.013982479371089e-04 -7.245753226590244e-03  3.564539209192825e-19
4.571465587592746e-03 2.232571329965735e-03 4.000308025904889e-19
9.242972819825892e-03 6.928925912247761e-04 2.214275343578404e-19
1.150246513830459e-02 6.196844435216546e-03 2.629895736470819e-19
 2.185986371045542e-03 -8.567638753489912e-03  5.208504591480407e-19
3.246049261114702e-03 2.398431026195819e-03 3.757391102387957e-19
7.759582932485974e-03 3.853633083069835e-03 4.937461923258721e-19
8.876362142456072e-03 4.833334852116775e-03 4.459756134680060e-19
 8.203149265421646e-03 -1.234576219660536e-03  6.700227925110389e-19
7.235805441870012e-03 1.611380645778999e-03 5.154052066263582e-19
 6.057307600207852e-03 -3.230228285427252e-03  6.112272170412000e-19
6.573995065908811e-03 2.207885573445524e-03 4.475534905407996e-19
 6.899442089432086e-03 -1.716845624098528e-03  5.810488285131059e-19
5.984209908452123e-03 2.688141094107248e-03 3.927072827968433e-19
 6.837238407312253e-03 -1.398105974755089e-05  4.962403273181235e-19
 7.000873634634855e-03 -5.985131154029289e-04  5.004368879780359e-19
 7.764809905837340e-03 -1.446232954499477e-03  5.236070972813321e-19
2.459032562999289e-03 5.271152756991188e-03 8.588577869674012e-20
7.760481439871093e-03 1.939194261889734e-03 4.149924752996248e-19
6.373578390469674e-03 3.216276533853118e-04 4.200282094932620e-19
6.129687579416973e-03 4.194835136922318e-04 4.080317280789607e-19
5.693658702418615e-03 3.896439952788079e-04 3.934477443227920e-19
5.715205528272280e-03 1.710990385762309e-03 3.458191207606177e-19
 5.511444003372193e-03 -6.673562848668810e-04  3.871228146023024e-19
 5.940081849576193e-03 -7.192581386135616e-04  3.953465058336351e-19
 6.042450437645975e-03 -1.516229347853143e-03  4.003166105861328e-19
 6.403976512716980e-03 -7.243873401862525e-04  4.010821347956395e-19
 6.702071658688458e-03 -7.581064441654604e-04  4.025940690132348e-19
 6.697326328652097e-03 -2.210155561162910e-03  4.112513554254608e-19
7.805437451737750e-03 2.950782147347342e-04 4.089074482329953e-19
-1.753598770954967e-03 -7.717030783064009e-03  4.013196783357049e-21
 7.540320440936044e-03 -3.201760288131572e-07  4.114074634818425e-19
 6.477428843267041e-03 -3.575732351998685e-03  4.131884409311109e-19
-7.626809250373384e-04  2.976754098335460e-03 -9.944424324828412e-20
9.878183524983724e-03 3.449211125085001e-03 3.632616120446810e-19
6.884429659963158e-03 8.642071096594670e-04 1.766552827030224e-19
7.845824625001479e-03 1.522560475224125e-03 1.388475029899281e-18
 3.113084557812802e-03 -5.585368403580005e-03  2.478536335507513e-19
6.042323803988232e-03 8.100173646886994e-04 6.843422849857692e-19
 6.295907176921402e-03 -2.817274379245158e-03  3.569232106948777e-19
6.467938379129612e-03 6.174934790063391e-04 3.684034866120223e-19
7.029853239578926e-03 1.119447889444899e-05 3.874986933331572e-19
 6.854294521101738e-03 -9.552824425043179e-04  2.514617121598802e-19
8.232052678952533e-03 8.516940572374189e-05 5.705515231881420e-19
-4.032989445599144e-03 -5.829161871990400e-03  1.151848213913592e-19
6.604677837835768e-03 7.340832716016537e-04 3.817812872743466e-19
 6.819416017711999e-03 -2.091736496916944e-03  5.259801822501537e-19
6.900366715209209e-03 2.541307617357641e-03 3.454947781871240e-19
 7.520715219840380e-03 -6.069196965338801e-04  3.772509059544092e-19
6.830980083065485e-03 1.689841265177482e-03 3.405149778612172e-19
 6.749298873519422e-03 -5.827919768517520e-04  3.674733416115228e-19
6.575148616114248e-03 1.903104246173616e-03 3.364710062575665e-19
 7.119518394069490e-03 -2.475146547571657e-04  3.672690036073651e-19
6.970997383453715e-03 4.830785204469097e-04 3.600900615253657e-19
 6.925723788733934e-03 -4.929236115971703e-04  3.669320871844736e-19
6.908684983773432e-03 6.559449983367801e-04 3.588015517032232e-19
 7.038644460447844e-03 -2.641542877670111e-04  3.641217322774021e-19
7.089909796364570e-03 2.255101785683603e-04 3.848465449289173e-19
 6.806642869161389e-03 -1.901515843295020e-03  2.930894961237234e-19
6.984827842700204e-03 1.652230225719403e-04 3.456243976914494e-19
 6.949118413454775e-03 -4.793851311830989e-04 -8.552461737385816e-19
 7.143646099676200e-03  3.012511026174806e-04 -6.594405908280966e-19
 7.090229756860340e-03 -1.161483471961906e-03 -2.380622449690300e-19
7.089518223458872e-03 1.483068035176090e-04 6.058342910406745e-20
 7.413584160038078e-03 -5.998600487643459e-04  3.720962866794007e-19
7.861919073738515e-03 6.210092107522937e-04 3.732942238438903e-19
 6.505290105105988e-03 -3.414158395678602e-03  3.560425504076486e-19
7.560006112443301e-03 1.922786556842213e-03 3.605905842713652e-19
 8.837608476222334e-03 -2.675448360385698e-03  4.206844528567201e-19
 2.207783270333042e-03 -1.347901819731381e-03  2.663435746582818e-19
4.282382460824483e-03 5.086988676473459e-03 2.331292214575161e-19
7.584760252120397e-03 3.025606901269752e-03 3.136314014226639e-19
8.004009303630794e-03 5.434330768469693e-03 2.573713694404265e-19
 3.621306862872622e-03 -3.707054083020370e-03  2.338160058432342e-19
5.931086453326065e-03 4.503792026824163e-03 2.502571564555275e-19
 1.416732440158427e-04 -9.736644903288239e-03  8.038548330804697e-20
6.450475205878162e-03 1.835357902290969e-04 3.607110878357830e-19
 8.119641827229405e-03 -1.181113348044355e-03  3.986358965443479e-19
7.645483500929449e-03 1.634850844116119e-03 3.743232222653758e-19
7.322273786378329e-03 7.239729279900714e-04 3.669065808227109e-19
6.807078614538977e-03 1.354963921113941e-03 3.327914988771544e-19
 2.047602525084059e-03 -8.065544526642252e-03  1.502691491484162e-19
 6.776065015833924e-03 -1.379556486424431e-03  3.652057548902022e-19
 8.154170638844304e-03 -6.188541739840511e-04  3.955130030924049e-19
 8.470470608013893e-03 -4.481865108532869e-04  4.007959388764143e-19
7.060996624955462e-03 6.859962572208178e-04 3.687320972896754e-19
 1.908545493277394e-03  9.618648895331743e-03 -9.250821292236346e-21
 7.301429581452868e-03 -3.595974383835498e-03  3.508449946181053e-19
7.179012126883629e-03 6.388517334673011e-04 3.561467630515702e-19
 8.105662198965660e-03 -2.109234146018401e-03  3.840177633928287e-19
1.005446614911463e-02 6.138104302196918e-04 4.353693367079226e-19
 1.985912880444928e-03 -4.648806291704494e-03  1.172092494242072e-19
4.521973772797636e-03 4.381065934193303e-03 2.764335904128449e-19
7.509733589746328e-03 7.645725859889319e-04 3.180028488200754e-19
6.159091932995971e-03 4.704238076593686e-03 3.882141016290793e-19
-5.596231475735033e-05 -7.122231899195919e-03  6.197536413191919e-19
 5.091745068864240e-03  2.657234212660480e-03 -8.122927074699657e-19
 6.193184023407814e-03 -1.071708577900376e-03  1.618898330391281e-19
5.245533815572283e-03 5.099496694885468e-03 2.283619513720990e-19
 3.473365710594313e-03 -5.744802640890627e-03  2.070448510357816e-19
4.452820332792435e-03 1.858595340195313e-03 2.877928172175281e-19
 6.085800233653996e-03 -1.947534367922177e-03  3.196609555525089e-19
5.124760511205747e-03 1.349523998991324e-03 2.849937031660478e-19
 2.464206098147107e-03 -6.965308508918569e-03  1.578110647190346e-19
1.065757687752459e-03 1.366252119254454e-03 2.029181812223441e-19
8.228650674155341e-03 2.392415247808422e-03 3.906730527694007e-19
1.011894029555470e-02 5.591911012349851e-04 4.261706289899147e-19
9.029029093094082e-03 2.102672605423907e-03 3.815799860716379e-19
8.136246437657788e-03 4.027957416172336e-04 3.755738222239748e-19
7.589689719951935e-03 3.412931325670285e-04 3.630427834495927e-19
 7.391220388879130e-03 -3.685834137176692e-04  3.621754942923914e-19
7.241902070431669e-03 3.128782137511937e-04 3.545531547276347e-19
7.110342261654851e-03 5.472378651954401e-05 3.509962461678475e-19
7.075487511873218e-03 5.445553165697176e-05 3.490476919039720e-19
 7.176253587936068e-03 -5.303306079331936e-04  3.545860087557221e-19
 6.754662347810406e-03 -4.227858629805067e-05  3.488927952244399e-19
7.429239084057811e-03 1.124797540666401e-03 3.468470166348181e-19
 7.421634666606398e-03 -1.415670264011918e-03  3.573377592953129e-19
 7.163487281581202e-03 -1.248036712294772e-04  3.533021806272313e-19
 7.063289943609173e-03 -1.081889745098784e-03  3.569634454523962e-19
7.122295915785172e-03 1.143285369111915e-03 3.482525075734720e-19
 7.479898998499631e-03 -5.955965244314191e-04  3.611283289811545e-19
 7.546726278613864e-03 -4.084657324136895e-04  3.640696006106607e-19
 7.613805998751025e-03 -2.251779264202901e-03  3.728720213916805e-19
8.658456481439605e-03 6.183676710477749e-04 3.878020734966898e-19
 8.684167927176639e-03 -2.367154979965155e-03  4.038705643852970e-19
 3.251499547281611e-03 -4.889074744482009e-03  2.048380483644865e-19
7.585572747016367e-03 2.607235913176968e-03 3.585705842668904e-19
8.705667034627844e-03 1.730564760670150e-03 3.696327349369893e-19
8.118698721734340e-03 1.464006798643394e-03 3.557117002944146e-19
7.385178845417791e-03 9.258416060107368e-04 3.427028733970510e-19
7.120227992026026e-03 4.178761302602067e-04 3.388554205611623e-19
6.776913081749549e-03 1.042923326879892e-03 3.239491225669004e-19
6.736490978615393e-03 1.490971127204397e-03 3.128874937039534e-19
6.445730238682399e-03 7.608551052672032e-04 3.116918442382395e-19
4.524697859568105e-03 5.898598183660096e-04 2.792036519943434e-19
 2.114159913898664e-03  1.034503493114341e-02 -2.012816630348358e-20
 6.546618300936911e-03 -9.394876528996237e-03  2.931565062877362e-19
 4.511306281609408e-03 -7.481516234084453e-04  2.644015414433907e-19
 6.178273501527888e-03 -1.097420594252034e-03  3.043913348810857e-19
 7.391755129596531e-03 -7.274701746732227e-04  3.339660838068681e-19
7.531582945674770e-03 1.435694348384714e-03 3.232892649301930e-19
 6.267743865913662e-03 -2.892818496638325e-04  3.108883039808963e-19
5.827283771139364e-03 4.783504107572166e-03 2.296109534984386e-19
 6.457228748216231e-03 -1.549665739397330e-03  3.049138533365668e-19
3.942264857431591e-03 2.449072953183732e-03 2.331188534787667e-19
4.313847998233832e-03 1.311049998260787e-03 2.279214505220805e-19
4.226214111997697e-03 6.844953426568539e-03 1.003884070368067e-19
 4.043357539345902e-03 -2.419557301267168e-03  2.201247285392148e-19
5.117880750049202e-03 1.719017873937025e-03 2.701780229427404e-19
 2.949996510642977e-03 -7.725303542211649e-04  2.230454275040834e-19
3.780931495302405e-03 7.330521294762724e-03 8.497621941475494e-20
 3.261308903482828e-03 -6.018346148846996e-03  1.698344695742257e-19
1.754560347729167e-03 1.471586479582151e-03 1.884908750442717e-19
 6.460204387015377e-03 -2.015862832459368e-03  2.980422380871754e-19
6.149058050448619e-03 1.475590918041662e-03 2.947329727939455e-19
 4.828091276653131e-03 -1.453900347473774e-03  2.660920848445673e-19
4.590816842759646e-03 2.026512579753696e-03 2.364534399105011e-19
8.803965602239588e-03 1.608699281159761e-03 2.968437343212110e-19
 4.326754576105860e-03 -2.458074544695552e-03  2.355796893395918e-19
5.509976655864534e-03 1.656370916492296e-03 2.768667626205671e-19
 6.325652927403788e-03 -2.290583371328669e-03  2.928955254638380e-19
4.409212507769579e-03 4.120928194993300e-03 2.474779010167667e-19
 7.542987647898634e-03 -6.633061678138895e-04  3.089726788563585e-19
7.459671302929339e-03 1.017124158203541e-03 9.954698265415208e-19
 6.615373029620206e-03 -2.488360374095426e-03 -9.121488031343143e-20
6.863293495620334e-03 1.320054679916837e-03 4.282737439905069e-19
 7.232078190122495e-03 -7.095782772618340e-04  3.382633927507452e-19
7.013290058151800e-03 5.811524412823986e-04 3.338785775259053e-19
 6.873790623734694e-03 -1.892482609808780e-04  3.280371985576189e-19
6.836780883078288e-03 7.304792301577219e-04 3.228628191192006e-19
 6.836546928230273e-03 -2.525785319551350e-04  3.267812905140110e-19
6.733452639488368e-03 7.624714672592460e-04 3.211125913936487e-19
 6.810661849924703e-03 -7.004479383076059e-06  3.246816295465794e-19
6.537995861592932e-03 5.213842621306703e-04 2.462736897806218e-19
6.041151441565061e-03 4.817625084902727e-04 2.304309826469844e-19
6.968105751642794e-03 9.814198704032032e-04 8.577882940286507e-19
 6.046421883251756e-03 -8.029469758649378e-04  3.915845284451472e-19
6.513229610116627e-03 2.594813288351825e-04 3.163250442308170e-19
 6.507185959618202e-03 -1.154613279049838e-03  3.203804432664320e-19
6.458918433920700e-03 8.257524953238500e-05 3.135591746990084e-19
 6.712371267204078e-03 -5.624185158711881e-04  3.221724244151368e-19
 6.678701438913489e-03 -2.417559457145761e-04  3.222375050239543e-19
 6.749500747622367e-03 -2.443187423883614e-04  3.247609407234996e-19
7.000128426292478e-03 1.136287943404615e-04 3.278448688223398e-19
 6.779257187359837e-03 -6.244647962791319e-04  3.279541264122506e-19
7.045645724337038e-03 5.187851805130481e-04 3.285107866572306e-19

VECTORS velocity double
0.000000000000000e+00 0.000000000000000e+00 0.000000000000000e+00
0.000000000000000e+00 0.000000000000000e+00 0.000000000000000e+00
0.000000000000000e+00 0.000000000000000e+00 0.000000000000000e+00
0.000000000000000e+00 0.000000000000000e+00 0.000000000000000e+00
0.000000000000000e+00 0.000000000000000e+00 0.000000000000000e+00
0.000000000000000e+00 0.000000000000000e+00 0.000000000000000e+00
0.000000000000000e+00 0.000000000000000e+00 0.000000000000000e+00
0.000000000000000e+00 0.000000000000000e+00 0.000000000000000e+00
0.000000000000000e+00 0.000000000000000e+00 0.000000000000000e+00
0.000000000000000e+00 0.000000000000000e+00 0.000000000000000e+00
0.000000000000000e+00 0.000000000000000e+00 0.000000000000000e+00
0.000000000000000e+00 0.000000000000000e+00 0.000000000000000e+00
0.000000000000000e+00 0.000000000000000e+00 0.000000000000000e+00
0.000000000000000e+00 0.000000000000000e+00 0.000000000000000e+00
0.000000000000000e+00 0.000000000000000e+00 0.000000000000000e+00
0.000000000000000e+00 0.000000000000000e+00 0.000000000000000e+00
0.000000000000000e+00 0.000000000000000e+00 0.000000000000000e+00
0.000000000000000e+00 0.000000000000000e+00 0.000000000000000e+00
0.000000000000000e+00 0.000000000000000e+00 0.000000000000000e+00
0.000000000000000e+00 0.000000000000000e+00 0.000000000000000e+00
0.000000000000000e+00 0.000000000000000e+00 0.000000000000000e+00
0.000000000000000e+00 0.000000000000000e+00 0.000000000000000e+00
0.000000000000000e+00 0.000000000000000e+00 0.000000000000000e+00
0.000000000000000e+00 0.000000000000000e+00 0.000000000000000e+00
0.000000000000000e+00 0.000000000000000e+00 0.000000000000000e+00
0.000000000000000e+00 0.000000000000000e+00 0.000000000000000e+00
0.000000000000000e+00 0.000000000000000e+00 0.000000000000000e+00
0.000000000000000e+00 0.000000000000000e+00 0.000000000000000e+00
0.000000000000000e+00 0.000000000000000e+00 0.000000000000000e+00
0.000000000000000e+00 0.000000000000000e+00 0.000000000000000e+00
0.000000000000000e+00 0.000000000000000e+00 0.000000000000000e+00
0.000000000000000e+00 0.000000000000000e+00 0.000000000000000e+00
0.000000000000000e+00 0.000000000000000e+00 0.000000000000000e+00
0.000000000000000e+00 0.000000000000000e+00 0.000000000000000e+00
0.000000000000000e+00 0.000000000000000e+00 0.000000000000000e+00
0.000000000000000e+00 0.000000000000000e+00 0.000000000000000e+00
0.000000000000000e+00 0.000000000000000e+00 0.000000000000000e+00
0.000000000000000e+00 0.000000000000000e+00 0.000000000000000e+00
0.000000000000000e+00 0.000000000000000e+00 0.000000000000000e+00
0.000000000000000e+00 0.000000000000000e+00 0.000000000000000e+00
0.000000000000000e+00 0.000000000000000e+00 0.000000000000000e+00
0.000000000000000e+00 0.000000000000000e+00 0.000000000000000e+00
0.000000000000000e+00 0.000000000000000e+00 0.000000000000000e+00
0.000000000000000e+00 0.000000000000000e+00 0.000000000000000e+00
0.000000000000000e+00 0.000000000000000e+00 0.000000000000000e+00
0.000000000000000e+00 0.000000000000000e+00 0.000000000000000e+00
0.000000000000000e+00 0.000000000000000e+00 0.000000000000000e+00
0.000000000000000e+00 0.000000000000000e+00 0.000000000000000e+00
0.000000000000000e+00 0.000000000000000e+00 0.000000000000000e+00
0.000000000000000e+00 0.000000000000000e+00 0.000000000000000e+00
0.000000000000000e+00 0.000000000000000e+00 0.000000000000000e+00
0.000000000000000e+00 0.000000000000000e+00 0.000000000000000e+00
0.000000000000000e+00 0.000000000000000e+00 0.000000000000000e+00
0.000000000000000e+00 0.000000000000000e+00 0.000000000000000e+00
0.000000000000000e+00 0.000000000000000e+00 0.000000000000000e+00
0.000000000000000e+00 0.000000000000000e+00 0.000000000000000e+00
0.000000000000000e+00 0.000000000000000e+00 0.000000000000000e+00
0.000000000000000e+00 0.000000000000000e+00 0.000000000000000e+00
0.000000000000000e+00 0.000000000000000e+00 0.000000000000000e+00
0.000000000000000e+00 0.000000000000000e+00 0.000000000000000e+00
0.000000000000000e+00 0.000000000000000e+00 0.000000000000000e+00
0.000000000000000e+00 0.000000000000000e+00 0.000000000000000e+00
0.000000000000000e+00 0.000000000000000e+00 0.000000000000000e+00
0.000000000000000e+00 0.000000000000000e+00 0.000000000000000e+00
0.000000000000000e+00 0.000000000000000e+00 0.000000000000000e+00
0.000000000000000e+00 0.000000000000000e+00 0.000000000000000e+00
0.000000000000000e+00 0.000000000000000e+00 0.000000000000000e+00
0.000000000000000e+00 0.000000000000000e+00 0.000000000000000e+00
0.000000000000000e+00 0.000000000000000e+00 0.000000000000000e+00
0.000000000000000e+00 0.000000000000000e+00 0.000000000000000e+00
0.000000000000000e+00 0.000000000000000e+00 0.000000000000000e+00
0.000000000000000e+00 0.000000000000000e+00 0.000000000000000e+00
0.000000000000000e+00 0.000000000000000e+00 0.000000000000000e+00
0.000000000000000e+00 0.000000000000000e+00 0.000000000000000e+00
0.000000000000000e+00 0.000000000000000e+00 0.000000000000000e+00
0.000000000000000e+00 0.000000000000000e+00 0.000000000000000e+00
0.000000000000000e+00 0.000000000000000e+00 0.000000000000000e+00
0.000000000000000e+00 0.000000000000000e+00 0.000000000000000e+00
0.000000000000000e+00 0.000000000000000e+00 0.000000000000000e+00
0.000000000000000e+00 0.000000000000000e+00 0.000000000000000e+00
0.000000000000000e+00 0.000000000000000e+00 0.000000000000000e+00
0.000000000000000e+00 0.000000000000000e+00 0.000000000000000e+00
0.000000000000000e+00 0.000000000000000e+00 0.000000000000000e+00
0.000000000000000e+00 0.000000000000000e+00 0.000000000000000e+00
0.000000000000000e+00 0.000000000000000e+00 0.000000000000000e+00
0.000000000000000e+00 0.000000000000000e+00 0.000000000000000e+00
0.000000000000000e+00 0.000000000000000e+00 0.000000000000000e+00
0.000000000000000e+00 0.000000000000000e+00 0.000000000000000e+00
0.000000000000000e+00 0.000000000000000e+00 0.000000000000000e+00
0.000000000000000e+00 0.000000000000000e+00 0.000000000000000e+00
0.000000000000000e+00 0.000000000000000e+00 0.000000000000000e+00
0.000000000000000e+00 0.000000000000000e+00 0.000000000000000e+00
0.000000000000000e+00 0.000000000000000e+00 0.000000000000000e+00
0.000000000000000e+00 0.000000000000000e+00 0.000000000000000e+00
0.000000000000000e+00 0.000000000000000e+00 0.000000000000000e+00
0.000000000000000e+00 0.000000000000000e+00 0.000000000000000e+00
0.000000000000000e+00 0.000000000000000e+00 0.000000000000000e+00
0.000000000000000e+00 0.000000000000000e+00 0.000000000000000e+00
0.000000000000000e+00 0.000000000000000e+00 0.000000000000000e+00
0.000000000000000e+00 0.000000000000000e+00 0.000000000000000e+00
0.000000000000000e+00 0.000000000000000e+00 0.000000000000000e+00
0.000000000000000e+00 0.000000000000000e+00 0.000000000000000e+00
0.000000000000000e+00 0.000000000000000e+00 0.000000000000000e+00
0.000000000000000e+00 0.000000000000000e+00 0.000000000000000e+00
0.000000000000000e+00 0.000000000000000e+00 0.000000000000000e+00
0.000000000000000e+00 0.000000000000000e+00 0.000000000000000e+00
0.000000000000000e+00 0.000000000000000e+00 0.000000000000000e+00
0.000000000000000e+00 0.000000000000000e+00 0.000000000000000e+00
0.000000000000000e+00 0.000000000000000e+00 0.000000000000000e+00
0.000000000000000e+00 0.000000000000000e+00 0.000000000000000e+00
0.000000000000000e+00 0.000000000000000e+00 0.000000000000000e+00
0.000000000000000e+00 0.000000000000000e+00 0.000000000000000e+00
0.000000000000000e+00 0.000000000000000e+00 0.000000000000000e+00
0.000000000000000e+00 0.000000000000000e+00 0.000000000000000e+00
0.000000000000000e+00 0.000000000000000e+00 0.000000000000000e+00
0.000000000000000e+00 0.000000000000000e+00 0.000000000000000e+00
0.000000000000000e+00 0.000000000000000e+00 0.000000000000000e+00
0.000000000000000e+00 0.000000000000000e+00 0.000000000000000e+00
0.000000000000000e+00 0.000000000000000e+00 0.000000000000000e+00
0.000000000000000e+00 0.000000000000000e+00 0.000000000000000e+00
0.000000000000000e+00 0.000000000000000e+00 0.000000000000000e+00
0.000000000000000e+00 0.000000000000000e+00 0.000000000000000e+00
0.000000000000000e+00 0.000000000000000e+00 0.000000000000000e+00
0.000000000000000e+00 0.000000000000000e+00 0.000000000000000e+00
0.000000000000000e+00 0.000000000000000e+00 0.000000000000000e+00
0.000000000000000e+00 0.000000000000000e+00 0.000000000000000e+00
0.000000000000000e+00 0.000000000000000e+00 0.000000000000000e+00
0.000000000000000e+00 0.000000000000000e+00 0.000000000000000e+00
0.000000000000000e+00 0.000000000000000e+00 0.000000000000000e+00
0.000000000000000e+00 0.000000000000000e+00 0.000000000000000e+00
0.000000000000000e+00 0.000000000000000e+00 0.000000000000000e+00
0.000000000000000e+00 0.000000000000000e+00 0.000000000000000e+00
0.000000000000000e+00 0.000000000000000e+00 0.000000000000000e+00
0.000000000000000e+00 0.000000000000000e+00 0.000000000000000e+00
0.000000000000000e+00 0.000000000000000e+00 0.000000000000000e+00
0.000000000000000e+00 0.000000000000000e+00 0.000000000000000e+00
0.000000000000000e+00 0.000000000000000e+00 0.000000000000000e+00
0.000000000000000e+00 0.000000000000000e+00 0.000000000000000e+00
0.000000000000000e+00 0.000000000000000e+00 0.000000000000000e+00
0.000000000000000e+00 0.000000000000000e+00 0.000000000000000e+00
0.000000000000000e+00 0.000000000000000e+00 0.000000000000000e+00
0.000000000000000e+00 0.000000000000000e+00 0.000000000000000e+00
0.000000000000000e+00 0.000000000000000e+00 0.000000000000000e+00
0.000000000000000e+00 0.000000000000000e+00 0.000000000000000e+00
0.000000000000000e+00 0.000000000000000e+00 0.000000000000000e+00
0.000000000000000e+00 0.000000000000000e+00 0.000000000000000e+00
0.000000000000000e+00 0.000000000000000e+00 0.000000000000000e+00
0.000000000000000e+00 0.000000000000000e+00 0.000000000000000e+00
0.000000000000000e+00 0.000000000000000e+00 0.000000000000000e+00
0.000000000000000e+00 0.000000000000000e+00 0.000000000000000e+00
0.000000000000000e+00 0.000000000000000e+00 0.000000000000000e+00
0.000000000000000e+00 0.000000000000000e+00 0.000000000000000e+00
0.000000000000000e+00 0.000000000000000e+00 0.000000000000000e+00
0.000000000000000e+00 0.000000000000000e+00 0.000000000000000e+00
0.000000000000000e+00 0.000000000000000e+00 0.000000000000000e+00
0.000000000000000e+00 0.000000000000000e+00 0.000000000000000e+00
0.000000000000000e+00 0.000000000000000e+00 0.000000000000000e+00
0.000000000000000e+00 0.000000000000000e+00 0.000000000000000e+00
0.000000000000000e+00 0.000000000000000e+00 0.000000000000000e+00
0.000000000000000e+00 0.000000000000000e+00 0.000000000000000e+00
0.000000000000000e+00 0.000000000000000e+00 0.000000000000000e+00
0.000000000000000e+00 0.000000000000000e+00 0.000000000000000e+00
0.000000000000000e+00 0.000000000000000e+00 0.000000000000000e+00
0.000000000000000e+00 0.000000000000000e+00 0.000000000000000e+00
0.000000000000000e+00 0.000000000000000e+00 0.000000000000000e+00
0.000000000000000e+00 0.000000000000000e+00 0.000000000000000e+00
0.000000000000000e+00 0.000000000000000e+00 0.000000000000000e+00
0.000000000000000e+00 0.000000000000000e+00 0.000000000000000e+00
0.000000000000000e+00 0.000000000000000e+00 0.000000000000000e+00
0.000000000000000e+00 0.000000000000000e+00 0.000000000000000e+00
0.000000000000000e+00 0.000000000000000e+00 0.000000000000000e+00
0.000000000000000e+00 0.000000000000000e+00 0.000000000000000e+00
0.000000000000000e+00 0.000000000000000e+00 0.000000000000000e+00
0.000000000000000e+00 0.000000000000000e+00 0.000000000000000e+00
0.000000000000000e+00 0.000000000000000e+00 0.000000000000000e+00
0.000000000000000e+00 0.000000000000000e+00 0.000000000000000e+00
0.000000000000000e+00 0.000000000000000e+00 0.000000000000000e+00
0.000000000000000e+00 0.000000000000000e+00 0.000000000000000e+00
0.000000000000000e+00 0.000000000000000e+00 0.000000000000000e+00
0.000000000000000e+00 0.000000000000000e+00 0.000000000000000e+00
0.000000000000000e+00 0.000000000000000e+00 0.000000000000000e+00
0.000000000000000e+00 0.000000000000000e+00 0.000000000000000e+00
0.000000000000000e+00 0.000000000000000e+00 0.000000000000000e+00
0.000000000000000e+00 0.000000000000000e+00 0.000000000000000e+00
0.000000000000000e+00 0.000000000000000e+00 0.000000000000000e+00
0.000000000000000e+00 0.000000000000000e+00 0.000000000000000e+00
0.000000000000000e+00 0.000000000000000e+00 0.000000000000000e+00
0.000000000000000e+00 0.000000000000000e+00 0.000000000000000e+00
0.000000000000000e+00 0.000000000000000e+00 0.000000000000000e+00
0.000000000000000e+00 0.000000000000000e+00 0.000000000000000e+00
0.000000000000000e+00 0.000000000000000e+00 0.000000000000000e+00
0.000000000000000e+00 0.000000000000000e+00 0.000000000000000e+00
0.000000000000000e+00 0.000000000000000e+00 0.000000000000000e+00
0.000000000000000e+00 0.000000000000000e+00 0.000000000000000e+00
0.000000000000000e+00 0.000000000000000e+00 0.000000000000000e+00
0.000000000000000e+00 0.000000000000000e+00 0.000000000000000e+00
0.000000000000000e+00 0.000000000000000e+00 0.000000000000000e+00
0.000000000000000e+00 0.000000000000000e+00 0.000000000000000e+00
0.000000000000000e+00 0.000000000000000e+00 0.000000000000000e+00
0.000000000000000e+00 0.000000000000000e+00 0.000000000000000e+00
0.000000000000000e+00 0.000000000000000e+00 0.000000000000000e+00
0.000000000000000e+00 0.000000000000000e+00 0.000000000000000e+00
0.000000000000000e+00 0.000000000000000e+00 0.000000000000000e+00
0.000000000000000e+00 0.000000000000000e+00 0.000000000000000e+00
0.000000000000000e+00 0.000000000000000e+00 0.000000000000000e+00
0.000000000000000e+00 0.000000000000000e+00 0.000000000000000e+00
0.000000000000000e+00 0.000000000000000e+00 0.000000000000000e+00
0.000000000000000e+00 0.000000000000000e+00 0.000000000000000e+00
0.000000000000000e+00 0.000000000000000e+00 0.000000000000000e+00
0.000000000000000e+00 0.000000000000000e+00 0.000000000000000e+00
0.000000000000000e+00 0.000000000000000e+00 0.000000000000000e+00
0.000000000000000e+00 0.000000000000000e+00 0.000000000000000e+00
0.000000000000000e+00 0.000000000000000e+00 0.000000000000000e+00
0.000000000000000e+00 0.000000000000000e+00 0.000000000000000e+00
0.000000000000000e+00 0.000000000000000e+00 0.000000000000000e+00
0.000000000000000e+00 0.000000000000000e+00 0.000000000000000e+00
0.000000000000000e+00 0.000000000000000e+00 0.000000000000000e+00
0.000000000000000e+00 0.000000000000000e+00 0.000000000000000e+00
0.000000000000000e+00 0.000000000000000e+00 0.000000000000000e+00
0.000000000000000e+00 0.000000000000000e+00 0.000000000000000e+00
0.000000000000000e+00 0.000000000000000e+00 0.000000000000000e+00
0.000000000000000e+00 0.000000000000000e+00 0.000000000000000e+00
0.000000000000000e+00 0.000000000000000e+00 0.000000000000000e+00
0.000000000000000e+00 0.000000000000000e+00 0.000000000000000e+00
0.000000000000000e+00 0.000000000000000e+00 0.000000000000000e+00
0.000000000000000e+00 0.000000000000000e+00 0.000000000000000e+00
0.000000000000000e+00 0.000000000000000e+00 0.000000000000000e+00
0.000000000000000e+00 0.000000000000000e+00 0.000000000000000e+00
0.000000000000000e+00 0.000000000000000e+00 0.000000000000000e+00
0.000000000000000e+00 0.000000000000000e+00 0.000000000000000e+00
0.000000000000000e+00 0.000000000000000e+00 0.000000000000000e+00
0.000000000000000e+00 0.000000000000000e+00 0.000000000000000e+00
0.000000000000000e+00 0.000000000000000e+00 0.000000000000000e+00
0.000000000000000e+00 0.000000000000000e+00 0.000000000000000e+00
0.000000000000000e+00 0.000000000000000e+00 0.000000000000000e+00
0.000000000000000e+00 0.000000000000000e+00 0.000000000000000e+00
0.000000000000000e+00 0.000000000000000e+00 0.000000000000000e+00
0.000000000000000e+00 0.000000000000000e+00 0.000000000000000e+00
0.000000000000000e+00 0.000000000000000e+00 0.000000000000000e+00
0.000000000000000e+00 0.000000000000000e+00 0.000000000000000e+00
0.000000000000000e+00 0.000000000000000e+00 0.000000000000000e+00
0.000000000000000e+00 0.000000000000000e+00 0.000000000000000e+00
0.000000000000000e+00 0.000000000000000e+00 0.000000000000000e+00
0.000000000000000e+00 0.000000000000000e+00 0.000000000000000e+00
0.000000000000000e+00 0.000000000000000e+00 0.000000000000000e+00
0.000000000000000e+00 0.000000000000000e+00 0.000000000000000e+00
0.000000000000000e+00 0.000000000000000e+00 0.000000000000000e+00
0.000000000000000e+00 0.000000000000000e+00 0.000000000000000e+00
0.000000000000000e+00 0.000000000000000e+00 0.000000000000000e+00
0.000000000000000e+00 0.000000000000000e+00 0.000000000000000e+00
0.000000000000000e+00 0.000000000000000e+00 0.000000000000000e+00
0.000000000000000e+00 0.000000000000000e+00 0.000000000000000e+00
0.000000000000000e+00 0.000000000000000e+00 0.000000000000000e+00
0.000000000000000e+00 0.000000000000000e+00 0.000000000000000e+00
0.000000000000000e+00 0.000000000000000e+00 0.000000000000000e+00
0.000000000000000e+00 0.000000000000000e+00 0.000000000000000e+00
0.000000000000000e+00 0.000000000000000e+00 0.000000000000000e+00
0.000000000000000e+00 0.000000000000000e+00 0.000000000000000e+00
0.000000000000000e+00 0.000000000000000e+00 0.000000000000000e+00
0.000000000000000e+00 0.000000000000000e+00 0.000000000000000e+00
0.000000000000000e+00 0.000000000000000e+00 0.000000000000000e+00
0.000000000000000e+00 0.000000000000000e+00 0.000000000000000e+00
0.000000000000000e+00 0.000000000000000e+00 0.000000000000000e+00
0.000000000000000e+00 0.000000000000000e+00 0.000000000000000e+00
0.000000000000000e+00 0.000000000000000e+00 0.000000000000000e+00
0.000000000000000e+00 0.000000000000000e+00 0.000000000000000e+00
0.000000000000000e+00 0.000000000000000e+00 0.000000000000000e+00
0.000000000000000e+00 0.000000000000000e+00 0.000000000000000e+00
0.000000000000000e+00 0.000000000000000e+00 0.000000000000000e+00
0.000000000000000e+00 0.000000000000000e+00 0.000000000000000e+00
0.000000000000000e+00 0.000000000000000e+00 0.000000000000000e+00
0.000000000000000e+00 0.000000000000000e+00 0.000000000000000e+00
0.000000000000000e+00 0.000000000000000e+00 0.000000000000000e+00
0.000000000000000e+00 0.000000000000000e+00 0.000000000000000e+00
0.000000000000000e+00 0.000000000000000e+00 0.000000000000000e+00
0.000000000000000e+00 0.000000000000000e+00 0.000000000000000e+00
0.000000000000000e+00 0.000000000000000e+00 0.000000000000000e+00
0.000000000000000e+00 0.000000000000000e+00 0.000000000000000e+00
0.000000000000000e+00 0.000000000000000e+00 0.000000000000000e+00
0.000000000000000e+00 0.000000000000000e+00 0.000000000000000e+00
0.000000000000000e+00 0.000000000000000e+00 0.000000000000000e+00
0.000000000000000e+00 0.000000000000000e+00 0.000000000000000e+00
0.000000000000000e+00 0.000000000000000e+00 0.000000000000000e+00
0.000000000000000e+00 0.000000000000000e+00 0.000000000000000e+00
0.000000000000000e+00 0.000000000000000e+00 0.000000000000000e+00
0.000000000000000e+00 0.000000000000000e+00 0.000000000000000e+00
0.000000000000000e+00 0.000000000000000e+00 0.000000000000000e+00
0.000000000000000e+00 0.000000000000000e+00 0.000000000000000e+00
0.000000000000000e+00 0.000000000000000e+00 0.000000000000000e+00
0.000000000000000e+00 0.000000000000000e+00 0.000000000000000e+00
0.000000000000000e+00 0.000000000000000e+00 0.000000000000000e+00
0.000000000000000e+00 0.000000000000000e+00 0.000000000000000e+00
0.000000000000000e+00 0.000000000000000e+00 0.000000000000000e+00
0.000000000000000e+00 0.000000000000000e+00 0.000000000000000e+00
0.000000000000000e+00 0.000000000000000e+00 0.000000000000000e+00
0.000000000000000e+00 0.000000000000000e+00 0.000000000000000e+00
0.000000000000000e+00 0.000000000000000e+00 0.000000000000000e+00
0.000000000000000e+00 0.000000000000000e+00 0.000000000000000e+00
0.000000000000000e+00 0.000000000000000e+00 0.000000000000000e+00
0.000000000000000e+00 0.000000000000000e+00 0.000000000000000e+00
0.000000000000000e+00 0.000000000000000e+00 0.000000000000000e+00
0.000000000000000e+00 0.000000000000000e+00 0.000000000000000e+00
0.000000000000000e+00 0.000000000000000e+00 0.000000000000000e+00
0.000000000000000e+00 0.000000000000000e+00 0.000000000000000e+00
0.000000000000000e+00 0.000000000000000e+00 0.000000000000000e+00
0.000000000000000e+00 0.000000000000000e+00 0.000000000000000e+00
0.000000000000000e+00 0.000000000000000e+00 0.000000000000000e+00
0.000000000000000e+00 0.000000000000000e+00 0.000000000000000e+00
0.000000000000000e+00 0.000000000000000e+00 0.000000000000000e+00
0.000000000000000e+00 0.000000000000000e+00 0.000000000000000e+00
0.000000000000000e+00 0.000000000000000e+00 0.000000000000000e+00
0.000000000000000e+00 0.000000000000000e+00 0.000000000000000e+00
0.000000000000000e+00 0.000000000000000e+00 0.000000000000000e+00
0.000000000000000e+00 0.000000000000000e+00 0.000000000000000e+00
0.000000000000000e+00 0.000000000000000e+00 0.000000000000000e+00
0.000000000000000e+00 0.000000000000000e+00 0.000000000000000e+00
0.000000000000000e+00 0.000000000000000e+00 0.000000000000000e+00
0.000000000000000e+00 0.000000000000000e+00 0.000000000000000e+00
0.000000000000000e+00 0.000000000000000e+00 0.000000000000000e+00
0.000000000000000e+00 0.000000000000000e+00 0.000000000000000e+00
0.000000000000000e+00 0.000000000000000e+00 0.000000000000000e+00
0.000000000000000e+00 0.000000000000000e+00 0.000000000000000e+00
0.000000000000000e+00 0.000000000000000e+00 0.000000000000000e+00
0.000000000000000e+00 0.000000000000000e+00 0.000000000000000e+00
0.000000000000000e+00 0.000000000000000e+00 0.000000000000000e+00
0.000000000000000e+00 0.000000000000000e+00 0.000000000000000e+00
0.000000000000000e+00 0.000000000000000e+00 0.000000000000000e+00
0.000000000000000e+00 0.000000000000000e+00 0.000000000000000e+00
0.000000000000000e+00 0.000000000000000e+00 0.000000000000000e+00
0.000000000000000e+00 0.000000000000000e+00 0.000000000000000e+00
0.000000000000000e+00 0.000000000000000e+00 0.000000000000000e+00
0.000000000000000e+00 0.000000000000000e+00 0.000000000000000e+00
0.000000000000000e+00 0.000000000000000e+00 0.000000000000000e+00
0.000000000000000e+00 0.000000000000000e+00 0.000000000000000e+00
0.000000000000000e+00 0.000000000000000e+00 0.000000000000000e+00
0.000000000000000e+00 0.000000000000000e+00 0.000000000000000e+00
0.000000000000000e+00 0.000000000000000e+00 0.000000000000000e+00
0.000000000000000e+00 0.000000000000000e+00 0.000000000000000e+00
0.000000000000000e+00 0.000000000000000e+00 0.000000000000000e+00
0.000000000000000e+00 0.000000000000000e+00 0.000000000000000e+00
0.000000000000000e+00 0.000000000000000e+00 0.000000000000000e+00
0.000000000000000e+00 0.000000000000000e+00 0.000000000000000e+00
0.000000000000000e+00 0.000000000000000e+00 0.000000000000000e+00
0.000000000000000e+00 0.000000000000000e+00 0.000000000000000e+00
0.000000000000000e+00 0.000000000000000e+00 0.000000000000000e+00
0.000000000000000e+00 0.000000000000000e+00 0.000000000000000e+00
0.000000000000000e+00 0.000000000000000e+00 0.000000000000000e+00
0.000000000000000e+00 0.000000000000000e+00 0.000000000000000e+00
0.000000000000000e+00 0.000000000000000e+00 0.000000000000000e+00
0.000000000000000e+00 0.000000000000000e+00 0.000000000000000e+00
0.000000000000000e+00 0.000000000000000e+00 0.000000000000000e+00
0.000000000000000e+00 0.000000000000000e+00 0.000000000000000e+00
0.000000000000000e+00 0.000000000000000e+00 0.000000000000000e+00
0.000000000000000e+00 0.000000000000000e+00 0.000000000000000e+00
0.000000000000000e+00 0.000000000000000e+00 0.000000000000000e+00
0.000000000000000e+00 0.000000000000000e+00 0.000000000000000e+00
0.000000000000000e+00 0.000000000000000e+00 0.000000000000000e+00
0.000000000000000e+00 0.000000000000000e+00 0.000000000000000e+00
0.000000000000000e+00 0.000000000000000e+00 0.000000000000000e+00
0.000000000000000e+00 0.000000000000000e+00 0.000000000000000e+00
0.000000000000000e+00 0.000000000000000e+00 0.000000000000000e+00
0.000000000000000e+00 0.000000000000000e+00 0.000000000000000e+00
0.000000000000000e+00 0.000000000000000e+00 0.000000000000000e+00
0.000000000000000e+00 0.000000000000000e+00 0.000000000000000e+00
0.000000000000000e+00 0.000000000000000e+00 0.000000000000000e+00
0.000000000000000e+00 0.000000000000000e+00 0.000000000000000e+00
0.000000000000000e+00 0.000000000000000e+00 0.000000000000000e+00
0.000000000000000e+00 0.000000000000000e+00 0.000000000000000e+00
0.000000000000000e+00 0.000000000000000e+00 0.000000000000000e+00
0.000000000000000e+00 0.000000000000000e+00 0.000000000000000e+00
0.000000000000000e+00 0.000000000000000e+00 0.000000000000000e+00
0.000000000000000e+00 0.000000000000000e+00 0.000000000000000e+00
0.000000000000000e+00 0.000000000000000e+00 0.000000000000000e+00
0.000000000000000e+00 0.000000000000000e+00 0.000000000000000e+00
0.000000000000000e+00 0.000000000000000e+00 0.000000000000000e+00
0.000000000000000e+00 0.000000000000000e+00 0.000000000000000e+00
0.000000000000000e+00 0.000000000000000e+00 0.000000000000000e+00
0.000000000000000e+00 0.000000000000000e+00 0.000000000000000e+00
0.000000000000000e+00 0.000000000000000e+00 0.000000000000000e+00
0.000000000000000e+00 0.000000000000000e+00 0.000000000000000e+00
0.000000000000000e+00 0.000000000000000e+00 0.000000000000000e+00
0.000000000000000e+00 0.000000000000000e+00 0.000000000000000e+00
0.000000000000000e+00 0.000000000000000e+00 0.000000000000000e+00
0.000000000000000e+00 0.000000000000000e+00 0.000000000000000e+00
0.000000000000000e+00 0.000000000000000e+00 0.000000000000000e+00
0.000000000000000e+00 0.000000000000000e+00 0.000000000000000e+00
0.000000000000000e+00 0.000000000000000e+00 0.000000000000000e+00
0.000000000000000e+00 0.000000000000000e+00 0.000000000000000e+00
0.000000000000000e+00 0.000000000000000e+00 0.000000000000000e+00
0.000000000000000e+00 0.000000000000000e+00 0.000000000000000e+00
0.000000000000000e+00 0.000000000000000e+00 0.000000000000000e+00
0.000000000000000e+00 0.000000000000000e+00 0.000000000000000e+00
0.000000000000000e+00 0.000000000000000e+00 0.000000000000000e+00
0.000000000000000e+00 0.000000000000000e+00 0.000000000000000e+00
0.000000000000000e+00 0.000000000000000e+00 0.000000000000000e+00
0.000000000000000e+00 0.000000000000000e+00 0.000000000000000e+00
0.000000000000000e+00 0.000000000000000e+00 0.000000000000000e+00
0.000000000000000e+00 0.000000000000000e+00 0.000000000000000e+00
0.000000000000000e+00 0.000000000000000e+00 0.000000000000000e+00
0.000000000000000e+00 0.000000000000000e+00 0.000000000000000e+00
0.000000000000000e+00 0.000000000000000e+00 0.000000000000000e+00
0.000000000000000e+00 0.000000000000000e+00 0.000000000000000e+00
0.000000000000000e+00 0.000000000000000e+00 0.000000000000000e+00
0.000000000000000e+00 0.000000000000000e+00 0.000000000000000e+00
0.000000000000000e+00 0.000000000000000e+00 0.000000000000000e+00
0.000000000000000e+00 0.000000000000000e+00 0.000000000000000e+00
0.000000000000000e+00 0.000000000000000e+00 0.000000000000000e+00
0.000000000000000e+00 0.000000000000000e+00 0.000000000000000e+00
0.000000000000000e+00 0.000000000000000e+00 0.000000000000000e+00
0.000000000000000e+00 0.000000000000000e+00 0.000000000000000e+00
0.000000000000000e+00 0.000000000000000e+00 0.000000000000000e+00
0.000000000000000e+00 0.000000000000000e+00 0.000000000000000e+00
0.000000000000000e+00 0.000000000000000e+00 0.000000000000000e+00
0.000000000000000e+00 0.000000000000000e+00 0.000000000000000e+00
0.000000000000000e+00 0.000000000000000e+00 0.000000000000000e+00
0.000000000000000e+00 0.000000000000000e+00 0.000000000000000e+00
0.000000000000000e+00 0.000000000000000e+00 0.000000000000000e+00
0.000000000000000e+00 0.000000000000000e+00 0.000000000000000e+00
0.000000000000000e+00 0.000000000000000e+00 0.000000000000000e+00
0.000000000000000e+00 0.000000000000000e+00 0.000000000000000e+00
0.000000000000000e+00 0.000000000000000e+00 0.000000000000000e+00
0.000000000000000e+00 0.000000000000000e+00 0.000000000000000e+00
0.000000000000000e+00 0.000000000000000e+00 0.000000000000000e+00
0.000000000000000e+00 0.000000000000000e+00 0.000000000000000e+00
0.000000000000000e+00 0.000000000000000e+00 0.000000000000000e+00
0.000000000000000e+00 0.000000000000000e+00 0.000000000000000e+00
0.000000000000000e+00 0.000000000000000e+00 0.000000000000000e+00
0.000000000000000e+00 0.000000000000000e+00 0.000000000000000e+00
0.000000000000000e+00 0.000000000000000e+00 0.000000000000000e+00
0.000000000000000e+00 0.000000000000000e+00 0.000000000000000e+00
0.000000000000000e+00 0.000000000000000e+00 0.000000000000000e+00
0.000000000000000e+00 0.000000000000000e+00 0.000000000000000e+00
0.000000000000000e+00 0.000000000000000e+00 0.000000000000000e+00
0.000000000000000e+00 0.000000000000000e+00 0.000000000000000e+00
0.000000000000000e+00 0.000000000000000e+00 0.000000000000000e+00
0.000000000000000e+00 0.000000000000000e+00 0.000000000000000e+00
0.000000000000000e+00 0.000000000000000e+00 0.000000000000000e+00
0.000000000000000e+00 0.000000000000000e+00 0.000000000000000e+00
0.000000000000000e+00 0.000000000000000e+00 0.000000000000000e+00
0.000000000000000e+00 0.000000000000000e+00 0.000000000000000e+00
0.000000000000000e+00 0.000000000000000e+00 0.000000000000000e+00
0.000000000000000e+00 0.000000000000000e+00 0.000000000000000e+00
0.000000000000000e+00 0.000000000000000e+00 0.000000000000000e+00
0.000000000000000e+00 0.000000000000000e+00 0.000000000000000e+00
0.000000000000000e+00 0.000000000000000e+00 0.000000000000000e+00
0.000000000000000e+00 0.000000000000000e+00 0.000000000000000e+00
0.000000000000000e+00 0.000000000000000e+00 0.000000000000000e+00
0.000000000000000e+00 0.000000000000000e+00 0.000000000000000e+00
0.000000000000000e+00 0.000000000000000e+00 0.000000000000000e+00
0.000000000000000e+00 0.000000000000000e+00 0.000000000000000e+00
0.000000000000000e+00 0.000000000000000e+00 0.000000000000000e+00
0.000000000000000e+00 0.000000000000000e+00 0.000000000000000e+00
0.000000000000000e+00 0.000000000000000e+00 0.000000000000000e+00
0.000000000000000e+00 0.000000000000000e+00 0.000000000000000e+00
0.000000000000000e+00 0.000000000000000e+00 0.000000000000000e+00
0.000000000000000e+00 0.000000000000000e+00 0.000000000000000e+00
0.000000000000000e+00 0.000000000000000e+00 0.000000000000000e+00
0.000000000000000e+00 0.000000000000000e+00 0.000000000000000e+00
0.000000000000000e+00 0.000000000000000e+00 0.000000000000000e+00
0.000000000000000e+00 0.000000000000000e+00 0.000000000000000e+00
0.000000000000000e+00 0.000000000000000e+00 0.000000000000000e+00
0.000000000000000e+00 0.000000000000000e+00 0.000000000000000e+00
0.000000000000000e+00 0.000000000000000e+00 0.000000000000000e+00
0.000000000000000e+00 0.000000000000000e+00 0.000000000000000e+00
0.000000000000000e+00 0.000000000000000e+00 0.000000000000000e+00
0.000000000000000e+00 0.000000000000000e+00 0.000000000000000e+00
0.000000000000000e+00 0.000000000000000e+00 0.000000000000000e+00
0.000000000000000e+00 0.000000000000000e+00 0.000000000000000e+00
0.000000000000000e+00 0.000000000000000e+00 0.000000000000000e+00
0.000000000000000e+00 0.000000000000000e+00 0.000000000000000e+00
0.000000000000000e+00 0.000000000000000e+00 0.000000000000000e+00
0.000000000000000e+00 0.000000000000000e+00 0.000000000000000e+00
0.000000000000000e+00 0.000000000000000e+00 0.000000000000000e+00
0.000000000000000e+00 0.000000000000000e+00 0.000000000000000e+00
0.000000000000000e+00 0.000000000000000e+00 0.000000000000000e+00
0.000000000000000e+00 0.000000000000000e+00 0.000000000000000e+00
0.000000000000000e+00 0.000000000000000e+00 0.000000000000000e+00
0.000000000000000e+00 0.000000000000000e+00 0.000000000000000e+00
0.000000000000000e+00 0.000000000000000e+00 0.000000000000000e+00
0.000000000000000e+00 0.000000000000000e+00 0.000000000000000e+00
0.000000000000000e+00 0.000000000000000e+00 0.000000000000000e+00
0.000000000000000e+00 0.000000000000000e+00 0.000000000000000e+00
0.000000000000000e+00 0.000000000000000e+00 0.000000000000000e+00
0.000000000000000e+00 0.000000000000000e+00 0.000000000000000e+00
0.000000000000000e+00 0.000000000000000e+00 0.000000000000000e+00
0.000000000000000e+00 0.000000000000000e+00 0.000000000000000e+00
0.000000000000000e+00 0.000000000000000e+00 0.000000000000000e+00
0.000000000000000e+00 0.000000000000000e+00 0.000000000000000e+00
0.000000000000000e+00 0.000000000000000e+00 0.000000000000000e+00
0.000000000000000e+00 0.000000000000000e+00 0.000000000000000e+00
0.000000000000000e+00 0.000000000000000e+00 0.000000000000000e+00
0.000000000000000e+00 0.000000000000000e+00 0.000000000000000e+00
0.000000000000000e+00 0.000000000000000e+00 0.000000000000000e+00
0.000000000000000e+00 0.000000000000000e+00 0.000000000000000e+00
0.000000000000000e+00 0.000000000000000e+00 0.000000000000000e+00
0.000000000000000e+00 0.000000000000000e+00 0.000000000000000e+00
0.000000000000000e+00 0.000000000000000e+00 0.000000000000000e+00
0.000000000000000e+00 0.000000000000000e+00 0.000000000000000e+00
0.000000000000000e+00 0.000000000000000e+00 0.000000000000000e+00
0.000000000000000e+00 0.000000000000000e+00 0.000000000000000e+00
0.000000000000000e+00 0.000000000000000e+00 0.000000000000000e+00
0.000000000000000e+00 0.000000000000000e+00 0.000000000000000e+00
0.000000000000000e+00 0.000000000000000e+00 0.000000000000000e+00
0.000000000000000e+00 0.000000000000000e+00 0.000000000000000e+00
0.000000000000000e+00 0.000000000000000e+00 0.000000000000000e+00
0.000000000000000e+00 0.000000000000000e+00 0.000000000000000e+00
0.000000000000000e+00 0.000000000000000e+00 0.000000000000000e+00
0.000000000000000e+00 0.000000000000000e+00 0.000000000000000e+00
0.000000000000000e+00 0.000000000000000e+00 0.000000000000000e+00
0.000000000000000e+00 0.000000000000000e+00 0.000000000000000e+00
0.000000000000000e+00 0.000000000000000e+00 0.000000000000000e+00
0.000000000000000e+00 0.000000000000000e+00 0.000000000000000e+00
0.000000000000000e+00 0.000000000000000e+00 0.000000000000000e+00
0.000000000000000e+00 0.000000000000000e+00 0.000000000000000e+00
0.000000000000000e+00 0.000000000000000e+00 0.000000000000000e+00
0.000000000000000e+00 0.000000000000000e+00 0.000000000000000e+00
0.000000000000000e+00 0.000000000000000e+00 0.000000000000000e+00
0.000000000000000e+00 0.000000000000000e+00 0.000000000000000e+00
0.000000000000000e+00 0.000000000000000e+00 0.000000000000000e+00
0.000000000000000e+00 0.000000000000000e+00 0.000000000000000e+00
0.000000000000000e+00 0.000000000000000e+00 0.000000000000000e+00
0.000000000000000e+00 0.000000000000000e+00 0.000000000000000e+00
0.000000000000000e+00 0.000000000000000e+00 0.000000000000000e+00
0.000000000000000e+00 0.000000000000000e+00 0.000000000000000e+00
0.000000000000000e+00 0.000000000000000e+00 0.000000000000000e+00
0.000000000000000e+00 0.000000000000000e+00 0.000000000000000e+00
0.000000000000000e+00 0.000000000000000e+00 0.000000000000000e+00
0.000000000000000e+00 0.000000000000000e+00 0.000000000000000e+00
0.000000000000000e+00 0.000000000000000e+00 0.000000000000000e+00
0.000000000000000e+00 0.000000000000000e+00 0.000000000000000e+00
0.000000000000000e+00 0.000000000000000e+00 0.000000000000000e+00
0.000000000000000e+00 0.000000000000000e+00 0.000000000000000e+00
0.000000000000000e+00 0.000000000000000e+00 0.000000000000000e+00
0.000000000000000e+00 0.000000000000000e+00 0.000000000000000e+00
0.000000000000000e+00 0.000000000000000e+00 0.000000000000000e+00
0.000000000000000e+00 0.000000000000000e+00 0.000000000000000e+00
0.000000000000000e+00 0.000000000000000e+00 0.000000000000000e+00
0.000000000000000e+00 0.000000000000000e+00 0.000000000000000e+00
0.000000000000000e+00 0.000000000000000e+00 0.000000000000000e+00
0.000000000000000e+00 0.000000000000000e+00 0.000000000000000e+00
0.000000000000000e+00 0.000000000000000e+00 0.000000000000000e+00
0.000000000000000e+00 0.000000000000000e+00 0.000000000000000e+00
0.000000000000000e+00 0.000000000000000e+00 0.000000000000000e+00
0.000000000000000e+00 0.000000000000000e+00 0.000000000000000e+00
0.000000000000000e+00 0.000000000000000e+00 0.000000000000000e+00
0.000000000000000e+00 0.000000000000000e+00 0.000000000000000e+00
0.000000000000000e+00 0.000000000000000e+00 0.000000000000000e+00
0.000000000000000e+00 0.000000000000000e+00 0.000000000000000e+00
0.000000000000000e+00 0.000000000000000e+00 0.000000000000000e+00
0.000000000000000e+00 0.000000000000000e+00 0.000000000000000e+00
0.000000000000000e+00 0.000000000000000e+00 0.000000000000000e+00
0.000000000000000e+00 0.000000000000000e+00 0.000000000000000e+00
0.000000000000000e+00 0.000000000000000e+00 0.000000000000000e+00
0.000000000000000e+00 0.000000000000000e+00 0.000000000000000e+00
0.000000000000000e+00 0.000000000000000e+00 0.000000000000000e+00
0.000000000000000e+00 0.000000000000000e+00 0.000000000000000e+00
0.000000000000000e+00 0.000000000000000e+00 0.000000000000000e+00
0.000000000000000e+00 0.000000000000000e+00 0.000000000000000e+00
0.000000000000000e+00 0.000000000000000e+00 0.000000000000000e+00
0.000000000000000e+00 0.000000000000000e+00 0.000000000000000e+00
0.000000000000000e+00 0.000000000000000e+00 0.000000000000000e+00
0.000000000000000e+00 0.000000000000000e+00 0.000000000000000e+00
0.000000000000000e+00 0.000000000000000e+00 0.000000000000000e+00
0.000000000000000e+00 0.000000000000000e+00 0.000000000000000e+00
0.000000000000000e+00 0.000000000000000e+00 0.000000000000000e+00
0.000000000000000e+00 0.000000000000000e+00 0.000000000000000e+00
0.000000000000000e+00 0.000000000000000e+00 0.000000000000000e+00
0.000000000000000e+00 0.000000000000000e+00 0.000000000000000e+00
0.000000000000000e+00 0.000000000000000e+00 0.000000000000000e+00
0.000000000000000e+00 0.000000000000000e+00 0.000000000000000e+00
0.000000000000000e+00 0.000000000000000e+00 0.000000000000000e+00
0.000000000000000e+00 0.000000000000000e+00 0.000000000000000e+00
0.000000000000000e+00 0.000000000000000e+00 0.000000000000000e+00
0.000000000000000e+00 0.000000000000000e+00 0.000000000000000e+00
0.000000000000000e+00 0.000000000000000e+00 0.000000000000000e+00
0.000000000000000e+00 0.000000000000000e+00 0.000000000000000e+00
0.000000000000000e+00 0.000000000000000e+00 0.000000000000000e+00
0.000000000000000e+00 0.000000000000000e+00 0.000000000000000e+00
0.000000000000000e+00 0.000000000000000e+00 0.000000000000000e+00
0.000000000000000e+00 0.000000000000000e+00 0.000000000000000e+00
0.000000000000000e+00 0.000000000000000e+00 0.000000000000000e+00
0.000000000000000e+00 0.000000000000000e+00 0.000000000000000e+00
0.000000000000000e+00 0.000000000000000e+00 0.000000000000000e+00
0.000000000000000e+00 0.000000000000000e+00 0.000000000000000e+00
0.000000000000000e+00 0.000000000000000e+00 0.000000000000000e+00
0.000000000000000e+00 0.000000000000000e+00 0.000000000000000e+00
0.000000000000000e+00 0.000000000000000e+00 0.000000000000000e+00
0.000000000000000e+00 0.000000000000000e+00 0.000000000000000e+00
0.000000000000000e+00 0.000000000000000e+00 0.000000000000000e+00
0.000000000000000e+00 0.000000000000000e+00 0.000000000000000e+00
0.000000000000000e+00 0.000000000000000e+00 0.000000000000000e+00
0.000000000000000e+00 0.000000000000000e+00 0.000000000000000e+00
0.000000000000000e+00 0.000000000000000e+00 0.000000000000000e+00
0.000000000000000e+00 0.000000000000000e+00 0.000000000000000e+00
0.000000000000000e+00 0.000000000000000e+00 0.000000000000000e+00
0.000000000000000e+00 0.000000000000000e+00 0.000000000000000e+00
0.000000000000000e+00 0.000000000000000e+00 0.000000000000000e+00
0.000000000000000e+00 0.000000000000000e+00 0.000000000000000e+00
0.000000000000000e+00 0.000000000000000e+00 0.000000000000000e+00
0.000000000000000e+00 0.000000000000000e+00 0.000000000000000e+00
0.000000000000000e+00 0.000000000000000e+00 0.000000000000000e+00
0.000000000000000e+00 0.000000000000000e+00 0.000000000000000e+00
0.000000000000000e+00 0.000000000000000e+00 0.000000000000000e+00
0.000000000000000e+00 0.000000000000000e+00 0.000000000000000e+00
0.000000000000000e+00 0.000000000000000e+00 0.000000000000000e+00
0.000000000000000e+00 0.000000000000000e+00 0.000000000000000e+00
0.000000000000000e+00 0.000000000000000e+00 0.000000000000000e+00
0.000000000000000e+00 0.000000000000000e+00 0.000000000000000e+00
0.000000000000000e+00 0.000000000000000e+00 0.000000000000000e+00
0.000000000000000e+00 0.000000000000000e+00 0.000000000000000e+00
0.000000000000000e+00 0.000000000000000e+00 0.000000000000000e+00
0.000000000000000e+00 0.000000000000000e+00 0.000000000000000e+00
0.000000000000000e+00 0.000000000000000e+00 0.000000000000000e+00
0.000000000000000e+00 0.000000000000000e+00 0.000000000000000e+00
0.000000000000000e+00 0.000000000000000e+00 0.000000000000000e+00
0.000000000000000e+00 0.000000000000000e+00 0.000000000000000e+00
0.000000000000000e+00 0.000000000000000e+00 0.000000000000000e+00
0.000000000000000e+00 0.000000000000000e+00 0.000000000000000e+00
0.000000000000000e+00 0.000000000000000e+00 0.000000000000000e+00
0.000000000000000e+00 0.000000000000000e+00 0.000000000000000e+00
0.000000000000000e+00 0.000000000000000e+00 0.000000000000000e+00
0.000000000000000e+00 0.000000000000000e+00 0.000000000000000e+00
0.000000000000000e+00 0.000000000000000e+00 0.000000000000000e+00
0.000000000000000e+00 0.000000000000000e+00 0.000000000000000e+00
0.000000000000000e+00 0.000000000000000e+00 0.000000000000000e+00
0.000000000000000e+00 0.000000000000000e+00 0.000000000000000e+00
0.000000000000000e+00 0.000000000000000e+00 0.000000000000000e+00
0.000000000000000e+00 0.000000000000000e+00 0.000000000000000e+00
0.000000000000000e+00 0.000000000000000e+00 0.000000000000000e+00
0.000000000000000e+00 0.000000000000000e+00 0.000000000000000e+00
0.000000000000000e+00 0.000000000000000e+00 0.000000000000000e+00
0.000000000000000e+00 0.000000000000000e+00 0.000000000000000e+00
0.000000000000000e+00 0.000000000000000e+00 0.000000000000000e+00
0.000000000000000e+00 0.000000000000000e+00 0.000000000000000e+00
0.000000000000000e+00 0.000000000000000e+00 0.000000000000000e+00
0.000000000000000e+00 0.000000000000000e+00 0.000000000000000e+00
0.000000000000000e+00 0.000000000000000e+00 0.000000000000000e+00
0.000000000000000e+00 0.000000000000000e+00 0.000000000000000e+00
0.000000000000000e+00 0.000000000000000e+00 0.000000000000000e+00
0.000000000000000e+00 0.000000000000000e+00 0.000000000000000e+00
0.000000000000000e+00 0.000000000000000e+00 0.000000000000000e+00
0.000000000000000e+00 0.000000000000000e+00 0.000000000000000e+00
0.000000000000000e+00 0.000000000000000e+00 0.000000000000000e+00
0.000000000000000e+00 0.000000000000000e+00 0.000000000000000e+00
0.000000000000000e+00 0.000000000000000e+00 0.000000000000000e+00
0.000000000000000e+00 0.000000000000000e+00 0.000000000000000e+00
0.000000000000000e+00 0.000000000000000e+00 0.000000000000000e+00
0.000000000000000e+00 0.000000000000000e+00 0.000000000000000e+00
0.000000000000000e+00 0.000000000000000e+00 0.000000000000000e+00
0.000000000000000e+00 0.000000000000000e+00 0.000000000000000e+00
0.000000000000000e+00 0.000000000000000e+00 0.000000000000000e+00
0.000000000000000e+00 0.000000000000000e+00 0.000000000000000e+00
0.000000000000000e+00 0.000000000000000e+00 0.000000000000000e+00
0.000000000000000e+00 0.000000000000000e+00 0.000000000000000e+00
0.000000000000000e+00 0.000000000000000e+00 0.000000000000000e+00
0.000000000000000e+00 0.000000000000000e+00 0.000000000000000e+00
0.000000000000000e+00 0.000000000000000e+00 0.000000000000000e+00
0.000000000000000e+00 0.000000000000000e+00 0.000000000000000e+00
0.000000000000000e+00 0.000000000000000e+00 0.000000000000000e+00
0.000000000000000e+00 0.000000000000000e+00 0.000000000000000e+00
0.000000000000000e+00 0.000000000000000e+00 0.000000000000000e+00
0.000000000000000e+00 0.000000000000000e+00 0.000000000000000e+00
0.000000000000000e+00 0.000000000000000e+00 0.000000000000000e+00
0.000000000000000e+00 0.000000000000000e+00 0.000000000000000e+00
0.000000000000000e+00 0.000000000000000e+00 0.000000000000000e+00
0.000000000000000e+00 0.000000000000000e+00 0.000000000000000e+00
0.000000000000000e+00 0.000000000000000e+00 0.000000000000000e+00
0.000000000000000e+00 0.000000000000000e+00 0.000000000000000e+00
0.000000000000000e+00 0.000000000000000e+00 0.000000000000000e+00
0.000000000000000e+00 0.000000000000000e+00 0.000000000000000e+00
0.000000000000000e+00 0.000000000000000e+00 0.000000000000000e+00
0.000000000000000e+00 0.000000000000000e+00 0.000000000000000e+00
0.000000000000000e+00 0.000000000000000e+00 0.000000000000000e+00
0.000000000000000e+00 0.000000000000000e+00 0.000000000000000e+00
0.000000000000000e+00 0.000000000000000e+00 0.000000000000000e+00
0.000000000000000e+00 0.000000000000000e+00 0.000000000000000e+00
0.000000000000000e+00 0.000000000000000e+00 0.000000000000000e+00
0.000000000000000e+00 0.000000000000000e+00 0.000000000000000e+00
0.000000000000000e+00 0.000000000000000e+00 0.000000000000000e+00
0.000000000000000e+00 0.000000000000000e+00 0.000000000000000e+00
0.000000000000000e+00 0.000000000000000e+00 0.000000000000000e+00
0.000000000000000e+00 0.000000000000000e+00 0.000000000000000e+00
0.000000000000000e+00 0.000000000000000e+00 0.000000000000000e+00
0.000000000000000e+00 0.000000000000000e+00 0.000000000000000e+00
0.000000000000000e+00 0.000000000000000e+00 0.000000000000000e+00
0.000000000000000e+00 0.000000000000000e+00 0.000000000000000e+00
0.000000000000000e+00 0.000000000000000e+00 0.000000000000000e+00
0.000000000000000e+00 0.000000000000000e+00 0.000000000000000e+00
0.000000000000000e+00 0.000000000000000e+00 0.000000000000000e+00
0.000000000000000e+00 0.000000000000000e+00 0.000000000000000e+00
0.000000000000000e+00 0.000000000000000e+00 0.000000000000000e+00
0.000000000000000e+00 0.000000000000000e+00 0.000000000000000e+00
0.000000000000000e+00 0.000000000000000e+00 0.000000000000000e+00
0.000000000000000e+00 0.000000000000000e+00 0.000000000000000e+00
0.000000000000000e+00 0.000000000000000e+00 0.000000000000000e+00
0.000000000000000e+00 0.000000000000000e+00 0.000000000000000e+00
0.000000000000000e+00 0.000000000000000e+00 0.000000000000000e+00
0.000000000000000e+00 0.000000000000000e+00 0.000000000000000e+00
0.000000000000000e+00 0.000000000000000e+00 0.000000000000000e+00
0.000000000000000e+00 0.000000000000000e+00 0.000000000000000e+00
0.000000000000000e+00 0.000000000000000e+00 0.000000000000000e+00
0.000000000000000e+00 0.000000000000000e+00 0.000000000000000e+00
0.000000000000000e+00 0.000000000000000e+00 0.000000000000000e+00
0.000000000000000e+00 0.000000000000000e+00 0.000000000000000e+00
0.000000000000000e+00 0.000000000000000e+00 0.000000000000000e+00
0.000000000000000e+00 0.000000000000000e+00 0.000000000000000e+00
0.000000000000000e+00 0.000000000000000e+00 0.000000000000000e+00
0.000000000000000e+00 0.000000000000000e+00 0.000000000000000e+00
0.000000000000000e+00 0.000000000000000e+00 0.000000000000000e+00
0.000000000000000e+00 0.000000000000000e+00 0.000000000000000e+00
0.000000000000000e+00 0.000000000000000e+00 0.000000000000000e+00
0.000000000000000e+00 0.000000000000000e+00 0.000000000000000e+00
0.000000000000000e+00 0.000000000000000e+00 0.000000000000000e+00
0.000000000000000e+00 0.000000000000000e+00 0.000000000000000e+00
0.000000000000000e+00 0.000000000000000e+00 0.000000000000000e+00
0.000000000000000e+00 0.000000000000000e+00 0.000000000000000e+00
0.000000000000000e+00 0.000000000000000e+00 0.000000000000000e+00
0.000000000000000e+00 0.000000000000000e+00 0.000000000000000e+00
0.000000000000000e+00 0.000000000000000e+00 0.000000000000000e+00
0.000000000000000e+00 0.000000000000000e+00 0.000000000000000e+00
0.000000000000000e+00 0.000000000000000e+00 0.000000000000000e+00
0.000000000000000e+00 0.000000000000000e+00 0.000000000000000e+00
0.000000000000000e+00 0.000000000000000e+00 0.000000000000000e+00
0.000000000000000e+00 0.000000000000000e+00 0.000000000000000e+00
0.000000000000000e+00 0.000000000000000e+00 0.000000000000000e+00
0.000000000000000e+00 0.000000000000000e+00 0.000000000000000e+00
0.000000000000000e+00 0.000000000000000e+00 0.000000000000000e+00
0.000000000000000e+00 0.000000000000000e+00 0.000000000000000e+00
0.000000000000000e+00 0.000000000000000e+00 0.000000000000000e+00
0.000000000000000e+00 0.000000000000000e+00 0.000000000000000e+00
0.000000000000000e+00 0.000000000000000e+00 0.000000000000000e+00
0.000000000000000e+00 0.000000000000000e+00 0.000000000000000e+00
0.000000000000000e+00 0.000000000000000e+00 0.000000000000000e+00
0.000000000000000e+00 0.000000000000000e+00 0.000000000000000e+00
0.000000000000000e+00 0.000000000000000e+00 0.000000000000000e+00
0.000000000000000e+00 0.000000000000000e+00 0.000000000000000e+00
0.000000000000000e+00 0.000000000000000e+00 0.000000000000000e+00
0.000000000000000e+00 0.000000000000000e+00 0.000000000000000e+00
0.000000000000000e+00 0.000000000000000e+00 0.000000000000000e+00
0.000000000000000e+00 0.000000000000000e+00 0.000000000000000e+00
0.000000000000000e+00 0.000000000000000e+00 0.000000000000000e+00
0.000000000000000e+00 0.000000000000000e+00 0.000000000000000e+00
0.000000000000000e+00 0.000000000000000e+00 0.000000000000000e+00
0.000000000000000e+00 0.000000000000000e+00 0.000000000000000e+00
0.000000000000000e+00 0.000000000000000e+00 0.000000000000000e+00
0.000000000000000e+00 0.000000000000000e+00 0.000000000000000e+00
0.000000000000000e+00 0.000000000000000e+00 0.000000000000000e+00
0.000000000000000e+00 0.000000000000000e+00 0.000000000000000e+00
0.000000000000000e+00 0.000000000000000e+00 0.000000000000000e+00
0.000000000000000e+00 0.000000000000000e+00 0.000000000000000e+00
0.000000000000000e+00 0.000000000000000e+00 0.000000000000000e+00
0.000000000000000e+00 0.000000000000000e+00 0.000000000000000e+00
0.000000000000000e+00 0.000000000000000e+00 0.000000000000000e+00
0.000000000000000e+00 0.000000000000000e+00 0.000000000000000e+00
0.000000000000000e+00 0.000000000000000e+00 0.000000000000000e+00
0.000000000000000e+00 0.000000000000000e+00 0.000000000000000e+00
0.000000000000000e+00 0.000000000000000e+00 0.000000000000000e+00
0.000000000000000e+00 0.000000000000000e+00 0.000000000000000e+00
0.000000000000000e+00 0.000000000000000e+00 0.000000000000000e+00
0.000000000000000e+00 0.000000000000000e+00 0.000000000000000e+00
0.000000000000000e+00 0.000000000000000e+00 0.000000000000000e+00
0.000000000000000e+00 0.000000000000000e+00 0.000000000000000e+00
0.000000000000000e+00 0.000000000000000e+00 0.000000000000000e+00
0.000000000000000e+00 0.000000000000000e+00 0.000000000000000e+00
0.000000000000000e+00 0.000000000000000e+00 0.000000000000000e+00
0.000000000000000e+00 0.000000000000000e+00 0.000000000000000e+00
0.000000000000000e+00 0.000000000000000e+00 0.000000000000000e+00
0.000000000000000e+00 0.000000000000000e+00 0.000000000000000e+00
0.000000000000000e+00 0.000000000000000e+00 0.000000000000000e+00
0.000000000000000e+00 0.000000000000000e+00 0.000000000000000e+00
0.000000000000000e+00 0.000000000000000e+00 0.000000000000000e+00
0.000000000000000e+00 0.000000000000000e+00 0.000000000000000e+00
0.000000000000000e+00 0.000000000000000e+00 0.000000000000000e+00
0.000000000000000e+00 0.000000000000000e+00 0.000000000000000e+00
0.000000000000000e+00 0.000000000000000e+00 0.000000000000000e+00
0.000000000000000e+00 0.000000000000000e+00 0.000000000000000e+00
0.000000000000000e+00 0.000000000000000e+00 0.000000000000000e+00
0.000000000000000e+00 0.000000000000000e+00 0.000000000000000e+00
0.000000000000000e+00 0.000000000000000e+00 0.000000000000000e+00
0.000000000000000e+00 0.000000000000000e+00 0.000000000000000e+00
0.000000000000000e+00 0.000000000000000e+00 0.000000000000000e+00
0.000000000000000e+00 0.000000000000000e+00 0.000000000000000e+00
0.000000000000000e+00 0.000000000000000e+00 0.000000000000000e+00
0.000000000000000e+00 0.000000000000000e+00 0.000000000000000e+00
0.000000000000000e+00 0.000000000000000e+00 0.000000000000000e+00
0.000000000000000e+00 0.000000000000000e+00 0.000000000000000e+00
0.000000000000000e+00 0.000000000000000e+00 0.000000000000000e+00
0.000000000000000e+00 0.000000000000000e+00 0.000000000000000e+00
0.000000000000000e+00 0.000000000000000e+00 0.000000000000000e+00
0.000000000000000e+00 0.000000000000000e+00 0.000000000000000e+00
0.000000000000000e+00 0.000000000000000e+00 0.000000000000000e+00
0.000000000000000e+00 0.000000000000000e+00 0.000000000000000e+00
0.000000000000000e+00 0.000000000000000e+00 0.000000000000000e+00
0.000000000000000e+00 0.000000000000000e+00 0.000000000000000e+00
0.000000000000000e+00 0.000000000000000e+00 0.000000000000000e+00
0.000000000000000e+00 0.000000000000000e+00 0.000000000000000e+00
0.000000000000000e+00 0.000000000000000e+00 0.000000000000000e+00
0.000000000000000e+00 0.000000000000000e+00 0.000000000000000e+00
0.000000000000000e+00 0.000000000000000e+00 0.000000000000000e+00
0.000000000000000e+00 0.000000000000000e+00 0.000000000000000e+00
0.000000000000000e+00 0.000000000000000e+00 0.000000000000000e+00
0.000000000000000e+00 0.000000000000000e+00 0.000000000000000e+00
0.000000000000000e+00 0.000000000000000e+00 0.000000000000000e+00
0.000000000000000e+00 0.000000000000000e+00 0.000000000000000e+00
0.000000000000000e+00 0.000000000000000e+00 0.000000000000000e+00
0.000000000000000e+00 0.000000000000000e+00 0.000000000000000e+00
0.000000000000000e+00 0.000000000000000e+00 0.000000000000000e+00
0.000000000000000e+00 0.000000000000000e+00 0.000000000000000e+00
0.000000000000000e+00 0.000000000000000e+00 0.000000000000000e+00
0.000000000000000e+00 0.000000000000000e+00 0.000000000000000e+00
0.000000000000000e+00 0.000000000000000e+00 0.000000000000000e+00
0.000000000000000e+00 0.000000000000000e+00 0.000000000000000e+00
0.000000000000000e+00 0.000000000000000e+00 0.000000000000000e+00
0.000000000000000e+00 0.000000000000000e+00 0.000000000000000e+00
0.000000000000000e+00 0.000000000000000e+00 0.000000000000000e+00
0.000000000000000e+00 0.000000000000000e+00 0.000000000000000e+00
0.000000000000000e+00 0.000000000000000e+00 0.000000000000000e+00
0.000000000000000e+00 0.000000000000000e+00 0.000000000000000e+00
0.000000000000000e+00 0.000000000000000e+00 0.000000000000000e+00
0.000000000000000e+00 0.000000000000000e+00 0.000000000000000e+00
0.000000000000000e+00 0.000000000000000e+00 0.000000000000000e+00
0.000000000000000e+00 0.000000000000000e+00 0.000000000000000e+00
0.000000000000000e+00 0.000000000000000e+00 0.000000000000000e+00
0.000000000000000e+00 0.000000000000000e+00 0.000000000000000e+00
0.000000000000000e+00 0.000000000000000e+00 0.000000000000000e+00
0.000000000000000e+00 0.000000000000000e+00 0.000000000000000e+00
0.000000000000000e+00 0.000000000000000e+00 0.000000000000000e+00
0.000000000000000e+00 0.000000000000000e+00 0.000000000000000e+00
0.000000000000000e+00 0.000000000000000e+00 0.000000000000000e+00
0.000000000000000e+00 0.000000000000000e+00 0.000000000000000e+00
0.000000000000000e+00 0.000000000000000e+00 0.000000000000000e+00
0.000000000000000e+00 0.000000000000000e+00 0.000000000000000e+00
0.000000000000000e+00 0.000000000000000e+00 0.000000000000000e+00
0.000000000000000e+00 0.000000000000000e+00 0.000000000000000e+00
0.000000000000000e+00 0.000000000000000e+00 0.000000000000000e+00
0.000000000000000e+00 0.000000000000000e+00 0.000000000000000e+00
0.000000000000000e+00 0.000000000000000e+00 0.000000000000000e+00
0.000000000000000e+00 0.000000000000000e+00 0.000000000000000e+00
0.000000000000000e+00 0.000000000000000e+00 0.000000000000000e+00
0.000000000000000e+00 0.000000000000000e+00 0.000000000000000e+00
0.000000000000000e+00 0.000000000000000e+00 0.000000000000000e+00
0.000000000000000e+00 0.000000000000000e+00 0.000000000000000e+00
0.000000000000000e+00 0.000000000000000e+00 0.000000000000000e+00
0.000000000000000e+00 0.000000000000000e+00 0.000000000000000e+00
0.000000000000000e+00 0.000000000000000e+00 0.000000000000000e+00
0.000000000000000e+00 0.000000000000000e+00 0.000000000000000e+00
0.000000000000000e+00 0.000000000000000e+00 0.000000000000000e+00
0.000000000000000e+00 0.000000000000000e+00 0.000000000000000e+00
0.000000000000000e+00 0.000000000000000e+00 0.000000000000000e+00
0.000000000000000e+00 0.000000000000000e+00 0.000000000000000e+00
0.000000000000000e+00 0.000000000000000e+00 0.000000000000000e+00
0.000000000000000e+00 0.000000000000000e+00 0.000000000000000e+00
0.000000000000000e+00 0.000000000000000e+00 0.000000000000000e+00
0.000000000000000e+00 0.000000000000000e+00 0.000000000000000e+00
0.000000000000000e+00 0.000000000000000e+00 0.000000000000000e+00
0.000000000000000e+00 0.000000000000000e+00 0.000000000000000e+00
0.000000000000000e+00 0.000000000000000e+00 0.000000000000000e+00
0.000000000000000e+00 0.000000000000000e+00 0.000000000000000e+00
0.000000000000000e+00 0.000000000000000e+00 0.000000000000000e+00
0.000000000000000e+00 0.000000000000000e+00 0.000000000000000e+00
0.000000000000000e+00 0.000000000000000e+00 0.000000000000000e+00
0.000000000000000e+00 0.000000000000000e+00 0.000000000000000e+00
0.000000000000000e+00 0.000000000000000e+00 0.000000000000000e+00
0.000000000000000e+00 0.000000000000000e+00 0.000000000000000e+00
0.000000000000000e+00 0.000000000000000e+00 0.000000000000000e+00
0.000000000000000e+00 0.000000000000000e+00 0.000000000000000e+00
0.000000000000000e+00 0.000000000000000e+00 0.000000000000000e+00
0.000000000000000e+00 0.000000000000000e+00 0.000000000000000e+00
0.000000000000000e+00 0.000000000000000e+00 0.000000000000000e+00
0.000000000000000e+00 0.000000000000000e+00 0.000000000000000e+00
0.000000000000000e+00 0.000000000000000e+00 0.000000000000000e+00
0.000000000000000e+00 0.000000000000000e+00 0.000000000000000e+00
0.000000000000000e+00 0.000000000000000e+00 0.000000000000000e+00
0.000000000000000e+00 0.000000000000000e+00 0.000000000000000e+00
0.000000000000000e+00 0.000000000000000e+00 0.000000000000000e+00
0.000000000000000e+00 0.000000000000000e+00 0.000000000000000e+00
0.000000000000000e+00 0.000000000000000e+00 0.000000000000000e+00
0.000000000000000e+00 0.000000000000000e+00 0.000000000000000e+00
0.000000000000000e+00 0.000000000000000e+00 0.000000000000000e+00
0.000000000000000e+00 0.000000000000000e+00 0.000000000000000e+00
0.000000000000000e+00 0.000000000000000e+00 0.000000000000000e+00
0.000000000000000e+00 0.000000000000000e+00 0.000000000000000e+00
0.000000000000000e+00 0.000000000000000e+00 0.000000000000000e+00
0.000000000000000e+00 0.000000000000000e+00 0.000000000000000e+00
0.000000000000000e+00 0.000000000000000e+00 0.000000000000000e+00
0.000000000000000e+00 0.000000000000000e+00 0.000000000000000e+00
0.000000000000000e+00 0.000000000000000e+00 0.000000000000000e+00
0.000000000000000e+00 0.000000000000000e+00 0.000000000000000e+00
0.000000000000000e+00 0.000000000000000e+00 0.000000000000000e+00
0.000000000000000e+00 0.000000000000000e+00 0.000000000000000e+00
0.000000000000000e+00 0.000000000000000e+00 0.000000000000000e+00
0.000000000000000e+00 0.000000000000000e+00 0.000000000000000e+00
0.000000000000000e+00 0.000000000000000e+00 0.000000000000000e+00
0.000000000000000e+00 0.000000000000000e+00 0.000000000000000e+00
0.000000000000000e+00 0.000000000000000e+00 0.000000000000000e+00
0.000000000000000e+00 0.000000000000000e+00 0.000000000000000e+00
0.000000000000000e+00 0.000000000000000e+00 0.000000000000000e+00
0.000000000000000e+00 0.000000000000000e+00 0.000000000000000e+00
0.000000000000000e+00 0.000000000000000e+00 0.000000000000000e+00
0.000000000000000e+00 0.000000000000000e+00 0.000000000000000e+00
0.000000000000000e+00 0.000000000000000e+00 0.000000000000000e+00
0.000000000000000e+00 0.000000000000000e+00 0.000000000000000e+00
0.000000000000000e+00 0.000000000000000e+00 0.000000000000000e+00
0.000000000000000e+00 0.000000000000000e+00 0.000000000000000e+00
0.000000000000000e+00 0.000000000000000e+00 0.000000000000000e+00
0.000000000000000e+00 0.000000000000000e+00 0.000000000000000e+00
0.000000000000000e+00 0.000000000000000e+00 0.000000000000000e+00
0.000000000000000e+00 0.000000000000000e+00 0.000000000000000e+00
0.000000000000000e+00 0.000000000000000e+00 0.000000000000000e+00
0.000000000000000e+00 0.000000000000000e+00 0.000000000000000e+00
0.000000000000000e+00 0.000000000000000e+00 0.000000000000000e+00
0.000000000000000e+00 0.000000000000000e+00 0.000000000000000e+00
0.000000000000000e+00 0.000000000000000e+00 0.000000000000000e+00
0.000000000000000e+00 0.000000000000000e+00 0.000000000000000e+00
0.000000000000000e+00 0.000000000000000e+00 0.000000000000000e+00
0.000000000000000e+00 0.000000000000000e+00 0.000000000000000e+00
0.000000000000000e+00 0.000000000000000e+00 0.000000000000000e+00
0.000000000000000e+00 0.000000000000000e+00 0.000000000000000e+00
0.000000000000000e+00 0.000000000000000e+00 0.000000000000000e+00
0.000000000000000e+00 0.000000000000000e+00 0.000000000000000e+00
0.000000000000000e+00 0.000000000000000e+00 0.000000000000000e+00
0.000000000000000e+00 0.000000000000000e+00 0.000000000000000e+00
0.000000000000000e+00 0.000000000000000e+00 0.000000000000000e+00
0.000000000000000e+00 0.000000000000000e+00 0.000000000000000e+00
0.000000000000000e+00 0.000000000000000e+00 0.000000000000000e+00
0.000000000000000e+00 0.000000000000000e+00 0.000000000000000e+00
0.000000000000000e+00 0.000000000000000e+00 0.000000000000000e+00
0.000000000000000e+00 0.000000000000000e+00 0.000000000000000e+00
0.000000000000000e+00 0.000000000000000e+00 0.000000000000000e+00
0.000000000000000e+00 0.000000000000000e+00 0.000000000000000e+00
0.000000000000000e+00 0.000000000000000e+00 0.000000000000000e+00
0.000000000000000e+00 0.000000000000000e+00 0.000000000000000e+00
0.000000000000000e+00 0.000000000000000e+00 0.000000000000000e+00
0.000000000000000e+00 0.000000000000000e+00 0.000000000000000e+00
0.000000000000000e+00 0.000000000000000e+00 0.000000000000000e+00
0.000000000000000e+00 0.000000000000000e+00 0.000000000000000e+00
0.000000000000000e+00 0.000000000000000e+00 0.000000000000000e+00
0.000000000000000e+00 0.000000000000000e+00 0.000000000000000e+00
0.000000000000000e+00 0.000000000000000e+00 0.000000000000000e+00
0.000000000000000e+00 0.000000000000000e+00 0.000000000000000e+00
0.000000000000000e+00 0.000000000000000e+00 0.000000000000000e+00
0.000000000000000e+00 0.000000000000000e+00 0.000000000000000e+00
0.000000000000000e+00 0.000000000000000e+00 0.000000000000000e+00
0.000000000000000e+00 0.000000000000000e+00 0.000000000000000e+00
0.000000000000000e+00 0.000000000000000e+00 0.000000000000000e+00
0.000000000000000e+00 0.000000000000000e+00 0.000000000000000e+00
0.000000000000000e+00 0.000000000000000e+00 0.000000000000000e+00
0.000000000000000e+00 0.000000000000000e+00 0.000000000000000e+00
0.000000000000000e+00 0.000000000000000e+00 0.000000000000000e+00
0.000000000000000e+00 0.000000000000000e+00 0.000000000000000e+00
0.000000000000000e+00 0.000000000000000e+00 0.000000000000000e+00
0.000000000000000e+00 0.000000000000000e+00 0.000000000000000e+00
0.000000000000000e+00 0.000000000000000e+00 0.000000000000000e+00
0.000000000000000e+00 0.000000000000000e+00 0.000000000000000e+00
0.000000000000000e+00 0.000000000000000e+00 0.000000000000000e+00
0.000000000000000e+00 0.000000000000000e+00 0.000000000000000e+00
0.000000000000000e+00 0.000000000000000e+00 0.000000000000000e+00
0.000000000000000e+00 0.000000000000000e+00 0.000000000000000e+00
0.000000000000000e+00 0.000000000000000e+00 0.000000000000000e+00
0.000000000000000e+00 0.000000000000000e+00 0.000000000000000e+00
0.000000000000000e+00 0.000000000000000e+00 0.000000000000000e+00
0.000000000000000e+00 0.000000000000000e+00 0.000000000000000e+00
0.000000000000000e+00 0.000000000000000e+00 0.000000000000000e+00
0.000000000000000e+00 0.000000000000000e+00 0.000000000000000e+00
0.000000000000000e+00 0.000000000000000e+00 0.000000000000000e+00
0.000000000000000e+00 0.000000000000000e+00 0.000000000000000e+00
0.000000000000000e+00 0.000000000000000e+00 0.000000000000000e+00
0.000000000000000e+00 0.000000000000000e+00 0.000000000000000e+00
0.000000000000000e+00 0.000000000000000e+00 0.000000000000000e+00
0.000000000000000e+00 0.000000000000000e+00 0.000000000000000e+00
0.000000000000000e+00 0.000000000000000e+00 0.000000000000000e+00
0.000000000000000e+00 0.000000000000000e+00 0.000000000000000e+00
0.000000000000000e+00 0.000000000000000e+00 0.000000000000000e+00
0.000000000000000e+00 0.000000000000000e+00 0.000000000000000e+00
0.000000000000000e+00 0.000000000000000e+00 0.000000000000000e+00
0.000000000000000e+00 0.000000000000000e+00 0.000000000000000e+00
0.000000000000000e+00 0.000000000000000e+00 0.000000000000000e+00
0.000000000000000e+00 0.000000000000000e+00 0.000000000000000e+00
0.000000000000000e+00 0.000000000000000e+00 0.000000000000000e+00
0.000000000000000e+00 0.000000000000000e+00 0.000000000000000e+00
0.000000000000000e+00 0.000000000000000e+00 0.000000000000000e+00
0.000000000000000e+00 0.000000000000000e+00 0.000000000000000e+00
0.000000000000000e+00 0.000000000000000e+00 0.000000000000000e+00
0.000000000000000e+00 0.000000000000000e+00 0.000000000000000e+00
0.000000000000000e+00 0.000000000000000e+00 0.000000000000000e+00
0.000000000000000e+00 0.000000000000000e+00 0.000000000000000e+00
0.000000000000000e+00 0.000000000000000e+00 0.000000000000000e+00
0.000000000000000e+00 0.000000000000000e+00 0.000000000000000e+00
0.000000000000000e+00 0.000000000000000e+00 0.000000000000000e+00
0.000000000000000e+00 0.000000000000000e+00 0.000000000000000e+00
0.000000000000000e+00 0.000000000000000e+00 0.000000000000000e+00
0.000000000000000e+00 0.000000000000000e+00 0.000000000000000e+00
0.000000000000000e+00 0.000000000000000e+00 0.000000000000000e+00
0.000000000000000e+00 0.000000000000000e+00 0.000000000000000e+00
0.000000000000000e+00 0.000000000000000e+00 0.000000000000000e+00
0.000000000000000e+00 0.000000000000000e+00 0.000000000000000e+00
0.000000000000000e+00 0.000000000000000e+00 0.000000000000000e+00
0.000000000000000e+00 0.000000000000000e+00 0.000000000000000e+00
0.000000000000000e+00 0.000000000000000e+00 0.000000000000000e+00
0.000000000000000e+00 0.000000000000000e+00 0.000000000000000e+00
0.000000000000000e+00 0.000000000000000e+00 0.000000000000000e+00
0.000000000000000e+00 0.000000000000000e+00 0.000000000000000e+00
0.000000000000000e+00 0.000000000000000e+00 0.000000000000000e+00
0.000000000000000e+00 0.000000000000000e+00 0.000000000000000e+00
0.000000000000000e+00 0.000000000000000e+00 0.000000000000000e+00
0.000000000000000e+00 0.000000000000000e+00 0.000000000000000e+00
0.000000000000000e+00 0.000000000000000e+00 0.000000000000000e+00
0.000000000000000e+00 0.000000000000000e+00 0.000000000000000e+00
0.000000000000000e+00 0.000000000000000e+00 0.000000000000000e+00
0.000000000000000e+00 0.000000000000000e+00 0.000000000000000e+00
0.000000000000000e+00 0.000000000000000e+00 0.000000000000000e+00
0.000000000000000e+00 0.000000000000000e+00 0.000000000000000e+00
0.000000000000000e+00 0.000000000000000e+00 0.000000000000000e+00
0.000000000000000e+00 0.000000000000000e+00 0.000000000000000e+00
0.000000000000000e+00 0.000000000000000e+00 0.000000000000000e+00
0.000000000000000e+00 0.000000000000000e+00 0.000000000000000e+00
0.000000000000000e+00 0.000000000000000e+00 0.000000000000000e+00
0.000000000000000e+00 0.000000000000000e+00 0.000000000000000e+00
0.000000000000000e+00 0.000000000000000e+00 0.000000000000000e+00
0.000000000000000e+00 0.000000000000000e+00 0.000000000000000e+00
0.000000000000000e+00 0.000000000000000e+00 0.000000000000000e+00
0.000000000000000e+00 0.000000000000000e+00 0.000000000000000e+00
0.000000000000000e+00 0.000000000000000e+00 0.000000000000000e+00
0.000000000000000e+00 0.000000000000000e+00 0.000000000000000e+00
0.000000000000000e+00 0.000000000000000e+00 0.000000000000000e+00
0.000000000000000e+00 0.000000000000000e+00 0.000000000000000e+00
0.000000000000000e+00 0.000000000000000e+00 0.000000000000000e+00
0.000000000000000e+00 0.000000000000000e+00 0.000000000000000e+00
0.000000000000000e+00 0.000000000000000e+00 0.000000000000000e+00
0.000000000000000e+00 0.000000000000000e+00 0.000000000000000e+00
0.000000000000000e+00 0.000000000000000e+00 0.000000000000000e+00
0.000000000000000e+00 0.000000000000000e+00 0.000000000000000e+00
0.000000000000000e+00 0.000000000000000e+00 0.000000000000000e+00
0.000000000000000e+00 0.000000000000000e+00 0.000000000000000e+00
0.000000000000000e+00 0.000000000000000e+00 0.000000000000000e+00
0.000000000000000e+00 0.000000000000000e+00 0.000000000000000e+00
0.000000000000000e+00 0.000000000000000e+00 0.000000000000000e+00
0.000000000000000e+00 0.000000000000000e+00 0.000000000000000e+00
0.000000000000000e+00 0.000000000000000e+00 0.000000000000000e+00
0.000000000000000e+00 0.000000000000000e+00 0.000000000000000e+00
0.000000000000000e+00 0.000000000000000e+00 0.000000000000000e+00
0.000000000000000e+00 0.000000000000000e+00 0.000000000000000e+00
0.000000000000000e+00 0.000000000000000e+00 0.000000000000000e+00
0.000000000000000e+00 0.000000000000000e+00 0.000000000000000e+00
0.000000000000000e+00 0.000000000000000e+00 0.000000000000000e+00
0.000000000000000e+00 0.000000000000000e+00 0.000000000000000e+00
0.000000000000000e+00 0.000000000000000e+00 0.000000000000000e+00
0.000000000000000e+00 0.000000000000000e+00 0.000000000000000e+00
0.000000000000000e+00 0.000000000000000e+00 0.000000000000000e+00
0.000000000000000e+00 0.000000000000000e+00 0.000000000000000e+00
0.000000000000000e+00 0.000000000000000e+00 0.000000000000000e+00
0.000000000000000e+00 0.000000000000000e+00 0.000000000000000e+00
0.000000000000000e+00 0.000000000000000e+00 0.000000000000000e+00
0.000000000000000e+00 0.000000000000000e+00 0.000000000000000e+00
0.000000000000000e+00 0.000000000000000e+00 0.000000000000000e+00
0.000000000000000e+00 0.000000000000000e+00 0.000000000000000e+00
0.000000000000000e+00 0.000000000000000e+00 0.000000000000000e+00
0.000000000000000e+00 0.000000000000000e+00 0.000000000000000e+00
0.000000000000000e+00 0.000000000000000e+00 0.000000000000000e+00
0.000000000000000e+00 0.000000000000000e+00 0.000000000000000e+00
0.000000000000000e+00 0.000000000000000e+00 0.000000000000000e+00
0.000000000000000e+00 0.000000000000000e+00 0.000000000000000e+00
0.000000000000000e+00 0.000000000000000e+00 0.000000000000000e+00
0.000000000000000e+00 0.000000000000000e+00 0.000000000000000e+00
0.000000000000000e+00 0.000000000000000e+00 0.000000000000000e+00
0.000000000000000e+00 0.000000000000000e+00 0.000000000000000e+00
0.000000000000000e+00 0.000000000000000e+00 0.000000000000000e+00
0.000000000000000e+00 0.000000000000000e+00 0.000000000000000e+00
0.000000000000000e+00 0.000000000000000e+00 0.000000000000000e+00
0.000000000000000e+00 0.000000000000000e+00 0.000000000000000e+00
0.000000000000000e+00 0.000000000000000e+00 0.000000000000000e+00
0.000000000000000e+00 0.000000000000000e+00 0.000000000000000e+00
0.000000000000000e+00 0.000000000000000e+00 0.000000000000000e+00
0.000000000000000e+00 0.000000000000000e+00 0.000000000000000e+00
0.000000000000000e+00 0.000000000000000e+00 0.000000000000000e+00
0.000000000000000e+00 0.000000000000000e+00 0.000000000000000e+00
0.000000000000000e+00 0.000000000000000e+00 0.000000000000000e+00
0.000000000000000e+00 0.000000000000000e+00 0.000000000000000e+00
0.000000000000000e+00 0.000000000000000e+00 0.000000000000000e+00
0.000000000000000e+00 0.000000000000000e+00 0.000000000000000e+00
0.000000000000000e+00 0.000000000000000e+00 0.000000000000000e+00
0.000000000000000e+00 0.000000000000000e+00 0.000000000000000e+00
0.000000000000000e+00 0.000000000000000e+00 0.000000000000000e+00
0.000000000000000e+00 0.000000000000000e+00 0.000000000000000e+00
0.000000000000000e+00 0.000000000000000e+00 0.000000000000000e+00
0.000000000000000e+00 0.000000000000000e+00 0.000000000000000e+00
0.000000000000000e+00 0.000000000000000e+00 0.000000000000000e+00
0.000000000000000e+00 0.000000000000000e+00 0.000000000000000e+00
0.000000000000000e+00 0.000000000000000e+00 0.000000000000000e+00
0.000000000000000e+00 0.000000000000000e+00 0.000000000000000e+00
0.000000000000000e+00 0.000000000000000e+00 0.000000000000000e+00
0.000000000000000e+00 0.000000000000000e+00 0.000000000000000e+00
0.000000000000000e+00 0.000000000000000e+00 0.000000000000000e+00
0.000000000000000e+00 0.000000000000000e+00 0.000000000000000e+00
0.000000000000000e+00 0.000000000000000e+00 0.000000000000000e+00
0.000000000000000e+00 0.000000000000000e+00 0.000000000000000e+00
0.000000000000000e+00 0.000000000000000e+00 0.000000000000000e+00
0.000000000000000e+00 0.000000000000000e+00 0.000000000000000e+00
0.000000000000000e+00 0.000000000000000e+00 0.000000000000000e+00
0.000000000000000e+00 0.000000000000000e+00 0.000000000000000e+00
0.000000000000000e+00 0.000000000000000e+00 0.000000000000000e+00
0.000000000000000e+00 0.000000000000000e+00 0.000000000000000e+00
0.000000000000000e+00 0.000000000000000e+00 0.000000000000000e+00
0.000000000000000e+00 0.000000000000000e+00 0.000000000000000e+00
0.000000000000000e+00 0.000000000000000e+00 0.000000000000000e+00
0.000000000000000e+00 0.000000000000000e+00 0.000000000000000e+00
0.000000000000000e+00 0.000000000000000e+00 0.000000000000000e+00
0.000000000000000e+00 0.000000000000000e+00 0.000000000000000e+00
0.000000000000000e+00 0.000000000000000e+00 0.000000000000000e+00
0.000000000000000e+00 0.000000000000000e+00 0.000000000000000e+00
0.000000000000000e+00 0.000000000000000e+00 0.000000000000000e+00
0.000000000000000e+00 0.000000000000000e+00 0.000000000000000e+00
0.000000000000000e+00 0.000000000000000e+00 0.000000000000000e+00
0.000000000000000e+00 0.000000000000000e+00 0.000000000000000e+00
0.000000000000000e+00 0.000000000000000e+00 0.000000000000000e+00
0.000000000000000e+00 0.000000000000000e+00 0.000000000000000e+00
0.000000000000000e+00 0.000000000000000e+00 0.000000000000000e+00
0.000000000000000e+00 0.000000000000000e+00 0.000000000000000e+00
0.000000000000000e+00 0.000000000000000e+00 0.000000000000000e+00
0.000000000000000e+00 0.000000000000000e+00 0.000000000000000e+00
0.000000000000000e+00 0.000000000000000e+00 0.000000000000000e+00
0.000000000000000e+00 0.000000000000000e+00 0.000000000000000e+00
0.000000000000000e+00 0.000000000000000e+00 0.000000000000000e+00
0.000000000000000e+00 0.000000000000000e+00 0.000000000000000e+00
0.000000000000000e+00 0.000000000000000e+00 0.000000000000000e+00
0.000000000000000e+00 0.000000000000000e+00 0.000000000000000e+00
0.000000000000000e+00 0.000000000000000e+00 0.000000000000000e+00
0.000000000000000e+00 0.000000000000000e+00 0.000000000000000e+00
0.000000000000000e+00 0.000000000000000e+00 0.000000000000000e+00
0.000000000000000e+00 0.000000000000000e+00 0.000000000000000e+00
0.000000000000000e+00 0.000000000000000e+00 0.000000000000000e+00
0.000000000000000e+00 0.000000000000000e+00 0.000000000000000e+00
0.000000000000000e+00 0.000000000000000e+00 0.000000000000000e+00
0.000000000000000e+00 0.000000000000000e+00 0.000000000000000e+00
0.000000000000000e+00 0.000000000000000e+00 0.000000000000000e+00
0.000000000000000e+00 0.000000000000000e+00 0.000000000000000e+00
0.000000000000000e+00 0.000000000000000e+00 0.000000000000000e+00
0.000000000000000e+00 0.000000000000000e+00 0.000000000000000e+00
0.000000000000000e+00 0.000000000000000e+00 0.000000000000000e+00
0.000000000000000e+00 0.000000000000000e+00 0.000000000000000e+00
0.000000000000000e+00 0.000000000000000e+00 0.000000000000000e+00
0.000000000000000e+00 0.000000000000000e+00 0.000000000000000e+00
0.000000000000000e+00 0.000000000000000e+00 0.000000000000000e+00
0.000000000000000e+00 0.000000000000000e+00 0.000000000000000e+00
0.000000000000000e+00 0.000000000000000e+00 0.000000000000000e+00
0.000000000000000e+00 0.000000000000000e+00 0.000000000000000e+00
0.000000000000000e+00 0.000000000000000e+00 0.000000000000000e+00
0.000000000000000e+00 0.000000000000000e+00 0.000000000000000e+00
0.000000000000000e+00 0.000000000000000e+00 0.000000000000000e+00
0.000000000000000e+00 0.000000000000000e+00 0.000000000000000e+00
0.000000000000000e+00 0.000000000000000e+00 0.000000000000000e+00
0.000000000000000e+00 0.000000000000000e+00 0.000000000000000e+00
0.000000000000000e+00 0.000000000000000e+00 0.000000000000000e+00
0.000000000000000e+00 0.000000000000000e+00 0.000000000000000e+00
0.000000000000000e+00 0.000000000000000e+00 0.000000000000000e+00
0.000000000000000e+00 0.000000000000000e+00 0.000000000000000e+00
0.000000000000000e+00 0.000000000000000e+00 0.000000000000000e+00
0.000000000000000e+00 0.000000000000000e+00 0.000000000000000e+00
0.000000000000000e+00 0.000000000000000e+00 0.000000000000000e+00
0.000000000000000e+00 0.000000000000000e+00 0.000000000000000e+00
0.000000000000000e+00 0.000000000000000e+00 0.000000000000000e+00
0.000000000000000e+00 0.000000000000000e+00 0.000000000000000e+00
0.000000000000000e+00 0.000000000000000e+00 0.000000000000000e+00
0.000000000000000e+00 0.000000000000000e+00 0.000000000000000e+00
0.000000000000000e+00 0.000000000000000e+00 0.000000000000000e+00
0.000000000000000e+00 0.000000000000000e+00 0.000000000000000e+00
0.000000000000000e+00 0.000000000000000e+00 0.000000000000000e+00
0.000000000000000e+00 0.000000000000000e+00 0.000000000000000e+00
0.000000000000000e+00 0.000000000000000e+00 0.000000000000000e+00
0.000000000000000e+00 0.000000000000000e+00 0.000000000000000e+00
0.000000000000000e+00 0.000000000000000e+00 0.000000000000000e+00
0.000000000000000e+00 0.000000000000000e+00 0.000000000000000e+00
0.000000000000000e+00 0.000000000000000e+00 0.000000000000000e+00
0.000000000000000e+00 0.000000000000000e+00 0.000000000000000e+00
0.000000000000000e+00 0.000000000000000e+00 0.000000000000000e+00
0.000000000000000e+00 0.000000000000000e+00 0.000000000000000e+00
0.000000000000000e+00 0.000000000000000e+00 0.000000000000000e+00
0.000000000000000e+00 0.000000000000000e+00 0.000000000000000e+00
0.000000000000000e+00 0.000000000000000e+00 0.000000000000000e+00
0.000000000000000e+00 0.000000000000000e+00 0.000000000000000e+00
0.000000000000000e+00 0.000000000000000e+00 0.000000000000000e+00
0.000000000000000e+00 0.000000000000000e+00 0.000000000000000e+00
0.000000000000000e+00 0.000000000000000e+00 0.000000000000000e+00
0.000000000000000e+00 0.000000000000000e+00 0.000000000000000e+00
0.000000000000000e+00 0.000000000000000e+00 0.000000000000000e+00
0.000000000000000e+00 0.000000000000000e+00 0.000000000000000e+00
0.000000000000000e+00 0.000000000000000e+00 0.000000000000000e+00
0.000000000000000e+00 0.000000000000000e+00 0.000000000000000e+00
0.000000000000000e+00 0.000000000000000e+00 0.000000000000000e+00
0.000000000000000e+00 0.000000000000000e+00 0.000000000000000e+00
0.000000000000000e+00 0.000000000000000e+00 0.000000000000000e+00
0.000000000000000e+00 0.000000000000000e+00 0.000000000000000e+00
0.000000000000000e+00 0.000000000000000e+00 0.000000000000000e+00
0.000000000000000e+00 0.000000000000000e+00 0.000000000000000e+00
0.000000000000000e+00 0.000000000000000e+00 0.000000000000000e+00
0.000000000000000e+00 0.000000000000000e+00 0.000000000000000e+00
0.000000000000000e+00 0.000000000000000e+00 0.000000000000000e+00
0.000000000000000e+00 0.000000000000000e+00 0.000000000000000e+00
0.000000000000000e+00 0.000000000000000e+00 0.000000000000000e+00
0.000000000000000e+00 0.000000000000000e+00 0.000000000000000e+00
0.000000000000000e+00 0.000000000000000e+00 0.000000000000000e+00
0.000000000000000e+00 0.000000000000000e+00 0.000000000000000e+00
0.000000000000000e+00 0.000000000000000e+00 0.000000000000000e+00
0.000000000000000e+00 0.000000000000000e+00 0.000000000000000e+00
0.000000000000000e+00 0.000000000000000e+00 0.000000000000000e+00
0.000000000000000e+00 0.000000000000000e+00 0.000000000000000e+00
0.000000000000000e+00 0.000000000000000e+00 0.000000000000000e+00
0.000000000000000e+00 0.000000000000000e+00 0.000000000000000e+00
0.000000000000000e+00 0.000000000000000e+00 0.000000000000000e+00
0.000000000000000e+00 0.000000000000000e+00 0.000000000000000e+00
0.000000000000000e+00 0.000000000000000e+00 0.000000000000000e+00
0.000000000000000e+00 0.000000000000000e+00 0.000000000000000e+00
0.000000000000000e+00 0.000000000000000e+00 0.000000000000000e+00
0.000000000000000e+00 0.000000000000000e+00 0.000000000000000e+00
0.000000000000000e+00 0.000000000000000e+00 0.000000000000000e+00
0.000000000000000e+00 0.000000000000000e+00 0.000000000000000e+00
0.000000000000000e+00 0.000000000000000e+00 0.000000000000000e+00
0.000000000000000e+00 0.000000000000000e+00 0.000000000000000e+00
0.000000000000000e+00 0.000000000000000e+00 0.000000000000000e+00
0.000000000000000e+00 0.000000000000000e+00 0.000000000000000e+00
0.000000000000000e+00 0.000000000000000e+00 0.000000000000000e+00
0.000000000000000e+00 0.000000000000000e+00 0.000000000000000e+00
0.000000000000000e+00 0.000000000000000e+00 0.000000000000000e+00
0.000000000000000e+00 0.000000000000000e+00 0.000000000000000e+00
0.000000000000000e+00 0.000000000000000e+00 0.000000000000000e+00
0.000000000000000e+00 0.000000000000000e+00 0.000000000000000e+00
0.000000000000000e+00 0.000000000000000e+00 0.000000000000000e+00
0.000000000000000e+00 0.000000000000000e+00 0.000000000000000e+00
0.000000000000000e+00 0.000000000000000e+00 0.000000000000000e+00
0.000000000000000e+00 0.000000000000000e+00 0.000000000000000e+00
0.000000000000000e+00 0.000000000000000e+00 0.000000000000000e+00
0.000000000000000e+00 0.000000000000000e+00 0.000000000000000e+00
0.000000000000000e+00 0.000000000000000e+00 0.000000000000000e+00
0.000000000000000e+00 0.000000000000000e+00 0.000000000000000e+00
0.000000000000000e+00 0.000000000000000e+00 0.000000000000000e+00
0.000000000000000e+00 0.000000000000000e+00 0.000000000000000e+00
0.000000000000000e+00 0.000000000000000e+00 0.000000000000000e+00
0.000000000000000e+00 0.000000000000000e+00 0.000000000000000e+00
0.000000000000000e+00 0.000000000000000e+00 0.000000000000000e+00
0.000000000000000e+00 0.000000000000000e+00 0.000000000000000e+00
0.000000000000000e+00 0.000000000000000e+00 0.000000000000000e+00
0.000000000000000e+00 0.000000000000000e+00 0.000000000000000e+00
0.000000000000000e+00 0.000000000000000e+00 0.000000000000000e+00
0.000000000000000e+00 0.000000000000000e+00 0.000000000000000e+00
0.000000000000000e+00 0.000000000000000e+00 0.000000000000000e+00
0.000000000000000e+00 0.000000000000000e+00 0.000000000000000e+00
0.000000000000000e+00 0.000000000000000e+00 0.000000000000000e+00
0.000000000000000e+00 0.000000000000000e+00 0.000000000000000e+00
0.000000000000000e+00 0.000000000000000e+00 0.000000000000000e+00
0.000000000000000e+00 0.000000000000000e+00 0.000000000000000e+00
0.000000000000000e+00 0.000000000000000e+00 0.000000000000000e+00
0.000000000000000e+00 0.000000000000000e+00 0.000000000000000e+00
0.000000000000000e+00 0.000000000000000e+00 0.000000000000000e+00
0.000000000000000e+00 0.000000000000000e+00 0.000000000000000e+00
0.000000000000000e+00 0.000000000000000e+00 0.000000000000000e+00
0.000000000000000e+00 0.000000000000000e+00 0.000000000000000e+00
0.000000000000000e+00 0.000000000000000e+00 0.000000000000000e+00
0.000000000000000e+00 0.000000000000000e+00 0.000000000000000e+00
0.000000000000000e+00 0.000000000000000e+00 0.000000000000000e+00
0.000000000000000e+00 0.000000000000000e+00 0.000000000000000e+00
0.000000000000000e+00 0.000000000000000e+00 0.000000000000000e+00
0.000000000000000e+00 0.000000000000000e+00 0.000000000000000e+00
0.000000000000000e+00 0.000000000000000e+00 0.000000000000000e+00
0.000000000000000e+00 0.000000000000000e+00 0.000000000000000e+00
0.000000000000000e+00 0.000000000000000e+00 0.000000000000000e+00
0.000000000000000e+00 0.000000000000000e+00 0.000000000000000e+00
0.000000000000000e+00 0.000000000000000e+00 0.000000000000000e+00
0.000000000000000e+00 0.000000000000000e+00 0.000000000000000e+00
0.000000000000000e+00 0.000000000000000e+00 0.000000000000000e+00
0.000000000000000e+00 0.000000000000000e+00 0.000000000000000e+00
0.000000000000000e+00 0.000000000000000e+00 0.000000000000000e+00
0.000000000000000e+00 0.000000000000000e+00 0.000000000000000e+00
0.000000000000000e+00 0.000000000000000e+00 0.000000000000000e+00
0.000000000000000e+00 0.000000000000000e+00 0.000000000000000e+00
0.000000000000000e+00 0.000000000000000e+00 0.000000000000000e+00
0.000000000000000e+00 0.000000000000000e+00 0.000000000000000e+00
0.000000000000000e+00 0.000000000000000e+00 0.000000000000000e+00
0.000000000000000e+00 0.000000000000000e+00 0.000000000000000e+00
0.000000000000000e+00 0.000000000000000e+00 0.000000000000000e+00
0.000000000000000e+00 0.000000000000000e+00 0.000000000000000e+00
0.000000000000000e+00 0.000000000000000e+00 0.000000000000000e+00
0.000000000000000e+00 0.000000000000000e+00 0.000000000000000e+00
0.000000000000000e+00 0.000000000000000e+00 0.000000000000000e+00
0.000000000000000e+00 0.000000000000000e+00 0.000000000000000e+00
0.000000000000000e+00 0.000000000000000e+00 0.000000000000000e+00
0.000000000000000e+00 0.000000000000000e+00 0.000000000000000e+00
0.000000000000000e+00 0.000000000000000e+00 0.000000000000000e+00
0.000000000000000e+00 0.000000000000000e+00 0.000000000000000e+00
0.000000000000000e+00 0.000000000000000e+00 0.000000000000000e+00
0.000000000000000e+00 0.000000000000000e+00 0.000000000000000e+00
0.000000000000000e+00 0.000000000000000e+00 0.000000000000000e+00
0.000000000000000e+00 0.000000000000000e+00 0.000000000000000e+00
0.000000000000000e+00 0.000000000000000e+00 0.000000000000000e+00
0.000000000000000e+00 0.000000000000000e+00 0.000000000000000e+00
0.000000000000000e+00 0.000000000000000e+00 0.000000000000000e+00
0.000000000000000e+00 0.000000000000000e+00 0.000000000000000e+00
0.000000000000000e+00 0.000000000000000e+00 0.000000000000000e+00
0.000000000000000e+00 0.000000000000000e+00 0.000000000000000e+00
0.000000000000000e+00 0.000000000000000e+00 0.000000000000000e+00
0.000000000000000e+00 0.000000000000000e+00 0.000000000000000e+00
0.000000000000000e+00 0.000000000000000e+00 0.000000000000000e+00
0.000000000000000e+00 0.000000000000000e+00 0.000000000000000e+00
0.000000000000000e+00 0.000000000000000e+00 0.000000000000000e+00
0.000000000000000e+00 0.000000000000000e+00 0.000000000000000e+00
0.000000000000000e+00 0.000000000000000e+00 0.000000000000000e+00
0.000000000000000e+00 0.000000000000000e+00 0.000000000000000e+00
0.000000000000000e+00 0.000000000000000e+00 0.000000000000000e+00
0.000000000000000e+00 0.000000000000000e+00 0.000000000000000e+00
0.000000000000000e+00 0.000000000000000e+00 0.000000000000000e+00
0.000000000000000e+00 0.000000000000000e+00 0.000000000000000e+00
0.000000000000000e+00 0.000000000000000e+00 0.000000000000000e+00
0.000000000000000e+00 0.000000000000000e+00 0.000000000000000e+00
0.000000000000000e+00 0.000000000000000e+00 0.000000000000000e+00
0.000000000000000e+00 0.000000000000000e+00 0.000000000000000e+00
0.000000000000000e+00 0.000000000000000e+00 0.000000000000000e+00
0.000000000000000e+00 0.000000000000000e+00 0.000000000000000e+00
0.000000000000000e+00 0.000000000000000e+00 0.000000000000000e+00
0.000000000000000e+00 0.000000000000000e+00 0.000000000000000e+00
0.000000000000000e+00 0.000000000000000e+00 0.000000000000000e+00
0.000000000000000e+00 0.000000000000000e+00 0.000000000000000e+00
0.000000000000000e+00 0.000000000000000e+00 0.000000000000000e+00
0.000000000000000e+00 0.000000000000000e+00 0.000000000000000e+00
0.000000000000000e+00 0.000000000000000e+00 0.000000000000000e+00
0.000000000000000e+00 0.000000000000000e+00 0.000000000000000e+00
0.000000000000000e+00 0.000000000000000e+00 0.000000000000000e+00
0.000000000000000e+00 0.000000000000000e+00 0.000000000000000e+00
0.000000000000000e+00 0.000000000000000e+00 0.000000000000000e+00
0.000000000000000e+00 0.000000000000000e+00 0.000000000000000e+00
0.000000000000000e+00 0.000000000000000e+00 0.000000000000000e+00
0.000000000000000e+00 0.000000000000000e+00 0.000000000000000e+00
0.000000000000000e+00 0.000000000000000e+00 0.000000000000000e+00
0.000000000000000e+00 0.000000000000000e+00 0.000000000000000e+00
0.000000000000000e+00 0.000000000000000e+00 0.000000000000000e+00
0.000000000000000e+00 0.000000000000000e+00 0.000000000000000e+00
0.000000000000000e+00 0.000000000000000e+00 0.000000000000000e+00
0.000000000000000e+00 0.000000000000000e+00 0.000000000000000e+00
0.000000000000000e+00 0.000000000000000e+00 0.000000000000000e+00
0.000000000000000e+00 0.000000000000000e+00 0.000000000000000e+00
0.000000000000000e+00 0.000000000000000e+00 0.000000000000000e+00
0.000000000000000e+00 0.000000000000000e+00 0.000000000000000e+00
0.000000000000000e+00 0.000000000000000e+00 0.000000000000000e+00
0.000000000000000e+00 0.000000000000000e+00 0.000000000000000e+00
0.000000000000000e+00 0.000000000000000e+00 0.000000000000000e+00
0.000000000000000e+00 0.000000000000000e+00 0.000000000000000e+00
0.000000000000000e+00 0.000000000000000e+00 0.000000000000000e+00
0.000000000000000e+00 0.000000000000000e+00 0.000000000000000e+00
0.000000000000000e+00 0.000000000000000e+00 0.000000000000000e+00
0.000000000000000e+00 0.000000000000000e+00 0.000000000000000e+00
0.000000000000000e+00 0.000000000000000e+00 0.000000000000000e+00
0.000000000000000e+00 0.000000000000000e+00 0.000000000000000e+00
0.000000000000000e+00 0.000000000000000e+00 0.000000000000000e+00
0.000000000000000e+00 0.000000000000000e+00 0.000000000000000e+00
0.000000000000000e+00 0.000000000000000e+00 0.000000000000000e+00
0.000000000000000e+00 0.000000000000000e+00 0.000000000000000e+00
0.000000000000000e+00 0.000000000000000e+00 0.000000000000000e+00
0.000000000000000e+00 0.000000000000000e+00 0.000000000000000e+00
0.000000000000000e+00 0.000000000000000e+00 0.000000000000000e+00
0.000000000000000e+00 0.000000000000000e+00 0.000000000000000e+00
0.000000000000000e+00 0.000000000000000e+00 0.000000000000000e+00
0.000000000000000e+00 0.000000000000000e+00 0.000000000000000e+00
0.000000000000000e+00 0.000000000000000e+00 0.000000000000000e+00
0.000000000000000e+00 0.000000000000000e+00 0.000000000000000e+00
0.000000000000000e+00 0.000000000000000e+00 0.000000000000000e+00
0.000000000000000e+00 0.000000000000000e+00 0.000000000000000e+00
0.000000000000000e+00 0.000000000000000e+00 0.000000000000000e+00
0.000000000000000e+00 0.000000000000000e+00 0.000000000000000e+00
0.000000000000000e+00 0.000000000000000e+00 0.000000000000000e+00
0.000000000000000e+00 0.000000000000000e+00 0.000000000000000e+00
0.000000000000000e+00 0.000000000000000e+00 0.000000000000000e+00
0.000000000000000e+00 0.000000000000000e+00 0.000000000000000e+00
0.000000000000000e+00 0.000000000000000e+00 0.000000000000000e+00
0.000000000000000e+00 0.000000000000000e+00 0.000000000000000e+00
0.000000000000000e+00 0.000000000000000e+00 0.000000000000000e+00
0.000000000000000e+00 0.000000000000000e+00 0.000000000000000e+00
0.000000000000000e+00 0.000000000000000e+00 0.000000000000000e+00
0.000000000000000e+00 0.000000000000000e+00 0.000000000000000e+00
0.000000000000000e+00 0.000000000000000e+00 0.000000000000000e+00
0.000000000000000e+00 0.000000000000000e+00 0.000000000000000e+00
0.000000000000000e+00 0.000000000000000e+00 0.000000000000000e+00
0.000000000000000e+00 0.000000000000000e+00 0.000000000000000e+00
0.000000000000000e+00 0.000000000000000e+00 0.000000000000000e+00
0.000000000000000e+00 0.000000000000000e+00 0.000000000000000e+00
0.000000000000000e+00 0.000000000000000e+00 0.000000000000000e+00
0.000000000000000e+00 0.000000000000000e+00 0.000000000000000e+00
0.000000000000000e+00 0.000000000000000e+00 0.000000000000000e+00
0.000000000000000e+00 0.000000000000000e+00 0.000000000000000e+00
0.000000000000000e+00 0.000000000000000e+00 0.000000000000000e+00
0.000000000000000e+00 0.000000000000000e+00 0.000000000000000e+00
0.000000000000000e+00 0.000000000000000e+00 0.000000000000000e+00
0.000000000000000e+00 0.000000000000000e+00 0.000000000000000e+00
0.000000000000000e+00 0.000000000000000e+00 0.000000000000000e+00
0.000000000000000e+00 0.000000000000000e+00 0.000000000000000e+00
0.000000000000000e+00 0.000000000000000e+00 0.000000000000000e+00
0.000000000000000e+00 0.000000000000000e+00 0.000000000000000e+00
0.000000000000000e+00 0.000000000000000e+00 0.000000000000000e+00
0.000000000000000e+00 0.000000000000000e+00 0.000000000000000e+00
0.000000000000000e+00 0.000000000000000e+00 0.000000000000000e+00
0.000000000000000e+00 0.000000000000000e+00 0.000000000000000e+00
0.000000000000000e+00 0.000000000000000e+00 0.000000000000000e+00
0.000000000000000e+00 0.000000000000000e+00 0.000000000000000e+00
0.000000000000000e+00 0.000000000000000e+00 0.000000000000000e+00
0.000000000000000e+00 0.000000000000000e+00 0.000000000000000e+00
0.000000000000000e+00 0.000000000000000e+00 0.000000000000000e+00
0.000000000000000e+00 0.000000000000000e+00 0.000000000000000e+00
0.000000000000000e+00 0.000000000000000e+00 0.000000000000000e+00
0.000000000000000e+00 0.000000000000000e+00 0.000000000000000e+00
0.000000000000000e+00 0.000000000000000e+00 0.000000000000000e+00
0.000000000000000e+00 0.000000000000000e+00 0.000000000000000e+00
0.000000000000000e+00 0.000000000000000e+00 0.000000000000000e+00
0.000000000000000e+00 0.000000000000000e+00 0.000000000000000e+00
0.000000000000000e+00 0.000000000000000e+00 0.000000000000000e+00
0.000000000000000e+00 0.000000000000000e+00 0.000000000000000e+00
0.000000000000000e+00 0.000000000000000e+00 0.000000000000000e+00
0.000000000000000e+00 0.000000000000000e+00 0.000000000000000e+00
0.000000000000000e+00 0.000000000000000e+00 0.000000000000000e+00
0.000000000000000e+00 0.000000000000000e+00 0.000000000000000e+00
0.000000000000000e+00 0.000000000000000e+00 0.000000000000000e+00
0.000000000000000e+00 0.000000000000000e+00 0.000000000000000e+00
0.000000000000000e+00 0.000000000000000e+00 0.000000000000000e+00
0.000000000000000e+00 0.000000000000000e+00 0.000000000000000e+00
0.000000000000000e+00 0.000000000000000e+00 0.000000000000000e+00
0.000000000000000e+00 0.000000000000000e+00 0.000000000000000e+00
0.000000000000000e+00 0.000000000000000e+00 0.000000000000000e+00
0.000000000000000e+00 0.000000000000000e+00 0.000000000000000e+00
0.000000000000000e+00 0.000000000000000e+00 0.000000000000000e+00
0.000000000000000e+00 0.000000000000000e+00 0.000000000000000e+00
0.000000000000000e+00 0.000000000000000e+00 0.000000000000000e+00
0.000000000000000e+00 0.000000000000000e+00 0.000000000000000e+00
0.000000000000000e+00 0.000000000000000e+00 0.000000000000000e+00
0.000000000000000e+00 0.000000000000000e+00 0.000000000000000e+00
0.000000000000000e+00 0.000000000000000e+00 0.000000000000000e+00
0.000000000000000e+00 0.000000000000000e+00 0.000000000000000e+00
0.000000000000000e+00 0.000000000000000e+00 0.000000000000000e+00
0.000000000000000e+00 0.000000000000000e+00 0.000000000000000e+00
0.000000000000000e+00 0.000000000000000e+00 0.000000000000000e+00
0.000000000000000e+00 0.000000000000000e+00 0.000000000000000e+00
0.000000000000000e+00 0.000000000000000e+00 0.000000000000000e+00
0.000000000000000e+00 0.000000000000000e+00 0.000000000000000e+00
0.000000000000000e+00 0.000000000000000e+00 0.000000000000000e+00
0.000000000000000e+00 0.000000000000000e+00 0.000000000000000e+00
0.000000000000000e+00 0.000000000000000e+00 0.000000000000000e+00
0.000000000000000e+00 0.000000000000000e+00 0.000000000000000e+00
0.000000000000000e+00 0.000000000000000e+00 0.000000000000000e+00
0.000000000000000e+00 0.000000000000000e+00 0.000000000000000e+00
0.000000000000000e+00 0.000000000000000e+00 0.000000000000000e+00
0.000000000000000e+00 0.000000000000000e+00 0.000000000000000e+00
0.000000000000000e+00 0.000000000000000e+00 0.000000000000000e+00
0.000000000000000e+00 0.000000000000000e+00 0.000000000000000e+00
0.000000000000000e+00 0.000000000000000e+00 0.000000000000000e+00
0.000000000000000e+00 0.000000000000000e+00 0.000000000000000e+00
0.000000000000000e+00 0.000000000000000e+00 0.000000000000000e+00
0.000000000000000e+00 0.000000000000000e+00 0.000000000000000e+00
0.000000000000000e+00 0.000000000000000e+00 0.000000000000000e+00
0.000000000000000e+00 0.000000000000000e+00 0.000000000000000e+00
0.000000000000000e+00 0.000000000000000e+00 0.000000000000000e+00
0.000000000000000e+00 0.000000000000000e+00 0.000000000000000e+00
0.000000000000000e+00 0.000000000000000e+00 0.000000000000000e+00
0.000000000000000e+00 0.000000000000000e+00 0.000000000000000e+00
0.000000000000000e+00 0.000000000000000e+00 0.000000000000000e+00
0.000000000000000e+00 0.000000000000000e+00 0.000000000000000e+00
0.000000000000000e+00 0.000000000000000e+00 0.000000000000000e+00
0.000000000000000e+00 0.000000000000000e+00 0.000000000000000e+00
0.000000000000000e+00 0.000000000000000e+00 0.000000000000000e+00
0.000000000000000e+00 0.000000000000000e+00 0.000000000000000e+00
0.000000000000000e+00 0.000000000000000e+00 0.000000000000000e+00
0.000000000000000e+00 0.000000000000000e+00 0.000000000000000e+00
0.000000000000000e+00 0.000000000000000e+00 0.000000000000000e+00
0.000000000000000e+00 0.000000000000000e+00 0.000000000000000e+00
0.000000000000000e+00 0.000000000000000e+00 0.000000000000000e+00
0.000000000000000e+00 0.000000000000000e+00 0.000000000000000e+00
0.000000000000000e+00 0.000000000000000e+00 0.000000000000000e+00
0.000000000000000e+00 0.000000000000000e+00 0.000000000000000e+00
0.000000000000000e+00 0.000000000000000e+00 0.000000000000000e+00
0.000000000000000e+00 0.000000000000000e+00 0.000000000000000e+00
0.000000000000000e+00 0.000000000000000e+00 0.000000000000000e+00
0.000000000000000e+00 0.000000000000000e+00 0.000000000000000e+00
0.000000000000000e+00 0.000000000000000e+00 0.000000000000000e+00
0.000000000000000e+00 0.000000000000000e+00 0.000000000000000e+00
0.000000000000000e+00 0.000000000000000e+00 0.000000000000000e+00
0.000000000000000e+00 0.000000000000000e+00 0.000000000000000e+00
0.000000000000000e+00 0.000000000000000e+00 0.000000000000000e+00
0.000000000000000e+00 0.000000000000000e+00 0.000000000000000e+00
0.000000000000000e+00 0.000000000000000e+00 0.000000000000000e+00
0.000000000000000e+00 0.000000000000000e+00 0.000000000000000e+00
0.000000000000000e+00 0.000000000000000e+00 0.000000000000000e+00
0.000000000000000e+00 0.000000000000000e+00 0.000000000000000e+00
0.000000000000000e+00 0.000000000000000e+00 0.000000000000000e+00
0.000000000000000e+00 0.000000000000000e+00 0.000000000000000e+00
0.000000000000000e+00 0.000000000000000e+00 0.000000000000000e+00
0.000000000000000e+00 0.000000000000000e+00 0.000000000000000e+00
0.000000000000000e+00 0.000000000000000e+00 0.000000000000000e+00
0.000000000000000e+00 0.000000000000000e+00 0.000000000000000e+00
0.000000000000000e+00 0.000000000000000e+00 0.000000000000000e+00
0.000000000000000e+00 0.000000000000000e+00 0.000000000000000e+00
0.000000000000000e+00 0.000000000000000e+00 0.000000000000000e+00
0.000000000000000e+00 0.000000000000000e+00 0.000000000000000e+00
0.000000000000000e+00 0.000000000000000e+00 0.000000000000000e+00
0.000000000000000e+00 0.000000000000000e+00 0.000000000000000e+00
0.000000000000000e+00 0.000000000000000e+00 0.000000000000000e+00
0.000000000000000e+00 0.000000000000000e+00 0.000000000000000e+00
0.000000000000000e+00 0.000000000000000e+00 0.000000000000000e+00
0.000000000000000e+00 0.000000000000000e+00 0.000000000000000e+00
0.000000000000000e+00 0.000000000000000e+00 0.000000000000000e+00
0.000000000000000e+00 0.000000000000000e+00 0.000000000000000e+00
0.000000000000000e+00 0.000000000000000e+00 0.000000000000000e+00
0.000000000000000e+00 0.000000000000000e+00 0.000000000000000e+00
0.000000000000000e+00 0.000000000000000e+00 0.000000000000000e+00
0.000000000000000e+00 0.000000000000000e+00 0.000000000000000e+00
0.000000000000000e+00 0.000000000000000e+00 0.000000000000000e+00
0.000000000000000e+00 0.000000000000000e+00 0.000000000000000e+00
0.000000000000000e+00 0.000000000000000e+00 0.000000000000000e+00
0.000000000000000e+00 0.000000000000000e+00 0.000000000000000e+00
0.000000000000000e+00 0.000000000000000e+00 0.000000000000000e+00
0.000000000000000e+00 0.000000000000000e+00 0.000000000000000e+00
0.000000000000000e+00 0.000000000000000e+00 0.000000000000000e+00
0.000000000000000e+00 0.000000000000000e+00 0.000000000000000e+00
0.000000000000000e+00 0.000000000000000e+00 0.000000000000000e+00
0.000000000000000e+00 0.000000000000000e+00 0.000000000000000e+00
0.000000000000000e+00 0.000000000000000e+00 0.000000000000000e+00
0.000000000000000e+00 0.000000000000000e+00 0.000000000000000e+00
0.000000000000000e+00 0.000000000000000e+00 0.000000000000000e+00
0.000000000000000e+00 0.000000000000000e+00 0.000000000000000e+00
0.000000000000000e+00 0.000000000000000e+00 0.000000000000000e+00
0.000000000000000e+00 0.000000000000000e+00 0.000000000000000e+00
0.000000000000000e+00 0.000000000000000e+00 0.000000000000000e+00
0.000000000000000e+00 0.000000000000000e+00 0.000000000000000e+00
0.000000000000000e+00 0.000000000000000e+00 0.000000000000000e+00
0.000000000000000e+00 0.000000000000000e+00 0.000000000000000e+00
0.000000000000000e+00 0.000000000000000e+00 0.000000000000000e+00
0.000000000000000e+00 0.000000000000000e+00 0.000000000000000e+00
0.000000000000000e+00 0.000000000000000e+00 0.000000000000000e+00
0.000000000000000e+00 0.000000000000000e+00 0.000000000000000e+00
0.000000000000000e+00 0.000000000000000e+00 0.000000000000000e+00
0.000000000000000e+00 0.000000000000000e+00 0.000000000000000e+00
0.000000000000000e+00 0.000000000000000e+00 0.000000000000000e+00
0.000000000000000e+00 0.000000000000000e+00 0.000000000000000e+00
0.000000000000000e+00 0.000000000000000e+00 0.000000000000000e+00
0.000000000000000e+00 0.000000000000000e+00 0.000000000000000e+00
0.000000000000000e+00 0.000000000000000e+00 0.000000000000000e+00
0.000000000000000e+00 0.000000000000000e+00 0.000000000000000e+00
0.000000000000000e+00 0.000000000000000e+00 0.000000000000000e+00
0.000000000000000e+00 0.000000000000000e+00 0.000000000000000e+00
0.000000000000000e+00 0.000000000000000e+00 0.000000000000000e+00
0.000000000000000e+00 0.000000000000000e+00 0.000000000000000e+00
0.000000000000000e+00 0.000000000000000e+00 0.000000000000000e+00
0.000000000000000e+00 0.000000000000000e+00 0.000000000000000e+00
0.000000000000000e+00 0.000000000000000e+00 0.000000000000000e+00
0.000000000000000e+00 0.000000000000000e+00 0.000000000000000e+00
0.000000000000000e+00 0.000000000000000e+00 0.000000000000000e+00
0.000000000000000e+00 0.000000000000000e+00 0.000000000000000e+00
0.000000000000000e+00 0.000000000000000e+00 0.000000000000000e+00
0.000000000000000e+00 0.000000000000000e+00 0.000000000000000e+00
0.000000000000000e+00 0.000000000000000e+00 0.000000000000000e+00
0.000000000000000e+00 0.000000000000000e+00 0.000000000000000e+00
0.000000000000000e+00 0.000000000000000e+00 0.000000000000000e+00
0.000000000000000e+00 0.000000000000000e+00 0.000000000000000e+00
0.000000000000000e+00 0.000000000000000e+00 0.000000000000000e+00
0.000000000000000e+00 0.000000000000000e+00 0.000000000000000e+00
0.000000000000000e+00 0.000000000000000e+00 0.000000000000000e+00
0.000000000000000e+00 0.000000000000000e+00 0.000000000000000e+00
0.000000000000000e+00 0.000000000000000e+00 0.000000000000000e+00
0.000000000000000e+00 0.000000000000000e+00 0.000000000000000e+00
0.000000000000000e+00 0.000000000000000e+00 0.000000000000000e+00
0.000000000000000e+00 0.000000000000000e+00 0.000000000000000e+00
0.000000000000000e+00 0.000000000000000e+00 0.000000000000000e+00
0.000000000000000e+00 0.000000000000000e+00 0.000000000000000e+00
0.000000000000000e+00 0.000000000000000e+00 0.000000000000000e+00
0.000000000000000e+00 0.000000000000000e+00 0.000000000000000e+00
0.000000000000000e+00 0.000000000000000e+00 0.000000000000000e+00
0.000000000000000e+00 0.000000000000000e+00 0.000000000000000e+00
0.000000000000000e+00 0.000000000000000e+00 0.000000000000000e+00
0.000000000000000e+00 0.000000000000000e+00 0.000000000000000e+00
0.000000000000000e+00 0.000000000000000e+00 0.000000000000000e+00
0.000000000000000e+00 0.000000000000000e+00 0.000000000000000e+00
0.000000000000000e+00 0.000000000000000e+00 0.000000000000000e+00
0.000000000000000e+00 0.000000000000000e+00 0.000000000000000e+00
0.000000000000000e+00 0.000000000000000e+00 0.000000000000000e+00
0.000000000000000e+00 0.000000000000000e+00 0.000000000000000e+00
0.000000000000000e+00 0.000000000000000e+00 0.000000000000000e+00
0.000000000000000e+00 0.000000000000000e+00 0.000000000000000e+00
0.000000000000000e+00 0.000000000000000e+00 0.000000000000000e+00
0.000000000000000e+00 0.000000000000000e+00 0.000000000000000e+00
0.000000000000000e+00 0.000000000000000e+00 0.000000000000000e+00
0.000000000000000e+00 0.000000000000000e+00 0.000000000000000e+00
0.000000000000000e+00 0.000000000000000e+00 0.000000000000000e+00
0.000000000000000e+00 0.000000000000000e+00 0.000000000000000e+00
0.000000000000000e+00 0.000000000000000e+00 0.000000000000000e+00
0.000000000000000e+00 0.000000000000000e+00 0.000000000000000e+00
0.000000000000000e+00 0.000000000000000e+00 0.000000000000000e+00
0.000000000000000e+00 0.000000000000000e+00 0.000000000000000e+00
0.000000000000000e+00 0.000000000000000e+00 0.000000000000000e+00
0.000000000000000e+00 0.000000000000000e+00 0.000000000000000e+00
0.000000000000000e+00 0.000000000000000e+00 0.000000000000000e+00
0.000000000000000e+00 0.000000000000000e+00 0.000000000000000e+00
0.000000000000000e+00 0.000000000000000e+00 0.000000000000000e+00
0.000000000000000e+00 0.000000000000000e+00 0.000000000000000e+00
0.000000000000000e+00 0.000000000000000e+00 0.000000000000000e+00
0.000000000000000e+00 0.000000000000000e+00 0.000000000000000e+00
0.000000000000000e+00 0.000000000000000e+00 0.000000000000000e+00
0.000000000000000e+00 0.000000000000000e+00 0.000000000000000e+00
0.000000000000000e+00 0.000000000000000e+00 0.000000000000000e+00
0.000000000000000e+00 0.000000000000000e+00 0.000000000000000e+00
0.000000000000000e+00 0.000000000000000e+00 0.000000000000000e+00
0.000000000000000e+00 0.000000000000000e+00 0.000000000000000e+00
0.000000000000000e+00 0.000000000000000e+00 0.000000000000000e+00
0.000000000000000e+00 0.000000000000000e+00 0.000000000000000e+00
0.000000000000000e+00 0.000000000000000e+00 0.000000000000000e+00
0.000000000000000e+00 0.000000000000000e+00 0.000000000000000e+00
0.000000000000000e+00 0.000000000000000e+00 0.000000000000000e+00
0.000000000000000e+00 0.000000000000000e+00 0.000000000000000e+00
0.000000000000000e+00 0.000000000000000e+00 0.000000000000000e+00
0.000000000000000e+00 0.000000000000000e+00 0.000000000000000e+00
0.000000000000000e+00 0.000000000000000e+00 0.000000000000000e+00
0.000000000000000e+00 0.000000000000000e+00 0.000000000000000e+00
0.000000000000000e+00 0.000000000000000e+00 0.000000000000000e+00
0.000000000000000e+00 0.000000000000000e+00 0.000000000000000e+00
0.000000000000000e+00 0.000000000000000e+00 0.000000000000000e+00
0.000000000000000e+00 0.000000000000000e+00 0.000000000000000e+00
0.000000000000000e+00 0.000000000000000e+00 0.000000000000000e+00
0.000000000000000e+00 0.000000000000000e+00 0.000000000000000e+00
0.000000000000000e+00 0.000000000000000e+00 0.000000000000000e+00
0.000000000000000e+00 0.000000000000000e+00 0.000000000000000e+00
0.000000000000000e+00 0.000000000000000e+00 0.000000000000000e+00
0.000000000000000e+00 0.000000000000000e+00 0.000000000000000e+00
0.000000000000000e+00 0.000000000000000e+00 0.000000000000000e+00
0.000000000000000e+00 0.000000000000000e+00 0.000000000000000e+00
0.000000000000000e+00 0.000000000000000e+00 0.000000000000000e+00
0.000000000000000e+00 0.000000000000000e+00 0.000000000000000e+00
0.000000000000000e+00 0.000000000000000e+00 0.000000000000000e+00
0.000000000000000e+00 0.000000000000000e+00 0.000000000000000e+00
0.000000000000000e+00 0.000000000000000e+00 0.000000000000000e+00
0.000000000000000e+00 0.000000000000000e+00 0.000000000000000e+00
0.000000000000000e+00 0.000000000000000e+00 0.000000000000000e+00
0.000000000000000e+00 0.000000000000000e+00 0.000000000000000e+00
0.000000000000000e+00 0.000000000000000e+00 0.000000000000000e+00
0.000000000000000e+00 0.000000000000000e+00 0.000000000000000e+00
0.000000000000000e+00 0.000000000000000e+00 0.000000000000000e+00
0.000000000000000e+00 0.000000000000000e+00 0.000000000000000e+00
0.000000000000000e+00 0.000000000000000e+00 0.000000000000000e+00
0.000000000000000e+00 0.000000000000000e+00 0.000000000000000e+00
0.000000000000000e+00 0.000000000000000e+00 0.000000000000000e+00
0.000000000000000e+00 0.000000000000000e+00 0.000000000000000e+00
0.000000000000000e+00 0.000000000000000e+00 0.000000000000000e+00
0.000000000000000e+00 0.000000000000000e+00 0.000000000000000e+00
0.000000000000000e+00 0.000000000000000e+00 0.000000000000000e+00
0.000000000000000e+00 0.000000000000000e+00 0.000000000000000e+00
0.000000000000000e+00 0.000000000000000e+00 0.000000000000000e+00
0.000000000000000e+00 0.000000000000000e+00 0.000000000000000e+00
0.000000000000000e+00 0.000000000000000e+00 0.000000000000000e+00
0.000000000000000e+00 0.000000000000000e+00 0.000000000000000e+00
0.000000000000000e+00 0.000000000000000e+00 0.000000000000000e+00
0.000000000000000e+00 0.000000000000000e+00 0.000000000000000e+00
0.000000000000000e+00 0.000000000000000e+00 0.000000000000000e+00
0.000000000000000e+00 0.000000000000000e+00 0.000000000000000e+00
0.000000000000000e+00 0.000000000000000e+00 0.000000000000000e+00
0.000000000000000e+00 0.000000000000000e+00 0.000000000000000e+00
0.000000000000000e+00 0.000000000000000e+00 0.000000000000000e+00
0.000000000000000e+00 0.000000000000000e+00 0.000000000000000e+00
0.000000000000000e+00 0.000000000000000e+00 0.000000000000000e+00
0.000000000000000e+00 0.000000000000000e+00 0.000000000000000e+00
0.000000000000000e+00 0.000000000000000e+00 0.000000000000000e+00
0.000000000000000e+00 0.000000000000000e+00 0.000000000000000e+00
0.000000000000000e+00 0.000000000000000e+00 0.000000000000000e+00
 2.714663029922855e+01  3.200301297812631e+00 -5.159886010913121e-16
 5.120383121504538e+00 -5.104154406665770e-01 -8.587899222629735e-17
-2.822796124850836e+01 -1.395993605745352e+01  6.457835136599317e-16
-2.859964371017770e+01  7.168825562072353e-02  5.082282039371850e-16
 6.193106575586590e+00 -8.544565957331979e+00 -2.242140767356990e-17
 2.527788148440330e+01  1.021336256181050e+01 -5.547886436644757e-16
-2.320900578718448e+01  3.304711398641104e-01  4.096364717761026e-16
 3.075309987600895e-01 -7.645924857990396e-03 -5.394321858850739e-18
 2.853905088542969e+00 -1.343380870818068e-02 -5.065061780806622e-17
 1.313363053556679e+01 -2.789642346921663e-01 -2.308623655475670e-16
 4.872761471462860e+00  5.076705449295182e-02 -8.723821586914386e-17
-8.602630631954656e-01 -2.815287863344516e-02  1.559866796931171e-17
 5.073579123502520e+00 -2.212325110991898e-01 -8.801730880288330e-17
 8.425457637856256e+00  1.052256042742969e-01 -1.510222237790844e-16
 1.501978315697932e+01  8.080729876019538e-02 -2.681252231641042e-16
 8.958564284962646e+00  3.704498567859495e-01 -1.632345753176412e-16
-2.839134865371708e+00 -8.884741561008670e-02  5.143866648265248e-17
 2.434519272706682e+01 -2.379482450603617e+00 -4.088034267861129e-16
-8.487397293322456e+00 -4.380693253852737e+00  1.960533907712253e-16
 3.689420138872305e+00 -1.543466652490835e-01 -6.407177634870809e-17
 1.430488585473372e+00  2.362942663791482e-01 -2.788508847530266e-17
-9.215083671035623e+00  1.427847223237537e+00  1.493227945420597e-16
 1.352507077255417e+01  3.261301579095796e+00 -2.742034566686110e-16
-6.687566440503753e+00  1.858861747789910e-01  1.171033091157688e-16
 9.651174112566883e+00  1.092876538204668e+00 -1.829830650877894e-16
-4.568818158815217e+00 -3.067026472116587e-01  8.445882730665650e-17
 1.481057987959074e+00  1.039843801432303e-01 -2.742559529319822e-17
 2.290999584785119e+01  3.731886589423500e+00 -4.460544831639845e-16
-3.585334776076404e+00 -3.963658275376285e-01  6.787782397724374e-17
-3.454445081784917e+00 -4.782341201950771e-01  6.638965271596906e-17
-3.176981146635417e+01 -7.054715112478799e+00  6.378663264405062e-16
 3.326062831143831e+00 -1.421360944498273e+00 -4.458728816415090e-17
 2.576099013262202e+00  3.313926552509778e-01 -4.924969397041629e-17
-5.776161925590625e+00  6.553239363803092e-01  9.606047612664399e-17
 9.979183471835180e+00  3.155114952326743e-01 -1.808332394890396e-16
-3.981988687734470e+00  2.356773044792327e-01  6.844273990360605e-17
 1.363377759996636e+01 -2.619506397368925e-01 -2.399378876766712e-16
-5.626707939500051e+00 -1.433581161971077e-02  1.002812748201925e-16
 1.114063959142350e+01 -1.156318036733422e+00 -1.863802227764688e-16
-2.907673648297211e+00 -1.237603709573315e-01  5.301711381288917e-17
 9.913391740714491e+00 -2.235451765842395e+00 -1.534521760836607e-16
-3.786748881348255e+00 -3.865562365092368e-01  7.136143824509992e-17
 2.258160431803215e+00 -2.838311576519478e-01 -3.727039648219917e-17
 1.879642534942548e+00  2.783236988647889e-01 -3.631015593999372e-17
 1.037735354436591e+00 -1.376062128465616e-01 -1.705388456703169e-17
-7.907931101469983e-01 -5.546939912570723e-02  1.464303462101490e-17
 1.498037711683098e+00 -2.445020227766819e-01 -2.414719854412496e-17
 2.680597704801251e+00  5.382858807658013e-01 -5.323512557142804e-17
 2.072500470069505e-01  1.843503196522022e-02 -3.877675045473691e-18
 1.099202910781136e+00  1.652111645104642e-01 -2.125911167289150e-17
-2.507276139383697e-01  5.496102584110371e-02  3.897292396058204e-18
 3.976518894938639e+00  4.003824914029228e-01 -7.488068175850078e-17
-3.318080098916648e+00  6.556355221339640e-01  5.231277642706052e-17
 4.655823333216182e+00  5.359953185606434e-01 -8.836308708212633e-17
 1.970168268944440e+00 -9.350870627632787e-02 -3.410072645356102e-17
-1.523174284593840e+00 -3.454507162835994e-01  3.065608392002657e-17
-1.470165576253029e+00  1.260658442764917e-01  2.486806934264574e-17
 7.075775694226174e+00  4.772582211728556e-01 -1.308255235667212e-16
 1.133113884781496e+01 -6.634124347365511e-01 -1.948348103138076e-16
-4.827698360762758e+00 -6.049482443577938e-01  9.213027446279222e-17
-1.267927358632686e+01  1.932257527316727e+00  2.057895537054530e-16
 9.225792080803572e+00  4.936075744529110e-01 -1.692556135223061e-16
 4.867452253817758e+00 -6.835391393152458e-02 -8.591980731383900e-17
-1.370771881574270e+00 -8.921341829652452e-02  2.531115621255175e-17
 1.446197656505898e+01 -1.417399962149918e+00 -2.428048540845004e-16
-2.132691639282549e+00 -2.006948160378220e-01  4.001585801831852e-17
 4.149596925316393e+00 -2.148107369651378e-01 -7.163992481708556e-17
-2.861893586207251e+01 -1.530577190532697e+01  6.665693477291270e-16
 1.448442986118797e+00 -2.186249855983822e-01 -2.353047840317664e-17
 2.970061541717222e+00  2.546357262810100e-01 -5.547207753584753e-17
-1.675513242606625e+00  1.066612298757229e-01  2.872185139045036e-17
 5.030652841952704e+00  7.135203472159627e-01 -9.685763046855369e-17
-1.281834345118579e+01  6.088614353592782e-01  2.218618818965810e-16
 1.612416952038366e+01 -1.234310659575855e+00 -2.742667365835167e-16
 8.493859319809330e+00  1.942589755871464e-01 -1.531542988426841e-16
-2.413170218536852e+00 -8.136195250756730e-02  4.378120707561800e-17
 2.506470173400521e+01 -2.764934075096006e-01 -4.432153962778893e-16
-8.574178875639321e+00 -1.009116878268003e+00  1.629560500789690e-16
-1.665005834089177e+01 -2.181578542861010e-01  2.985491417872011e-16
-3.248147294958309e+01  2.008223050989682e+00  5.574127942009964e-16
 1.451623905478757e+01 -2.372661827526216e+00 -2.339555512141303e-16
-2.806382703387503e+00  4.363959329402248e-02  4.949454681336016e-17
-5.306133760421050e+00  5.678636467394260e-01  8.859438693734546e-17
 4.873578319737205e+00  3.043406834748979e-01 -8.985812955171378e-17
 3.897679150119017e+00 -3.781714078116415e-01 -6.547827595883464e-17
 5.456963144902265e-02  1.546031592849334e-02 -1.129980705092647e-18
-4.989588661407937e+00  4.494310058864591e-01  8.417794171208087e-17
 1.011813058875952e+01  3.349829089631275e-01 -1.835060308822283e-16
 1.124844295429318e+00 -2.805742943006236e-02 -1.972966611650157e-17
 2.311201031427796e+00 -9.603506441567520e-03 -4.103190646116337e-17
 3.220090321703523e+00 -1.209821031940092e-01 -5.606230116763577e-17
 1.592228462843354e+01 -4.583530902568180e-01 -2.786466362656580e-16
 2.090060989017697e+01  2.480589524486767e+01 -6.268228459933722e-16
-1.211625504235823e+01  3.277130328538381e-01  2.122560789015465e-16
 1.061102815642692e+00 -5.673267760467796e-03 -1.882529956756965e-17
 3.343538503316891e+00 -7.000984202174039e-03 -5.943032339979515e-17
 4.556261543390022e-01  6.879108708121202e-04 -8.115478922509196e-18
-2.909824590755957e-01 -1.674871212494014e-04  5.180100817260184e-18
-5.310938571320348e-01 -3.122706352328317e-04  9.454657164511557e-18
-1.505623242029794e+00 -7.464521983396454e-04  2.680203108873594e-17
-6.490820037463820e+00  4.575460421272506e-02  1.150417731430908e-16
 8.234403970552885e-01 -8.664823034350034e-03 -1.456507619350605e-17
-1.784321829892183e+00 -1.152229297873134e-02  3.187252275397042e-17
-2.519740467525789e+00  3.437701767317788e-03  4.480646613227537e-17
-5.123151753859105e+00 -9.173271491874128e-02  9.211511689408210e-17
-6.175214778235850e+00  1.638174544221411e-01  1.082121481571483e-16
-4.035486824852913e+00 -3.474604586830276e-02  7.217330473970109e-17
-6.153556981225891e+00  1.250074297846906e-01  1.082254807916857e-16
-3.025899902961850e+00  3.190502642828837e-02  5.352168564429489e-17
 1.180105137715357e+01  4.346701184212971e-02 -2.104603938161613e-16
 9.802250555685834e+00  2.514601575636857e+00 -2.002793588351221e-16
-9.817880849940121e+00  8.857059333365180e-01  1.656205941863730e-16
 1.535322729197149e+01  3.781917621779358e-01 -2.771147766230997e-16
-2.390620372303395e+01 -7.167926340911455e+00  4.990872508511641e-16
-1.800504484185285e+01  3.724241912163611e-01  3.165947268769737e-16
-6.372341007039373e+00  1.296477929537585e-01  1.120713254517332e-16
-4.461217988834611e+00  3.793063708121009e-01  7.549546048445630e-17
 1.201242693338082e+01 -2.523445440711143e-01 -2.111827176946539e-16
 1.604992093703681e+01  2.095878046735252e+00 -3.071618736686754e-16
-1.655430055903264e+01 -7.151255995471574e-01  3.019511808752539e-16
-1.446687583417216e+01  1.859377338446980e+00  2.383508854835239e-16
 5.026983266268610e+00 -3.445502623220945e-02 -8.910715074795697e-17
 1.511084787764689e+01  2.561367493013405e-01 -2.715472748846971e-16
-5.940327081455352e+00 -1.472493971636972e-01  1.072281403402170e-16
 3.315683741536843e-01 -1.915481359503857e-02 -5.703845978112257e-18
 5.769559588641769e-01  3.895413433410942e-02 -1.066785908979344e-17
-2.667946944539941e+00  3.888124716162156e-02  4.707980761174965e-17
 4.235638316212061e+00  2.495618364284560e-01 -7.794239351351692e-17
-1.509950420605346e+00 -5.524413158925069e-03  2.692813020707837e-17
 4.360764650670600e+00  1.594094956647110e-01 -7.924288332958038e-17
-1.373168474785625e+00 -4.449631428881731e-02  2.489435444813897e-17
-2.448498431686619e+00 -7.933559038196035e-02  4.438909464058484e-17
 2.096457831998741e+01  4.385739934214019e-01 -3.775958672140593e-16
-1.797092489928439e+00 -1.259432488477990e-01  3.327542563024385e-17
 8.907614828489367e+00  4.730027735176859e-01 -1.633815629748954e-16
-2.156643513564394e+01 -2.437168031683471e+01  6.342106001752028e-16
-5.055004897130789e+00  7.974910614098037e-01  8.176591099649239e-17
 9.170187501502181e-01  1.928707796064922e-01 -1.830111971450293e-17
-2.419194794079105e+00  1.249417181409186e-01  4.176872630934741e-17
 4.148292108977416e+00  5.085487040619558e-01 -7.904895954125871e-17
-3.417177906533551e+00  1.714964146227081e-01  5.905069365212154e-17
 1.439017721902836e-03  1.875256870300018e-02 -2.182848716465265e-19
-4.775981634767923e-01 -8.925029791677737e-02  9.416443404461364e-18
-2.177001930542587e+01 -2.414442222443302e+01  6.354986290598010e-16
-7.262059159834089e+00  3.913828280676321e-01  1.252156888708134e-16
 1.633986440000618e+00  2.379134372866921e-01 -3.152321193488741e-17
 7.213810765074877e+00 -9.949992000700051e-01 -1.181551122108437e-16
-7.518433312938819e+00 -4.234305782761565e-01  1.381500844876035e-16
-5.827144432279382e+00  8.275191985544355e-01  9.519852689084163e-17
 6.875013191063085e-01  1.166459309539361e-01 -1.343340059259715e-17
 1.442196577925008e+01 -3.724242513915858e+00 -2.183908456467283e-16
-7.690985121563374e+00 -4.735794323196532e-01  1.417361110036053e-16
-3.142551514150125e+01  7.932251540847760e+00  4.777535246257321e-16
 1.546286807587238e+01 -4.081429272406154e+00 -2.332449790928208e-16
 7.368432059702057e+00 -2.283902553908130e+00 -1.076637688146087e-16
-2.412392853963887e+00 -1.594646831795491e+00  5.931582535384434e-17
-1.946980880773621e+00 -1.415961590128639e+01  1.801337568145028e-16
-3.209807802229572e+01 -5.313564395562553e+00  6.258185302761942e-16
-1.113741519835881e+01  1.523135512342454e+01  4.170694786763879e-17
 3.103944827627854e+01  7.426326957309664e+00 -6.286868189835035e-16
 2.272307616552011e+00 -1.695246877047711e-01 -3.869661995919375e-17
 2.756549330636580e+01  4.219853508064657e-01 -4.948965808798856e-16
-2.736008213598850e+01 -9.908534156652548e+00  5.887118868693812e-16
-6.068247737212935e-01  3.674117084980618e-01  7.024148861769884e-18
 6.260700974161684e+00 -4.132686415128574e-01 -1.071704567077063e-16
 9.259281974853753e+00  2.107393002131493e+01 -3.813069430170362e-16
 3.192315918962417e+01  4.822237752733307e+00 -6.176574382280252e-16
 1.738161380674542e+01  5.265504575295458e+00 -3.634276979403735e-16
-2.787836412082437e+01 -5.185051835499308e+00  5.494032680889032e-16
-1.635015358568509e+01 -1.925756796669698e-01  2.929491313805290e-16
-5.193717152761085e+00  1.246244185267797e-01  9.114792139547308e-17
 2.508085705934882e+00 -9.088245717089877e-02 -4.370059265748998e-17
-2.416251145027443e+00  3.815910211856621e-02  4.260800042282300e-17
-1.688090476744963e+00  6.278594265487741e-02  2.939648090518097e-17
-3.997378580339446e-01  8.929565748174410e-03  7.022063968685089e-18
-1.456433242912409e+01  3.520080853156881e-01  2.555729133942906e-16
-1.891305124777785e+00  7.298665330896703e-02  3.290811937482717e-17
-7.723732367123874e+00  2.584723103372240e-01  1.347973215849743e-16
 8.840392538051807e-01 -7.257905527016255e-02 -1.498680961406035e-17
-1.561204820777119e+01 -2.414681278936146e-01  2.803160178713387e-16
 2.169618478058555e+01 -1.260922532941583e+01 -2.565542786301349e-16
 8.247452872044487e+00  2.242460725749034e+01 -3.771779551272628e-16
 1.026243465798980e+01  6.031213810190514e-01 -1.888291193178939e-16
 7.915328197043714e+00  1.159364133494729e+01 -2.599831600850443e-16
 8.854064464766775e-02 -3.256787936689311e-01  1.770544908112550e-18
 5.768638401841486e+00  2.240067362610909e+01 -3.328185854248220e-16
 3.022465385637645e+00 -6.094110330534094e+00  8.826392965222722e-18
-9.885256233466750e+00 -7.685434328537277e+00  2.548849720637119e-16
-2.383243497446234e+01  2.213818206251872e+01  1.966648302053091e-16
-2.174493400907584e+01  2.186151149823303e+01  1.623579500018449e-16
 6.254223007549070e+00 -1.087104445582861e+01  3.946739167410193e-19
 3.250294198689119e+01  1.627479069822902e+00 -5.951503797970325e-16
 2.110532463844256e+00 -4.997545712020183e-01 -3.242464605791336e-17
-2.837076726759963e+01 -4.541596291364146e+00  5.515548974641316e-16
-2.805362742845952e+00  5.144668741193454e-01  4.463881612583270e-17
 2.326825352051248e+01  1.771999473809268e+01 -5.961528355454921e-16
-1.433466852581624e+00 -2.484086975399303e+01  2.807411652865876e-16
 7.955737068685618e+00  5.617310531908595e+00 -1.992976561970621e-16
-5.823266630871431e+00  1.284861670612343e-01  1.023118272499209e-16
 6.543517950450304e+00 -4.903753367187366e+00 -6.606542287263725e-17
-3.575979672897544e-02  1.419751529783649e+01 -1.452379239054796e-16
-1.493439931664759e+01 -1.272853631964067e+01  3.965565370058640e-16
-1.549497530831850e+01  7.218149729186878e-01  2.683351820445563e-16
 3.880773949393506e+00  4.676489935133155e-01 -7.386792505826099e-17
 2.436021732327529e-01  1.374452882202769e-01 -5.747391658754886e-18
 2.003528624965890e+01  9.964943698346332e+00 -4.589379943076926e-16
-7.585639811705387e+00  2.452466882342945e+00  1.097973025959685e-16
 2.430710601910290e+01  2.161783437401049e+01 -6.546893412946940e-16
-5.695358680564245e+00  1.082988736689636e-01  1.002429698118198e-16
 1.336793151709988e+00  4.529942523725100e-01 -2.844418009732827e-17
-3.216363523982367e+01  3.625926741218433e+00  5.351351751970574e-16
-3.644089726213012e+00  1.353219098339699e-01  6.346054004649677e-17
-3.155302142585874e+00  1.179481073591310e-01  5.494049145164335e-17
 6.680680564131891e+00 -3.298488080353528e-01 -1.155016029639509e-16
-1.760877311483110e+01 -1.356678243415969e+00  3.273084981945730e-16
-6.372743801249116e+00  8.487581135399946e+00  2.620376475633351e-17
 2.421095400114418e+01  1.373435253864893e+00 -4.449743546351810e-16
 2.047445387663617e+01  8.734674043835746e-01 -3.733418898445543e-16
-1.628043934928673e+01 -2.365784123075328e+00  3.140374106937586e-16
-1.789811224624870e+01  1.236652974683938e+01  1.914566563166774e-16
 1.084125280674920e+01  1.081856272282390e+00 -2.040487057971272e-16
-5.696499403643236e+00  1.536754175620745e-01  9.979704282889658e-17
 5.671627649323340e+00 -1.009998375669703e-01 -9.989564230670364e-17
 3.014040104519311e+00 -3.913130800689120e-03 -5.359823293851018e-17
-5.248363646724108e-01 -2.122691532529468e-03  9.361899045169091e-18
 2.192264098412652e+00 -4.497291487789443e-02 -3.855187429732076e-17
 8.262218003266222e-01 -7.642677999134618e-03 -1.462507675985549e-17
 2.694536810491822e-01  2.790995091773987e-03 -4.823926017115111e-18
-3.009270048191661e-01  1.684917676682063e-03  5.338043090734034e-18
 4.953174598916972e-01 -7.504969602993164e-04 -8.807053950831881e-18
-9.429281813690448e-01  2.779759589637061e-03  1.675197073324896e-17
-8.400267848246277e-01  7.661148264305265e-03  1.487056314271591e-17
 4.054288157770068e-01 -3.869427537938677e-03 -7.175332429282875e-18
 1.841414602557234e+00 -1.384977144513194e-02 -3.262786799397896e-17
-5.494098078673117e+00 -9.473700463054675e-02  9.874741721912850e-17
 3.441856258897217e+00 -2.477496892881117e-01 -5.870639967512357e-17
-6.919192495955668e+00 -6.864323192926487e-01  1.301881267138585e-16
-2.191912031071626e+00  4.421157202098954e-01  3.446511078685221e-17
 5.158738912483682e+00  2.421619464436411e-01 -9.429403854946506e-17
-7.104541637535312e+00  6.252987490160762e-01  1.200090755508658e-16
 8.924260096329865e+00 -5.542575376405430e-01 -1.531230587899432e-16
-2.971115409094849e+00 -1.243839621797331e-02  5.300234279512975e-17
 2.167636515486663e+01 -6.159471350011946e+00 -3.224704438397263e-16
-5.892341554581325e+00 -8.940446303740608e-01  1.140472303956479e-16
-9.260997838187391e+00  1.329952716650201e+00  1.511457224197166e-16
 1.228314439183996e+01  3.012125016924468e+01 -5.280781096220516e-16
 3.014819619962541e+01  6.844808484046299e+00 -6.068510340897592e-16
-4.697119234993379e+00 -1.691321267790777e+00  1.009685513254866e-16
-2.635022438670562e+00  8.229440044647530e-02  4.604782239464864e-17
-1.802957569342507e+01 -6.513427786058148e+00  3.877809102822376e-16
 9.462506269370477e+00 -2.072306829820435e+00 -1.471043864741582e-16
-2.310977202275215e+00  1.124355015331252e+01 -7.439679750284701e-17
-2.306186623498085e+01  4.460160926149825e+00  3.645868855741748e-16
 5.662591826263704e+00  7.899359010827783e-01 -1.088888805602400e-16
 7.566194802233788e+00 -7.822933042243376e-01 -1.266116822740483e-16
-2.230743146700486e+00 -3.344611276577161e-01  4.313520180623128e-17
 1.722328687977157e+01 -7.084960555392472e+00 -2.337135387583597e-16
-1.451602949914068e+01 -4.541058538266469e+00  3.049877871293621e-16
-6.092154776537062e+00  1.764639272509987e+00  9.028613374211190e-17
 7.653087427742401e+00  2.091047498368234e+00 -1.576805731372929e-16
 1.702707533080391e+01 -1.125462790947073e+01 -1.873799028269115e-16
 2.730701996581372e+00  3.833274613625104e-01 -5.253464974107288e-17
 4.631586744735539e+00 -1.027772772750761e+01  2.317530791596197e-17
 3.226021891890107e+01  3.022329075827698e+00 -6.051624103669641e-16
-6.615575694184392e+00 -6.706870936043334e-02  1.184211674461498e-16
 1.165106419434452e+01 -6.499856104256240e+00 -1.405609249848228e-16
 2.191366988692747e+01  3.912292603755566e+00 -4.301772804790803e-16
-6.191333271400485e+00 -1.689206203409642e-01  1.119177588636776e-16
 1.009516674583967e+01  2.813789471737051e-01 -1.825466006662103e-16
-2.128529701241513e+01 -4.938531554772140e+00  4.295388680765526e-16
-1.240201437950505e+01  4.517900840664398e-01  2.160666605645694e-16
-8.002282489058754e+00  1.232496729457744e-01  1.411438167424427e-16
 1.092634466852904e+01 -2.037660684733925e+00 -1.735111134805216e-16
 1.293512881485897e+01  8.852940148047287e-01 -2.392921212706676e-16
-7.688094504494314e+00 -7.699684954170680e-02  1.376099270610424e-16
-5.224800525589317e+00  1.234435507935443e-01  9.171322008796181e-17
 2.121312411859334e+01 -5.860731312104571e-01 -3.714911590999279e-16
-2.494941280422909e+00 -4.979666759857331e-02  4.491209884282553e-17
 3.592316126412015e+00 -8.991156229825734e-02 -6.300574189634064e-17
-3.879651054879748e+00 -4.796395621289502e-01  7.397114059840082e-17
-3.755294913640097e-01  2.638516648821397e-02  6.411897254370669e-18
-3.109868347385341e+00 -1.794615022179553e-01  5.718771857257248e-17
 8.915802977235041e+00 -1.218378588411758e+00 -1.461489517408730e-16
-3.923507888801897e+00 -3.361610415656561e-01  7.327743559734644e-17
-7.140755969764550e-01 -2.324179434776883e-02  1.294662802224425e-17
-3.140486738688632e+00 -6.142817595765491e-01  6.220022955173928e-17
-2.506054345695679e+00  3.040088170155841e-01  4.147464622937395e-17
 3.521509133582542e+00  6.761106138728308e-01 -6.961624659733309e-17
-1.082964180565043e+01  2.946230653483147e-01  1.896992490269326e-16
 1.378854715406984e+01 -2.330203183399255e-01 -2.429894450557345e-16
-7.744961572332136e+00 -2.585368684355871e+00  1.643945537606123e-16
 4.817480504253630e+00 -1.688021921309788e+00 -6.838900000522609e-17
 3.332569683469180e+00  5.565377733709495e-01 -6.502527620120503e-17
-2.161673156961083e+00  3.781834688837736e-01  3.458385461894968e-17
-3.172925358205487e+00 -4.516153988254653e-01  6.110617571077865e-17
 6.841739741774401e+00 -3.922937750161540e+00 -8.145015966111946e-17
 2.707475151001177e+00  3.223225328347665e-01 -5.149449682204458e-17
-3.012453342346078e+00  6.333619155615733e-01  4.710263701136860e-17
-9.375328979870629e-02  7.292968575582774e-02  9.191255970710832e-19
 2.348393427687641e+00 -2.741586671817501e-01 -3.897558158407569e-17
 3.895019385364584e+00  9.354826561692150e-01 -7.892826057927832e-17
 8.721294168017513e+00 -1.542879875627615e+00 -1.393533026099672e-16
 1.996128449416932e+00  4.150416984664245e-01 -3.978788951261304e-17
-6.589540967913366e+00  9.177728209665529e-01  1.078389594784232e-16
 1.878533745547947e+01  3.776398302012541e+00 -3.731086086567598e-16
-9.003304385010273e+00 -2.399867652079874e-01  1.626903178948548e-16
-1.065994151837262e+01 -9.400648483277482e-01  1.993651997462524e-16
 1.953402489141923e+01 -6.989734571603367e-01 -3.404495756148488e-16
 6.055928099953852e+00  3.474928714856619e+00 -1.434760945701378e-16
-7.073595138888873e+00 -8.215535718991451e-01  1.343242276874441e-16
-2.577996977119704e+01 -1.909670239842376e+01  6.549969934022461e-16
 1.236720913284125e+01 -8.849476453232127e+00 -1.291640828774197e-16
 3.752384508168606e+00  4.704601584138559e+00 -1.151162305633802e-16
-3.171066852136937e+01  7.315970738958638e+00  4.891602305359743e-16
-1.459625533282748e+01  5.286513419934810e+00  2.054407697553354e-16
-1.639274987452834e+01  3.755118286098106e+00  2.531460617495360e-16
 2.237130845795664e+01 -1.174407696185900e+01 -2.774579949561298e-16
 4.025048127705398e+00  1.117845835871301e+00 -8.311599255811797e-17
-1.276031413912443e+01  4.716384996619906e+00  1.786258685891804e-16
 7.576636632567219e+00  3.661081315572736e-02 -1.352114494213725e-16
 1.777801321496741e+01 -4.620086638927375e+00 -2.689112396963929e-16
-5.348075154947963e+00 -6.766733648854877e-01  1.021279498002411e-16
 1.234496703061738e+01 -4.677612967548867e+00 -1.716326399246611e-16
 6.557115502944580e+00  6.205045289995820e-01 -1.230671506241561e-16
-9.676147380108928e+00  3.060967009152189e+00  1.407482606874092e-16
 1.232593444250498e+01  1.906706704306942e+00 -2.389454249934876e-16
-2.506270723098168e-01  8.343664797594459e-02  3.602926459767201e-18
 3.959692568886573e+00  1.252125314034805e-01 -7.175396583346850e-17
 3.248949960370036e+00 -8.288499958932935e-02 -5.696732677712328e-17
 8.269044845667098e+00  7.004579138703865e-01 -1.543544673698025e-16
 4.818658917900212e+00  2.951604451391247e-04 -8.575681602570834e-17
 8.106770488889859e+00  1.017583129555163e+00 -1.547249479458479e-16
 1.833109495550644e+01 -2.605585691327248e-01 -3.235465562098058e-16
-5.406072445842645e+00 -1.924883757365285e+00  1.159849890976408e-16
-7.362986416786547e+00 -6.647012975045016e-01  1.378626905359553e-16
-2.232344985610744e+01 -2.359210731802542e+01  6.396727509190059e-16
 4.594012606087130e+00 -2.948307754874862e+00 -5.146314311157366e-17
 5.242487310437522e+00  3.386709455242586e+00 -1.280935245037103e-16
-5.017197178493237e+00  2.993236615365009e+01 -2.182571802761815e-16
-1.493769519052046e+00  7.081832084780224e-01  1.930708520655292e-17
-7.703113246937622e+00  1.906228247399526e+00  1.175002860793009e-16
 1.941282338557854e+01 -1.973960308478149e+00 -3.251926234980893e-16
 2.071692710499956e+01 -1.211068421975156e+00 -3.562391417945418e-16
 1.309829697571744e+01 -3.084070882802847e-01 -2.299310480940988e-16
 1.251324615819199e+01  6.519494384757414e-01 -2.293866853499721e-16
 6.785639479061887e+00  2.440479469920158e-02 -1.210092991453213e-16
-5.760885177190187e+00 -6.726764097197687e-01  1.094333292469689e-16
 7.602256483940141e+00 -1.853033830835108e-01 -1.333872974797248e-16
 3.051758955218796e+01  9.113975612318031e+00 -6.367396973871366e-16
 6.354708066100855e+00  4.389161531856958e-01 -1.175993142300111e-16
 1.024372464333855e+01  2.950019869916510e+00 -2.126096816835249e-16
-3.149557316227885e+01 -8.192606096085248e+00  6.446773452531774e-16
-1.284645625595786e+01 -7.316069861392975e-01  2.361350088867158e-16
-2.981937412487398e+01 -7.819371437020142e+00  6.110125333501987e-16
-1.937288553457197e+01  9.780336790362973e+00  2.442741992960091e-16
 2.845721048975077e+01  6.159884353836037e+00 -5.697205796801275e-16
 4.603646706178690e+00 -1.845373111478775e+00 -6.296684622495795e-17
 1.715606138875042e+01  5.052207568468766e+00 -3.572221743900546e-16
-2.121211429557577e+01  2.621787938730337e+00  3.505569579684784e-16
 2.213297752676939e+01 -3.415691793726029e+00 -3.587877438930922e-16
 1.756579583609467e+01 -1.298825881365597e-01 -3.112697937284096e-16
-1.780542990467697e+01 -1.178395321812838e+01  4.379447027932017e-16
 7.713588658239048e+00 -9.445970924979722e-01 -1.275671192855237e-16
 8.932939367983733e+00  3.713404109672912e+00 -1.971261899197936e-16
-3.185586565276085e+01  6.655354944634472e+00  4.985317739975794e-16
-1.080341047800484e+01  1.503168204505405e+00  1.768150690094853e-16
-6.396934016144256e+00  8.738983614655141e-01  1.048620831284382e-16
 7.376850281495311e+00 -1.152133368105164e+00 -1.194420983726970e-16
 1.250639316810623e+01  1.116785316044575e+00 -2.340407480192502e-16
-5.610669820732152e+00  6.185044680608375e-01  9.349365339234979e-17
 1.009425468956295e+01 -5.484021833617826e-03 -1.795829567344450e-16
-1.630638301080428e+00  4.226388950720505e-02  2.858490755432098e-17
 2.160342645992143e+00 -5.183036780657520e-02 -3.791333615211006e-17
-9.076797911091374e-01 -1.309990335905712e-02  1.628784134982205e-17
 2.463359933576147e+00 -1.046303450490615e-01 -4.276338964639430e-17
-6.675988423608347e-01 -5.762142762069710e-03  1.193992166720674e-17
 4.548629455012763e-01 -4.243476593583383e-02 -7.658826890704889e-18
-1.633214907368102e+01 -1.484231545962432e+00  3.059000144341423e-16
 4.750719585349774e+00 -5.932432967405782e-01 -7.844936251898076e-17
 1.140002213853679e+01  1.493103464795061e+00 -2.182180880027818e-16
-5.678085636490859e+00  2.855960899500027e-01  9.811391089313916e-17
 5.218501215669225e+00  2.330491734486900e-02 -9.310890358671186e-17
 4.733763539727106e+00 -1.469545222050389e-01 -8.273306452825783e-17
 9.121985497809584e+00  2.335289841150486e-01 -1.647360384974110e-16
 2.845694349468671e+00  2.063161116408228e-02 -5.085450773927839e-17
-2.519996555504884e+01 -1.921573711302911e+00  4.682069185031164e-16
 1.631011235939579e+01 -2.559003746866508e+00 -2.639650709555198e-16
 1.304082206182571e+01  2.543588973139918e+00 -2.582114369248966e-16
-5.656526889837525e+00  3.188470935485764e-01  9.738860528353986e-17
-4.915439502527931e+00 -3.592238740136574e-01  9.116700410148609e-17
 6.554392889237767e+00 -7.230344913518262e-01 -1.092143230821955e-16
-1.599370954527055e+00 -4.895327743713537e-01  3.349248535623344e-17
 2.377988479892587e+01 -2.045934396277929e+01 -2.129790887480466e-16
-2.243749546498085e+00 -4.600183566061498e+00  8.719541465178710e-17
-1.501417972266339e+01  2.607441476716754e+01 -7.099019236053866e-19
 2.660154134443019e+01 -1.830510389960238e+01 -2.853278668436716e-16
 1.938504980421726e+01 -2.426932308837122e+00 -3.200442367523626e-16
 1.596839536216095e+01 -4.025801861154484e-01 -2.800402780929644e-16
-1.173161779658642e+01 -2.444367369007822e-01  2.112896313378852e-16
-3.858297573915566e+00  6.356463163476134e-01  6.213197267892123e-17
 1.061148848198700e+01 -5.745971880332872e-02 -1.882537176544432e-16
 1.421753952279520e-01  9.844732687473309e-02 -3.541691271068699e-18
 1.200508311391719e+01 -5.131871634928797e-01 -2.083719625168938e-16
 2.956962046956566e+01  1.149384275306429e+00 -5.380361740876732e-16
 8.518677036669626e+00  2.381111305682738e-01 -1.540465246660271e-16
 3.429506254916985e+00  8.587829380172644e-02 -6.191452293263774e-17
 2.782750218498245e+00 -2.750344540405002e-02 -4.923977161245007e-17
 4.305885976624895e+00 -1.950672640357700e-02 -7.642795266483601e-17
-2.056705506038357e+00  2.864703008195027e-02  3.630718996532233e-17
 5.691386406590393e+00 -2.740494756281826e-01 -9.846925120392388e-17
-8.348961990645494e-01 -7.833201339976814e-02  1.566280675185883e-17
 5.150004753257869e+00 -4.133696177396869e-01 -8.740325508984493e-17
-1.340514200383391e+01 -6.724753836244614e-01  2.454699324937813e-16
 2.829304541257484e+01 -1.603393275105774e+01 -3.387656579277722e-16
-1.616288242973831e+01 -4.573020273688867e+00  3.346238946801520e-16
 8.007444864099842e+00 -3.387374861343329e+00 -1.076979868020186e-16
-3.920022106075669e+00 -2.121645332742559e+00  9.156060437724060e-17
 3.905733686397410e+00 -1.432877507852524e+00 -5.478489399582192e-17
-5.371449920251826e+00 -1.231882693044674e+00  1.082485057924545e-16
 3.231100043688267e+00 -1.209548636555052e+00 -4.507360662706904e-17
-1.168363585540784e+00 -1.691127323120010e-01  2.252999557071605e-17
-2.446243782155436e-01 -8.537406619070004e-03  4.441101358029896e-18
-3.905310386258771e+00 -1.608623298587754e+00  8.602767676452562e-17
-7.713999393736931e+00  8.939999174122272e+00  4.542457694012852e-17
 1.809299695101163e+00  2.114999050179478e+00 -5.392949319632563e-17
-1.429987942135476e+01  1.064392741689890e+01  1.451209242402203e-16
 5.309645758990138e+00  6.524517001328176e+00 -1.615285218804023e-16
-2.815882765358639e+01  1.631472804210262e+01  3.334920232007480e-16
-1.555595529487874e+01  2.435607376269297e+00  2.518117992835263e-16
-5.671254185692373e-01 -3.789967543141555e-01  1.398672730994988e-17
 7.982274893616642e+00 -4.457768310578457e-01 -1.374739083239813e-16
-1.704212115337951e+00  1.304811313548364e-01  2.898784122548727e-17
-4.875857323052775e-01  3.684318801384395e-02  8.298619347730260e-18
 2.259340894324313e+01 -2.427934539056608e+00 -3.771305171592175e-16
-1.912417523252005e+01 -2.954826122516875e+00  3.706972753856830e-16
 1.792501196556107e+01  3.321589717870393e+00 -3.531250973678427e-16
 2.016120344028112e+01  7.004764043852173e-01 -3.659898049657692e-16
-2.714132438209955e+01 -3.675550784611235e+00  5.207771918100488e-16
-4.214721295144821e+00  1.575332318684479e+00  5.882002560903587e-17
 1.613529741177135e+01 -4.074914631148315e-01 -2.829600375708071e-16
-5.685243118744087e-01  1.331960943385913e-02  9.980714142245855e-18
-1.147008291450973e+01 -3.215525020230271e-01  2.074276426343833e-16
-3.078897526212772e+00  1.731772281004424e-01  5.301332100166998e-17
 3.116094132280403e+00 -4.631604188405752e-02 -5.497873159798174e-17
-1.463172365246823e-01  4.512760199717467e-03  2.557522786551330e-18
 3.993600605703669e-01 -1.055353832377222e-02 -6.998654881540941e-18
-2.665988796769584e+00  8.004977000225974e-02  4.662196843851480e-17
 1.696002349468572e+00 -9.682333777239442e-02 -2.918756024751888e-17
-4.468101754013209e+00 -2.808690787440925e-02  7.980378323876837e-17
 1.776790270408121e+00 -2.305552783350182e-01 -2.925123056389583e-17
-3.357481504569575e+00 -7.771280514018204e-02  6.054885914779890e-17
 5.460859038672755e-01 -4.348734407748275e-01 -5.250083300819246e-18
-6.933413312336568e+00 -3.883932000359008e-01  1.273789594281713e-16
-1.021804537797971e+01  1.558775962739428e+00  1.658264492680207e-16
 1.941945021771067e+00 -2.587000846832597e-01 -3.190117870282992e-17
 1.536927061976956e+01 -2.856339934586437e-01 -2.705797182876874e-16
-6.456284033671657e+00 -1.701009372349673e+00  1.323745289813549e-16
-9.250195203114666e+00  1.314943259510226e+00  1.511076933577535e-16
 6.790251233194640e+00  4.257931837496367e-01 -1.252154906871867e-16
-1.100125590571370e+01 -5.306196736665539e-01  2.012323958805446e-16
-1.900273419541065e+01 -8.127384021374532e-01  3.465269141281288e-16
 5.542169553554785e+00 -1.059954345225733e+00 -8.773887230779233e-17
 8.726587551201582e+00  2.636846765533432e+00 -1.823926775487969e-16
-7.979652058078642e+00  1.847428468433834e-01  1.401092612107172e-16
-2.446510895146619e+01 -4.103435176441255e+00  4.775471025978392e-16
 1.536610437415441e+01 -5.410493980916644e+00 -2.178672965150364e-16
 5.498145471189081e-01  4.619569205111004e-01 -1.453104524952373e-17
-1.041763290055819e+01  1.913423304081467e+00  1.657344746992630e-16
 3.569133487112818e-01  4.371850614230101e-01 -1.084361647646739e-17
-4.271872997112488e+00  1.440984129817159e-01  7.454251678575364e-17
-2.387400217016030e+01 -7.381160587320359e+00  5.007050902272458e-16
-1.352559226914826e+01  2.235673331781585e+01  1.099673505489144e-17
 3.202486088710641e+01 -4.201651805486740e+00 -5.267501541566685e-16
 1.634654842004144e+01  6.339934588392417e+00 -3.560468527818782e-16
-2.937895790890675e+01 -6.903558162198195e-01  5.299267557033096e-16
-1.484867549835113e+01  8.731069664764970e-01  2.552790357269505e-16
 9.535786319076212e+00 -5.384867345416993e-01 -1.641679366671875e-16
 2.097937313322354e+00  1.486924179406482e-01 -3.886305757765222e-17
 9.192358762018461e+00 -8.425403736027517e-01 -1.549321929557060e-16
-7.052466039718650e+00 -1.352268082854672e+00  1.394011089771741e-16
 5.021846316450259e-01 -5.492729547464571e-01 -3.293394474645898e-18
-2.298760660543570e+01 -9.192019705615081e+00  5.035365434199928e-16
-1.940427206509341e+01  1.869521207862000e+01  1.532356549829546e-16
 2.748902680793755e+01  7.255222549629813e+00 -5.637447982215891e-16
-3.005857659545188e+01  7.608882138712486e+00  4.567497257896193e-16
 2.818037689787965e+01 -6.965917677826329e+00 -4.299311480425214e-16
-2.753811488872636e-03  9.034358349835016e-02 -8.792401412066664e-19
-2.301099719797121e+01  3.610388442925065e-01  4.057986006795903e-16
 7.817457109180759e+00 -4.672556595420350e-01 -1.343200920995685e-16
-1.431926971157615e+00 -2.623275166831359e-02  2.575238051633974e-17
-3.769236355235029e+00  1.549688589805128e-01  6.548580835247722e-17
 4.177741946780611e+00  2.071973084942782e-01 -7.647677842133157e-17
 1.780306515085254e+01  1.028537624386445e+00 -3.273946309856649e-16
-2.975922454832966e+01 -5.819286507941809e+00  5.893919538006352e-16
-1.538367096855587e+01  2.704223257894979e+01 -4.078340845104582e-18
 3.245778592593108e+01 -1.258264279474813e+00 -5.646968092165403e-16
-2.693742168469451e+01 -1.543417850777508e+01  6.379641283566567e-16
-1.327173127190450e+01  5.142667681924255e+00  1.833472467982736e-16
 2.294207338221981e+01  3.420299112189182e+00 -4.434238930009210e-16
-2.700379919479515e+01 -1.625392792405003e+00  4.972651384380216e-16
-1.641568635364181e+01  1.643846453366136e+00  2.752467948580919e-16
 1.196445089273646e+01 -1.234079295650620e+00 -2.002419588929857e-16
 1.278299960800937e+01 -2.170086614133030e-01 -2.252590409782634e-16
 8.902008903165205e+00 -2.714601585098411e-02 -1.581429516812706e-16
-2.526526643366538e+01 -6.176565572967676e+00  5.130875211980865e-16
 3.266016502124347e+00  2.851255305926152e+01 -3.510787843622246e-16
 1.289620657410494e+01 -2.169377750410247e+01 -6.607696013435371e-18
-1.407126127007658e+00 -5.438643534470022e+00  8.092157451984423e-17
-2.029785191061675e+01  2.137568559053990e+01  1.415970826392004e-16
-2.304804122439428e+01 -7.243307212802099e+00  4.845897365994349e-16
-1.035220586690716e+00  2.098103364002975e+01 -1.971495136310714e-16
 2.245542277772472e+01  1.166552895493676e+01 -5.194801063872355e-16
-2.632413912729466e+01 -1.307269047050091e+00  4.819011708854162e-16
-1.842821421189616e+01  1.066348679439970e-01  3.268564193395823e-16
-8.809843376884245e+00  2.607355745271487e-01  1.541027083457486e-16
 4.945316057387846e+00 -1.022008619062572e-01 -8.695772149703472e-17
-8.622200074210275e+00 -5.049555458298188e-01  1.586305700531628e-16
-4.531419617499223e+00  8.322553277009586e-01  7.209089620884215e-17
 5.027560148219863e+00  2.366623179465732e-01 -9.190304928831164e-17
-5.876988835714747e+00  8.052542407370470e-03  1.045052896957666e-16
 3.233148264636886e+01 -1.403870305153949e+00 -5.609530426750495e-16
 3.484617327080600e-01  1.556744163808040e+01 -1.661511000231067e-16
-3.060323275905661e+01  1.042094806813907e+01  4.375495760314493e-16
 8.489188579774929e+00 -3.619929527481953e+00 -1.138817761787053e-16
 2.873456273321582e+01 -1.253701379156783e+00 -4.984844934383236e-16
 6.839215093106917e+00 -1.794915418882355e-01 -1.198677803047195e-16
 4.550890229826516e+00 -3.895677746477708e-02 -8.058825339623040e-17
-3.163762605942953e+00 -1.018037929100255e-01  5.734892643187555e-17
 6.595295339240474e+00 -8.259753398694647e-01 -1.088845511390827e-16
 3.874045433911667e+00  7.483739677295280e-01 -7.663253027954604e-17
-1.085559835675761e+01  7.835003420984669e-01  1.851381403891616e-16
 3.102053285962777e+01  7.487260434424740e-01 -5.597402729679219e-16
-2.571067631184369e+01 -1.991213048875781e+01  6.621420610248960e-16
-2.423226284186658e+01  3.579123556906056e+00  3.944678281901723e-16
 2.382994448083004e+01 -4.759996605013351e+00 -3.751750514710348e-16
 1.741271372268702e+01  3.262871174028226e+00 -3.434048273883012e-16
-1.045771189258823e+01 -2.843921858279885e-01  1.890294839373791e-16
 8.553700551465885e+00  2.269764255732747e-01 -1.545554048540931e-16
-1.560305907415397e+01 -2.161972867046801e+00  2.998885340503680e-16
-1.461730127134145e+00 -9.452105952418106e-02  2.698440077605688e-17
-1.037610314170271e+00 -1.152683974435917e+00  3.030892233015999e-17
-1.216058283493216e+01  1.372725681568099e+01  7.536950015400681e-17
 2.724977382843943e+01  1.036116483118510e+01 -5.913994347145160e-16
-1.462481807993359e+01  9.607775923940978e-01  2.503944420928749e-16
 2.280810923484363e+01 -2.226691446085507e+00 -3.830190646136306e-16
 1.919406404355962e+01  3.882964773137355e+00 -3.814773176424686e-16
-2.770015326723995e+01 -2.595549338776424e+00  5.196255958804036e-16
-1.553394621803004e+01  6.209140617306877e-01  2.700654360891567e-16
-2.487263674155497e+00  1.330209745495190e-01  4.289708180728890e-17
 1.989352524513717e+00 -1.409131228071071e-01 -3.395507000875524e-17
-6.514509583084159e+00 -5.777296018272612e-02  1.165270650006177e-16
 2.562097459124972e+01 -8.388912492354862e+00 -3.697627762494330e-16
 2.229755088206144e+01  9.416119887862559e+00 -4.935587266946086e-16
 2.168264047603185e+01 -2.876126717052798e+00 -3.563172940631524e-16
-1.694205102779066e+01 -1.257944441045870e+01  4.307532288031458e-16
-1.987689105089496e+01  1.578879023129662e+01  1.915089022556166e-16
 3.132989210369433e+01  1.145978251624949e+00 -5.693273118644152e-16
-5.510008034856404e+00 -6.214394875194240e-01  1.044422305524607e-16
-1.066605032136028e+01 -1.425218762593023e-01  1.912794488972223e-16
 3.284385162986097e-01 -2.452167432422441e-02 -5.593003877638659e-18
-2.410184707933286e+00 -5.295452885571203e-02  4.343620041998478e-17
-8.506548431567605e+00 -9.130623598308725e-02  1.523223147305611e-16
-1.050286419392554e+01  9.311659997594821e-03  1.868153226881624e-16
 4.894036538519594e+00 -3.414705376731048e-01 -8.358673230040443e-17
-1.769496182641788e+01 -2.587404762692724e+00  3.414875970240108e-16
 1.196129350977625e+01 -5.050439825908240e+00 -1.609740514168908e-16
 2.725775124756371e+00  3.335825954028867e-01 -5.193585975184841e-17
-9.899744762880145e+00  1.123077208369485e+00  1.646385565936645e-16
-1.489514434495497e+01 -9.572396614013730e-01  2.749121509735213e-16
-1.295081389938079e+01  4.674178955560000e+00  1.824496907978180e-16
 6.972263721958743e+00  3.632753467632251e-01 -1.278122719637936e-16
 6.492288398863492e+00 -9.702240844724735e-01 -1.055693163136230e-16
-8.327371479096552e+00 -6.956627256925293e-01  1.553431905199836e-16
-2.307472389190996e-02 -2.958762808629513e-02  7.146443644608147e-19
-6.266188211730980e-03 -3.347865871902955e-02  4.554953503041927e-19
 5.168562228284948e+00 -1.518744127685346e+00 -7.637618594883960e-17
 9.181338668214629e+00  1.577148219174193e+00 -1.795974985071379e-16
 1.389934285457527e+01  2.893499594579528e+01 -5.446519579237864e-16
-4.477964814995396e+00 -8.925543162732413e-01  8.886139675322978e-17
 2.301266885547433e+00 -4.095279156161269e-01 -3.674603871138775e-17
 6.421075674301443e+00  1.397038854006405e+00 -1.286247676874906e-16
-1.164862177767125e+01  3.660619250642178e+00  1.696895864368775e-16
 1.653471554660433e+01  3.843650747226770e+00 -3.337471016137889e-16
-9.901921147972431e+00  2.171337901604726e-01  1.739855274372539e-16
 3.641953065739463e+00  1.093796384661586e-01 -6.593673513597403e-17
 4.425147496564494e+00  2.201150952322790e-01 -8.101238084831406e-17
-3.161472096329638e+00 -2.860089234110185e-01  5.920080488376301e-17
 8.096648857843558e+00 -7.972483164544256e-01 -1.358980876239378e-16
-9.529544200078709e+00 -1.304195046749674e+00  1.829897365989922e-16
-2.005337148496739e+01  5.631635144503731e+00  2.990106607353642e-16
-1.689766986313012e+00  6.349996657638603e-03  3.000617525495205e-17
-1.288850661720389e+00 -5.976433385924470e-04  2.294277548642101e-17
 1.168700782793805e+01  8.134069904040468e-01 -2.163417064045677e-16
-1.249336857385163e+01 -9.445597094341330e-01  2.320394042857265e-16
-1.870443629008814e+01 -3.996894995593028e-01  3.369744196535446e-16
 1.616451443688577e+01 -5.144370317217886e+00 -2.348102799292017e-16
 1.349094341377484e+01  4.312122502732910e+00 -2.843929228767342e-16
-2.356247651305378e+01  1.343152858382347e+00  4.055219682042965e-16
-7.868002800788146e+00  3.250023568115265e-01  1.366812140123142e-16
 1.211940924599771e+01 -1.144573051782746e+00 -2.039192717709213e-16
-2.974175357970184e+00 -3.513940517812133e+00  8.903346052775736e-17
-1.631921522059492e+01  2.154101067299416e+00  2.682872951744326e-16
 2.776980690899994e+00  7.110863758505590e-03 -4.949274544112954e-17
-5.338577155145986e+00  4.097262851048765e-01  9.079655982411940e-17
-2.651857179320172e+00  2.279766155081574e-01  4.485058483242322e-17
 4.339888231343432e+00 -5.093638806367965e-01 -7.199995904616911e-17
-1.217475732058008e+01  4.592481491904209e-02  2.161924683138160e-16
 8.400526628276433e+00 -3.098072068271757e+00 -1.176658267763371e-16
 2.115718997545535e+01  1.380283965584895e+00 -3.906993491138728e-16
 1.068874369134736e+01 -1.322813275290409e+00 -1.766275181222392e-16
 3.082678794223485e+01 -1.101063729740692e+00 -5.372864331200435e-16
-1.624685467518449e+01 -7.469803884282838e+00  3.658816802445320e-16
 7.699780484616235e+00 -3.781226502919417e+00 -9.817604964516300e-17
 2.101657805993362e+01  5.781356254316552e+00 -4.334164113742627e-16
-3.176525232514462e+01  7.074756316446434e+00  4.926100049662026e-16
-8.327625090091342e+00 -7.317579888371200e-01  1.557185695376963e-16
-5.168099238786007e+00  3.509179802321655e-01  8.836693591144777e-17
-4.769226649746260e-01  2.286067748618248e-02  8.252522557112552e-18
-3.180570700766455e+00  1.076010953616667e-01  5.549648737291930e-17
 5.659068032348970e+00  6.954687005389683e-01 -1.078555542606387e-16
-7.175010249956130e+00  4.113128080471322e-01  1.234617763756437e-16
-6.294490715381109e+00 -1.042150022297451e-01  1.130887419098484e-16
 2.424651307053500e+00 -2.995570426722257e-01 -4.007172243757041e-17
-8.576760470824844e+00 -4.546564305434853e-01  1.573051129765094e-16
 6.778566123324995e+00 -1.260330750771763e+00 -1.076832293124732e-16
-6.763864570762738e+00 -3.140749216877451e+00  1.526410955223632e-16
-3.669568936197516e+00  2.590369554071741e+01 -2.008467051613544e-16
 1.236721868282036e+01  1.039258141174178e+01 -3.268694072917694e-16
-7.108619421285709e+00  2.181148043001667e+00  1.040958582645468e-16
-1.892545127240725e+00 -5.232841141108066e-01  3.905665223082920e-17
-1.274147252994671e+01 -3.641458760967018e+00  2.641643681849207e-16
-1.769536815826568e+01 -2.585737633536240e+01  5.805853327735427e-16
-1.171997389271921e+01  1.172399287780874e+01  8.811114769012514e-17
-1.161465892508724e+01 -4.645651778144175e+00  2.544290944165265e-16
-7.840301160212658e+00  6.030811086123222e+00  7.756311829526140e-17
 3.019250662851904e+01  3.312929590626192e+00 -5.713508184284077e-16
 1.239652352858893e+01  9.413034655651747e-02 -2.215780784189655e-16
-2.925971530943906e+01 -1.314066278984321e+01  6.557270726478216e-16
-2.730097718271169e+00  1.428168015085391e-01  4.711795471848186e-17
 2.121066485842225e+00  1.041387362698980e-01 -3.881689590830920e-17
-4.760245555162629e+00 -7.110205966930390e-04  8.472155335890239e-17
 6.936385057020157e-01 -9.261756172527294e-03 -1.224896343113161e-17
 6.550039338438369e+00  2.212436576351680e-01 -1.188389614087704e-16
-2.840536135486736e+00 -1.497510967819416e-02  5.070459265746927e-17
 1.678898803420137e+00 -5.495767064872625e-02 -2.931333676840972e-17
-7.872718941798655e+00 -6.895056000149045e-02  1.408128664190526e-16
 1.040872485929437e+01  4.988570847338994e-01 -1.903612501669133e-16
 3.026291361795180e+01  3.180905240872009e+00 -5.712472925472962e-16
-1.831662092760273e+01 -4.400359672983722e+00  3.711782153652218e-16
-2.884401836006532e+01 -6.247211661142337e-01  5.197324961765292e-16
-2.356131221355648e+01  2.244893076966563e+01  1.886470472221456e-16
 2.354420209232634e+01 -9.658960260820489e+00 -3.197548529194353e-16
 1.614719590225269e+01  2.339361925141965e+00 -3.113947060285138e-16
-3.820907494809374e+00  1.132180361929970e+00  5.636486468346464e-17
-4.990001619882622e+00 -2.303378978210615e-01  9.116966934010259e-17
-9.611211921744403e+00  7.433717222611066e+00  9.466423680978410e-17
-5.158387737235979e+00 -2.981453835426808e+00  1.224330180744680e-16
-2.726614797538962e+00  9.435577236881761e-01  3.882864990492633e-17
 4.806972744996832e+00  8.429621010697076e-01 -9.420694333253476e-17
-9.817593270288437e+00  4.013041169637094e-01  1.705925290759097e-16
 5.686148160652583e+00  8.409996498106947e-01 -1.098327550857851e-16
-1.983432868809475e+01  8.399492528128114e-01  3.443453648629511e-16
 1.774940434516908e+01  2.971857188991509e-01 -3.189252978792246e-16
-1.133825449201433e+01 -2.370517924730765e+00  2.261339739804505e-16
 2.314991722432970e+01 -3.310196473326550e+00 -3.779693249660885e-16
-1.996311913343055e+01 -1.283634604300693e+01  4.871563103658231e-16
-8.240166179233508e+00  1.862530493533004e+00  1.275067621752239e-16
 5.422163376508307e+00  5.442344591531860e+00 -1.524119787080156e-16
 5.202004060555296e+00 -1.314552814283913e+00 -7.906931480725618e-17
-1.816375469415096e-01 -7.093541024947139e-01  1.052081253586939e-17
 1.219179347689637e+00 -2.087076428856816e-01 -1.955235556876762e-17
-2.749054086537174e+00 -3.895572935829103e+00  8.894829346713248e-17
-4.194918833115994e+00 -1.270701248125734e+00  8.770957822872144e-17
-4.040893028861139e+00 -8.502846915350645e+00  1.592761748140873e-16
 8.588256207508418e-02  2.022860748899463e+00 -2.231254198698438e-17
 2.346680165452747e+01  1.340625541987994e+00 -4.313941680918476e-16
-8.035437329928586e+00  1.149431881424335e+00  1.311901972768243e-16
 2.254455431197940e+01 -3.903861422573534e+00 -3.610964781393677e-16
 6.410141345629856e-01  2.154448983690109e+01 -2.327694177686045e-16
 1.718259715852058e+00 -2.098568618824710e+00 -9.016451049418386e-18
 7.269408263449511e+00  1.162024420956418e+01 -2.487615792572919e-16
-5.206096416669679e+00  6.868717657118343e+00  2.207511706102061e-17
 8.980114262434318e+00  3.835153419923594e+00 -1.992166533560658e-16
 8.511607814739476e+00 -4.924097014055447e+00 -1.008809060408224e-16
 1.420280813862795e+01  4.845295760670053e+00 -3.025395663356672e-16
-9.132943926653558e+00  5.385458877487045e+00  1.071979977858047e-16
 3.737647662318797e+00  9.723964862217176e-01 -7.650691924322595e-17
-7.509560754928482e+00  1.034447495896887e+00  1.230130191271633e-16
-1.470415681776312e+01 -2.966496208812724e+00  2.921576812204387e-16
 5.218996930567090e+00 -4.403021633635453e+00 -4.763882814662613e-17
 2.308408538520660e+01  4.315189648646780e+00 -4.551458411723012e-16
-1.185517530643487e+01  1.163713211810658e-01  2.097813128731071e-16
 8.163587720066584e+00  1.132263470305093e-01 -1.464441409541953e-16
 7.996090675226648e-01  1.918999489916584e-02 -1.442716738987467e-17
 1.448108560647854e+01  6.451169078299936e-01 -2.643365339068548e-16
-1.768166503855688e+01 -5.868567870842221e+00  3.749637238028777e-16
 1.433023755402119e+00 -1.719590602957907e-01 -2.373555020780125e-17
-1.050216277590354e+01 -2.917817347437302e+00  2.168780271954131e-16
 9.441666566021446e+00 -1.794637191490161e+00 -1.495864737518019e-16
 1.439179954473696e+01  5.205500784395283e+00 -3.096038695968640e-16
 1.144739741725280e+01 -1.748462623977066e+00 -1.857552736910557e-16
-1.142065824522756e+01 -8.708675255891759e+00  2.927227111911925e-16
 7.043825422814335e+00 -2.680555200868368e+01  1.500640336034643e-16
 9.040968368653674e+00  1.574646759025584e+00 -1.770737399979248e-16
 3.360852453011376e+00 -1.481621456079940e+00 -4.458725611763896e-17
 4.603200679173021e+00  1.017021272404322e+00 -9.236897110578982e-17
-5.390233120664883e+00  1.451065507653261e+00  8.101645712424740e-17
-9.224298474684455e-01  9.715183662049282e-02  1.541753962105710e-17
-1.117400370118736e+01  1.982926110295842e+00  1.784808792552367e-16
 1.443326474208050e+00  1.108784070147854e-02 -2.579963980371643e-17
-3.723236920552819e+00  2.047502045018058e-01  6.415570826639088e-17
-1.011094849016290e+01  6.852429707604851e-01  1.728957665663045e-16
 1.049294047062946e+01 -1.958611359791217e+00 -1.666103718877786e-16
 3.199773560227702e+00  4.529666843923984e-02 -5.740919414786983e-17
 3.518876157514061e+00 -3.465352078896223e-01 -5.906207531460654e-17
 2.881795339760121e+01  1.617933454340247e+00 -5.294735345104799e-16
 6.642144607173377e+00  5.715956600537775e-01 -1.240778240821946e-16
-2.296023298982525e+01 -9.539550575968823e-01  4.184062756831844e-16
-1.981677380833855e+01  9.464252544543271e+00  2.554213715051408e-16
 5.553237610073632e+00  5.797437278738038e-01 -1.047831436197704e-16
-1.243637542336255e-02  2.287619745815155e-01 -2.129126050231512e-18
-2.476115530290412e+01 -5.744468691867994e+00  4.996766238127514e-16
-1.379001138256241e+01  5.694774120531920e+00  1.868979665356472e-16
-1.149179085542594e+00 -4.532931653984735e+00  6.702523866336359e-17
 9.269569610489535e+00  3.765451847635551e+00 -2.036516983129900e-16
 1.012389776993507e+01  3.495142388881428e+00 -2.160781553807045e-16
-2.265856214724075e+01  4.508757768580700e+00  3.569102933391276e-16
 2.344085798175375e+01  5.012310092555702e+00 -4.686576943801709e-16
-1.166085500266579e+01  6.110922155149767e-01  2.012400738201214e-16
 2.848165032218964e+00  2.108109887430752e-01 -5.285250049068873e-17
-1.879607767185326e+01 -1.441033344247531e-01  3.359792323558546e-16
 1.004632587653774e+01 -2.953449820370257e+00 -1.484407286598098e-16
 1.185410388777421e+01  2.244121580626693e+00 -2.340154527867440e-16
-9.226165028738571e+00  5.543251539575621e-03  1.641336571586073e-16
-1.407157260535460e+01 -1.862876051867657e+00  2.695607943947754e-16
-1.357792028553139e+01  1.936178584804709e+00  2.217417562327916e-16
-3.032150695643850e+01 -6.584474902972445e+00  6.072604727641888e-16
-4.761091141778784e+00  3.332218338940541e+00  5.049196306189560e-17
 2.873627934383222e+01  1.061575839991861e+01 -6.204694299645658e-16
-2.060158279720043e+01  7.692973731815665e-01  3.587254892762044e-16
-4.187468253514220e+00  7.941252751674507e-03  7.443939905128801e-17
-5.788739936859778e+00  7.627085059957818e-02  1.022338769554107e-16
 3.149207690955906e+00 -1.585200492867510e-02 -5.588103376711925e-17
 2.026906883730958e+00  1.050367755649145e-01 -3.715044048842385e-17
 3.715851319944984e+00  8.317664786435190e-02 -6.698261651017920e-17
-1.555938869346566e+00 -9.155810274826229e-02  2.863051442388280e-17
-1.411064185830969e+00 -8.031027199096345e-02  2.593672930275572e-17
-6.932639202144161e+00 -5.459082338998628e-01  1.289835929427293e-16
-3.089049843386990e+01  2.731139179563166e+00  5.216718049740503e-16
 1.659050457643919e+01  6.416727005992516e-01 -3.018407727018526e-16
-2.683331417863025e+01 -8.107465117374742e+00  5.608320926537023e-16
 2.911830532448116e+00 -6.571719524062942e-01 -4.506729457524056e-17
 5.238636114474648e+00  1.794094658306858e+00 -1.116614493678076e-16
 2.071144253760361e+00 -6.275566637523128e-01 -3.041056579294518e-17
-6.756194022806341e+00 -1.023388701103752e+00  1.307494788517010e-16
-2.090745072617037e+01 -7.007482813448789e+00  4.440723652703393e-16
-8.176059762302058e+00 -1.892867342145376e+01  3.399879793876421e-16
 2.851360650982207e+01 -2.183763194089896e+00 -4.849962665828283e-16
 5.180713319366277e+00  7.358655652757841e-01 -9.975772468611529e-17
-1.258355458608845e+01  6.242074118348286e+00  1.598043200678789e-16
 2.240466753979761e+01  7.564543203230436e+00 -4.764407176086070e-16
 1.915013535111203e-01 -1.360355527165904e-01 -2.010279064538390e-18
-2.801950602683070e+01 -9.805579943834761e+00  5.993893044588597e-16
-1.752964468671052e-01 -4.206148701143650e+00  4.633625930358651e-17
 2.513241421320619e+01  8.945898643138632e+00 -5.391771487321356e-16
-2.306550720869415e+01  1.987826741726477e+00  3.900540166607701e-16
 5.805710563516924e+00 -1.016160420798115e-01 -1.022754768525033e-16
-1.465595387509115e+00  8.530882406813283e-03  2.599436642611518e-17
 3.512078516645705e+00 -1.056977316599766e-02 -6.239302597664278e-17
 4.061420975203993e+00  1.484050623970080e-01 -7.380263900037281e-17
-1.132029176293183e-01  2.059442644675813e-03  1.993420932361395e-18
-5.698931102565282e-01 -2.876417304979834e-02  1.043746911044412e-17
-1.498010076551358e+01 -1.490146755200432e+00  2.818994788360663e-16
 1.492856705954558e+01 -4.258743222747118e-01 -2.612959543089693e-16
-5.717024579997387e+00 -1.219006781834790e+00  1.142661237639219e-16
-8.076575000674658e-01 -1.487022120458001e-01  1.590108979585230e-17
 6.748816240976764e+00  2.836631498788415e+00 -1.492485936094912e-16
 5.540803083934076e+00 -5.269054950182528e-01 -9.319143763626750e-17
-1.940524391876744e+01 -6.576111930864564e+00  4.129066241168382e-16
-2.795507425097267e+01  3.323127691487664e+00  4.633499624849672e-16
-6.085904520216689e+00  1.764381438407467e-01  1.064930926355119e-16
-2.112775784488123e+01 -5.072789518777944e-01  3.812057599025667e-16
 1.159598844377910e+00 -6.518272768081118e-01 -1.393915617754060e-17
-3.914087037876213e+00 -1.247822237530193e-01  7.093793975227553e-17
 3.776239008195411e+00 -3.759016262904970e+00 -2.858015102988468e-17
 1.299219534311450e+01  7.646668971307472e+00 -3.097783596462345e-16
-1.437674293129012e+01  2.799788837832263e+01 -3.181684258316073e-17
 3.087309994179137e+01  7.315810613813900e-01 -5.569403698813181e-16
 1.356291630190460e+01 -1.376402211635540e+00 -2.272262413386742e-16
-2.545395591937046e+01 -5.801815817261619e+00  5.125950580595683e-16
-2.442258804565153e+01  3.923910704416218e+00  3.943123295451471e-16
 2.177424066801334e+01 -3.455855444819249e+00 -3.519909266596112e-16
 1.527756727616775e+01  2.158020869365071e+00 -2.940554139066900e-16
-1.586519454776492e+01  4.343298815797154e-01  2.778774798752916e-16
-4.806484114494537e+00 -1.395256553121153e-01  8.697069361303304e-17
 2.125135211540458e+01 -1.137154135777450e+00 -3.665093147617592e-16
-2.574614825457116e+01 -6.211579947672424e+00  5.220051467964619e-16
-1.122215860655682e+01  2.246130257457768e+01 -3.107002569141335e-17
 1.357682119735329e+01  3.247899960844658e+00 -2.749867204258112e-16
-2.529674144528634e+01  1.922319761822186e+01  2.526743167115988e-16
 1.371686565529257e+01  1.331278683691682e+00 -2.577863912952954e-16
 1.346229569956480e+00 -4.986239578070187e-01 -1.883458101496797e-17
 2.520704436411247e+00  5.612743433079970e-01 -5.062583226687333e-17
-1.477070788373985e+01  5.153877439206580e-01  2.575669440850804e-16
-9.307271396501133e-01 -8.745379224025089e-03  1.665325525619736e-17
 1.461238437433051e-01 -1.965427964830875e-02 -2.398507520985053e-18
 1.268253714975026e+01  8.283282069369220e-01 -2.342116482742320e-16
-2.082418492400019e+01 -1.526985942667765e+00  3.862804365486544e-16
 3.950860483218095e+00 -2.198734278028325e+00 -4.771907909893914e-17
-1.953623436202708e+01 -6.328841549943835e+00  4.126971419725860e-16
 8.567757635664112e+00  2.283836386018144e+01 -3.871293592615883e-16
-1.285603983195415e+01 -3.729270008012737e+00  2.671054586294291e-16
-2.878325932784810e+01  1.506593932727493e+01  3.574353800869121e-16
 9.939530174289626e+00  1.223736139716246e+00 -1.894592400344629e-16
 4.537977286541603e+00 -9.597232253178403e-01 -7.089791140245675e-17
 1.389206275786213e+01  2.777980400436479e+00 -2.757685672680807e-16
-1.105473218658054e+01 -5.771045602707808e-02  1.973250997930508e-16
-6.400040249767389e-01  1.119883544340606e-02  1.127457107583273e-17
-1.380873319036811e+01  1.452846819193812e-01  2.442501314467872e-16
-4.944921093614052e+00  3.152591398524006e-01  8.476159623185521e-17
 2.781516173528921e+01 -1.633420541071120e+01 -3.271759553594540e-16
 2.882802024832763e+01  4.142010735418921e+00 -5.555866632582487e-16
-8.602037661148474e+00 -1.844083106357330e+00  1.720308050768168e-16
-3.624704726342035e+00  6.763428469496187e-02  6.381102660321567e-17
-1.179137496767183e+01 -1.897640394221727e+00  2.293391486583658e-16
 4.159634178587135e+00 -1.322862043870943e-01 -7.266645930493553e-17
-1.155168785390445e+00 -3.800439021004299e-01  2.446241953116819e-17
 1.868821063533445e+01 -2.630004592560540e+00 -3.055566585755790e-16
-1.273914412672502e+01 -7.082834561799188e+00  2.994818176542549e-16
 8.983472691793496e+00 -1.328740200375386e+00 -1.462192895397043e-16
 1.677401117099368e+01  2.086676725674615e+00 -3.199533828780447e-16
 2.985709932943923e+01 -1.134311046093170e+01 -4.147963580227583e-16
 7.499392135607664e+00  1.121622520720024e+01 -2.487032681114937e-16
 6.869993950540780e+00 -1.474021913398037e+00 -1.071146974856753e-16
 2.500229298792010e+01  2.075856426627610e+01 -6.582323343583769e-16
-2.148978680535340e+01  1.216111535381378e+00  3.699412859155252e-16
-1.115077858386864e+01 -5.166713569591882e+00  2.515275110505283e-16
 5.556202139325385e+00  1.548605138966629e+01 -2.579927971278870e-16
 6.936024246951916e+00  7.706523351267216e+00 -2.026165529390609e-16
-1.672405251185110e+01 -1.021955295818463e+00  3.081246830424727e-16
 3.187548495577677e+01 -1.389156559975437e+00 -5.529891982397318e-16
-1.072394749499566e+00 -2.027611903268704e+01  2.274143011156045e-16
-1.470893455328082e+01  5.629826891719972e+00  2.039186096802890e-16
 1.801220889436477e+01  2.788096720152446e+00 -3.491954240260135e-16
 2.102006351675653e+01 -3.971054035454532e+00 -3.332759662843867e-16
 2.330847960960855e+01  6.909739053200727e+00 -4.857972566805097e-16
-2.001710788166049e+01  1.243803238737442e+00  3.434486855849036e-16
-9.440121830041852e+00 -1.870541527216200e+00  1.872173632254782e-16
 9.475395268494925e+00 -1.456644719075664e+00 -1.536594661323988e-16
-3.884364764081121e-01 -9.673028135733734e-02  7.906558938458900e-18
 4.911250942666116e+00 -6.926780253307880e-01 -8.028455379395831e-17
 6.175484463351819e+00  2.245950251271759e+00 -1.329764353640898e-16
-1.463023148174773e+00  4.251541899061770e-01  2.166793726360664e-17
 5.167811357455243e+00  8.707694059299580e-01 -1.009142068005022e-16
-4.991214407806329e+00  2.844609124866601e-01  8.590188158324942e-17
 6.554744842680418e+00  6.728526600963679e-01 -1.235628199077517e-16
-6.756169724477083e+00 -1.926190802074321e-01  1.222131903748447e-16
 9.744436866064408e+00  3.763871733079474e-01 -1.772811190862845e-16
-1.461951700995082e+01 -2.544718378870595e+00  2.863178009067856e-16
 3.189247684982789e+00 -4.536596789923413e-01 -5.209527842271311e-17
-2.675946743753797e+00  3.303666387136905e-02  4.728222456724036e-17
 9.763056406544353e+00 -3.232019866925719e+00 -1.405374045250394e-16
 1.861879033971354e+00 -3.026715556617833e+00 -2.035955518137633e-18
 3.829552408885657e-02  5.008983334036434e+00 -5.214699866469587e-17
-9.194572729025442e+00 -3.480921117757366e+00  1.993935893624058e-16
-1.220656658635946e+01  3.224687726376034e+00  1.840979179663566e-16
-1.837934569673117e+01 -9.073307996118800e+00  4.203073239318405e-16
 2.171635157652027e-01 -2.202689359482958e+00  1.876714920243309e-17
-5.702210938770288e-01  3.670772886779470e-01  6.376178759191224e-18
-2.707989752492832e+01  4.074838996171499e+00  4.400515881102169e-16
-1.514460750004518e+01 -7.868837431673212e-01  2.776013002223122e-16
 1.981807103701817e+00 -7.368484141071290e-01 -2.769777161649224e-17
 2.614586031408627e+00 -5.879972959036248e-02 -4.592553134692408e-17
-8.594991919312475e+00  6.859407971071531e-01  1.459103411736371e-16
-1.941680723611820e+00  3.390151702235529e-02  3.420619882429984e-17
 3.070017969691605e+01 -6.621975921830973e+00 -4.783079211844674e-16
-8.394467274333421e-01  1.250797573576735e+01 -1.135759511100121e-16
-3.124570820869269e+01  4.289656435058340e+00  5.119799872495213e-16
 2.716912850438744e+01 -6.473512712583877e-01 -4.768557510988033e-16
 1.303429573510651e+01  3.909040984013105e+00 -2.721248165439169e-16
-2.691414801103649e+01 -7.003347885680047e+00  5.509262236267609e-16
-3.069670667614074e+01  1.080750138996426e+01  4.352413609345608e-16
 2.229315866972511e+01 -1.309501912834394e+01 -2.621867862708458e-16
-7.355702128580097e-02  5.952607440780164e-01 -4.807052968401838e-18
-1.259254057301672e+00  1.377361308373983e+00  8.258040954751201e-18
-1.357741099789096e-04  5.920516097641419e-04 -3.666852971094981e-21
-9.520501494070025e+00  8.472119991310509e-01  1.607238850214672e-16
 3.453930980488853e+00  9.512235134042196e+00 -1.592015822542123e-16
-4.743258739586275e+00  5.161835590959448e+00  3.137596168429472e-17
 3.080827614857224e+01  9.705321425103934e+00 -6.479886754948065e-16
 1.358859028202984e+00 -3.530279408588027e+00  1.208982115824613e-17
 9.045864120022578e-01 -2.470338250758946e+00  9.283633891902408e-18
 1.877418337342063e-02  7.979939627144619e-02 -1.154018795646751e-18
 1.543677775200314e-01  4.029889078917880e-01 -6.887723382101236e-18
 6.715149722660437e+00 -2.386862059887179e+00 -9.497995884379115e-17
 9.611545237094939e+00  3.129494477148156e+00 -2.032033314443611e-16
-6.344804525892998e+00  1.814567804260175e+00  9.426933987802147e-17
 2.019777005838642e+00  1.556141766624267e-01 -3.754322023396719e-17
 1.364384807480514e+00 -4.679530482087211e-01 -1.947280755392808e-17
 6.599705362099840e+00  9.367658575196730e-01 -1.270745582122334e-16
-7.710552155613336e-01  1.359228538261480e-01  1.232528935527384e-17
 8.426756190399592e+00  2.445459293537233e+00 -1.750903842070848e-16
 2.169081342795380e-01  1.029867454885938e-01 -4.918290387361093e-18
 3.834089858960112e+00  2.994414227116391e-01 -7.130885433024041e-17
-2.806441401037948e+00  5.130658992959160e-01  4.467240660635814e-17
 3.464056312667462e+00  3.530904247504543e-01 -6.527489002110281e-17
-3.033911761025003e-01  4.504478836940016e-02  4.936389039553196e-18
 6.729351798713723e+00  4.753139236087688e-01 -1.246405202166055e-16
 3.258986131450857e-02  1.900188932383209e-02 -7.752129631260718e-19
 2.837240115443683e+00  6.964907546114954e-02 -5.120769118198059e-17
-7.153561287568579e+00  1.135078976961009e-01  1.261399038867605e-16
-8.961353614641772e-01 -9.643136706839013e-03  1.604687743084263e-17
-1.723302593389563e+01  4.035050174080230e-01  3.025363853166735e-16
 2.423561130799207e+01 -3.751590653314735e+00 -3.927553813729980e-16
 1.555630974702518e+01  2.506735586122866e+00 -3.025988856878807e-16
-1.826259319237854e+01 -1.144307295062844e+00  3.367619720305368e-16
-2.792559648399483e+01  1.529002109213655e+01  3.398698879976160e-16
 3.004193120568143e+01 -1.138248335073143e+00 -5.229369129430793e-16
 5.403531075387145e+00  1.150970775027631e+00 -1.079880876669691e-16
-1.076854425249920e+01  2.613747187810296e-01  1.889535598727916e-16
-2.751648237510149e+01 -2.807178937531975e+00  5.185313704625220e-16
 2.519489356579663e+01 -8.107038573699942e+00 -3.650763082429393e-16
 8.878545088406897e+00  1.015523571622821e+00 -1.684384363485850e-16
-3.413551607791228e+00  2.274317650466624e-01  5.841144392906073e-17
-1.323200200232265e+01 -1.727924828018903e+00  2.532330591433678e-16
 5.818833203537986e-01 -1.608849871383907e-02 -1.019000430079285e-17
 1.051233331133716e+01  7.273492607767914e-01 -1.945527602695922e-16
 1.930007723186283e+01 -1.591741970253592e+00 -3.271133258057512e-16
-9.915130148936118e+00 -1.847507840706803e+00  1.954340401178872e-16
-1.486547148796004e+01  9.259400194924209e-01  2.550350999724220e-16
 2.743310699628527e+01 -3.663969723661453e+00 -4.505589044391496e-16
 6.447631059388396e+00  6.574367317222040e-01 -1.214982092825986e-16
 3.855233575840557e+00 -4.125500195434564e-02 -6.818460001283991e-17
-9.168077313722335e+00 -1.684539839725242e+00  1.804649067852481e-16
 5.251514223507082e+00 -4.471502476492130e-01 -8.886265348765811e-17
-4.456189604699002e+00 -1.034177212564843e+00  8.992900472187641e-17
 1.266189878948444e+01 -5.425528653315121e+00 -1.695882566963268e-16
-1.679326601947399e+00 -2.125087800073361e-01  3.206907056977847e-17
 8.803569991198707e+00 -2.247753133552004e+00 -1.335751823952352e-16
-7.988836254223580e+00 -3.484705129921547e+00  1.779749499133993e-16
 6.476965573801924e+00 -5.250393776989169e+00 -6.131943964704737e-17
 7.285510758573155e+00  1.752790422353877e+00 -1.476636392829766e-16
-4.044970072220941e+00  4.958989689907351e-01  6.688988566273024e-17
 1.953037781888113e+00  7.129566737627799e-01 -4.208200782604573e-17
-3.170555328452042e+01  6.699953813024153e+00  4.953985489213107e-16
 1.735675343897172e+00 -1.535231898500914e-01 -2.931101812815025e-17
-4.350749373766494e-01  4.183329772906665e-02  7.312855548319784e-18
 3.979708806023668e+00 -9.097101633213475e-02 -6.988897124458442e-17
 4.074452687527226e+00 -1.177414610302604e-01 -7.129999499585972e-17
-3.103979852360623e+00  4.756440386501591e-02  5.475031707034828e-17
-6.510023057627934e+00  4.397992668237364e-01  1.113348480523149e-16
 1.159139892159867e+01 -6.090471959619429e-01 -2.000250318427005e-16
 1.544009484495229e+00 -2.643550397301279e-02 -2.720587532804701e-17
 1.012328475571385e+01 -5.751605442280597e-01 -1.742463620675853e-16
-9.950728088656442e+00 -1.576052574663254e+00  1.932784436715523e-16
-1.098470417155746e+01  3.209251863642473e+00  1.625120166935826e-16
 2.720180871110816e+01  3.375100306010298e+00 -5.187665630792052e-16
 8.136954426362131e+00 -3.467101893264096e-01 -1.412444888708841e-16
 3.209598816176911e+00  2.420270499160017e-01 -5.960537951948647e-17
-1.472956857150022e+00  1.346668190935005e-01  2.482937162952077e-17
 7.898328940614931e+00  1.722894817785856e-01 -1.423303968190747e-16
-1.317770068008727e+00  2.692438458502166e-02  2.317465194902712e-17
 9.181561890486716e+00  1.363366968772686e-02 -1.635369270013957e-16
-1.128962257158125e+01 -1.190514386149431e+00  2.131444032448657e-16
 2.250041266272423e+01 -3.716186280847492e+00 -3.622392187997938e-16
 6.393445322877664e+00  1.010346048327649e+00 -1.241599245150214e-16
 2.690123587082207e+01 -5.804969592434674e+00 -4.190956274949127e-16
 6.174995445351122e+00  2.035157079366773e+01 -3.189964065103614e-16
 6.832010757217343e+00 -7.744269210424265e+00 -4.201422807661324e-17
 3.169453229138705e+01 -7.149074593644650e+00 -4.905878643369548e-16
 2.392215603337592e+01 -5.542044343127640e+00 -3.687808096353515e-16
 2.537333055177706e+01  2.427573540053377e+00 -4.764911198436311e-16
 8.235967199859349e+00 -5.151993434818579e-01 -1.412753744398881e-16
 1.392826223383578e+01  8.911621661720217e-01 -2.570264082078157e-16
-2.578891112391884e+01 -5.025516966059496e-01  4.641079716967964e-16
 1.838069531045947e+00 -3.624194370909213e-02 -3.233826704838948e-17
-1.984633622188984e+00 -5.864991015858463e-02  3.592152922858233e-17
 1.254346325488947e+01 -7.474395066478624e-01 -2.155462215939552e-16
-1.092078963878285e+01 -1.215693280969222e+00  2.068392852072111e-16
 3.806604337789391e+00 -4.235462004202490e-01 -6.339128152160410e-17
-1.000622645462468e+01 -1.630762062443086e+00  1.948282233971719e-16
 1.511765601813132e+01 -5.597756849719020e+00 -2.115218037098328e-16
-1.223447414268704e+01 -5.081976084409502e+00  2.699425192735327e-16
-6.289923375928943e+00  2.731151374687661e+00  8.387510118931955e-17
-1.813022141365479e+01 -9.761322128088906e+00  4.229429553883373e-16
 5.863949419711100e+00 -1.423017272362114e+01  4.185388057894349e-17
-1.022988389118609e+01 -4.578095749077386e+00  2.290912572215700e-16
 5.719624641304387e+00 -3.989499779576996e+00 -6.079688215196923e-17
-2.127063480555548e+00 -1.396958339383943e+01  1.813860265168242e-16
-3.070566892839826e+01  5.439925066097713e+00  4.905507517433561e-16
 1.453834771069337e+01  2.382287684473186e+00 -2.832043800168419e-16
-2.073172577573178e+01 -2.608659558227363e+00  3.957488191814847e-16
-2.171607083562461e+01 -7.738313308732534e-01  3.944142201914734e-16
 2.182845658409562e+00 -1.633779407617683e-01 -3.716769329317746e-17
-1.135938121794359e+00 -1.000774146935479e-01  2.124363296248889e-17
-1.240521342226685e+01  1.332207241171375e+00  2.070776248787145e-16
-6.112075812003873e+00 -4.590141891051244e-01  1.134878838475924e-16
 3.223554214861162e+00 -3.260615011714790e-01 -5.401682895602202e-17
-1.768492665545795e+01 -2.181983794726161e+00  3.371434560257137e-16
 2.116405705882378e+01 -1.445373353832738e+01 -2.281327793664523e-16
-2.540986340832845e+00 -7.102013985690384e-01  5.251694431934491e-17
 2.129075457544953e+01 -8.062910216606351e+00 -2.960509007498650e-16
 2.302131166217710e+00  1.761235404088009e+00 -5.906522410585088e-17
-1.970454668142959e+01  3.920055534116078e+00  3.103887660478768e-16
 2.543117232862817e+01 -4.880010292001616e-01 -4.475640136972447e-16
 1.824272313742760e+01  1.147796901655606e+00 -3.364442151211078e-16
-3.530155353910181e+00 -2.052160748677872e-01  6.493184607814126e-17
-3.013432750002766e+00 -1.412537538312337e-02  5.377276343349177e-17
 2.120370028243235e+01 -1.128898200896911e+00 -3.657461202733580e-16
-1.675931941095680e+01 -3.048768244497521e+00  3.295770663401722e-16
 2.568500165696069e+00 -1.944630953775531e-01 -4.371148660293850e-17
 3.104168341959994e+01  9.594140862009386e+00 -6.510000963944660e-16
-1.292772128936632e+01 -1.464159173289123e+00  2.451079247065455e-16
-1.086217427350327e+01  7.971127091126647e-01  1.851153045514936e-16
 3.253809682343079e+01  5.947181171671754e-01 -5.851647584072457e-16
 2.610024470780447e+00  2.024690603966587e-01 -4.852879485748784e-17
-1.769600895162039e+00 -9.984817091556730e-02  3.251806244771142e-17
-8.709518101628712e+00 -6.756582005915246e-01  1.619384062658448e-16
-2.003985137313850e+01 -7.914574650908877e-01  3.647649975260895e-16
-2.433212209469119e+00  1.523405462927695e-01  4.173666993238457e-17
 2.008136344359446e+01  2.923330042973117e-01 -3.603754318245352e-16
 5.904015895237927e-01  2.578148676286908e-01 -1.315585464673732e-17
-2.312791272466014e+01 -2.321210457329566e+00  4.354383891284515e-16
 6.076437983503989e-01 -1.425553026391515e+01  1.356566486654479e-16
 9.478818682683670e+00  1.334720870136706e+00 -1.824006572752395e-16
-2.368409898008058e+01  8.483711710414628e+00  3.343197368466854e-16
 3.224248470592563e+01 -3.050295338901112e+00 -5.424527990443116e-16
-1.449502859366986e+01 -1.543221437735212e+00  2.738123637985273e-16
-2.711973269524420e+01  7.548842195431130e+00  4.050663816294153e-16
-1.352157987991637e+00  2.828462798771170e+01 -2.665510132514987e-16
 2.676017718616609e+01  1.111649451273535e+01 -5.904472165412232e-16
-2.672761753400936e+00 -1.345363491687646e+00  6.138810473235174e-17
-2.451181395488752e+01  3.572610024321372e+00  3.995096979045778e-16
-5.272743952792068e+00 -1.613857857916883e+00  1.104165714136962e-16
-4.166649310236675e+00  1.574916121141805e-01  7.253232552837814e-17
-1.229136927115058e+00 -1.937394226984495e-01  2.386455997780115e-17
 2.150211673239017e+00 -5.212698522804155e-02 -3.772999575371218e-17
 5.630630703514618e+00  1.993846569697491e+00 -1.206898390245938e-16
-7.219170870283760e+00  6.724991592751239e-01  1.215640724418281e-16
 4.515533749399476e-04 -2.574249067594448e-03  1.841354276597901e-20
 2.115354721751073e+01 -3.123898403028572e+00 -3.443556843281398e-16
 1.408649562267726e+01  1.335200426837557e+01 -3.878729860306685e-16
 3.243478469897398e+01 -2.456200387702661e+00 -5.519791166266356e-16
 1.207978975764426e+00  4.825116319228453e-01 -2.645505853973062e-17
-8.602209258184520e-01  9.232515678756567e-01  5.822583019837487e-18
-8.992993143225505e-01  1.596842500004061e+00 -4.028725806151166e-19
-1.528993984779017e+00 -1.642142558420464e-01  2.889751363615740e-17
-3.386249965165332e-02  8.398109300593939e-01 -8.026128652940830e-18
 1.015782894916754e-02  2.384969661129365e-02 -4.258176528586952e-19
 4.233637142735124e+00  1.406907460208819e+00 -8.979808608450259e-17
 2.153848798407217e+00 -1.677314807844436e+00 -2.109650821435416e-17
 6.841473135075440e-01  9.550358250373827e-01 -2.198786369157474e-17
 3.030622445053143e-02 -2.644661348930935e-01  2.177958052007298e-18
 1.342363377900844e+00  4.743982890472718e-01 -2.876322760857384e-17
 1.345865089535212e+00 -8.087106203172848e+00  5.914080374328821e-17
 3.949140527760715e+00  2.528754880581551e+00 -9.626170416997732e-17
 2.712715145230390e-01 -4.690527258917331e-01 -8.253824787788352e-21
 6.874365417505772e+00  4.763833223899267e+00 -1.712841884985934e-16
-3.344795812829592e+00  5.899724159491020e-01  5.346287905261876e-17
 6.643987165015553e+00  1.529753523325728e+00 -1.339553385616474e-16
-2.456145004588167e+00  2.953806601619632e-01  4.067510117585712e-17
 1.981979139666193e+01  4.488029392409749e+00 -3.988297013712792e-16
-2.013777179712915e+01  2.371677937412994e+00  3.340075410980358e-16
 3.093642023528830e+01 -6.421031079881491e+00 -4.845767386590865e-16
 9.547548812314433e+00 -7.426458193698657e-02 -1.691469782421478e-16
 2.871018903832683e+01 -3.527546342556944e+00 -4.746878034807239e-16
-1.664959984463118e+01 -6.455144316437606e+00  3.626237524657820e-16
-2.601066041978296e+01  9.172420276765052e+00  3.686474425636199e-16
 3.672533325915319e+00 -2.348207451237287e+01  1.759126739519592e-16
-1.607599052700404e+01  7.142391474895343e+00  2.127059497889368e-16
 1.142364384071967e+01  3.228613691645669e-01 -2.066146520400331e-16
 1.133458242687000e-02  1.767005187960690e+00 -1.835704881843546e-17
 6.402177962620219e+00  3.086719977082190e+00 -1.456493200859415e-16
 1.052569940328230e+01 -9.267777498531163e-01 -1.777950716825484e-16
-6.359644347808849e+00 -2.588083553918878e+00  1.397690755423457e-16
-1.114921194844205e+01  4.349708152594478e+00  1.537218548004362e-16
 1.483254146141070e+01  2.216927002704359e+00 -2.867408878079448e-16
 2.853014680312237e+00 -1.230451551346945e-01 -4.950855516436341e-17
 1.328988892624670e+01  2.404105973852216e+00 -2.612107417070920e-16
 2.224450480121113e+01 -1.165065786685610e+00 -3.838968694167839e-16
-3.332638890711480e-01 -1.856622285034573e+00  2.500694791053353e-17
-2.953962444167999e+01  5.521601496511733e+00  4.689604035426747e-16
 3.180742116670041e+01 -4.796736241531317e+00 -5.167662785519426e-16
-6.855026678926166e+00 -1.774615189674158e+00  1.402269031294257e-16
 1.072555802114890e+01 -7.093099804896743e-01 -1.835861965160026e-16
 1.650946899847085e+01  2.191906108999024e+01 -5.190160841499479e-16
-2.848824642241111e+01  1.118105498209719e+01  3.921010489164153e-16
-4.070414988838043e+00 -6.249142524966216e-02  7.307996678576348e-17
-6.703266983846407e-01 -2.092633450318899e-01  1.407936803446624e-17
-5.428678966080717e+00 -1.351197320891172e+00  1.104928794026077e-16
-4.993556865585345e-01  1.200562065747854e-01  7.653096079313012e-18
 2.559319189613744e+00  3.807987881659285e-01 -4.945870705775073e-17
-3.067470392068425e+01  6.352171083631763e+00  4.806266960579213e-16
 6.169208348602656e+00 -1.715569754203787e-02 -1.096121528956810e-16
-8.618239697343190e+00 -4.684714827085352e-02  1.538531930524645e-16
-8.709176299724977e+00  1.679933480761990e-01  1.532641103108455e-16
 2.015710498161658e+00 -3.948257768502261e-02 -3.546630360714207e-17
-9.847683366002542e+00 -4.294696422785749e-01  1.796639168024332e-16
-6.157703044010441e-01 -1.523507684069255e-02  1.111490196164764e-17
 5.881129064707335e+00  1.126280292445484e+00 -1.162338277671084e-16
-3.686823206085462e+00  3.280412870320992e-01  6.224091168367274e-17
-7.305592238738754e-01 -7.527936756776075e-03  1.307851963960190e-17
-1.176311341214740e+00  5.734228669229111e-02  2.034469231119396e-17
 9.603231813505062e+00  2.887974156448627e-01 -1.738682537921199e-16
 3.824937981887248e+00 -7.936141885865203e-02 -6.725392417611604e-17
-6.649663028744474e+00 -3.049412378675506e-01  1.214718460667201e-16
-2.008515381521449e+01  3.849375929687505e+00  3.178883312992938e-16
 1.293672872888721e+01 -1.615248899592625e-01 -2.285649096444486e-16
 2.136755745726364e+01  3.640844051831206e+00 -4.176695232527594e-16
-9.937615475214882e+00 -6.510172734741010e-02  1.775206179998259e-16
-1.212899120765241e+00  3.063338346330267e-02  2.127023975632915e-17
 2.815721252769302e+01 -4.904452014027645e-03 -5.010407927731273e-16
 6.414992060828986e+00 -2.627496044601306e-01 -1.114627791060032e-16
-8.486475418541408e-01  1.597870763385329e-03  1.508627777015532e-17
 3.123560011043750e+00  2.283578214423822e-02 -5.582210567258238e-17
-6.179563600651542e+00 -2.985209390741793e-01  1.130398998462060e-16
-8.509632129395541e+00  4.221133357211450e-01  1.471019932230978e-16
 2.448726705236574e+00 -1.296408669597886e-02 -4.344481138503136e-17
 2.184127985227294e+00  4.846188944135324e-04 -3.887414210263703e-17
 2.802876929891849e+00  8.327484873386017e-02 -5.073615717942248e-17
-9.682981217912157e+00 -1.712994011029644e-01  1.740802401689947e-16
-5.272150209902868e+00  2.514662590690253e-01  9.124047737392787e-17
 1.618674614788919e+01 -9.384807214016783e-01 -2.784199074614540e-16
 4.342202854395158e+00  2.718125408900357e+00 -1.052024305444026e-16
-2.514935972071068e+01  4.721345071094324e+00  3.990527499997297e-16
 2.177302160098350e+00 -1.412540826137759e-01 -3.729635472996006e-17
-1.909929080324514e+00  8.220114479974384e-02  3.314487932976379e-17
 4.153894204963239e+00 -1.499369103826646e-01 -7.238295503087544e-17
 3.731005863156311e+00  1.255091991433718e-02 -6.652665597936583e-17
-4.218782078561070e+00 -3.299621357450860e-02  7.541728354913726e-17
 1.458359616290100e+00 -4.047583942572915e-02 -2.553737441895847e-17
-1.003728872710825e-02 -1.303420757632781e-02  3.125472736227057e-19
-2.016490159998107e+00 -5.394852670357508e-02  3.644014926746784e-17
-1.403371382977526e+00 -3.143649585735549e-02  2.529766633762922e-17
 4.650991101621249e+00  2.415927113321295e-01 -8.525221191245768e-17
-5.618413658379368e+00 -2.427522239207764e-01  1.024805638514036e-16
-4.757009922967616e+00 -7.517259099351972e-02  8.542903702453216e-17
 3.527953500489616e-01 -1.103187810938204e-03 -6.267079198844658e-18
 3.451972673430181e+00  7.203552972149493e-02 -6.217211028037218e-17
 9.322955303448240e-01  3.549862083964742e-02 -1.695604647828813e-17
-4.091749851367403e+00 -1.580980058066844e-01  7.444196899882928e-17
-1.063104569822651e+01 -3.186371090767968e-01  1.924660198869541e-16
-2.387193372461837e+01 -7.738949217377018e-01  4.327810252889425e-16
-2.214838378265923e+01  6.110266436973225e+00  3.313761410042166e-16
 2.357727116758284e+01 -7.259174293028630e+00 -3.450002855993696e-16
 2.897485137692106e+01 -1.094539007778010e+01 -4.031821358032194e-16
-5.834108243717506e-01  1.107527073632823e+01 -1.034118919463470e-16
-2.287301782694193e+01  1.700311194228743e+01  2.323518376913666e-16
 4.605175184291171e-01  1.714398553129823e-02 -8.371606807265383e-18
 1.043540180735862e+01 -2.456514341423545e+00 -1.604706304967660e-16
 9.467330761354292e+00  6.018082407725018e-01 -1.746658049901335e-16
-7.469635754559025e+00  9.948274665462405e-01  1.227095875373654e-16
 5.658145985705151e+00 -3.320829895721319e-01 -9.728142502035261e-17
-1.926287478627904e+01  1.825371731791373e+00  3.240508029439441e-16
 3.019420528760756e+01 -9.405387262092008e+00 -4.407049626576584e-16
 2.316718976104747e+01  4.380298578591399e+00 -4.572937533111897e-16
 3.168770483553824e+00 -1.262793809984539e-01 -5.509457582109859e-17
 1.177507122468954e+01  5.733724683804783e-01 -2.154426320856267e-16
-7.067070482984451e+00 -2.601322826550767e-01  1.284397138731500e-16
 2.341815825201198e+00 -7.479759333570250e-02 -4.090688792998727e-17
 2.263112454494826e+01  5.431942471564567e+00 -4.585590923008267e-16
 3.670164289171911e+00 -1.525962101298396e-01 -6.374708084387858e-17
 8.847955889317998e+00  8.576390087979077e-01 -1.662718585023116e-16
-1.970260359089330e+00  6.994300448999670e-02  3.434449433882575e-17
 2.052457247271581e+01  1.344224355147245e+00 -3.790706666369913e-16
-6.600695814266258e+00 -1.314810859575046e-01  1.188181759967086e-16
 3.241016653879271e+00 -2.645715222337556e-02 -5.740591975589764e-17
-1.402923666556484e+01 -1.643482345788174e+00  2.665531852183082e-16
 6.995244903841316e+00 -7.623323460867741e-01 -1.166560393746396e-16
-4.396541597604142e+00 -8.275091066613738e-01  8.674405758897320e-17
 6.317934780883238e+00 -2.015470823271137e+00 -9.172695517081048e-17
-4.156153883089916e+00 -7.171717005232029e-01  8.133239469165232e-17
 8.000154567886394e+00 -3.658272389554746e+00 -1.047848736164580e-16
-3.210748811790967e+00 -1.019123764466629e+00  6.761023148660550e-17
-1.002284175353688e+00  8.600976303426922e-01  8.999651813391448e-18
 1.610218250493313e+00  1.044367071578346e-01 -2.972880373275168e-17
 1.022341303711454e+01 -4.527700138688393e+00 -1.354173557886441e-16
-2.731359542465672e+00 -1.055259855477269e+00  5.945021273959028e-17
-1.389460144972976e+01  1.855149067544503e+00  2.282100241310870e-16
 4.599109194503281e+00  4.597513250919250e-01 -8.657041198236882e-17
 1.006509396590576e+01 -1.220218881497223e+00 -1.665830474589466e-16
 1.252613281053281e+01  2.462854127501469e+00 -2.482224065453507e-16
-1.191665940522904e+00  7.209349813591565e-02  2.046638237997002e-17
-1.267023144833652e+01 -2.608264350946369e+00  2.522808509203263e-16
-8.619990392878899e+00  8.172805902333505e-01  1.450057501744706e-16
 7.718133535804409e+00  7.737273124201888e-02 -1.381483694980797e-16
-3.423611893685117e+00 -2.668598006441816e-01  6.366914500332314e-17
 4.065734336340271e+00 -7.500772959346715e-02 -7.158391512024270e-17
-1.785723025849205e+00 -2.309022353549824e-01  3.415150792416389e-17
 1.765053096446164e+01 -2.890386730810230e+00 -2.844145791639273e-16
-8.835508090505387e-01 -1.852015134802752e-01  1.762671885893501e-17
-1.182645101063252e+01  2.061536118632616e+00  1.892842681698063e-16
 2.168789770345245e+01  2.128056281372506e+00 -4.078270150410204e-16
 8.008518445652870e+00 -2.657964895475893e-01 -1.397901762621722e-16
 1.060735131288767e+01  5.160410861004445e-01 -1.940726042161145e-16
-1.087693322810438e+01 -6.763099441697439e-01  2.005168402606130e-16
-6.000986260928009e+00  5.022710220983775e-02  1.062786434928457e-16
 6.878569057936212e+00 -8.630244506440032e-02 -1.215256151781224e-16
 5.823457476729886e+00  2.194045361993577e-01 -1.058896741875063e-16
-1.693480391805682e+00  4.086189976863900e-02  2.971766246157904e-17
 6.180033507655959e+00 -2.258368238104973e-01 -1.076606767539923e-16
 4.458837935317886e+00  6.473576880767737e-02 -8.001547629376889e-17
 2.225645842596151e+00 -5.433678321347839e-02 -3.904973190139450e-17
 8.855001291750284e+00 -1.806720000625945e-01 -1.557289714477200e-16
 1.750755609659993e+01 -3.833125618289680e-02 -3.111740047756123e-16
-1.140502350667395e+01 -8.109986924589840e-01  2.112987146581056e-16
 2.526394300465523e+00 -9.500751911226334e-02 -4.398403242670838e-17
 9.988856941802847e+00  7.029638659885795e-01 -1.849863227785875e-16
 6.786081389343708e+00 -3.521915599211682e-01 -1.171477727300823e-16
 3.383103862136935e+00  9.174217706743425e-02 -6.114898627982358e-17
-4.910940954138796e+00  3.969286183766835e-01  8.331775491367365e-17
 2.128180005815007e+00  2.751916463465501e-02 -3.815625117482635e-17
 6.126463537051070e+00 -3.005796825558654e-01 -1.059393794993970e-16
 2.114391686136429e+00  9.273720083362996e-02 -3.858096323831604e-17
 1.249799938438887e+01 -7.595132529388200e-01 -2.146130844404329e-16
-7.136130911294640e+00 -2.053480464651406e+00  1.480947276509057e-16
-2.391308591669591e+01  5.810224469952192e+00  3.658639427142541e-16
 2.307390469096949e+01 -3.022175818253791e-01 -4.075224816614232e-16
 1.962098966368352e+01 -5.879273023117672e-01 -3.431381763884205e-16
 1.830992745204358e+01  8.192936961836182e+00 -4.100264508968069e-16
-2.339195401881332e+01  1.290488784268021e+00  4.030284212290508e-16
 8.080396006660621e+00 -2.453587617156978e-01 -1.412793134404875e-16
 1.582084650523977e+00 -3.526274052592043e-02 -2.779277168599970e-17
 1.601516662225818e+00  3.863313600718653e-04 -2.850486878301803e-17
 5.901307720104285e+00  1.286844484060617e-01 -1.063429961614292e-16
 1.641858848667490e+01 -1.555237508200340e+00 -2.762088664726912e-16
 3.634947082154423e+00  1.781988454735370e-01 -6.651914764042525e-17
-1.112323347596021e+01  9.826052567062681e-01  1.878552959083853e-16
 1.966352493778256e+01 -9.480831484327280e-02 -3.489617607331975e-16
 5.263257157548247e-01 -3.114044526343540e-02 -9.046637138100634e-18
 1.276037537001877e+01 -3.905133597668202e-01 -2.230737179340765e-16
-1.095353291562433e+01 -3.727451397463146e+00  2.332293931222275e-16
-2.236880407136358e+01  3.642064678353506e+00  3.606586594235115e-16
 1.991143644286622e+01 -1.942895559644311e+00 -3.343852166492121e-16
 2.477245013915937e+01  7.073377871988397e+00 -5.135316879473363e-16
-1.764157281885966e+01 -1.119192739352259e+00  3.254521307787400e-16
-7.341375950798165e+00  1.001808911618819e+00  1.203553195309714e-16
 2.305529212731114e+01  1.399809744135752e+00 -4.246789613635349e-16
 1.046162616860578e+01 -2.771292907867764e-01 -1.833297139718999e-16
-9.794062486714106e+00 -1.597208939816324e+00  1.907077663564107e-16
-1.355997296892431e+01  3.397500989329049e+00  2.064078054326045e-16
 1.999788330218514e+01  9.807534342143828e-01 -3.659630729647932e-16
 1.036697384500009e+01 -2.851314985227197e-01 -1.815630431769408e-16
-1.197787722254145e+01 -2.513620767374002e+00  2.389871529924875e-16
 3.550207190525745e+00 -1.992999308683046e-01 -6.113243740636438e-17
 9.148335641134677e+00  2.937701908949862e-01 -1.658239272560679e-16
-1.006924109735102e+01  2.451890939401898e-01  1.766749275126277e-16
-4.351465882775859e+00 -2.842289237509411e-02  7.773156089002147e-17
 1.373629914533135e+01 -1.694786715174319e+00 -2.270405106845406e-16
 2.247527550398615e+01  4.817260047039396e+00 -4.494699340652877e-16
-4.670531117529150e+00  2.335680242667029e-01  8.071784585086827e-17
 5.397857340075052e+00  1.054032908778674e-01 -9.714429068770657e-17
-5.099651125359124e+00  8.546891395871496e-02  8.987621285065534e-17
 1.140454754779245e+01 -1.904008582033860e-01 -2.010012278017882e-16
-3.394369680135024e+00 -1.948476373378592e-01  6.240884610934091e-17
 8.182120584608901e+00 -1.191287694430054e+00 -1.333705475209466e-16
-7.805336311863765e-01 -9.596270230839336e-02  1.487650891513048e-17
 5.830091816029179e-01 -5.135614947032569e-03 -1.032257724798126e-17
 1.924206556190815e+00  1.229802243427970e-01 -3.550712807399951e-17
 1.011316364259353e+01 -8.457317913829259e-01 -1.712862235127889e-16
-8.364641985198272e+00 -2.093845852972573e+00  1.703722873322769e-16
-2.078597037888019e+01  7.738097211325740e+00  2.904049994754798e-16
 1.458136644138792e+01  8.247404942976353e-01 -2.679667180819253e-16
-1.984571014704469e+00  1.266173746300744e-01  3.401686096800863e-17
 1.523420007465778e+01  3.228016837052998e-01 -2.744274323891376e-16
-1.273253963994821e+01 -1.002221231359444e+00  2.368881899006526e-16
-2.071329288529648e+00  1.553698403158686e-01  3.526540679083356e-17
-2.273638546794330e+01 -2.335588939945860e+00  4.286184282072059e-16
 2.104403987401551e+01 -3.640430187721547e+00 -3.370996940854792e-16
 5.561411488359624e+00  2.081588081661142e+00 -1.203595127210558e-16
-1.633525218804066e+01  3.521510353453495e+00  2.545230584628064e-16
 2.634929338097532e-01 -4.666628102341095e-02 -4.209691977131704e-18
 1.491016189433049e+01 -4.222244510590704e+00 -2.219620878420439e-16
 3.440956615431610e+00  5.590137386787170e-01 -6.697959059301735e-17
-1.035859622584567e+01  3.068147862758221e+00  1.528194713526490e-16
 2.844619833911576e+01  1.482149981230819e+01 -6.585195576420859e-16
 8.637362762772138e+00 -6.606246190886920e-01 -1.469244953844182e-16
-1.206042080395813e+01 -2.956599765018012e+00  2.450075629282913e-16
-9.817334325469272e+00  1.202255614122232e+00  1.623584351711872e-16
 1.144160634028214e+01  1.711205656919899e-02 -2.037928530301660e-16
 4.078945306647515e+00  2.457598996005494e-02 -7.284220665192372e-17
 1.729982608625067e+01  6.647382767360281e-02 -3.085540356220707e-16
 7.210260814690506e+00  9.104506271594244e-01 -1.376697413651171e-16
 6.861684300755158e+00  2.470993634491456e-01 -1.246507132405468e-16
-1.506990987715859e+01 -4.900341680993256e+00  3.185362529293850e-16
 1.843185146270982e+01 -5.276165072917395e+00 -2.738061036427907e-16
 4.647881037940117e+00  1.091798665336466e+01 -1.948929339332512e-16
-1.442538524622289e+00  2.092039977952730e-01  2.352219868836524e-17
 2.031840820833990e+00  3.078057656998994e+00 -6.778495532657551e-17
 3.308121644614802e+00 -7.636249698186811e+00  1.958772088472691e-17
 4.141240531229188e+00  4.480973203056989e+00 -1.197386869528068e-16
-3.235211658103154e+01 -3.497392801719251e+00  6.116789460957990e-16
 1.372894656652478e+00 -1.425761523151810e+01  1.220595191243816e-16
 1.629704630763817e+01 -2.947857554056196e+00 -2.597372133754329e-16
 2.513714656938120e+01 -1.675777515906274e+01 -2.751654557390217e-16
 5.308196708736037e+00 -4.351589752986569e-01 -8.999459183518901e-17
 1.969263954067774e+01 -1.110317766515469e+01 -2.363728938149808e-16
 2.338204416971972e+01  2.230080595870965e+01 -6.452440472721110e-16
 4.680550500442319e+00 -2.248652443537336e-01 -8.098557056498844e-17
-7.465347834261721e-01 -1.074222420766784e+00  2.432272213822905e-17
-1.998226430661430e+01  1.542181803484672e+00  3.397628712436042e-16
 3.060807549849736e+01 -1.020965024575234e+01 -4.398067666955829e-16
 7.405836417033501e+00  6.238526016166592e-01 -1.382055518970017e-16
-6.770561001214852e+00  3.118027664868360e-01  1.172865490772909e-16
-1.337165647428627e+01 -4.502961530573546e-01  2.425912066477509e-16
 3.693315344694558e+00 -5.822085772762254e-01 -5.974497043902365e-17
 2.473401421408184e+00  3.517145244216573e-02 -4.437850257197353e-17
-2.671873463663232e+01  3.248420220330420e+00  4.421154164351839e-16
 3.019648842995581e+00 -3.886620092434230e-01 -4.974489217654142e-17
-1.075929956970324e+00  2.958273855486576e-01  1.610793807034934e-17
 2.126316238873126e+01 -6.918174239484460e+00 -3.073216111827245e-16
 6.906142171170456e+00  3.007322673607943e+01 -4.318945178493772e-16
-1.657299963550251e+01 -3.842315783787228e+00  3.344146963762261e-16
-2.549290786634297e+01  1.631042178957154e+00  4.369183386280702e-16
 2.270901902734826e+01 -3.598601933058926e+00 -3.671597543062943e-16
 2.566848387322556e+01  4.306021005082759e+00 -5.010440905614010e-16
-2.108398854825051e+01 -2.738416160159705e+00  4.033509573652895e-16
-1.260100095387115e+01  1.495147783993263e+00  2.088877426445373e-16
 1.042734848604425e+01  1.418826386229450e-02 -1.857128837583643e-16
-7.299117686656496e+00  1.247585136726484e-03  1.298836874381865e-16
-1.908955727088812e+01 -4.516978721115511e+00  3.861317579140375e-16
 4.952940670445054e+00 -7.189720565387222e-01 -8.075631060972727e-17
 9.732270559045594e+00 -2.097287548581047e+00 -1.516484960057353e-16
 2.437829188362038e-01 -2.630170927463933e-01 -1.636002774623220e-18
-8.390837416650474e-01 -7.416962304413529e+00  9.113908938748400e-17
 1.900511624488857e+00 -6.531294888458486e+00  3.328481097895639e-17
-1.094119434685366e+01  7.005266082577471e+00  1.227350403460876e-16
-2.263616623916626e+01  2.740860499908874e-02  4.025559661620276e-16
 6.191223950291337e+00  1.656429139956151e+01 -2.803722921519963e-16
 1.564577098582160e+01  3.443915697736199e+00 -3.138201403634255e-16
-1.610687241188520e+01  2.400365260004252e-01  2.841747194363829e-16
 1.206018635671095e+00 -1.313896311374091e-01 -2.011255949170212e-17
-2.176436394558963e+01 -4.184804155041223e-01  3.916225521336918e-16
 1.256667633342557e+01 -2.956026178316707e+01  8.008195599539552e-17
-4.580830115176295e+00 -3.524653848165752e-01  8.514278989996139e-17
-2.647070186347371e+01  1.613593366221511e+01  3.052868584053184e-16
 2.047169653836637e+00  2.294249197744437e-01 -3.878908364451521e-17
-6.913301443404674e+00  1.495146426850578e+00  1.076683592827901e-16
 4.515999070192326e+00 -1.156185417874445e+00 -6.848820517117906e-17
 2.522534705719941e+01 -1.022628306392305e+01 -3.438437971861030e-16
 5.504439603478879e+00 -3.186987363688904e+01  2.294933055267690e-16
 8.328546530793307e+00  1.655493588965294e+00 -1.652260153875811e-16
-1.553138850158566e+01 -1.493968742675283e+01  4.298994460891368e-16
 6.430326271249714e-01  1.860151708347609e-01 -1.335477094538431e-17
-2.513699175254629e+00  9.399881555491035e+00 -5.184609300285331e-17
-3.230145002826644e+01  2.390574381450951e+00  5.502805504761020e-16
-3.652332982561132e+00 -2.511143732849609e-01  6.757773106393540e-17
 7.101626151804508e+00 -1.466256415812274e-01 -1.248753832870449e-16
 3.082162384003245e+00  1.418459720302250e-01 -5.630817198697558e-17
 1.112455675540745e+01 -9.144306078736737e-01 -1.885793150323449e-16
-1.576751050813118e+00 -4.670271271857673e-01  3.285869984348975e-17
 1.900077235466929e+00 -3.138771483277161e-02 -3.349164352415706e-17
 4.272765517764177e+00  3.082901976485869e-01 -7.920652891562945e-17
 1.863907344641131e+01 -3.793917220316209e+00 -2.927234242474235e-16
 7.995128048451507e-03 -1.017796380675661e-01  9.034659648420266e-19
-2.115624801297125e+01  4.766226781206656e+00  3.275294207382670e-16
 1.441180467529658e+01  4.385801065550352e-01 -2.609815064631477e-16
 7.089818497285322e+00 -4.645242226740936e-01 -1.213989595983561e-16
 1.267422608372420e+01  2.150641102661502e-02 -2.257739420871661e-16
-6.718082804547480e+00 -8.821910221401508e-01  1.286204894171711e-16
 1.502803981538172e+01 -2.959681100696306e+00 -2.370322464874865e-16
 1.280954583865352e+01  1.445187391493898e+00 -2.428099234308090e-16
-1.120744222123625e+00 -8.686755907580928e-03  2.003423356175444e-17
-2.023405826317724e+01 -2.120346397079306e+00  3.818749918194775e-16
 5.579322796223708e+00 -2.581835372420499e+00 -7.276328389858878e-17
 2.344530427588830e+01  1.334290673799160e+00 -4.309465081242867e-16
-1.472492219994459e+01 -3.317779427974103e+00  2.961365334279620e-16
 1.377757103001598e+00  6.915390160320777e-02 -2.522936231341055e-17
 1.533191034035470e+01  1.100102710820587e+00 -2.841527887818636e-16
 7.033718257560063e+00  5.763005654412161e-02 -1.257655344101172e-16
 2.639052467619201e+00  1.434976443550277e-01 -4.843947280682217e-17
 3.218055215794820e+00  1.691979748314206e-02 -5.744297600673373e-17
-1.056041924904489e+01 -1.995805124071766e+00  2.084414300612536e-16
-1.189686554311938e+00  5.721608106219925e-02  2.058401690104796e-17
 1.563732200669851e+00  3.118188196896944e-02 -2.814886230816138e-17
 1.082845507026491e+01 -5.354597816187421e-01 -1.872036198926438e-16
-3.646300210636924e+00 -6.718571910387421e-01  7.179335031867889e-17
-6.839769170264325e+00  1.161133086263448e-01  1.205288290902202e-16
-1.138212652626919e+01 -2.028375555800488e-01  2.046426008263138e-16
 1.280062545460290e+01 -1.648718551151258e+00 -2.108624149202287e-16
 1.479207641129043e+01  1.152991126522299e+00 -2.750892093399769e-16
-9.819306163427079e+00 -5.951991716646718e-01  1.808617213503545e-16
-2.134978218140124e+00  8.824672790158364e-02  3.708778101558571e-17
-1.329436788685721e+01 -1.211569430435457e+00  2.490375704155472e-16
 2.020747788084266e+01 -8.617660145474808e+00 -2.710728457957260e-16
 4.631889200877465e+00  7.653684013824130e+00 -1.610688163344321e-16
-2.074471163530417e+01  1.122738881647969e+01  2.538195472417100e-16
 5.418409673523299e+00  7.644950335188853e-01 -1.042819722114399e-16
 1.227114549073616e+01 -4.703004610736641e+00 -1.700580076561101e-16
 7.673500962377257e+00 -1.805960595382849e-01 -1.347035440040899e-16
-2.255181591621443e+01  8.269419261012338e+00  3.163711861836835e-16
-1.638920775940593e+00 -1.038155016453217e+01  1.358332068016312e-16
-1.728382577359458e+01  1.875482018620999e+01  1.148873321969795e-16
-2.161614228241839e+01  1.451204432814631e+00  3.697744382174547e-16
 5.643411456583989e-01 -2.404497117453088e-01 -7.572590416853618e-18
-2.125371236095055e+00 -2.345714135815807e+01  2.788371225323180e-16
-1.463205596018370e+01  2.227559825624848e+00  2.375075215603085e-16
 1.540383796017897e+01  4.498597359515214e-01 -2.787518162412862e-16
-1.134699385653754e+01 -1.508668944084694e+00  2.174343162043319e-16
 1.011253814686311e+01 -1.666905405697806e+00 -1.628378314747340e-16
 9.068112615805136e+00  9.142519666195366e-01 -1.707714876774115e-16
 6.515517975424253e+00 -2.724850229492962e-01 -1.131517297387350e-16
 5.619589170276651e+00  5.875528809275589e-01 -1.060441849769404e-16
-1.809404549775023e+01  2.582456154654039e+00  2.954713241561379e-16
 2.928432739274368e+01  1.514482521586874e+00 -5.367102953256573e-16
-1.617912336294306e+01 -2.250599790717758e+00  3.110508946680043e-16
-1.107007356067379e+01  6.861662200734857e-01  1.899550552378867e-16
 5.935649641871171e+00 -1.834986101083801e-02 -1.054434275203154e-16
 1.722903155506712e+01 -8.116142465829168e-01 -2.982721265139667e-16
 3.790916563820262e+00  6.799474406500953e-01 -7.445009516933841e-17
-1.111390635285674e+01  1.763421189647054e+00  1.796667085733965e-16
 4.599319576935638e+00  5.400237648238765e-01 -8.739892614474134e-17
 5.376016925010259e+00 -1.103330996165566e-01 -9.453900140595956e-17
 1.519014823408215e+01  2.064077930064334e+00 -2.915344581894273e-16
-1.585236219320086e+01 -2.448923382428269e+00  3.072734927418668e-16
-1.813199284221241e+01  2.468535023040441e+00  2.973171406269804e-16
-1.500000487487826e+01 -1.315950570238882e+00  2.804638934610729e-16
 1.445122071363267e+01 -3.367634587560834e+00 -2.225754886164510e-16
-8.274398074658812e+00 -3.135395892039480e+00  1.794678375884459e-16
-7.142914889493519e+00  1.297906694879643e+00  1.137811710375152e-16
 7.334733687693062e+00  2.740397791050804e+00 -1.586869269543373e-16
 1.081998981224259e+00 -5.969313301192030e-01 -1.312220996380145e-17
 1.700450592836512e+01  1.062568114320879e+01 -4.117904804352732e-16
-1.512263359115390e+01  6.658162466081368e+00  2.007151030722741e-16
 2.198832187679742e+01  4.048748573591976e+00 -4.329078372038092e-16
-3.185735272590039e+01  1.090485522478400e+00  5.557352499865026e-16
 2.186235661912239e+01 -3.268085795779790e+00 -3.554883200565032e-16
-7.366884503544755e-01 -1.094804987966827e+00  2.435897326420672e-17
-9.066151323647903e+00  4.227931094116953e+00  1.179025211954153e-16
 9.389763951709250e+00  2.387229782414703e+00 -1.916299688360673e-16
-1.861464712218081e+00  2.416885142065056e-01  3.064372330573991e-17
 1.522224943337732e+00  2.474784267150637e-01 -2.963255958176120e-17
 4.854614272011708e+00 -7.868212537227355e-01 -7.830934921166553e-17
-1.334294094275223e+01 -9.879128601994411e+00  3.389580077662397e-16
-1.147062660589416e+01  5.265682957277630e+00  1.500305035996392e-16
 1.278057621550598e+01  6.130207984520659e-01 -2.337441649868066e-16
-7.132166076242616e+00  6.981396746822462e-01  1.197522713365258e-16
-1.352343488708960e+01 -2.053718834340699e-01  2.427757767033459e-16
-6.611293337691303e+00  9.856019515660274e-01  1.075291491650492e-16
 2.723857302135558e+00 -4.990637191326716e-01 -4.334659142959888e-17
 2.478465931505391e+01  2.109053315026998e+01 -6.577701432970281e-16
-5.481672761618360e+00 -1.582096559290494e+00  1.138083729621814e-16
-1.945350981049918e+01  2.845793976744281e+00  3.169589127499597e-16
 1.979860960972202e+01 -1.384220837939135e+00 -3.381175083636280e-16
 1.269351189764899e+01  1.380744702692934e+00 -2.400828358175549e-16
 2.095096209041083e+01 -9.301867912510351e-01 -3.632900302412630e-16
-9.897547626202337e+00  2.753261882219367e+01 -1.067489903535016e-16
 9.758603504280734e+00 -2.209463705409486e+00 -1.509645529121942e-16
 9.016156021128500e+00  2.421519586811667e+00 -1.853334853439129e-16
-2.011385230739202e+01  4.346198474576864e+00  3.132943840052388e-16
-8.969996452004708e+00 -1.127098080415444e+00  1.712123099982885e-16
 2.002474516667943e+01 -1.993358685871731e+01 -1.515538629691582e-16
 3.013114313482073e+01  3.655844693443996e+00 -5.737821099744049e-16
-9.536048090531223e+00 -2.165292273488711e+00  1.919529423017765e-16
-1.054834230863745e+01 -4.158581276858139e-01  1.919931250910554e-16
-8.666512929451667e-01 -2.806422904690906e-02  1.571144329670607e-17
 1.378732107590325e+01  1.035293888465787e-01 -2.464255515948833e-16
 5.664573699989002e+00  3.938424404543204e-01 -1.048544339354492e-16
 1.240965362022294e+00  7.423750162774032e-02 -2.284722225453549e-17
-5.077341899653674e+00 -3.602051250222440e-01  9.405833238121824e-17
 9.062772414977122e+00 -4.095545302853520e-01 -1.570748214443449e-16
-1.827396801161899e-01 -4.609326707002688e-03  3.299429751279056e-18
-5.578406123497690e+00 -1.363003147746799e-01  1.006748273521829e-16
-1.671618134876165e+00 -5.053295724270281e-02  3.026764646467165e-17
-3.311141690160877e+00 -1.004671804868797e-01  5.995797983509923e-17
-2.440435808135759e+00 -6.655361880200145e-02  4.411428051858681e-17
-1.357437079927244e+01 -1.096454482301030e+00  2.528377919658055e-16
 9.784585584118231e+00 -1.389667653788728e+00 -1.598500416294431e-16
 4.775540734376158e+00  1.493110088202871e+00 -1.003276075914437e-16
-3.233658660673499e+01  3.382671942762868e+00  5.407124057810381e-16
-8.617850389949821e+00  8.950309477434546e-01  1.441688095845155e-16
-1.132768049477053e+01  1.295138333719425e+00  1.882825106619193e-16
 3.051698744868426e+01 -1.022427480955285e+01 -4.380354840828832e-16
 2.757808121401030e+00  8.022376047032674e-02 -4.990275515650922e-17
 1.275507535903397e+01 -1.858240692726393e+00 -2.078990327455650e-16
-8.660209097441374e+00 -4.400226548165377e+00  1.993294804699076e-16
-2.524241191509486e+01  7.197862150130101e+00  3.752634114495757e-16
-1.035055829176552e+01 -1.117522475499289e+00  1.956826688563480e-16
 1.536861624238045e+01 -3.781102931435730e+00 -2.346533993130320e-16
 5.574238464910890e+00  2.006645420782751e+00 -1.198177754026806e-16
-6.831998548288388e+00  8.354830581574275e-01  1.129992787559621e-16
 3.933988925833097e+00  1.454074364589832e-01 -7.150403415688497e-17
-6.371366429113835e+00  7.750819116696589e-02  1.125896971386535e-16
-2.508108348273791e+00  3.704635899926161e-02  4.425414195335094e-17
-4.065077314358276e+00  8.083344167986771e-02  7.151236555902785e-17
 2.772939303342948e+00 -1.196302535455224e-01 -4.811860517552371e-17
 3.999537485046939e+00  2.558379579982551e-01 -7.380518249507699e-17
-4.637898172756847e+00  1.786034095907784e-01  8.070184512094047e-17
 1.059921645656731e+01 -5.847047724014097e-01 -1.826180709157491e-16
-7.604888021530090e+00 -2.095569865411383e+00  1.568692729221562e-16
-1.526225488353092e+01  1.065416899266113e+00  2.606632595246763e-16
 2.530799844672094e+01 -6.112646337084628e+00 -3.875808002728103e-16
 2.822873946287627e+01  9.919350950736870e+00 -6.042818188037987e-16
-2.595676796765281e+01 -1.011507249828375e+01  5.658603437379166e-16
-2.864542103288164e+01  5.178857096271588e+00  4.565685614410593e-16
 5.652534783444535e-01  2.114168180852687e-01 -1.223159091400425e-17
 9.297753372084170e+00 -7.710083704269937e-01 -1.575427810961029e-16
-6.456915376382334e+00 -9.364123578092878e-01  1.245298080181766e-16
 2.855025600022748e+00 -4.480042609541049e-01 -4.620550512273524e-17
-5.333870152053704e+00 -2.156762421094184e+00  1.170825322366213e-16
-1.098069040578156e+01  5.325110916114566e+00  1.407009038593719e-16
 1.140489271462526e+01  5.688269342334203e+00 -2.614085711839104e-16
 5.895072630838492e+00 -9.701969495385282e-01 -9.494142815208777e-17
 5.889134250311631e+00  1.537409870486468e+00 -1.206004967172013e-16
-9.234126654201489e+00  7.804698493678296e-01  1.563132544974264e-16
 2.070644059590254e+00  1.740824007735305e-01 -3.863821443370480e-17
-7.032794599062115e+00  1.772508297912571e-01  1.233357810236659e-16
 2.485966969035750e+00 -8.394628826266060e-02 -4.337822996739905e-17
 1.554647211772571e+01 -5.543618732863880e-01 -2.709721489780214e-16
-2.952853389268778e+01 -8.216935076507642e+00  6.099215064397912e-16
-8.257015323325541e+00  5.587586207561538e-01  1.412023951530114e-16
 1.072728317907911e+00 -9.782782740698426e-03 -1.898996547686651e-17
-9.059413323837163e+00  3.480897959950840e-01  1.576465703257816e-16
 1.865106512338843e+01 -1.186899656602646e+00 -3.197229888627193e-16
 3.055916834814550e+01  9.368365056342753e+00 -6.400934006067598e-16
-5.593701422962307e+00 -5.813806689947044e-01  1.055200644072841e-16
-1.160779541030847e+00 -3.537298360485482e-02  2.102090110932618e-17
-1.017432047273046e+01 -3.381646463067003e-01  1.845386880700059e-16
-1.948519156890262e+01  2.184798334878918e+00  3.243142174818233e-16
 1.123213804855898e+01 -9.405370336393043e-02 -1.989229271274467e-16
 4.315506442756394e+00 -5.137907490707981e-02 -7.627168354115485e-17
 2.726233750029953e+01  1.113884703409857e+00 -4.966105761957412e-16
-2.044726590248674e+01 -3.665512833248142e+00  4.015452998935982e-16
-2.461187072976354e+00  2.906656230913757e-01  4.081327608342929e-17
-9.023545945613803e+00 -1.269454806237053e+00  1.736279507627818e-16
 4.292423735196154e+00 -1.401689974399367e+00 -6.198694525409059e-17
-6.082767321195340e+00 -4.145850734491304e+00  1.508472104803796e-16
 8.289576531168550e-01 -4.808087187824282e+00  3.464905893587291e-17
-8.048432586871445e-03  6.025717000426168e-01 -6.047973862189695e-18
-2.822245516346553e+01  4.198941251963682e+00  4.591096585952518e-16
 3.138893809100380e+01 -8.592080765217583e+00 -4.703230867898211e-16
 3.460582764546426e+00  8.078612862861728e-01 -6.988567945220546e-17
-1.203882241353609e+01 -8.488540130060460e-01  2.229668718946966e-16
 1.289870618965345e+01  1.044662853941462e+00 -2.402813940996128e-16
-1.690613371483786e+01 -5.625808021493237e+00  3.586679495472739e-16
-2.918233071601196e+01  1.414285531303060e+01  3.740216843839647e-16
 2.804013203642074e+01 -8.559156024962867e+00 -4.110653782079096e-16
 2.768312374432368e+01  6.199403857182135e+00 -5.563508312214219e-16
-1.266296886507173e+01  2.628533151223692e+01 -4.471959667712273e-17
-2.864302712460839e+01  9.596049801358072e+00  4.111409085838634e-16
 2.034912521666969e+01 -7.863708811865339e+00 -2.813402051648689e-16
 2.753337646265796e+01  1.670685846248136e+01 -6.616461787419202e-16
-2.546832628269746e+00 -1.210363667360556e+01  1.696843945103012e-16
 3.580708118523880e+00  4.808457278143128e+00 -1.131281239494314e-16
 1.791518807314309e+01  1.518929171351025e+00 -3.344285872273929e-16
 1.268072662024363e+01 -3.226736668154638e-01 -2.223533016270673e-16
 4.096008506814449e+00 -1.428809306133446e+01  7.391160847302826e-17
 1.849809511435373e+01  2.007530709637506e+01 -5.354621555166633e-16
-2.936618294999695e+01 -1.285359380594673e+01  6.546722618772442e-16
-1.335526942830881e+01 -1.072886949540463e+01  3.479081867894222e-16
-1.155777344970646e+01  4.893669515765777e+00  1.554036886332735e-16
-1.203283227375867e+00 -9.282186897742815e-01  3.095097020742907e-17
-1.547331782354540e+01  1.298127169670257e+01  1.419882970094544e-16
-4.480720899683781e+00 -2.372490476296790e+00  1.041162509956680e-16
 1.319711289282699e+01 -4.797903487998304e+00 -1.855616506292217e-16
 1.142881151430958e+01  7.594098320340298e+00 -2.814159351995590e-16
-2.510594705134346e+01  8.987518254996111e-01  4.375559267201548e-16
-1.768353998625848e+01  1.457834067693827e+00  2.997209723055314e-16
 2.372217981757965e+01 -5.800657156214367e+00 -3.625648416300405e-16
 1.645466749697805e+00  2.115184822802850e+01 -2.466106002768375e-16
-2.583426106920444e+01 -5.061221197399079e+00  5.117537011567693e-16
-1.910419212096992e+01 -5.332090641924720e-01  3.454604165325018e-16
-7.971855245100471e+00 -5.347580582541864e-01  1.473631180460856e-16
 9.573928357602707e+00  1.004813180495416e+00 -1.807035657295581e-16
-2.763333500260002e+01 -1.160377778513213e+01  6.109927600007631e-16
-2.487122152761210e+01  2.548433561791144e+00  4.164288254730968e-16
-1.431659534707008e+01  2.024129999318326e+00  2.339836911933967e-16
 2.093617362956235e+01 -7.409273112411102e+00 -2.964565944410725e-16
 1.888814325608075e+00 -7.985006436069482e-02 -3.279327358808602e-17
-1.396307191793270e+01  1.656655435643722e+00  2.314679877451283e-16
 1.461036435320620e+01 -6.138615735627833e+00 -1.969368148402967e-16
 2.065888958485900e+00 -6.534889617268754e-01 -3.005059660932742e-17
 5.420629289308596e+00  5.091609076324767e+00 -1.487809977198521e-16
-4.468482620900898e-01 -6.419399882145961e-01  1.454789802660362e-17
 3.930071898596904e+00 -2.002923414358522e+00 -4.936100690925403e-17
 1.086093406563505e+01 -2.911401098819229e+01  1.058526095252485e-16
-3.017125952580576e+01 -7.077423896839480e+00  6.096515123570007e-16
-1.018722809045760e+01 -9.671339158162197e-01  1.912308252901731e-16
-2.893956340518661e+01 -9.204137332837696e+00  6.095832186496784e-16
 5.365951410110390e+00 -2.424784675478929e+01  1.536443107959247e-16
-1.132093776553019e+00  5.841126271928108e-01  1.414541411112896e-17
-1.374711438199192e+01  8.688459358416161e+00  1.553755349390322e-16
 2.470770784093711e+01  4.283981448227627e+00 -4.837194865839766e-16
-1.570992467652390e+01 -9.446705883486636e-02  2.805474638332256e-16
-2.269132571559670e+00  4.370153932789737e-01  3.589174643601942e-17
-1.531886992937523e+01 -2.155252395681611e+00  2.947619988311465e-16
 1.354498352420196e+01  1.309501942843457e+01 -3.755957064472399e-16
 5.387113900790491e-01  3.394266568346255e-01 -1.307449739634021e-17
 2.634542568205634e+01 -1.200485844329957e+01 -3.455027164873562e-16
 1.180333559639662e+01  5.318977887820051e+00 -2.647050020458161e-16
-2.079094763037874e+01  3.616078220337228e+00  3.328458233208443e-16
 3.098672832202305e-01 -1.067208963533609e-01 -4.417939493693667e-18
 1.232525292560115e+01 -1.847637746076382e+00 -2.003587712563302e-16
 6.216104900360705e+00  2.549301978066586e+00 -1.368161533110223e-16
-1.233525912807409e+01  1.033954799393855e+00  2.088971402562606e-16
-3.042503495820985e+00 -3.512480750969587e-01  5.775392529129963e-17
 4.990803431125134e+00 -5.136314223054214e-01 -8.353992402087655e-17
 3.054801713402897e+00  3.793734844806410e-01 -5.826176513502683e-17
-2.932183345603764e+00  2.248264912190276e-01  4.987168975883380e-17
-3.035252916035827e+00 -2.365892346331086e-01  5.644681465654933e-17
-4.790598057141390e+00  2.430618098946442e+00  6.028068898613016e-17
 5.746741246356455e+00  2.410220408372039e-01 -1.047465293449525e-16
 1.858586515838468e+00 -1.502107371079257e-01 -3.153240332079776e-17
-8.383306404396263e+00 -7.406878866780413e-01  1.568012363875811e-16
-8.311206829978339e+00  1.973500349038475e+00  1.276308403357802e-16
 1.165370824238629e+01  6.286237297581404e-01 -2.138505195982284e-16
 1.151157391535826e+01 -1.092215850399281e+00 -1.936400682349209e-16
-1.269436460256698e+01 -2.678922302758468e+00  2.534363139779627e-16
 1.663856942766281e+01 -1.196566607657820e+01 -1.731603180286352e-16
 1.768004372900564e+00 -6.302827152579920e-01 -2.498782082643824e-17
-9.326212109758862e+00  4.031963576034847e+00  1.245441081570213e-16
 2.252786400930817e+01 -2.348585251671278e+01 -1.596016094002491e-16
-5.340866853610589e-02  1.182210068462537e-01 -2.642069325258259e-19
-2.533511903483362e+01 -6.761786483364565e+00  5.203435637974558e-16
-2.123947460267111e+01 -2.206285657884591e+01  6.046696224594556e-16
 1.183740429515635e+00 -6.965129983691977e+00  5.049810739006264e-17
 1.036574598211498e+01  9.491098111238546e+00 -2.819883997091982e-16
-1.612519873464089e+00 -2.668655443165055e+01  3.028913669516802e-16
 2.432927018429817e+01  3.766989271676522e+00 -4.716728302622741e-16
 2.310698756240486e+01 -4.348111496267562e+00 -3.665411406024738e-16
 2.383626072169301e+01  6.195432218542481e+00 -4.878505078844139e-16
 5.763470347747269e+00  5.577312232243662e-01 -1.082983154667574e-16
-1.868922194906258e+01 -5.238917365730663e+00  3.864249706801542e-16
 3.067887472454676e+00 -1.486288207372479e+01  9.811399695177034e-17
 2.671097331225433e+01 -4.098467060629016e+00 -4.332433718992640e-16
 2.307202983582204e+01 -1.553821191897029e+00 -3.946293439442261e-16
 2.307019372369310e+01 -1.421518948390494e+00 -3.959560256386829e-16
 2.751220277522777e+01  1.012362674945217e+00 -5.000141248490774e-16
 2.278900486616891e+00  2.805394813188088e+01 -3.287998783873976e-16
 8.790008037943291e+00 -3.824561719283527e+00 -1.171326958213558e-16
 1.351817876796559e+01  2.240692776703780e+00 -2.635944205442144e-16
 9.655969641635841e-01  5.698012077038304e-01 -2.303845019531671e-17
-2.578441481772265e+01 -8.547975278004301e+00  5.466917591955281e-16
-5.050832771833159e+00  6.007701467930334e+00  2.815864386459771e-17
 1.206789469094735e+00  2.578050423505904e+00 -4.796478968135829e-17
 2.858713679528849e+00  1.210524123901489e+00 -6.331191554810736e-17
-7.480174168240373e-01 -1.961550586981819e+00  3.346608190640964e-17
-4.807954728896978e-01 -5.626421486694674e+00  6.636576581290254e-17
-1.637271999704998e+00  4.665878977122713e-01  2.434318709360144e-17
 1.438503090255026e+01 -6.552801674499849e+00 -1.886711272434910e-16
 6.663958981674541e-02 -5.551808577921739e-02 -6.155028281303509e-19
-8.162532047530860e-02 -5.975588349443470e-01  7.592319895686827e-18
-9.305505996392561e+00 -1.671077475009347e+00  1.827722932165507e-16
-3.260794019588997e+00  7.376333832862133e-01  5.045080414247165e-17
-2.066580213580060e+01 -7.147116555311205e+00  4.412066263301421e-16
-3.637868218398265e+00  1.939955528989789e+01 -1.345831789465858e-16
-1.693463579176113e+01 -2.382974882728467e+01  5.462140568726530e-16
-2.255811340563833e+01 -6.153175176558590e+00  4.646701760107663e-16
 1.178119668798037e+01  1.657369989623733e+00 -2.266893227559184e-16
 5.009775536753613e+00 -1.308181026098941e-02 -8.902052076895853e-17
 4.538843561278363e+00  3.628408068839578e-01 -8.450219278093547e-17
 1.787288267583354e+00  3.943095236953480e-02 -3.221206539266655e-17
 8.396131333475278e+00 -5.384076269954509e-01 -1.438872299695670e-16
 3.893765668263183e+00  1.636212139750778e-01 -7.097535324779364e-17
 2.283654444563577e-01 -2.886531053946311e-02 -3.767454912908497e-18
-4.904808477243720e+00  3.333386191296953e-02  8.694442420205950e-17
-5.645095365462743e+00  6.139933332098994e-01  9.415264729089391e-17
 2.687944167082310e+01 -4.525964735133545e-01 -4.737014631586122e-16
-1.641292093234690e+01 -3.774285933165951e+00  3.308669229051778e-16
-1.940444694033418e+01  5.678468599884791e+00  2.869810777136571e-16
 3.426207657351606e+00 -5.847099494320020e-02 -6.037268395692292e-17
 1.523542841740388e+01 -3.034071591654548e+00 -2.399586387250139e-16
 1.369754444793710e+01  3.094880830684062e+00 -2.755629187336159e-16
-1.093768889478424e+01  1.344764524499879e+00  1.808322538552550e-16
-4.969215688051055e+00 -3.941440199244181e-02  8.883808932553161e-17
 1.478285100188076e+01 -4.885078357083534e+00 -2.128860616709489e-16
 1.524204499329623e+01  1.017466662945749e+00 -2.817044723701114e-16
-2.401111000460908e+01  6.868711690522028e+00  3.567328266117874e-16
 7.079252445875619e+00 -3.176435277819333e+01  2.003834436254287e-16
 1.876959682267261e+01  7.033999732780062e+00 -4.062991566254200e-16
-1.025057152737766e+01 -1.553753857519567e+00  1.983854041339163e-16
-1.146166316066174e+01 -2.236216249463101e+00  2.269502775408795e-16
-1.613673291943357e+00 -2.224236573576047e-01  3.100256336889924e-17
 6.306704321722553e+00  2.944765468608245e-01 -1.152609658507677e-16
 9.918260751046198e+00  1.588940962133985e+00 -1.928330721619592e-16
-2.885737362492170e+01 -7.616161629089084e+00  5.918046798230526e-16
-6.450199828897548e+00 -7.437088739040347e-01  1.224303385431358e-16
 2.093004803672198e+01 -6.003383321952939e-01 -3.663069127918382e-16
 3.183333461550088e+00  3.077784785188191e+01 -3.728824221274031e-16
 1.589491388223463e+01 -2.610272362159363e+01 -1.467294983649136e-17
 2.513619080132666e+01 -1.205912596930682e+00 -4.349381849909534e-16
 7.659391172186364e+00 -1.547193634684490e+00 -1.204111498281699e-16
 2.204893396983147e+01 -2.596930425049239e+00 -3.657045641869377e-16
 1.638548923882779e+01  3.740176640984638e+00 -3.300282826071888e-16
 2.736931212488678e+01 -4.711076497661855e+00 -4.386649569332149e-16
-5.468056045943586e+00 -8.206387755537083e+00  1.816282329126092e-16
 1.442828422267258e+01 -6.756925722777337e+00 -1.873435711976819e-16
 5.540668928465856e-01  2.531188780736726e+00 -3.586732648674162e-17
-6.611008187218633e+00 -3.605585087983424e+00  1.546968535439198e-16
-7.981918663378511e+00 -3.021733784333581e+01  4.525199330179096e-16
-8.592448022714970e+00  3.219676339592534e+00  1.198318572375922e-16
 9.031632865678970e+00  7.018947033215786e+00 -2.328458111508089e-16
 4.719687038502807e-01 -2.729917868468483e+00  1.964966832806195e-17
 7.335162191211690e+00  1.696777343307252e+01 -3.048756690095447e-16
-1.364242388729366e-01  2.687836667991397e-01 -3.338224714629226e-19
-2.089156658334158e+01 -1.915729713623086e+01  5.686246164867477e-16
-8.450881132684016e+00  3.662696263220009e+00  1.127606367797198e-16
 1.699258382367601e+01  6.529626546755471e+00 -3.694928393710833e-16
 2.739855112581081e+01 -1.628214316631288e+01 -3.202967932391898e-16
-4.075578923265942e-01  3.728113387449799e-01  3.422477770949192e-18
-3.132410979284311e+01 -8.825535202571906e+00  6.481290666419257e-16
 8.293445458257687e-01 -2.480897448256394e+00  1.073114457013915e-17
 3.434590777654514e+00  3.971483106060929e+00 -1.019281859924834e-16
-6.923043751589876e+00  3.162953410425183e+00  9.070562437839874e-17
 7.585264624224006e+00  1.741894689420709e+01 -3.139621834386140e-16
-1.091726700488127e+00  6.149370733601137e-01  1.311032385414714e-17
 5.729719941332044e+00  6.792280768664651e-01 -1.089460227646367e-16
 9.896837244742143e+00 -5.446478767726575e+00 -1.201654333567785e-16
 7.897901132289778e+00  2.079623067904038e+00 -1.619199431763010e-16
-3.342163600082973e+00  8.152842330651067e-01  5.110103862064698e-17
 6.569444617789214e+00  6.762337124189837e-01 -1.238591590311539e-16
 9.113590652175152e-01 -5.408064542777231e-02 -1.566306270790711e-17
-3.648915937134004e+00 -5.154254714460991e-01  7.023262114824994e-17
 4.252936251073242e-02 -1.305015291990193e-02 -6.227751508041556e-19
 2.823024675588466e+00  4.599057291508303e-01 -5.496445584272256e-17
 4.571666222541409e-01 -2.848288583121581e-02 -7.843174080653467e-18
 2.230423988033660e+00  1.387177588712827e-01 -4.111832999593624e-17
-5.823849764176304e+00 -4.281886398717826e-01  1.080418362432534e-16
-3.151603150991359e+01 -8.113549395428603e+00  6.442291469781378e-16
-3.304790009130180e+00  3.207395947307906e-01  5.551719748982134e-17
 4.027437482232499e+00  5.526378208082285e-01 -7.735120689277514e-17
-1.032609043222270e+01  2.317780619229505e+00  1.599507428270884e-16
 5.945940370255736e+00  3.905193016469389e-01 -1.098275454230240e-16
-8.374985642500310e+00  8.601673603598373e-01  1.402049524004638e-16
 2.548528307514177e+00 -1.265999097299153e-01 -4.405333314199052e-17
 3.642416022302941e+00 -9.292524739359494e-02 -6.386636478730457e-17
-1.631297215277298e+01 -7.967715350702008e-01  2.984953363685394e-16
 7.103176025123588e+00 -8.576754307178781e-01 -1.175971868582837e-16
-1.218632388486998e+01 -1.714939179174561e+00  2.344905469726591e-16
VECTORS SF_force double
0.000000000000000e+00 0.000000000000000e+00 0.000000000000000e+00
0.000000000000000e+00 0.000000000000000e+00 0.000000000000000e+00
0.000000000000000e+00 0.000000000000000e+00 0.000000000000000e+00
0.000000000000000e+00 0.000000000000000e+00 0.000000000000000e+00
0.000000000000000e+00 0.000000000000000e+00 0.000000000000000e+00
0.000000000000000e+00 0.000000000000000e+00 0.000000000000000e+00
0.000000000000000e+00 0.000000000000000e+00 0.000000000000000e+00
0.000000000000000e+00 0.000000000000000e+00 0.000000000000000e+00
0.000000000000000e+00 0.000000000000000e+00 0.000000000000000e+00
0.000000000000000e+00 0.000000000000000e+00 0.000000000000000e+00
0.000000000000000e+00 0.000000000000000e+00 0.000000000000000e+00
0.000000000000000e+00 0.000000000000000e+00 0.000000000000000e+00
0.000000000000000e+00 0.000000000000000e+00 0.000000000000000e+00
0.000000000000000e+00 0.000000000000000e+00 0.000000000000000e+00
0.000000000000000e+00 0.000000000000000e+00 0.000000000000000e+00
0.000000000000000e+00 0.000000000000000e+00 0.000000000000000e+00
0.000000000000000e+00 0.000000000000000e+00 0.000000000000000e+00
0.000000000000000e+00 0.000000000000000e+00 0.000000000000000e+00
0.000000000000000e+00 0.000000000000000e+00 0.000000000000000e+00
0.000000000000000e+00 0.000000000000000e+00 0.000000000000000e+00
0.000000000000000e+00 0.000000000000000e+00 0.000000000000000e+00
0.000000000000000e+00 0.000000000000000e+00 0.000000000000000e+00
0.000000000000000e+00 0.000000000000000e+00 0.000000000000000e+00
0.000000000000000e+00 0.000000000000000e+00 0.000000000000000e+00
0.000000000000000e+00 0.000000000000000e+00 0.000000000000000e+00
0.000000000000000e+00 0.000000000000000e+00 0.000000000000000e+00
0.000000000000000e+00 0.000000000000000e+00 0.000000000000000e+00
0.000000000000000e+00 0.000000000000000e+00 0.000000000000000e+00
0.000000000000000e+00 0.000000000000000e+00 0.000000000000000e+00
0.000000000000000e+00 0.000000000000000e+00 0.000000000000000e+00
0.000000000000000e+00 0.000000000000000e+00 0.000000000000000e+00
0.000000000000000e+00 0.000000000000000e+00 0.000000000000000e+00
0.000000000000000e+00 0.000000000000000e+00 0.000000000000000e+00
0.000000000000000e+00 0.000000000000000e+00 0.000000000000000e+00
0.000000000000000e+00 0.000000000000000e+00 0.000000000000000e+00
0.000000000000000e+00 0.000000000000000e+00 0.000000000000000e+00
0.000000000000000e+00 0.000000000000000e+00 0.000000000000000e+00
0.000000000000000e+00 0.000000000000000e+00 0.000000000000000e+00
0.000000000000000e+00 0.000000000000000e+00 0.000000000000000e+00
0.000000000000000e+00 0.000000000000000e+00 0.000000000000000e+00
0.000000000000000e+00 0.000000000000000e+00 0.000000000000000e+00
0.000000000000000e+00 0.000000000000000e+00 0.000000000000000e+00
0.000000000000000e+00 0.000000000000000e+00 0.000000000000000e+00
0.000000000000000e+00 0.000000000000000e+00 0.000000000000000e+00
0.000000000000000e+00 0.000000000000000e+00 0.000000000000000e+00
0.000000000000000e+00 0.000000000000000e+00 0.000000000000000e+00
0.000000000000000e+00 0.000000000000000e+00 0.000000000000000e+00
0.000000000000000e+00 0.000000000000000e+00 0.000000000000000e+00
0.000000000000000e+00 0.000000000000000e+00 0.000000000000000e+00
0.000000000000000e+00 0.000000000000000e+00 0.000000000000000e+00
0.000000000000000e+00 0.000000000000000e+00 0.000000000000000e+00
0.000000000000000e+00 0.000000000000000e+00 0.000000000000000e+00
0.000000000000000e+00 0.000000000000000e+00 0.000000000000000e+00
0.000000000000000e+00 0.000000000000000e+00 0.000000000000000e+00
0.000000000000000e+00 0.000000000000000e+00 0.000000000000000e+00
0.000000000000000e+00 0.000000000000000e+00 0.000000000000000e+00
0.000000000000000e+00 0.000000000000000e+00 0.000000000000000e+00
0.000000000000000e+00 0.000000000000000e+00 0.000000000000000e+00
0.000000000000000e+00 0.000000000000000e+00 0.000000000000000e+00
0.000000000000000e+00 0.000000000000000e+00 0.000000000000000e+00
0.000000000000000e+00 0.000000000000000e+00 0.000000000000000e+00
0.000000000000000e+00 0.000000000000000e+00 0.000000000000000e+00
0.000000000000000e+00 0.000000000000000e+00 0.000000000000000e+00
0.000000000000000e+00 0.000000000000000e+00 0.000000000000000e+00
0.000000000000000e+00 0.000000000000000e+00 0.000000000000000e+00
0.000000000000000e+00 0.000000000000000e+00 0.000000000000000e+00
0.000000000000000e+00 0.000000000000000e+00 0.000000000000000e+00
0.000000000000000e+00 0.000000000000000e+00 0.000000000000000e+00
0.000000000000000e+00 0.000000000000000e+00 0.000000000000000e+00
0.000000000000000e+00 0.000000000000000e+00 0.000000000000000e+00
0.000000000000000e+00 0.000000000000000e+00 0.000000000000000e+00
0.000000000000000e+00 0.000000000000000e+00 0.000000000000000e+00
0.000000000000000e+00 0.000000000000000e+00 0.000000000000000e+00
0.000000000000000e+00 0.000000000000000e+00 0.000000000000000e+00
0.000000000000000e+00 0.000000000000000e+00 0.000000000000000e+00
0.000000000000000e+00 0.000000000000000e+00 0.000000000000000e+00
0.000000000000000e+00 0.000000000000000e+00 0.000000000000000e+00
0.000000000000000e+00 0.000000000000000e+00 0.000000000000000e+00
0.000000000000000e+00 0.000000000000000e+00 0.000000000000000e+00
0.000000000000000e+00 0.000000000000000e+00 0.000000000000000e+00
0.000000000000000e+00 0.000000000000000e+00 0.000000000000000e+00
0.000000000000000e+00 0.000000000000000e+00 0.000000000000000e+00
0.000000000000000e+00 0.000000000000000e+00 0.000000000000000e+00
0.000000000000000e+00 0.000000000000000e+00 0.000000000000000e+00
0.000000000000000e+00 0.000000000000000e+00 0.000000000000000e+00
0.000000000000000e+00 0.000000000000000e+00 0.000000000000000e+00
0.000000000000000e+00 0.000000000000000e+00 0.000000000000000e+00
0.000000000000000e+00 0.000000000000000e+00 0.000000000000000e+00
0.000000000000000e+00 0.000000000000000e+00 0.000000000000000e+00
0.000000000000000e+00 0.000000000000000e+00 0.000000000000000e+00
0.000000000000000e+00 0.000000000000000e+00 0.000000000000000e+00
0.000000000000000e+00 0.000000000000000e+00 0.000000000000000e+00
0.000000000000000e+00 0.000000000000000e+00 0.000000000000000e+00
0.000000000000000e+00 0.000000000000000e+00 0.000000000000000e+00
0.000000000000000e+00 0.000000000000000e+00 0.000000000000000e+00
0.000000000000000e+00 0.000000000000000e+00 0.000000000000000e+00
0.000000000000000e+00 0.000000000000000e+00 0.000000000000000e+00
0.000000000000000e+00 0.000000000000000e+00 0.000000000000000e+00
0.000000000000000e+00 0.000000000000000e+00 0.000000000000000e+00
0.000000000000000e+00 0.000000000000000e+00 0.000000000000000e+00
0.000000000000000e+00 0.000000000000000e+00 0.000000000000000e+00
0.000000000000000e+00 0.000000000000000e+00 0.000000000000000e+00
0.000000000000000e+00 0.000000000000000e+00 0.000000000000000e+00
0.000000000000000e+00 0.000000000000000e+00 0.000000000000000e+00
0.000000000000000e+00 0.000000000000000e+00 0.000000000000000e+00
0.000000000000000e+00 0.000000000000000e+00 0.000000000000000e+00
0.000000000000000e+00 0.000000000000000e+00 0.000000000000000e+00
0.000000000000000e+00 0.000000000000000e+00 0.000000000000000e+00
0.000000000000000e+00 0.000000000000000e+00 0.000000000000000e+00
0.000000000000000e+00 0.000000000000000e+00 0.000000000000000e+00
0.000000000000000e+00 0.000000000000000e+00 0.000000000000000e+00
0.000000000000000e+00 0.000000000000000e+00 0.000000000000000e+00
0.000000000000000e+00 0.000000000000000e+00 0.000000000000000e+00
0.000000000000000e+00 0.000000000000000e+00 0.000000000000000e+00
0.000000000000000e+00 0.000000000000000e+00 0.000000000000000e+00
0.000000000000000e+00 0.000000000000000e+00 0.000000000000000e+00
0.000000000000000e+00 0.000000000000000e+00 0.000000000000000e+00
0.000000000000000e+00 0.000000000000000e+00 0.000000000000000e+00
0.000000000000000e+00 0.000000000000000e+00 0.000000000000000e+00
0.000000000000000e+00 0.000000000000000e+00 0.000000000000000e+00
0.000000000000000e+00 0.000000000000000e+00 0.000000000000000e+00
0.000000000000000e+00 0.000000000000000e+00 0.000000000000000e+00
0.000000000000000e+00 0.000000000000000e+00 0.000000000000000e+00
0.000000000000000e+00 0.000000000000000e+00 0.000000000000000e+00
0.000000000000000e+00 0.000000000000000e+00 0.000000000000000e+00
0.000000000000000e+00 0.000000000000000e+00 0.000000000000000e+00
0.000000000000000e+00 0.000000000000000e+00 0.000000000000000e+00
0.000000000000000e+00 0.000000000000000e+00 0.000000000000000e+00
0.000000000000000e+00 0.000000000000000e+00 0.000000000000000e+00
0.000000000000000e+00 0.000000000000000e+00 0.000000000000000e+00
0.000000000000000e+00 0.000000000000000e+00 0.000000000000000e+00
0.000000000000000e+00 0.000000000000000e+00 0.000000000000000e+00
0.000000000000000e+00 0.000000000000000e+00 0.000000000000000e+00
0.000000000000000e+00 0.000000000000000e+00 0.000000000000000e+00
0.000000000000000e+00 0.000000000000000e+00 0.000000000000000e+00
0.000000000000000e+00 0.000000000000000e+00 0.000000000000000e+00
0.000000000000000e+00 0.000000000000000e+00 0.000000000000000e+00
0.000000000000000e+00 0.000000000000000e+00 0.000000000000000e+00
0.000000000000000e+00 0.000000000000000e+00 0.000000000000000e+00
0.000000000000000e+00 0.000000000000000e+00 0.000000000000000e+00
0.000000000000000e+00 0.000000000000000e+00 0.000000000000000e+00
0.000000000000000e+00 0.000000000000000e+00 0.000000000000000e+00
0.000000000000000e+00 0.000000000000000e+00 0.000000000000000e+00
0.000000000000000e+00 0.000000000000000e+00 0.000000000000000e+00
0.000000000000000e+00 0.000000000000000e+00 0.000000000000000e+00
0.000000000000000e+00 0.000000000000000e+00 0.000000000000000e+00
0.000000000000000e+00 0.000000000000000e+00 0.000000000000000e+00
0.000000000000000e+00 0.000000000000000e+00 0.000000000000000e+00
0.000000000000000e+00 0.000000000000000e+00 0.000000000000000e+00
0.000000000000000e+00 0.000000000000000e+00 0.000000000000000e+00
0.000000000000000e+00 0.000000000000000e+00 0.000000000000000e+00
0.000000000000000e+00 0.000000000000000e+00 0.000000000000000e+00
0.000000000000000e+00 0.000000000000000e+00 0.000000000000000e+00
0.000000000000000e+00 0.000000000000000e+00 0.000000000000000e+00
0.000000000000000e+00 0.000000000000000e+00 0.000000000000000e+00
0.000000000000000e+00 0.000000000000000e+00 0.000000000000000e+00
0.000000000000000e+00 0.000000000000000e+00 0.000000000000000e+00
0.000000000000000e+00 0.000000000000000e+00 0.000000000000000e+00
0.000000000000000e+00 0.000000000000000e+00 0.000000000000000e+00
0.000000000000000e+00 0.000000000000000e+00 0.000000000000000e+00
0.000000000000000e+00 0.000000000000000e+00 0.000000000000000e+00
0.000000000000000e+00 0.000000000000000e+00 0.000000000000000e+00
0.000000000000000e+00 0.000000000000000e+00 0.000000000000000e+00
0.000000000000000e+00 0.000000000000000e+00 0.000000000000000e+00
0.000000000000000e+00 0.000000000000000e+00 0.000000000000000e+00
0.000000000000000e+00 0.000000000000000e+00 0.000000000000000e+00
0.000000000000000e+00 0.000000000000000e+00 0.000000000000000e+00
0.000000000000000e+00 0.000000000000000e+00 0.000000000000000e+00
0.000000000000000e+00 0.000000000000000e+00 0.000000000000000e+00
0.000000000000000e+00 0.000000000000000e+00 0.000000000000000e+00
0.000000000000000e+00 0.000000000000000e+00 0.000000000000000e+00
0.000000000000000e+00 0.000000000000000e+00 0.000000000000000e+00
0.000000000000000e+00 0.000000000000000e+00 0.000000000000000e+00
0.000000000000000e+00 0.000000000000000e+00 0.000000000000000e+00
0.000000000000000e+00 0.000000000000000e+00 0.000000000000000e+00
0.000000000000000e+00 0.000000000000000e+00 0.000000000000000e+00
0.000000000000000e+00 0.000000000000000e+00 0.000000000000000e+00
0.000000000000000e+00 0.000000000000000e+00 0.000000000000000e+00
0.000000000000000e+00 0.000000000000000e+00 0.000000000000000e+00
0.000000000000000e+00 0.000000000000000e+00 0.000000000000000e+00
0.000000000000000e+00 0.000000000000000e+00 0.000000000000000e+00
0.000000000000000e+00 0.000000000000000e+00 0.000000000000000e+00
0.000000000000000e+00 0.000000000000000e+00 0.000000000000000e+00
0.000000000000000e+00 0.000000000000000e+00 0.000000000000000e+00
0.000000000000000e+00 0.000000000000000e+00 0.000000000000000e+00
0.000000000000000e+00 0.000000000000000e+00 0.000000000000000e+00
0.000000000000000e+00 0.000000000000000e+00 0.000000000000000e+00
0.000000000000000e+00 0.000000000000000e+00 0.000000000000000e+00
0.000000000000000e+00 0.000000000000000e+00 0.000000000000000e+00
0.000000000000000e+00 0.000000000000000e+00 0.000000000000000e+00
0.000000000000000e+00 0.000000000000000e+00 0.000000000000000e+00
0.000000000000000e+00 0.000000000000000e+00 0.000000000000000e+00
0.000000000000000e+00 0.000000000000000e+00 0.000000000000000e+00
0.000000000000000e+00 0.000000000000000e+00 0.000000000000000e+00
0.000000000000000e+00 0.000000000000000e+00 0.000000000000000e+00
0.000000000000000e+00 0.000000000000000e+00 0.000000000000000e+00
0.000000000000000e+00 0.000000000000000e+00 0.000000000000000e+00
0.000000000000000e+00 0.000000000000000e+00 0.000000000000000e+00
0.000000000000000e+00 0.000000000000000e+00 0.000000000000000e+00
0.000000000000000e+00 0.000000000000000e+00 0.000000000000000e+00
0.000000000000000e+00 0.000000000000000e+00 0.000000000000000e+00
0.000000000000000e+00 0.000000000000000e+00 0.000000000000000e+00
0.000000000000000e+00 0.000000000000000e+00 0.000000000000000e+00
0.000000000000000e+00 0.000000000000000e+00 0.000000000000000e+00
0.000000000000000e+00 0.000000000000000e+00 0.000000000000000e+00
0.000000000000000e+00 0.000000000000000e+00 0.000000000000000e+00
0.000000000000000e+00 0.000000000000000e+00 0.000000000000000e+00
0.000000000000000e+00 0.000000000000000e+00 0.000000000000000e+00
0.000000000000000e+00 0.000000000000000e+00 0.000000000000000e+00
0.000000000000000e+00 0.000000000000000e+00 0.000000000000000e+00
0.000000000000000e+00 0.000000000000000e+00 0.000000000000000e+00
0.000000000000000e+00 0.000000000000000e+00 0.000000000000000e+00
0.000000000000000e+00 0.000000000000000e+00 0.000000000000000e+00
0.000000000000000e+00 0.000000000000000e+00 0.000000000000000e+00
0.000000000000000e+00 0.000000000000000e+00 0.000000000000000e+00
0.000000000000000e+00 0.000000000000000e+00 0.000000000000000e+00
0.000000000000000e+00 0.000000000000000e+00 0.000000000000000e+00
0.000000000000000e+00 0.000000000000000e+00 0.000000000000000e+00
0.000000000000000e+00 0.000000000000000e+00 0.000000000000000e+00
0.000000000000000e+00 0.000000000000000e+00 0.000000000000000e+00
0.000000000000000e+00 0.000000000000000e+00 0.000000000000000e+00
0.000000000000000e+00 0.000000000000000e+00 0.000000000000000e+00
0.000000000000000e+00 0.000000000000000e+00 0.000000000000000e+00
0.000000000000000e+00 0.000000000000000e+00 0.000000000000000e+00
0.000000000000000e+00 0.000000000000000e+00 0.000000000000000e+00
0.000000000000000e+00 0.000000000000000e+00 0.000000000000000e+00
0.000000000000000e+00 0.000000000000000e+00 0.000000000000000e+00
0.000000000000000e+00 0.000000000000000e+00 0.000000000000000e+00
0.000000000000000e+00 0.000000000000000e+00 0.000000000000000e+00
0.000000000000000e+00 0.000000000000000e+00 0.000000000000000e+00
0.000000000000000e+00 0.000000000000000e+00 0.000000000000000e+00
0.000000000000000e+00 0.000000000000000e+00 0.000000000000000e+00
0.000000000000000e+00 0.000000000000000e+00 0.000000000000000e+00
0.000000000000000e+00 0.000000000000000e+00 0.000000000000000e+00
0.000000000000000e+00 0.000000000000000e+00 0.000000000000000e+00
0.000000000000000e+00 0.000000000000000e+00 0.000000000000000e+00
0.000000000000000e+00 0.000000000000000e+00 0.000000000000000e+00
0.000000000000000e+00 0.000000000000000e+00 0.000000000000000e+00
0.000000000000000e+00 0.000000000000000e+00 0.000000000000000e+00
0.000000000000000e+00 0.000000000000000e+00 0.000000000000000e+00
0.000000000000000e+00 0.000000000000000e+00 0.000000000000000e+00
0.000000000000000e+00 0.000000000000000e+00 0.000000000000000e+00
0.000000000000000e+00 0.000000000000000e+00 0.000000000000000e+00
0.000000000000000e+00 0.000000000000000e+00 0.000000000000000e+00
0.000000000000000e+00 0.000000000000000e+00 0.000000000000000e+00
0.000000000000000e+00 0.000000000000000e+00 0.000000000000000e+00
0.000000000000000e+00 0.000000000000000e+00 0.000000000000000e+00
0.000000000000000e+00 0.000000000000000e+00 0.000000000000000e+00
0.000000000000000e+00 0.000000000000000e+00 0.000000000000000e+00
0.000000000000000e+00 0.000000000000000e+00 0.000000000000000e+00
0.000000000000000e+00 0.000000000000000e+00 0.000000000000000e+00
0.000000000000000e+00 0.000000000000000e+00 0.000000000000000e+00
0.000000000000000e+00 0.000000000000000e+00 0.000000000000000e+00
0.000000000000000e+00 0.000000000000000e+00 0.000000000000000e+00
0.000000000000000e+00 0.000000000000000e+00 0.000000000000000e+00
0.000000000000000e+00 0.000000000000000e+00 0.000000000000000e+00
0.000000000000000e+00 0.000000000000000e+00 0.000000000000000e+00
0.000000000000000e+00 0.000000000000000e+00 0.000000000000000e+00
0.000000000000000e+00 0.000000000000000e+00 0.000000000000000e+00
0.000000000000000e+00 0.000000000000000e+00 0.000000000000000e+00
0.000000000000000e+00 0.000000000000000e+00 0.000000000000000e+00
0.000000000000000e+00 0.000000000000000e+00 0.000000000000000e+00
0.000000000000000e+00 0.000000000000000e+00 0.000000000000000e+00
0.000000000000000e+00 0.000000000000000e+00 0.000000000000000e+00
0.000000000000000e+00 0.000000000000000e+00 0.000000000000000e+00
0.000000000000000e+00 0.000000000000000e+00 0.000000000000000e+00
0.000000000000000e+00 0.000000000000000e+00 0.000000000000000e+00
0.000000000000000e+00 0.000000000000000e+00 0.000000000000000e+00
0.000000000000000e+00 0.000000000000000e+00 0.000000000000000e+00
0.000000000000000e+00 0.000000000000000e+00 0.000000000000000e+00
0.000000000000000e+00 0.000000000000000e+00 0.000000000000000e+00
0.000000000000000e+00 0.000000000000000e+00 0.000000000000000e+00
0.000000000000000e+00 0.000000000000000e+00 0.000000000000000e+00
0.000000000000000e+00 0.000000000000000e+00 0.000000000000000e+00
0.000000000000000e+00 0.000000000000000e+00 0.000000000000000e+00
0.000000000000000e+00 0.000000000000000e+00 0.000000000000000e+00
0.000000000000000e+00 0.000000000000000e+00 0.000000000000000e+00
0.000000000000000e+00 0.000000000000000e+00 0.000000000000000e+00
0.000000000000000e+00 0.000000000000000e+00 0.000000000000000e+00
0.000000000000000e+00 0.000000000000000e+00 0.000000000000000e+00
0.000000000000000e+00 0.000000000000000e+00 0.000000000000000e+00
0.000000000000000e+00 0.000000000000000e+00 0.000000000000000e+00
0.000000000000000e+00 0.000000000000000e+00 0.000000000000000e+00
0.000000000000000e+00 0.000000000000000e+00 0.000000000000000e+00
0.000000000000000e+00 0.000000000000000e+00 0.000000000000000e+00
0.000000000000000e+00 0.000000000000000e+00 0.000000000000000e+00
0.000000000000000e+00 0.000000000000000e+00 0.000000000000000e+00
0.000000000000000e+00 0.000000000000000e+00 0.000000000000000e+00
0.000000000000000e+00 0.000000000000000e+00 0.000000000000000e+00
0.000000000000000e+00 0.000000000000000e+00 0.000000000000000e+00
0.000000000000000e+00 0.000000000000000e+00 0.000000000000000e+00
0.000000000000000e+00 0.000000000000000e+00 0.000000000000000e+00
0.000000000000000e+00 0.000000000000000e+00 0.000000000000000e+00
0.000000000000000e+00 0.000000000000000e+00 0.000000000000000e+00
0.000000000000000e+00 0.000000000000000e+00 0.000000000000000e+00
0.000000000000000e+00 0.000000000000000e+00 0.000000000000000e+00
0.000000000000000e+00 0.000000000000000e+00 0.000000000000000e+00
0.000000000000000e+00 0.000000000000000e+00 0.000000000000000e+00
0.000000000000000e+00 0.000000000000000e+00 0.000000000000000e+00
0.000000000000000e+00 0.000000000000000e+00 0.000000000000000e+00
0.000000000000000e+00 0.000000000000000e+00 0.000000000000000e+00
0.000000000000000e+00 0.000000000000000e+00 0.000000000000000e+00
0.000000000000000e+00 0.000000000000000e+00 0.000000000000000e+00
0.000000000000000e+00 0.000000000000000e+00 0.000000000000000e+00
0.000000000000000e+00 0.000000000000000e+00 0.000000000000000e+00
0.000000000000000e+00 0.000000000000000e+00 0.000000000000000e+00
0.000000000000000e+00 0.000000000000000e+00 0.000000000000000e+00
0.000000000000000e+00 0.000000000000000e+00 0.000000000000000e+00
0.000000000000000e+00 0.000000000000000e+00 0.000000000000000e+00
0.000000000000000e+00 0.000000000000000e+00 0.000000000000000e+00
0.000000000000000e+00 0.000000000000000e+00 0.000000000000000e+00
0.000000000000000e+00 0.000000000000000e+00 0.000000000000000e+00
0.000000000000000e+00 0.000000000000000e+00 0.000000000000000e+00
0.000000000000000e+00 0.000000000000000e+00 0.000000000000000e+00
0.000000000000000e+00 0.000000000000000e+00 0.000000000000000e+00
0.000000000000000e+00 0.000000000000000e+00 0.000000000000000e+00
0.000000000000000e+00 0.000000000000000e+00 0.000000000000000e+00
0.000000000000000e+00 0.000000000000000e+00 0.000000000000000e+00
0.000000000000000e+00 0.000000000000000e+00 0.000000000000000e+00
0.000000000000000e+00 0.000000000000000e+00 0.000000000000000e+00
0.000000000000000e+00 0.000000000000000e+00 0.000000000000000e+00
0.000000000000000e+00 0.000000000000000e+00 0.000000000000000e+00
0.000000000000000e+00 0.000000000000000e+00 0.000000000000000e+00
0.000000000000000e+00 0.000000000000000e+00 0.000000000000000e+00
0.000000000000000e+00 0.000000000000000e+00 0.000000000000000e+00
0.000000000000000e+00 0.000000000000000e+00 0.000000000000000e+00
0.000000000000000e+00 0.000000000000000e+00 0.000000000000000e+00
0.000000000000000e+00 0.000000000000000e+00 0.000000000000000e+00
0.000000000000000e+00 0.000000000000000e+00 0.000000000000000e+00
0.000000000000000e+00 0.000000000000000e+00 0.000000000000000e+00
0.000000000000000e+00 0.000000000000000e+00 0.000000000000000e+00
0.000000000000000e+00 0.000000000000000e+00 0.000000000000000e+00
0.000000000000000e+00 0.000000000000000e+00 0.000000000000000e+00
0.000000000000000e+00 0.000000000000000e+00 0.000000000000000e+00
0.000000000000000e+00 0.000000000000000e+00 0.000000000000000e+00
0.000000000000000e+00 0.000000000000000e+00 0.000000000000000e+00
0.000000000000000e+00 0.000000000000000e+00 0.000000000000000e+00
0.000000000000000e+00 0.000000000000000e+00 0.000000000000000e+00
0.000000000000000e+00 0.000000000000000e+00 0.000000000000000e+00
0.000000000000000e+00 0.000000000000000e+00 0.000000000000000e+00
0.000000000000000e+00 0.000000000000000e+00 0.000000000000000e+00
0.000000000000000e+00 0.000000000000000e+00 0.000000000000000e+00
0.000000000000000e+00 0.000000000000000e+00 0.000000000000000e+00
0.000000000000000e+00 0.000000000000000e+00 0.000000000000000e+00
0.000000000000000e+00 0.000000000000000e+00 0.000000000000000e+00
0.000000000000000e+00 0.000000000000000e+00 0.000000000000000e+00
0.000000000000000e+00 0.000000000000000e+00 0.000000000000000e+00
0.000000000000000e+00 0.000000000000000e+00 0.000000000000000e+00
0.000000000000000e+00 0.000000000000000e+00 0.000000000000000e+00
0.000000000000000e+00 0.000000000000000e+00 0.000000000000000e+00
0.000000000000000e+00 0.000000000000000e+00 0.000000000000000e+00
0.000000000000000e+00 0.000000000000000e+00 0.000000000000000e+00
0.000000000000000e+00 0.000000000000000e+00 0.000000000000000e+00
0.000000000000000e+00 0.000000000000000e+00 0.000000000000000e+00
0.000000000000000e+00 0.000000000000000e+00 0.000000000000000e+00
0.000000000000000e+00 0.000000000000000e+00 0.000000000000000e+00
0.000000000000000e+00 0.000000000000000e+00 0.000000000000000e+00
0.000000000000000e+00 0.000000000000000e+00 0.000000000000000e+00
0.000000000000000e+00 0.000000000000000e+00 0.000000000000000e+00
0.000000000000000e+00 0.000000000000000e+00 0.000000000000000e+00
0.000000000000000e+00 0.000000000000000e+00 0.000000000000000e+00
0.000000000000000e+00 0.000000000000000e+00 0.000000000000000e+00
0.000000000000000e+00 0.000000000000000e+00 0.000000000000000e+00
0.000000000000000e+00 0.000000000000000e+00 0.000000000000000e+00
0.000000000000000e+00 0.000000000000000e+00 0.000000000000000e+00
0.000000000000000e+00 0.000000000000000e+00 0.000000000000000e+00
0.000000000000000e+00 0.000000000000000e+00 0.000000000000000e+00
0.000000000000000e+00 0.000000000000000e+00 0.000000000000000e+00
0.000000000000000e+00 0.000000000000000e+00 0.000000000000000e+00
0.000000000000000e+00 0.000000000000000e+00 0.000000000000000e+00
0.000000000000000e+00 0.000000000000000e+00 0.000000000000000e+00
0.000000000000000e+00 0.000000000000000e+00 0.000000000000000e+00
0.000000000000000e+00 0.000000000000000e+00 0.000000000000000e+00
0.000000000000000e+00 0.000000000000000e+00 0.000000000000000e+00
0.000000000000000e+00 0.000000000000000e+00 0.000000000000000e+00
0.000000000000000e+00 0.000000000000000e+00 0.000000000000000e+00
0.000000000000000e+00 0.000000000000000e+00 0.000000000000000e+00
0.000000000000000e+00 0.000000000000000e+00 0.000000000000000e+00
0.000000000000000e+00 0.000000000000000e+00 0.000000000000000e+00
0.000000000000000e+00 0.000000000000000e+00 0.000000000000000e+00
0.000000000000000e+00 0.000000000000000e+00 0.000000000000000e+00
0.000000000000000e+00 0.000000000000000e+00 0.000000000000000e+00
0.000000000000000e+00 0.000000000000000e+00 0.000000000000000e+00
0.000000000000000e+00 0.000000000000000e+00 0.000000000000000e+00
0.000000000000000e+00 0.000000000000000e+00 0.000000000000000e+00
0.000000000000000e+00 0.000000000000000e+00 0.000000000000000e+00
0.000000000000000e+00 0.000000000000000e+00 0.000000000000000e+00
0.000000000000000e+00 0.000000000000000e+00 0.000000000000000e+00
0.000000000000000e+00 0.000000000000000e+00 0.000000000000000e+00
0.000000000000000e+00 0.000000000000000e+00 0.000000000000000e+00
0.000000000000000e+00 0.000000000000000e+00 0.000000000000000e+00
0.000000000000000e+00 0.000000000000000e+00 0.000000000000000e+00
0.000000000000000e+00 0.000000000000000e+00 0.000000000000000e+00
0.000000000000000e+00 0.000000000000000e+00 0.000000000000000e+00
0.000000000000000e+00 0.000000000000000e+00 0.000000000000000e+00
0.000000000000000e+00 0.000000000000000e+00 0.000000000000000e+00
0.000000000000000e+00 0.000000000000000e+00 0.000000000000000e+00
0.000000000000000e+00 0.000000000000000e+00 0.000000000000000e+00
0.000000000000000e+00 0.000000000000000e+00 0.000000000000000e+00
0.000000000000000e+00 0.000000000000000e+00 0.000000000000000e+00
0.000000000000000e+00 0.000000000000000e+00 0.000000000000000e+00
0.000000000000000e+00 0.000000000000000e+00 0.000000000000000e+00
0.000000000000000e+00 0.000000000000000e+00 0.000000000000000e+00
0.000000000000000e+00 0.000000000000000e+00 0.000000000000000e+00
0.000000000000000e+00 0.000000000000000e+00 0.000000000000000e+00
0.000000000000000e+00 0.000000000000000e+00 0.000000000000000e+00
0.000000000000000e+00 0.000000000000000e+00 0.000000000000000e+00
0.000000000000000e+00 0.000000000000000e+00 0.000000000000000e+00
0.000000000000000e+00 0.000000000000000e+00 0.000000000000000e+00
0.000000000000000e+00 0.000000000000000e+00 0.000000000000000e+00
0.000000000000000e+00 0.000000000000000e+00 0.000000000000000e+00
0.000000000000000e+00 0.000000000000000e+00 0.000000000000000e+00
0.000000000000000e+00 0.000000000000000e+00 0.000000000000000e+00
0.000000000000000e+00 0.000000000000000e+00 0.000000000000000e+00
0.000000000000000e+00 0.000000000000000e+00 0.000000000000000e+00
0.000000000000000e+00 0.000000000000000e+00 0.000000000000000e+00
0.000000000000000e+00 0.000000000000000e+00 0.000000000000000e+00
0.000000000000000e+00 0.000000000000000e+00 0.000000000000000e+00
0.000000000000000e+00 0.000000000000000e+00 0.000000000000000e+00
0.000000000000000e+00 0.000000000000000e+00 0.000000000000000e+00
0.000000000000000e+00 0.000000000000000e+00 0.000000000000000e+00
0.000000000000000e+00 0.000000000000000e+00 0.000000000000000e+00
0.000000000000000e+00 0.000000000000000e+00 0.000000000000000e+00
0.000000000000000e+00 0.000000000000000e+00 0.000000000000000e+00
0.000000000000000e+00 0.000000000000000e+00 0.000000000000000e+00
0.000000000000000e+00 0.000000000000000e+00 0.000000000000000e+00
0.000000000000000e+00 0.000000000000000e+00 0.000000000000000e+00
0.000000000000000e+00 0.000000000000000e+00 0.000000000000000e+00
0.000000000000000e+00 0.000000000000000e+00 0.000000000000000e+00
0.000000000000000e+00 0.000000000000000e+00 0.000000000000000e+00
0.000000000000000e+00 0.000000000000000e+00 0.000000000000000e+00
0.000000000000000e+00 0.000000000000000e+00 0.000000000000000e+00
0.000000000000000e+00 0.000000000000000e+00 0.000000000000000e+00
0.000000000000000e+00 0.000000000000000e+00 0.000000000000000e+00
0.000000000000000e+00 0.000000000000000e+00 0.000000000000000e+00
0.000000000000000e+00 0.000000000000000e+00 0.000000000000000e+00
0.000000000000000e+00 0.000000000000000e+00 0.000000000000000e+00
0.000000000000000e+00 0.000000000000000e+00 0.000000000000000e+00
0.000000000000000e+00 0.000000000000000e+00 0.000000000000000e+00
0.000000000000000e+00 0.000000000000000e+00 0.000000000000000e+00
0.000000000000000e+00 0.000000000000000e+00 0.000000000000000e+00
0.000000000000000e+00 0.000000000000000e+00 0.000000000000000e+00
0.000000000000000e+00 0.000000000000000e+00 0.000000000000000e+00
0.000000000000000e+00 0.000000000000000e+00 0.000000000000000e+00
0.000000000000000e+00 0.000000000000000e+00 0.000000000000000e+00
0.000000000000000e+00 0.000000000000000e+00 0.000000000000000e+00
0.000000000000000e+00 0.000000000000000e+00 0.000000000000000e+00
0.000000000000000e+00 0.000000000000000e+00 0.000000000000000e+00
0.000000000000000e+00 0.000000000000000e+00 0.000000000000000e+00
0.000000000000000e+00 0.000000000000000e+00 0.000000000000000e+00
0.000000000000000e+00 0.000000000000000e+00 0.000000000000000e+00
0.000000000000000e+00 0.000000000000000e+00 0.000000000000000e+00
0.000000000000000e+00 0.000000000000000e+00 0.000000000000000e+00
0.000000000000000e+00 0.000000000000000e+00 0.000000000000000e+00
0.000000000000000e+00 0.000000000000000e+00 0.000000000000000e+00
0.000000000000000e+00 0.000000000000000e+00 0.000000000000000e+00
0.000000000000000e+00 0.000000000000000e+00 0.000000000000000e+00
0.000000000000000e+00 0.000000000000000e+00 0.000000000000000e+00
0.000000000000000e+00 0.000000000000000e+00 0.000000000000000e+00
0.000000000000000e+00 0.000000000000000e+00 0.000000000000000e+00
0.000000000000000e+00 0.000000000000000e+00 0.000000000000000e+00
0.000000000000000e+00 0.000000000000000e+00 0.000000000000000e+00
0.000000000000000e+00 0.000000000000000e+00 0.000000000000000e+00
0.000000000000000e+00 0.000000000000000e+00 0.000000000000000e+00
0.000000000000000e+00 0.000000000000000e+00 0.000000000000000e+00
0.000000000000000e+00 0.000000000000000e+00 0.000000000000000e+00
0.000000000000000e+00 0.000000000000000e+00 0.000000000000000e+00
0.000000000000000e+00 0.000000000000000e+00 0.000000000000000e+00
0.000000000000000e+00 0.000000000000000e+00 0.000000000000000e+00
0.000000000000000e+00 0.000000000000000e+00 0.000000000000000e+00
0.000000000000000e+00 0.000000000000000e+00 0.000000000000000e+00
0.000000000000000e+00 0.000000000000000e+00 0.000000000000000e+00
0.000000000000000e+00 0.000000000000000e+00 0.000000000000000e+00
0.000000000000000e+00 0.000000000000000e+00 0.000000000000000e+00
0.000000000000000e+00 0.000000000000000e+00 0.000000000000000e+00
0.000000000000000e+00 0.000000000000000e+00 0.000000000000000e+00
0.000000000000000e+00 0.000000000000000e+00 0.000000000000000e+00
0.000000000000000e+00 0.000000000000000e+00 0.000000000000000e+00
0.000000000000000e+00 0.000000000000000e+00 0.000000000000000e+00
0.000000000000000e+00 0.000000000000000e+00 0.000000000000000e+00
0.000000000000000e+00 0.000000000000000e+00 0.000000000000000e+00
0.000000000000000e+00 0.000000000000000e+00 0.000000000000000e+00
0.000000000000000e+00 0.000000000000000e+00 0.000000000000000e+00
0.000000000000000e+00 0.000000000000000e+00 0.000000000000000e+00
0.000000000000000e+00 0.000000000000000e+00 0.000000000000000e+00
0.000000000000000e+00 0.000000000000000e+00 0.000000000000000e+00
0.000000000000000e+00 0.000000000000000e+00 0.000000000000000e+00
0.000000000000000e+00 0.000000000000000e+00 0.000000000000000e+00
0.000000000000000e+00 0.000000000000000e+00 0.000000000000000e+00
0.000000000000000e+00 0.000000000000000e+00 0.000000000000000e+00
0.000000000000000e+00 0.000000000000000e+00 0.000000000000000e+00
0.000000000000000e+00 0.000000000000000e+00 0.000000000000000e+00
0.000000000000000e+00 0.000000000000000e+00 0.000000000000000e+00
0.000000000000000e+00 0.000000000000000e+00 0.000000000000000e+00
0.000000000000000e+00 0.000000000000000e+00 0.000000000000000e+00
0.000000000000000e+00 0.000000000000000e+00 0.000000000000000e+00
0.000000000000000e+00 0.000000000000000e+00 0.000000000000000e+00
0.000000000000000e+00 0.000000000000000e+00 0.000000000000000e+00
0.000000000000000e+00 0.000000000000000e+00 0.000000000000000e+00
0.000000000000000e+00 0.000000000000000e+00 0.000000000000000e+00
0.000000000000000e+00 0.000000000000000e+00 0.000000000000000e+00
0.000000000000000e+00 0.000000000000000e+00 0.000000000000000e+00
0.000000000000000e+00 0.000000000000000e+00 0.000000000000000e+00
0.000000000000000e+00 0.000000000000000e+00 0.000000000000000e+00
0.000000000000000e+00 0.000000000000000e+00 0.000000000000000e+00
0.000000000000000e+00 0.000000000000000e+00 0.000000000000000e+00
0.000000000000000e+00 0.000000000000000e+00 0.000000000000000e+00
0.000000000000000e+00 0.000000000000000e+00 0.000000000000000e+00
0.000000000000000e+00 0.000000000000000e+00 0.000000000000000e+00
0.000000000000000e+00 0.000000000000000e+00 0.000000000000000e+00
0.000000000000000e+00 0.000000000000000e+00 0.000000000000000e+00
0.000000000000000e+00 0.000000000000000e+00 0.000000000000000e+00
0.000000000000000e+00 0.000000000000000e+00 0.000000000000000e+00
0.000000000000000e+00 0.000000000000000e+00 0.000000000000000e+00
0.000000000000000e+00 0.000000000000000e+00 0.000000000000000e+00
0.000000000000000e+00 0.000000000000000e+00 0.000000000000000e+00
0.000000000000000e+00 0.000000000000000e+00 0.000000000000000e+00
0.000000000000000e+00 0.000000000000000e+00 0.000000000000000e+00
0.000000000000000e+00 0.000000000000000e+00 0.000000000000000e+00
0.000000000000000e+00 0.000000000000000e+00 0.000000000000000e+00
0.000000000000000e+00 0.000000000000000e+00 0.000000000000000e+00
0.000000000000000e+00 0.000000000000000e+00 0.000000000000000e+00
0.000000000000000e+00 0.000000000000000e+00 0.000000000000000e+00
0.000000000000000e+00 0.000000000000000e+00 0.000000000000000e+00
0.000000000000000e+00 0.000000000000000e+00 0.000000000000000e+00
0.000000000000000e+00 0.000000000000000e+00 0.000000000000000e+00
0.000000000000000e+00 0.000000000000000e+00 0.000000000000000e+00
0.000000000000000e+00 0.000000000000000e+00 0.000000000000000e+00
0.000000000000000e+00 0.000000000000000e+00 0.000000000000000e+00
0.000000000000000e+00 0.000000000000000e+00 0.000000000000000e+00
0.000000000000000e+00 0.000000000000000e+00 0.000000000000000e+00
0.000000000000000e+00 0.000000000000000e+00 0.000000000000000e+00
0.000000000000000e+00 0.000000000000000e+00 0.000000000000000e+00
0.000000000000000e+00 0.000000000000000e+00 0.000000000000000e+00
0.000000000000000e+00 0.000000000000000e+00 0.000000000000000e+00
0.000000000000000e+00 0.000000000000000e+00 0.000000000000000e+00
0.000000000000000e+00 0.000000000000000e+00 0.000000000000000e+00
0.000000000000000e+00 0.000000000000000e+00 0.000000000000000e+00
0.000000000000000e+00 0.000000000000000e+00 0.000000000000000e+00
0.000000000000000e+00 0.000000000000000e+00 0.000000000000000e+00
0.000000000000000e+00 0.000000000000000e+00 0.000000000000000e+00
0.000000000000000e+00 0.000000000000000e+00 0.000000000000000e+00
0.000000000000000e+00 0.000000000000000e+00 0.000000000000000e+00
0.000000000000000e+00 0.000000000000000e+00 0.000000000000000e+00
0.000000000000000e+00 0.000000000000000e+00 0.000000000000000e+00
0.000000000000000e+00 0.000000000000000e+00 0.000000000000000e+00
0.000000000000000e+00 0.000000000000000e+00 0.000000000000000e+00
0.000000000000000e+00 0.000000000000000e+00 0.000000000000000e+00
0.000000000000000e+00 0.000000000000000e+00 0.000000000000000e+00
0.000000000000000e+00 0.000000000000000e+00 0.000000000000000e+00
0.000000000000000e+00 0.000000000000000e+00 0.000000000000000e+00
0.000000000000000e+00 0.000000000000000e+00 0.000000000000000e+00
0.000000000000000e+00 0.000000000000000e+00 0.000000000000000e+00
0.000000000000000e+00 0.000000000000000e+00 0.000000000000000e+00
0.000000000000000e+00 0.000000000000000e+00 0.000000000000000e+00
0.000000000000000e+00 0.000000000000000e+00 0.000000000000000e+00
0.000000000000000e+00 0.000000000000000e+00 0.000000000000000e+00
0.000000000000000e+00 0.000000000000000e+00 0.000000000000000e+00
0.000000000000000e+00 0.000000000000000e+00 0.000000000000000e+00
0.000000000000000e+00 0.000000000000000e+00 0.000000000000000e+00
0.000000000000000e+00 0.000000000000000e+00 0.000000000000000e+00
0.000000000000000e+00 0.000000000000000e+00 0.000000000000000e+00
0.000000000000000e+00 0.000000000000000e+00 0.000000000000000e+00
0.000000000000000e+00 0.000000000000000e+00 0.000000000000000e+00
0.000000000000000e+00 0.000000000000000e+00 0.000000000000000e+00
0.000000000000000e+00 0.000000000000000e+00 0.000000000000000e+00
0.000000000000000e+00 0.000000000000000e+00 0.000000000000000e+00
0.000000000000000e+00 0.000000000000000e+00 0.000000000000000e+00
0.000000000000000e+00 0.000000000000000e+00 0.000000000000000e+00
0.000000000000000e+00 0.000000000000000e+00 0.000000000000000e+00
0.000000000000000e+00 0.000000000000000e+00 0.000000000000000e+00
0.000000000000000e+00 0.000000000000000e+00 0.000000000000000e+00
0.000000000000000e+00 0.000000000000000e+00 0.000000000000000e+00
0.000000000000000e+00 0.000000000000000e+00 0.000000000000000e+00
0.000000000000000e+00 0.000000000000000e+00 0.000000000000000e+00
0.000000000000000e+00 0.000000000000000e+00 0.000000000000000e+00
0.000000000000000e+00 0.000000000000000e+00 0.000000000000000e+00
0.000000000000000e+00 0.000000000000000e+00 0.000000000000000e+00
0.000000000000000e+00 0.000000000000000e+00 0.000000000000000e+00
0.000000000000000e+00 0.000000000000000e+00 0.000000000000000e+00
0.000000000000000e+00 0.000000000000000e+00 0.000000000000000e+00
0.000000000000000e+00 0.000000000000000e+00 0.000000000000000e+00
0.000000000000000e+00 0.000000000000000e+00 0.000000000000000e+00
0.000000000000000e+00 0.000000000000000e+00 0.000000000000000e+00
0.000000000000000e+00 0.000000000000000e+00 0.000000000000000e+00
0.000000000000000e+00 0.000000000000000e+00 0.000000000000000e+00
0.000000000000000e+00 0.000000000000000e+00 0.000000000000000e+00
0.000000000000000e+00 0.000000000000000e+00 0.000000000000000e+00
0.000000000000000e+00 0.000000000000000e+00 0.000000000000000e+00
0.000000000000000e+00 0.000000000000000e+00 0.000000000000000e+00
0.000000000000000e+00 0.000000000000000e+00 0.000000000000000e+00
0.000000000000000e+00 0.000000000000000e+00 0.000000000000000e+00
0.000000000000000e+00 0.000000000000000e+00 0.000000000000000e+00
0.000000000000000e+00 0.000000000000000e+00 0.000000000000000e+00
0.000000000000000e+00 0.000000000000000e+00 0.000000000000000e+00
0.000000000000000e+00 0.000000000000000e+00 0.000000000000000e+00
0.000000000000000e+00 0.000000000000000e+00 0.000000000000000e+00
0.000000000000000e+00 0.000000000000000e+00 0.000000000000000e+00
0.000000000000000e+00 0.000000000000000e+00 0.000000000000000e+00
0.000000000000000e+00 0.000000000000000e+00 0.000000000000000e+00
0.000000000000000e+00 0.000000000000000e+00 0.000000000000000e+00
0.000000000000000e+00 0.000000000000000e+00 0.000000000000000e+00
0.000000000000000e+00 0.000000000000000e+00 0.000000000000000e+00
0.000000000000000e+00 0.000000000000000e+00 0.000000000000000e+00
0.000000000000000e+00 0.000000000000000e+00 0.000000000000000e+00
0.000000000000000e+00 0.000000000000000e+00 0.000000000000000e+00
0.000000000000000e+00 0.000000000000000e+00 0.000000000000000e+00
0.000000000000000e+00 0.000000000000000e+00 0.000000000000000e+00
0.000000000000000e+00 0.000000000000000e+00 0.000000000000000e+00
0.000000000000000e+00 0.000000000000000e+00 0.000000000000000e+00
0.000000000000000e+00 0.000000000000000e+00 0.000000000000000e+00
0.000000000000000e+00 0.000000000000000e+00 0.000000000000000e+00
0.000000000000000e+00 0.000000000000000e+00 0.000000000000000e+00
0.000000000000000e+00 0.000000000000000e+00 0.000000000000000e+00
0.000000000000000e+00 0.000000000000000e+00 0.000000000000000e+00
0.000000000000000e+00 0.000000000000000e+00 0.000000000000000e+00
0.000000000000000e+00 0.000000000000000e+00 0.000000000000000e+00
0.000000000000000e+00 0.000000000000000e+00 0.000000000000000e+00
0.000000000000000e+00 0.000000000000000e+00 0.000000000000000e+00
0.000000000000000e+00 0.000000000000000e+00 0.000000000000000e+00
0.000000000000000e+00 0.000000000000000e+00 0.000000000000000e+00
0.000000000000000e+00 0.000000000000000e+00 0.000000000000000e+00
0.000000000000000e+00 0.000000000000000e+00 0.000000000000000e+00
0.000000000000000e+00 0.000000000000000e+00 0.000000000000000e+00
0.000000000000000e+00 0.000000000000000e+00 0.000000000000000e+00
0.000000000000000e+00 0.000000000000000e+00 0.000000000000000e+00
0.000000000000000e+00 0.000000000000000e+00 0.000000000000000e+00
0.000000000000000e+00 0.000000000000000e+00 0.000000000000000e+00
0.000000000000000e+00 0.000000000000000e+00 0.000000000000000e+00
0.000000000000000e+00 0.000000000000000e+00 0.000000000000000e+00
0.000000000000000e+00 0.000000000000000e+00 0.000000000000000e+00
0.000000000000000e+00 0.000000000000000e+00 0.000000000000000e+00
0.000000000000000e+00 0.000000000000000e+00 0.000000000000000e+00
0.000000000000000e+00 0.000000000000000e+00 0.000000000000000e+00
0.000000000000000e+00 0.000000000000000e+00 0.000000000000000e+00
0.000000000000000e+00 0.000000000000000e+00 0.000000000000000e+00
0.000000000000000e+00 0.000000000000000e+00 0.000000000000000e+00
0.000000000000000e+00 0.000000000000000e+00 0.000000000000000e+00
0.000000000000000e+00 0.000000000000000e+00 0.000000000000000e+00
0.000000000000000e+00 0.000000000000000e+00 0.000000000000000e+00
0.000000000000000e+00 0.000000000000000e+00 0.000000000000000e+00
0.000000000000000e+00 0.000000000000000e+00 0.000000000000000e+00
0.000000000000000e+00 0.000000000000000e+00 0.000000000000000e+00
0.000000000000000e+00 0.000000000000000e+00 0.000000000000000e+00
0.000000000000000e+00 0.000000000000000e+00 0.000000000000000e+00
0.000000000000000e+00 0.000000000000000e+00 0.000000000000000e+00
0.000000000000000e+00 0.000000000000000e+00 0.000000000000000e+00
0.000000000000000e+00 0.000000000000000e+00 0.000000000000000e+00
0.000000000000000e+00 0.000000000000000e+00 0.000000000000000e+00
0.000000000000000e+00 0.000000000000000e+00 0.000000000000000e+00
0.000000000000000e+00 0.000000000000000e+00 0.000000000000000e+00
0.000000000000000e+00 0.000000000000000e+00 0.000000000000000e+00
0.000000000000000e+00 0.000000000000000e+00 0.000000000000000e+00
0.000000000000000e+00 0.000000000000000e+00 0.000000000000000e+00
0.000000000000000e+00 0.000000000000000e+00 0.000000000000000e+00
0.000000000000000e+00 0.000000000000000e+00 0.000000000000000e+00
0.000000000000000e+00 0.000000000000000e+00 0.000000000000000e+00
0.000000000000000e+00 0.000000000000000e+00 0.000000000000000e+00
0.000000000000000e+00 0.000000000000000e+00 0.000000000000000e+00
0.000000000000000e+00 0.000000000000000e+00 0.000000000000000e+00
0.000000000000000e+00 0.000000000000000e+00 0.000000000000000e+00
0.000000000000000e+00 0.000000000000000e+00 0.000000000000000e+00
0.000000000000000e+00 0.000000000000000e+00 0.000000000000000e+00
0.000000000000000e+00 0.000000000000000e+00 0.000000000000000e+00
0.000000000000000e+00 0.000000000000000e+00 0.000000000000000e+00
0.000000000000000e+00 0.000000000000000e+00 0.000000000000000e+00
0.000000000000000e+00 0.000000000000000e+00 0.000000000000000e+00
0.000000000000000e+00 0.000000000000000e+00 0.000000000000000e+00
0.000000000000000e+00 0.000000000000000e+00 0.000000000000000e+00
0.000000000000000e+00 0.000000000000000e+00 0.000000000000000e+00
0.000000000000000e+00 0.000000000000000e+00 0.000000000000000e+00
0.000000000000000e+00 0.000000000000000e+00 0.000000000000000e+00
0.000000000000000e+00 0.000000000000000e+00 0.000000000000000e+00
0.000000000000000e+00 0.000000000000000e+00 0.000000000000000e+00
0.000000000000000e+00 0.000000000000000e+00 0.000000000000000e+00
0.000000000000000e+00 0.000000000000000e+00 0.000000000000000e+00
0.000000000000000e+00 0.000000000000000e+00 0.000000000000000e+00
0.000000000000000e+00 0.000000000000000e+00 0.000000000000000e+00
0.000000000000000e+00 0.000000000000000e+00 0.000000000000000e+00
0.000000000000000e+00 0.000000000000000e+00 0.000000000000000e+00
0.000000000000000e+00 0.000000000000000e+00 0.000000000000000e+00
0.000000000000000e+00 0.000000000000000e+00 0.000000000000000e+00
0.000000000000000e+00 0.000000000000000e+00 0.000000000000000e+00
0.000000000000000e+00 0.000000000000000e+00 0.000000000000000e+00
0.000000000000000e+00 0.000000000000000e+00 0.000000000000000e+00
0.000000000000000e+00 0.000000000000000e+00 0.000000000000000e+00
0.000000000000000e+00 0.000000000000000e+00 0.000000000000000e+00
0.000000000000000e+00 0.000000000000000e+00 0.000000000000000e+00
0.000000000000000e+00 0.000000000000000e+00 0.000000000000000e+00
0.000000000000000e+00 0.000000000000000e+00 0.000000000000000e+00
0.000000000000000e+00 0.000000000000000e+00 0.000000000000000e+00
0.000000000000000e+00 0.000000000000000e+00 0.000000000000000e+00
0.000000000000000e+00 0.000000000000000e+00 0.000000000000000e+00
0.000000000000000e+00 0.000000000000000e+00 0.000000000000000e+00
0.000000000000000e+00 0.000000000000000e+00 0.000000000000000e+00
0.000000000000000e+00 0.000000000000000e+00 0.000000000000000e+00
0.000000000000000e+00 0.000000000000000e+00 0.000000000000000e+00
0.000000000000000e+00 0.000000000000000e+00 0.000000000000000e+00
0.000000000000000e+00 0.000000000000000e+00 0.000000000000000e+00
0.000000000000000e+00 0.000000000000000e+00 0.000000000000000e+00
0.000000000000000e+00 0.000000000000000e+00 0.000000000000000e+00
0.000000000000000e+00 0.000000000000000e+00 0.000000000000000e+00
0.000000000000000e+00 0.000000000000000e+00 0.000000000000000e+00
0.000000000000000e+00 0.000000000000000e+00 0.000000000000000e+00
0.000000000000000e+00 0.000000000000000e+00 0.000000000000000e+00
0.000000000000000e+00 0.000000000000000e+00 0.000000000000000e+00
0.000000000000000e+00 0.000000000000000e+00 0.000000000000000e+00
0.000000000000000e+00 0.000000000000000e+00 0.000000000000000e+00
0.000000000000000e+00 0.000000000000000e+00 0.000000000000000e+00
0.000000000000000e+00 0.000000000000000e+00 0.000000000000000e+00
0.000000000000000e+00 0.000000000000000e+00 0.000000000000000e+00
0.000000000000000e+00 0.000000000000000e+00 0.000000000000000e+00
0.000000000000000e+00 0.000000000000000e+00 0.000000000000000e+00
0.000000000000000e+00 0.000000000000000e+00 0.000000000000000e+00
0.000000000000000e+00 0.000000000000000e+00 0.000000000000000e+00
0.000000000000000e+00 0.000000000000000e+00 0.000000000000000e+00
0.000000000000000e+00 0.000000000000000e+00 0.000000000000000e+00
0.000000000000000e+00 0.000000000000000e+00 0.000000000000000e+00
0.000000000000000e+00 0.000000000000000e+00 0.000000000000000e+00
0.000000000000000e+00 0.000000000000000e+00 0.000000000000000e+00
0.000000000000000e+00 0.000000000000000e+00 0.000000000000000e+00
0.000000000000000e+00 0.000000000000000e+00 0.000000000000000e+00
0.000000000000000e+00 0.000000000000000e+00 0.000000000000000e+00
0.000000000000000e+00 0.000000000000000e+00 0.000000000000000e+00
0.000000000000000e+00 0.000000000000000e+00 0.000000000000000e+00
0.000000000000000e+00 0.000000000000000e+00 0.000000000000000e+00
0.000000000000000e+00 0.000000000000000e+00 0.000000000000000e+00
0.000000000000000e+00 0.000000000000000e+00 0.000000000000000e+00
0.000000000000000e+00 0.000000000000000e+00 0.000000000000000e+00
0.000000000000000e+00 0.000000000000000e+00 0.000000000000000e+00
0.000000000000000e+00 0.000000000000000e+00 0.000000000000000e+00
0.000000000000000e+00 0.000000000000000e+00 0.000000000000000e+00
0.000000000000000e+00 0.000000000000000e+00 0.000000000000000e+00
0.000000000000000e+00 0.000000000000000e+00 0.000000000000000e+00
0.000000000000000e+00 0.000000000000000e+00 0.000000000000000e+00
0.000000000000000e+00 0.000000000000000e+00 0.000000000000000e+00
0.000000000000000e+00 0.000000000000000e+00 0.000000000000000e+00
0.000000000000000e+00 0.000000000000000e+00 0.000000000000000e+00
0.000000000000000e+00 0.000000000000000e+00 0.000000000000000e+00
0.000000000000000e+00 0.000000000000000e+00 0.000000000000000e+00
0.000000000000000e+00 0.000000000000000e+00 0.000000000000000e+00
0.000000000000000e+00 0.000000000000000e+00 0.000000000000000e+00
0.000000000000000e+00 0.000000000000000e+00 0.000000000000000e+00
0.000000000000000e+00 0.000000000000000e+00 0.000000000000000e+00
0.000000000000000e+00 0.000000000000000e+00 0.000000000000000e+00
0.000000000000000e+00 0.000000000000000e+00 0.000000000000000e+00
0.000000000000000e+00 0.000000000000000e+00 0.000000000000000e+00
0.000000000000000e+00 0.000000000000000e+00 0.000000000000000e+00
0.000000000000000e+00 0.000000000000000e+00 0.000000000000000e+00
0.000000000000000e+00 0.000000000000000e+00 0.000000000000000e+00
0.000000000000000e+00 0.000000000000000e+00 0.000000000000000e+00
0.000000000000000e+00 0.000000000000000e+00 0.000000000000000e+00
0.000000000000000e+00 0.000000000000000e+00 0.000000000000000e+00
0.000000000000000e+00 0.000000000000000e+00 0.000000000000000e+00
0.000000000000000e+00 0.000000000000000e+00 0.000000000000000e+00
0.000000000000000e+00 0.000000000000000e+00 0.000000000000000e+00
0.000000000000000e+00 0.000000000000000e+00 0.000000000000000e+00
0.000000000000000e+00 0.000000000000000e+00 0.000000000000000e+00
0.000000000000000e+00 0.000000000000000e+00 0.000000000000000e+00
0.000000000000000e+00 0.000000000000000e+00 0.000000000000000e+00
0.000000000000000e+00 0.000000000000000e+00 0.000000000000000e+00
0.000000000000000e+00 0.000000000000000e+00 0.000000000000000e+00
0.000000000000000e+00 0.000000000000000e+00 0.000000000000000e+00
0.000000000000000e+00 0.000000000000000e+00 0.000000000000000e+00
0.000000000000000e+00 0.000000000000000e+00 0.000000000000000e+00
0.000000000000000e+00 0.000000000000000e+00 0.000000000000000e+00
0.000000000000000e+00 0.000000000000000e+00 0.000000000000000e+00
0.000000000000000e+00 0.000000000000000e+00 0.000000000000000e+00
0.000000000000000e+00 0.000000000000000e+00 0.000000000000000e+00
0.000000000000000e+00 0.000000000000000e+00 0.000000000000000e+00
0.000000000000000e+00 0.000000000000000e+00 0.000000000000000e+00
0.000000000000000e+00 0.000000000000000e+00 0.000000000000000e+00
0.000000000000000e+00 0.000000000000000e+00 0.000000000000000e+00
0.000000000000000e+00 0.000000000000000e+00 0.000000000000000e+00
0.000000000000000e+00 0.000000000000000e+00 0.000000000000000e+00
0.000000000000000e+00 0.000000000000000e+00 0.000000000000000e+00
0.000000000000000e+00 0.000000000000000e+00 0.000000000000000e+00
0.000000000000000e+00 0.000000000000000e+00 0.000000000000000e+00
0.000000000000000e+00 0.000000000000000e+00 0.000000000000000e+00
0.000000000000000e+00 0.000000000000000e+00 0.000000000000000e+00
0.000000000000000e+00 0.000000000000000e+00 0.000000000000000e+00
0.000000000000000e+00 0.000000000000000e+00 0.000000000000000e+00
0.000000000000000e+00 0.000000000000000e+00 0.000000000000000e+00
0.000000000000000e+00 0.000000000000000e+00 0.000000000000000e+00
0.000000000000000e+00 0.000000000000000e+00 0.000000000000000e+00
0.000000000000000e+00 0.000000000000000e+00 0.000000000000000e+00
0.000000000000000e+00 0.000000000000000e+00 0.000000000000000e+00
0.000000000000000e+00 0.000000000000000e+00 0.000000000000000e+00
0.000000000000000e+00 0.000000000000000e+00 0.000000000000000e+00
0.000000000000000e+00 0.000000000000000e+00 0.000000000000000e+00
0.000000000000000e+00 0.000000000000000e+00 0.000000000000000e+00
0.000000000000000e+00 0.000000000000000e+00 0.000000000000000e+00
0.000000000000000e+00 0.000000000000000e+00 0.000000000000000e+00
0.000000000000000e+00 0.000000000000000e+00 0.000000000000000e+00
0.000000000000000e+00 0.000000000000000e+00 0.000000000000000e+00
0.000000000000000e+00 0.000000000000000e+00 0.000000000000000e+00
0.000000000000000e+00 0.000000000000000e+00 0.000000000000000e+00
0.000000000000000e+00 0.000000000000000e+00 0.000000000000000e+00
0.000000000000000e+00 0.000000000000000e+00 0.000000000000000e+00
0.000000000000000e+00 0.000000000000000e+00 0.000000000000000e+00
0.000000000000000e+00 0.000000000000000e+00 0.000000000000000e+00
0.000000000000000e+00 0.000000000000000e+00 0.000000000000000e+00
0.000000000000000e+00 0.000000000000000e+00 0.000000000000000e+00
0.000000000000000e+00 0.000000000000000e+00 0.000000000000000e+00
0.000000000000000e+00 0.000000000000000e+00 0.000000000000000e+00
0.000000000000000e+00 0.000000000000000e+00 0.000000000000000e+00
0.000000000000000e+00 0.000000000000000e+00 0.000000000000000e+00
0.000000000000000e+00 0.000000000000000e+00 0.000000000000000e+00
0.000000000000000e+00 0.000000000000000e+00 0.000000000000000e+00
0.000000000000000e+00 0.000000000000000e+00 0.000000000000000e+00
0.000000000000000e+00 0.000000000000000e+00 0.000000000000000e+00
0.000000000000000e+00 0.000000000000000e+00 0.000000000000000e+00
0.000000000000000e+00 0.000000000000000e+00 0.000000000000000e+00
0.000000000000000e+00 0.000000000000000e+00 0.000000000000000e+00
0.000000000000000e+00 0.000000000000000e+00 0.000000000000000e+00
0.000000000000000e+00 0.000000000000000e+00 0.000000000000000e+00
0.000000000000000e+00 0.000000000000000e+00 0.000000000000000e+00
0.000000000000000e+00 0.000000000000000e+00 0.000000000000000e+00
0.000000000000000e+00 0.000000000000000e+00 0.000000000000000e+00
0.000000000000000e+00 0.000000000000000e+00 0.000000000000000e+00
0.000000000000000e+00 0.000000000000000e+00 0.000000000000000e+00
0.000000000000000e+00 0.000000000000000e+00 0.000000000000000e+00
0.000000000000000e+00 0.000000000000000e+00 0.000000000000000e+00
0.000000000000000e+00 0.000000000000000e+00 0.000000000000000e+00
0.000000000000000e+00 0.000000000000000e+00 0.000000000000000e+00
0.000000000000000e+00 0.000000000000000e+00 0.000000000000000e+00
0.000000000000000e+00 0.000000000000000e+00 0.000000000000000e+00
0.000000000000000e+00 0.000000000000000e+00 0.000000000000000e+00
0.000000000000000e+00 0.000000000000000e+00 0.000000000000000e+00
0.000000000000000e+00 0.000000000000000e+00 0.000000000000000e+00
0.000000000000000e+00 0.000000000000000e+00 0.000000000000000e+00
0.000000000000000e+00 0.000000000000000e+00 0.000000000000000e+00
0.000000000000000e+00 0.000000000000000e+00 0.000000000000000e+00
0.000000000000000e+00 0.000000000000000e+00 0.000000000000000e+00
0.000000000000000e+00 0.000000000000000e+00 0.000000000000000e+00
0.000000000000000e+00 0.000000000000000e+00 0.000000000000000e+00
0.000000000000000e+00 0.000000000000000e+00 0.000000000000000e+00
0.000000000000000e+00 0.000000000000000e+00 0.000000000000000e+00
0.000000000000000e+00 0.000000000000000e+00 0.000000000000000e+00
0.000000000000000e+00 0.000000000000000e+00 0.000000000000000e+00
0.000000000000000e+00 0.000000000000000e+00 0.000000000000000e+00
0.000000000000000e+00 0.000000000000000e+00 0.000000000000000e+00
0.000000000000000e+00 0.000000000000000e+00 0.000000000000000e+00
0.000000000000000e+00 0.000000000000000e+00 0.000000000000000e+00
0.000000000000000e+00 0.000000000000000e+00 0.000000000000000e+00
0.000000000000000e+00 0.000000000000000e+00 0.000000000000000e+00
0.000000000000000e+00 0.000000000000000e+00 0.000000000000000e+00
0.000000000000000e+00 0.000000000000000e+00 0.000000000000000e+00
0.000000000000000e+00 0.000000000000000e+00 0.000000000000000e+00
0.000000000000000e+00 0.000000000000000e+00 0.000000000000000e+00
0.000000000000000e+00 0.000000000000000e+00 0.000000000000000e+00
0.000000000000000e+00 0.000000000000000e+00 0.000000000000000e+00
0.000000000000000e+00 0.000000000000000e+00 0.000000000000000e+00
0.000000000000000e+00 0.000000000000000e+00 0.000000000000000e+00
0.000000000000000e+00 0.000000000000000e+00 0.000000000000000e+00
0.000000000000000e+00 0.000000000000000e+00 0.000000000000000e+00
0.000000000000000e+00 0.000000000000000e+00 0.000000000000000e+00
0.000000000000000e+00 0.000000000000000e+00 0.000000000000000e+00
0.000000000000000e+00 0.000000000000000e+00 0.000000000000000e+00
0.000000000000000e+00 0.000000000000000e+00 0.000000000000000e+00
0.000000000000000e+00 0.000000000000000e+00 0.000000000000000e+00
0.000000000000000e+00 0.000000000000000e+00 0.000000000000000e+00
0.000000000000000e+00 0.000000000000000e+00 0.000000000000000e+00
0.000000000000000e+00 0.000000000000000e+00 0.000000000000000e+00
0.000000000000000e+00 0.000000000000000e+00 0.000000000000000e+00
0.000000000000000e+00 0.000000000000000e+00 0.000000000000000e+00
0.000000000000000e+00 0.000000000000000e+00 0.000000000000000e+00
0.000000000000000e+00 0.000000000000000e+00 0.000000000000000e+00
0.000000000000000e+00 0.000000000000000e+00 0.000000000000000e+00
0.000000000000000e+00 0.000000000000000e+00 0.000000000000000e+00
0.000000000000000e+00 0.000000000000000e+00 0.000000000000000e+00
0.000000000000000e+00 0.000000000000000e+00 0.000000000000000e+00
0.000000000000000e+00 0.000000000000000e+00 0.000000000000000e+00
0.000000000000000e+00 0.000000000000000e+00 0.000000000000000e+00
0.000000000000000e+00 0.000000000000000e+00 0.000000000000000e+00
0.000000000000000e+00 0.000000000000000e+00 0.000000000000000e+00
0.000000000000000e+00 0.000000000000000e+00 0.000000000000000e+00
0.000000000000000e+00 0.000000000000000e+00 0.000000000000000e+00
0.000000000000000e+00 0.000000000000000e+00 0.000000000000000e+00
0.000000000000000e+00 0.000000000000000e+00 0.000000000000000e+00
0.000000000000000e+00 0.000000000000000e+00 0.000000000000000e+00
0.000000000000000e+00 0.000000000000000e+00 0.000000000000000e+00
0.000000000000000e+00 0.000000000000000e+00 0.000000000000000e+00
0.000000000000000e+00 0.000000000000000e+00 0.000000000000000e+00
0.000000000000000e+00 0.000000000000000e+00 0.000000000000000e+00
0.000000000000000e+00 0.000000000000000e+00 0.000000000000000e+00
0.000000000000000e+00 0.000000000000000e+00 0.000000000000000e+00
0.000000000000000e+00 0.000000000000000e+00 0.000000000000000e+00
0.000000000000000e+00 0.000000000000000e+00 0.000000000000000e+00
0.000000000000000e+00 0.000000000000000e+00 0.000000000000000e+00
0.000000000000000e+00 0.000000000000000e+00 0.000000000000000e+00
0.000000000000000e+00 0.000000000000000e+00 0.000000000000000e+00
0.000000000000000e+00 0.000000000000000e+00 0.000000000000000e+00
0.000000000000000e+00 0.000000000000000e+00 0.000000000000000e+00
0.000000000000000e+00 0.000000000000000e+00 0.000000000000000e+00
0.000000000000000e+00 0.000000000000000e+00 0.000000000000000e+00
0.000000000000000e+00 0.000000000000000e+00 0.000000000000000e+00
0.000000000000000e+00 0.000000000000000e+00 0.000000000000000e+00
0.000000000000000e+00 0.000000000000000e+00 0.000000000000000e+00
0.000000000000000e+00 0.000000000000000e+00 0.000000000000000e+00
0.000000000000000e+00 0.000000000000000e+00 0.000000000000000e+00
0.000000000000000e+00 0.000000000000000e+00 0.000000000000000e+00
0.000000000000000e+00 0.000000000000000e+00 0.000000000000000e+00
0.000000000000000e+00 0.000000000000000e+00 0.000000000000000e+00
0.000000000000000e+00 0.000000000000000e+00 0.000000000000000e+00
0.000000000000000e+00 0.000000000000000e+00 0.000000000000000e+00
0.000000000000000e+00 0.000000000000000e+00 0.000000000000000e+00
0.000000000000000e+00 0.000000000000000e+00 0.000000000000000e+00
0.000000000000000e+00 0.000000000000000e+00 0.000000000000000e+00
0.000000000000000e+00 0.000000000000000e+00 0.000000000000000e+00
0.000000000000000e+00 0.000000000000000e+00 0.000000000000000e+00
0.000000000000000e+00 0.000000000000000e+00 0.000000000000000e+00
0.000000000000000e+00 0.000000000000000e+00 0.000000000000000e+00
0.000000000000000e+00 0.000000000000000e+00 0.000000000000000e+00
0.000000000000000e+00 0.000000000000000e+00 0.000000000000000e+00
0.000000000000000e+00 0.000000000000000e+00 0.000000000000000e+00
0.000000000000000e+00 0.000000000000000e+00 0.000000000000000e+00
0.000000000000000e+00 0.000000000000000e+00 0.000000000000000e+00
0.000000000000000e+00 0.000000000000000e+00 0.000000000000000e+00
0.000000000000000e+00 0.000000000000000e+00 0.000000000000000e+00
0.000000000000000e+00 0.000000000000000e+00 0.000000000000000e+00
0.000000000000000e+00 0.000000000000000e+00 0.000000000000000e+00
0.000000000000000e+00 0.000000000000000e+00 0.000000000000000e+00
0.000000000000000e+00 0.000000000000000e+00 0.000000000000000e+00
0.000000000000000e+00 0.000000000000000e+00 0.000000000000000e+00
0.000000000000000e+00 0.000000000000000e+00 0.000000000000000e+00
0.000000000000000e+00 0.000000000000000e+00 0.000000000000000e+00
0.000000000000000e+00 0.000000000000000e+00 0.000000000000000e+00
0.000000000000000e+00 0.000000000000000e+00 0.000000000000000e+00
0.000000000000000e+00 0.000000000000000e+00 0.000000000000000e+00
0.000000000000000e+00 0.000000000000000e+00 0.000000000000000e+00
0.000000000000000e+00 0.000000000000000e+00 0.000000000000000e+00
0.000000000000000e+00 0.000000000000000e+00 0.000000000000000e+00
0.000000000000000e+00 0.000000000000000e+00 0.000000000000000e+00
0.000000000000000e+00 0.000000000000000e+00 0.000000000000000e+00
0.000000000000000e+00 0.000000000000000e+00 0.000000000000000e+00
0.000000000000000e+00 0.000000000000000e+00 0.000000000000000e+00
0.000000000000000e+00 0.000000000000000e+00 0.000000000000000e+00
0.000000000000000e+00 0.000000000000000e+00 0.000000000000000e+00
0.000000000000000e+00 0.000000000000000e+00 0.000000000000000e+00
0.000000000000000e+00 0.000000000000000e+00 0.000000000000000e+00
0.000000000000000e+00 0.000000000000000e+00 0.000000000000000e+00
0.000000000000000e+00 0.000000000000000e+00 0.000000000000000e+00
0.000000000000000e+00 0.000000000000000e+00 0.000000000000000e+00
0.000000000000000e+00 0.000000000000000e+00 0.000000000000000e+00
0.000000000000000e+00 0.000000000000000e+00 0.000000000000000e+00
0.000000000000000e+00 0.000000000000000e+00 0.000000000000000e+00
0.000000000000000e+00 0.000000000000000e+00 0.000000000000000e+00
0.000000000000000e+00 0.000000000000000e+00 0.000000000000000e+00
0.000000000000000e+00 0.000000000000000e+00 0.000000000000000e+00
0.000000000000000e+00 0.000000000000000e+00 0.000000000000000e+00
0.000000000000000e+00 0.000000000000000e+00 0.000000000000000e+00
0.000000000000000e+00 0.000000000000000e+00 0.000000000000000e+00
0.000000000000000e+00 0.000000000000000e+00 0.000000000000000e+00
0.000000000000000e+00 0.000000000000000e+00 0.000000000000000e+00
0.000000000000000e+00 0.000000000000000e+00 0.000000000000000e+00
0.000000000000000e+00 0.000000000000000e+00 0.000000000000000e+00
0.000000000000000e+00 0.000000000000000e+00 0.000000000000000e+00
0.000000000000000e+00 0.000000000000000e+00 0.000000000000000e+00
0.000000000000000e+00 0.000000000000000e+00 0.000000000000000e+00
0.000000000000000e+00 0.000000000000000e+00 0.000000000000000e+00
0.000000000000000e+00 0.000000000000000e+00 0.000000000000000e+00
0.000000000000000e+00 0.000000000000000e+00 0.000000000000000e+00
0.000000000000000e+00 0.000000000000000e+00 0.000000000000000e+00
0.000000000000000e+00 0.000000000000000e+00 0.000000000000000e+00
0.000000000000000e+00 0.000000000000000e+00 0.000000000000000e+00
0.000000000000000e+00 0.000000000000000e+00 0.000000000000000e+00
0.000000000000000e+00 0.000000000000000e+00 0.000000000000000e+00
0.000000000000000e+00 0.000000000000000e+00 0.000000000000000e+00
0.000000000000000e+00 0.000000000000000e+00 0.000000000000000e+00
0.000000000000000e+00 0.000000000000000e+00 0.000000000000000e+00
0.000000000000000e+00 0.000000000000000e+00 0.000000000000000e+00
0.000000000000000e+00 0.000000000000000e+00 0.000000000000000e+00
0.000000000000000e+00 0.000000000000000e+00 0.000000000000000e+00
0.000000000000000e+00 0.000000000000000e+00 0.000000000000000e+00
0.000000000000000e+00 0.000000000000000e+00 0.000000000000000e+00
0.000000000000000e+00 0.000000000000000e+00 0.000000000000000e+00
0.000000000000000e+00 0.000000000000000e+00 0.000000000000000e+00
0.000000000000000e+00 0.000000000000000e+00 0.000000000000000e+00
0.000000000000000e+00 0.000000000000000e+00 0.000000000000000e+00
0.000000000000000e+00 0.000000000000000e+00 0.000000000000000e+00
0.000000000000000e+00 0.000000000000000e+00 0.000000000000000e+00
0.000000000000000e+00 0.000000000000000e+00 0.000000000000000e+00
0.000000000000000e+00 0.000000000000000e+00 0.000000000000000e+00
0.000000000000000e+00 0.000000000000000e+00 0.000000000000000e+00
0.000000000000000e+00 0.000000000000000e+00 0.000000000000000e+00
0.000000000000000e+00 0.000000000000000e+00 0.000000000000000e+00
0.000000000000000e+00 0.000000000000000e+00 0.000000000000000e+00
0.000000000000000e+00 0.000000000000000e+00 0.000000000000000e+00
0.000000000000000e+00 0.000000000000000e+00 0.000000000000000e+00
0.000000000000000e+00 0.000000000000000e+00 0.000000000000000e+00
0.000000000000000e+00 0.000000000000000e+00 0.000000000000000e+00
0.000000000000000e+00 0.000000000000000e+00 0.000000000000000e+00
0.000000000000000e+00 0.000000000000000e+00 0.000000000000000e+00
0.000000000000000e+00 0.000000000000000e+00 0.000000000000000e+00
0.000000000000000e+00 0.000000000000000e+00 0.000000000000000e+00
0.000000000000000e+00 0.000000000000000e+00 0.000000000000000e+00
0.000000000000000e+00 0.000000000000000e+00 0.000000000000000e+00
0.000000000000000e+00 0.000000000000000e+00 0.000000000000000e+00
0.000000000000000e+00 0.000000000000000e+00 0.000000000000000e+00
0.000000000000000e+00 0.000000000000000e+00 0.000000000000000e+00
0.000000000000000e+00 0.000000000000000e+00 0.000000000000000e+00
0.000000000000000e+00 0.000000000000000e+00 0.000000000000000e+00
0.000000000000000e+00 0.000000000000000e+00 0.000000000000000e+00
0.000000000000000e+00 0.000000000000000e+00 0.000000000000000e+00
0.000000000000000e+00 0.000000000000000e+00 0.000000000000000e+00
0.000000000000000e+00 0.000000000000000e+00 0.000000000000000e+00
0.000000000000000e+00 0.000000000000000e+00 0.000000000000000e+00
0.000000000000000e+00 0.000000000000000e+00 0.000000000000000e+00
0.000000000000000e+00 0.000000000000000e+00 0.000000000000000e+00
0.000000000000000e+00 0.000000000000000e+00 0.000000000000000e+00
0.000000000000000e+00 0.000000000000000e+00 0.000000000000000e+00
0.000000000000000e+00 0.000000000000000e+00 0.000000000000000e+00
0.000000000000000e+00 0.000000000000000e+00 0.000000000000000e+00
0.000000000000000e+00 0.000000000000000e+00 0.000000000000000e+00
0.000000000000000e+00 0.000000000000000e+00 0.000000000000000e+00
0.000000000000000e+00 0.000000000000000e+00 0.000000000000000e+00
0.000000000000000e+00 0.000000000000000e+00 0.000000000000000e+00
0.000000000000000e+00 0.000000000000000e+00 0.000000000000000e+00
0.000000000000000e+00 0.000000000000000e+00 0.000000000000000e+00
0.000000000000000e+00 0.000000000000000e+00 0.000000000000000e+00
0.000000000000000e+00 0.000000000000000e+00 0.000000000000000e+00
0.000000000000000e+00 0.000000000000000e+00 0.000000000000000e+00
0.000000000000000e+00 0.000000000000000e+00 0.000000000000000e+00
0.000000000000000e+00 0.000000000000000e+00 0.000000000000000e+00
0.000000000000000e+00 0.000000000000000e+00 0.000000000000000e+00
0.000000000000000e+00 0.000000000000000e+00 0.000000000000000e+00
0.000000000000000e+00 0.000000000000000e+00 0.000000000000000e+00
0.000000000000000e+00 0.000000000000000e+00 0.000000000000000e+00
0.000000000000000e+00 0.000000000000000e+00 0.000000000000000e+00
0.000000000000000e+00 0.000000000000000e+00 0.000000000000000e+00
0.000000000000000e+00 0.000000000000000e+00 0.000000000000000e+00
0.000000000000000e+00 0.000000000000000e+00 0.000000000000000e+00
0.000000000000000e+00 0.000000000000000e+00 0.000000000000000e+00
0.000000000000000e+00 0.000000000000000e+00 0.000000000000000e+00
0.000000000000000e+00 0.000000000000000e+00 0.000000000000000e+00
0.000000000000000e+00 0.000000000000000e+00 0.000000000000000e+00
0.000000000000000e+00 0.000000000000000e+00 0.000000000000000e+00
0.000000000000000e+00 0.000000000000000e+00 0.000000000000000e+00
0.000000000000000e+00 0.000000000000000e+00 0.000000000000000e+00
0.000000000000000e+00 0.000000000000000e+00 0.000000000000000e+00
0.000000000000000e+00 0.000000000000000e+00 0.000000000000000e+00
0.000000000000000e+00 0.000000000000000e+00 0.000000000000000e+00
0.000000000000000e+00 0.000000000000000e+00 0.000000000000000e+00
0.000000000000000e+00 0.000000000000000e+00 0.000000000000000e+00
0.000000000000000e+00 0.000000000000000e+00 0.000000000000000e+00
0.000000000000000e+00 0.000000000000000e+00 0.000000000000000e+00
0.000000000000000e+00 0.000000000000000e+00 0.000000000000000e+00
0.000000000000000e+00 0.000000000000000e+00 0.000000000000000e+00
0.000000000000000e+00 0.000000000000000e+00 0.000000000000000e+00
0.000000000000000e+00 0.000000000000000e+00 0.000000000000000e+00
0.000000000000000e+00 0.000000000000000e+00 0.000000000000000e+00
0.000000000000000e+00 0.000000000000000e+00 0.000000000000000e+00
0.000000000000000e+00 0.000000000000000e+00 0.000000000000000e+00
0.000000000000000e+00 0.000000000000000e+00 0.000000000000000e+00
0.000000000000000e+00 0.000000000000000e+00 0.000000000000000e+00
0.000000000000000e+00 0.000000000000000e+00 0.000000000000000e+00
0.000000000000000e+00 0.000000000000000e+00 0.000000000000000e+00
0.000000000000000e+00 0.000000000000000e+00 0.000000000000000e+00
0.000000000000000e+00 0.000000000000000e+00 0.000000000000000e+00
0.000000000000000e+00 0.000000000000000e+00 0.000000000000000e+00
0.000000000000000e+00 0.000000000000000e+00 0.000000000000000e+00
0.000000000000000e+00 0.000000000000000e+00 0.000000000000000e+00
0.000000000000000e+00 0.000000000000000e+00 0.000000000000000e+00
0.000000000000000e+00 0.000000000000000e+00 0.000000000000000e+00
0.000000000000000e+00 0.000000000000000e+00 0.000000000000000e+00
0.000000000000000e+00 0.000000000000000e+00 0.000000000000000e+00
0.000000000000000e+00 0.000000000000000e+00 0.000000000000000e+00
0.000000000000000e+00 0.000000000000000e+00 0.000000000000000e+00
0.000000000000000e+00 0.000000000000000e+00 0.000000000000000e+00
0.000000000000000e+00 0.000000000000000e+00 0.000000000000000e+00
0.000000000000000e+00 0.000000000000000e+00 0.000000000000000e+00
0.000000000000000e+00 0.000000000000000e+00 0.000000000000000e+00
0.000000000000000e+00 0.000000000000000e+00 0.000000000000000e+00
0.000000000000000e+00 0.000000000000000e+00 0.000000000000000e+00
0.000000000000000e+00 0.000000000000000e+00 0.000000000000000e+00
0.000000000000000e+00 0.000000000000000e+00 0.000000000000000e+00
0.000000000000000e+00 0.000000000000000e+00 0.000000000000000e+00
0.000000000000000e+00 0.000000000000000e+00 0.000000000000000e+00
0.000000000000000e+00 0.000000000000000e+00 0.000000000000000e+00
0.000000000000000e+00 0.000000000000000e+00 0.000000000000000e+00
0.000000000000000e+00 0.000000000000000e+00 0.000000000000000e+00
0.000000000000000e+00 0.000000000000000e+00 0.000000000000000e+00
0.000000000000000e+00 0.000000000000000e+00 0.000000000000000e+00
0.000000000000000e+00 0.000000000000000e+00 0.000000000000000e+00
0.000000000000000e+00 0.000000000000000e+00 0.000000000000000e+00
0.000000000000000e+00 0.000000000000000e+00 0.000000000000000e+00
0.000000000000000e+00 0.000000000000000e+00 0.000000000000000e+00
0.000000000000000e+00 0.000000000000000e+00 0.000000000000000e+00
0.000000000000000e+00 0.000000000000000e+00 0.000000000000000e+00
0.000000000000000e+00 0.000000000000000e+00 0.000000000000000e+00
0.000000000000000e+00 0.000000000000000e+00 0.000000000000000e+00
0.000000000000000e+00 0.000000000000000e+00 0.000000000000000e+00
0.000000000000000e+00 0.000000000000000e+00 0.000000000000000e+00
0.000000000000000e+00 0.000000000000000e+00 0.000000000000000e+00
0.000000000000000e+00 0.000000000000000e+00 0.000000000000000e+00
0.000000000000000e+00 0.000000000000000e+00 0.000000000000000e+00
0.000000000000000e+00 0.000000000000000e+00 0.000000000000000e+00
0.000000000000000e+00 0.000000000000000e+00 0.000000000000000e+00
0.000000000000000e+00 0.000000000000000e+00 0.000000000000000e+00
0.000000000000000e+00 0.000000000000000e+00 0.000000000000000e+00
0.000000000000000e+00 0.000000000000000e+00 0.000000000000000e+00
0.000000000000000e+00 0.000000000000000e+00 0.000000000000000e+00
0.000000000000000e+00 0.000000000000000e+00 0.000000000000000e+00
0.000000000000000e+00 0.000000000000000e+00 0.000000000000000e+00
0.000000000000000e+00 0.000000000000000e+00 0.000000000000000e+00
0.000000000000000e+00 0.000000000000000e+00 0.000000000000000e+00
0.000000000000000e+00 0.000000000000000e+00 0.000000000000000e+00
0.000000000000000e+00 0.000000000000000e+00 0.000000000000000e+00
0.000000000000000e+00 0.000000000000000e+00 0.000000000000000e+00
0.000000000000000e+00 0.000000000000000e+00 0.000000000000000e+00
0.000000000000000e+00 0.000000000000000e+00 0.000000000000000e+00
0.000000000000000e+00 0.000000000000000e+00 0.000000000000000e+00
0.000000000000000e+00 0.000000000000000e+00 0.000000000000000e+00
0.000000000000000e+00 0.000000000000000e+00 0.000000000000000e+00
0.000000000000000e+00 0.000000000000000e+00 0.000000000000000e+00
0.000000000000000e+00 0.000000000000000e+00 0.000000000000000e+00
0.000000000000000e+00 0.000000000000000e+00 0.000000000000000e+00
0.000000000000000e+00 0.000000000000000e+00 0.000000000000000e+00
0.000000000000000e+00 0.000000000000000e+00 0.000000000000000e+00
0.000000000000000e+00 0.000000000000000e+00 0.000000000000000e+00
0.000000000000000e+00 0.000000000000000e+00 0.000000000000000e+00
0.000000000000000e+00 0.000000000000000e+00 0.000000000000000e+00
0.000000000000000e+00 0.000000000000000e+00 0.000000000000000e+00
0.000000000000000e+00 0.000000000000000e+00 0.000000000000000e+00
0.000000000000000e+00 0.000000000000000e+00 0.000000000000000e+00
0.000000000000000e+00 0.000000000000000e+00 0.000000000000000e+00
0.000000000000000e+00 0.000000000000000e+00 0.000000000000000e+00
0.000000000000000e+00 0.000000000000000e+00 0.000000000000000e+00
0.000000000000000e+00 0.000000000000000e+00 0.000000000000000e+00
0.000000000000000e+00 0.000000000000000e+00 0.000000000000000e+00
0.000000000000000e+00 0.000000000000000e+00 0.000000000000000e+00
0.000000000000000e+00 0.000000000000000e+00 0.000000000000000e+00
0.000000000000000e+00 0.000000000000000e+00 0.000000000000000e+00
0.000000000000000e+00 0.000000000000000e+00 0.000000000000000e+00
0.000000000000000e+00 0.000000000000000e+00 0.000000000000000e+00
0.000000000000000e+00 0.000000000000000e+00 0.000000000000000e+00
0.000000000000000e+00 0.000000000000000e+00 0.000000000000000e+00
0.000000000000000e+00 0.000000000000000e+00 0.000000000000000e+00
0.000000000000000e+00 0.000000000000000e+00 0.000000000000000e+00
0.000000000000000e+00 0.000000000000000e+00 0.000000000000000e+00
0.000000000000000e+00 0.000000000000000e+00 0.000000000000000e+00
0.000000000000000e+00 0.000000000000000e+00 0.000000000000000e+00
0.000000000000000e+00 0.000000000000000e+00 0.000000000000000e+00
0.000000000000000e+00 0.000000000000000e+00 0.000000000000000e+00
0.000000000000000e+00 0.000000000000000e+00 0.000000000000000e+00
0.000000000000000e+00 0.000000000000000e+00 0.000000000000000e+00
0.000000000000000e+00 0.000000000000000e+00 0.000000000000000e+00
0.000000000000000e+00 0.000000000000000e+00 0.000000000000000e+00
0.000000000000000e+00 0.000000000000000e+00 0.000000000000000e+00
0.000000000000000e+00 0.000000000000000e+00 0.000000000000000e+00
0.000000000000000e+00 0.000000000000000e+00 0.000000000000000e+00
0.000000000000000e+00 0.000000000000000e+00 0.000000000000000e+00
0.000000000000000e+00 0.000000000000000e+00 0.000000000000000e+00
0.000000000000000e+00 0.000000000000000e+00 0.000000000000000e+00
0.000000000000000e+00 0.000000000000000e+00 0.000000000000000e+00
0.000000000000000e+00 0.000000000000000e+00 0.000000000000000e+00
0.000000000000000e+00 0.000000000000000e+00 0.000000000000000e+00
0.000000000000000e+00 0.000000000000000e+00 0.000000000000000e+00
0.000000000000000e+00 0.000000000000000e+00 0.000000000000000e+00
0.000000000000000e+00 0.000000000000000e+00 0.000000000000000e+00
0.000000000000000e+00 0.000000000000000e+00 0.000000000000000e+00
0.000000000000000e+00 0.000000000000000e+00 0.000000000000000e+00
0.000000000000000e+00 0.000000000000000e+00 0.000000000000000e+00
0.000000000000000e+00 0.000000000000000e+00 0.000000000000000e+00
0.000000000000000e+00 0.000000000000000e+00 0.000000000000000e+00
0.000000000000000e+00 0.000000000000000e+00 0.000000000000000e+00
0.000000000000000e+00 0.000000000000000e+00 0.000000000000000e+00
0.000000000000000e+00 0.000000000000000e+00 0.000000000000000e+00
0.000000000000000e+00 0.000000000000000e+00 0.000000000000000e+00
0.000000000000000e+00 0.000000000000000e+00 0.000000000000000e+00
0.000000000000000e+00 0.000000000000000e+00 0.000000000000000e+00
0.000000000000000e+00 0.000000000000000e+00 0.000000000000000e+00
0.000000000000000e+00 0.000000000000000e+00 0.000000000000000e+00
0.000000000000000e+00 0.000000000000000e+00 0.000000000000000e+00
0.000000000000000e+00 0.000000000000000e+00 0.000000000000000e+00
0.000000000000000e+00 0.000000000000000e+00 0.000000000000000e+00
0.000000000000000e+00 0.000000000000000e+00 0.000000000000000e+00
0.000000000000000e+00 0.000000000000000e+00 0.000000000000000e+00
0.000000000000000e+00 0.000000000000000e+00 0.000000000000000e+00
0.000000000000000e+00 0.000000000000000e+00 0.000000000000000e+00
0.000000000000000e+00 0.000000000000000e+00 0.000000000000000e+00
0.000000000000000e+00 0.000000000000000e+00 0.000000000000000e+00
0.000000000000000e+00 0.000000000000000e+00 0.000000000000000e+00
0.000000000000000e+00 0.000000000000000e+00 0.000000000000000e+00
0.000000000000000e+00 0.000000000000000e+00 0.000000000000000e+00
0.000000000000000e+00 0.000000000000000e+00 0.000000000000000e+00
0.000000000000000e+00 0.000000000000000e+00 0.000000000000000e+00
0.000000000000000e+00 0.000000000000000e+00 0.000000000000000e+00
0.000000000000000e+00 0.000000000000000e+00 0.000000000000000e+00
0.000000000000000e+00 0.000000000000000e+00 0.000000000000000e+00
0.000000000000000e+00 0.000000000000000e+00 0.000000000000000e+00
0.000000000000000e+00 0.000000000000000e+00 0.000000000000000e+00
0.000000000000000e+00 0.000000000000000e+00 0.000000000000000e+00
0.000000000000000e+00 0.000000000000000e+00 0.000000000000000e+00
0.000000000000000e+00 0.000000000000000e+00 0.000000000000000e+00
0.000000000000000e+00 0.000000000000000e+00 0.000000000000000e+00
0.000000000000000e+00 0.000000000000000e+00 0.000000000000000e+00
0.000000000000000e+00 0.000000000000000e+00 0.000000000000000e+00
0.000000000000000e+00 0.000000000000000e+00 0.000000000000000e+00
0.000000000000000e+00 0.000000000000000e+00 0.000000000000000e+00
0.000000000000000e+00 0.000000000000000e+00 0.000000000000000e+00
0.000000000000000e+00 0.000000000000000e+00 0.000000000000000e+00
0.000000000000000e+00 0.000000000000000e+00 0.000000000000000e+00
0.000000000000000e+00 0.000000000000000e+00 0.000000000000000e+00
0.000000000000000e+00 0.000000000000000e+00 0.000000000000000e+00
0.000000000000000e+00 0.000000000000000e+00 0.000000000000000e+00
0.000000000000000e+00 0.000000000000000e+00 0.000000000000000e+00
0.000000000000000e+00 0.000000000000000e+00 0.000000000000000e+00
0.000000000000000e+00 0.000000000000000e+00 0.000000000000000e+00
0.000000000000000e+00 0.000000000000000e+00 0.000000000000000e+00
0.000000000000000e+00 0.000000000000000e+00 0.000000000000000e+00
0.000000000000000e+00 0.000000000000000e+00 0.000000000000000e+00
0.000000000000000e+00 0.000000000000000e+00 0.000000000000000e+00
0.000000000000000e+00 0.000000000000000e+00 0.000000000000000e+00
0.000000000000000e+00 0.000000000000000e+00 0.000000000000000e+00
0.000000000000000e+00 0.000000000000000e+00 0.000000000000000e+00
0.000000000000000e+00 0.000000000000000e+00 0.000000000000000e+00
0.000000000000000e+00 0.000000000000000e+00 0.000000000000000e+00
0.000000000000000e+00 0.000000000000000e+00 0.000000000000000e+00
0.000000000000000e+00 0.000000000000000e+00 0.000000000000000e+00
0.000000000000000e+00 0.000000000000000e+00 0.000000000000000e+00
0.000000000000000e+00 0.000000000000000e+00 0.000000000000000e+00
0.000000000000000e+00 0.000000000000000e+00 0.000000000000000e+00
0.000000000000000e+00 0.000000000000000e+00 0.000000000000000e+00
0.000000000000000e+00 0.000000000000000e+00 0.000000000000000e+00
0.000000000000000e+00 0.000000000000000e+00 0.000000000000000e+00
0.000000000000000e+00 0.000000000000000e+00 0.000000000000000e+00
0.000000000000000e+00 0.000000000000000e+00 0.000000000000000e+00
0.000000000000000e+00 0.000000000000000e+00 0.000000000000000e+00
0.000000000000000e+00 0.000000000000000e+00 0.000000000000000e+00
0.000000000000000e+00 0.000000000000000e+00 0.000000000000000e+00
0.000000000000000e+00 0.000000000000000e+00 0.000000000000000e+00
0.000000000000000e+00 0.000000000000000e+00 0.000000000000000e+00
0.000000000000000e+00 0.000000000000000e+00 0.000000000000000e+00
0.000000000000000e+00 0.000000000000000e+00 0.000000000000000e+00
0.000000000000000e+00 0.000000000000000e+00 0.000000000000000e+00
0.000000000000000e+00 0.000000000000000e+00 0.000000000000000e+00
0.000000000000000e+00 0.000000000000000e+00 0.000000000000000e+00
0.000000000000000e+00 0.000000000000000e+00 0.000000000000000e+00
0.000000000000000e+00 0.000000000000000e+00 0.000000000000000e+00
0.000000000000000e+00 0.000000000000000e+00 0.000000000000000e+00
0.000000000000000e+00 0.000000000000000e+00 0.000000000000000e+00
0.000000000000000e+00 0.000000000000000e+00 0.000000000000000e+00
0.000000000000000e+00 0.000000000000000e+00 0.000000000000000e+00
0.000000000000000e+00 0.000000000000000e+00 0.000000000000000e+00
0.000000000000000e+00 0.000000000000000e+00 0.000000000000000e+00
0.000000000000000e+00 0.000000000000000e+00 0.000000000000000e+00
0.000000000000000e+00 0.000000000000000e+00 0.000000000000000e+00
0.000000000000000e+00 0.000000000000000e+00 0.000000000000000e+00
0.000000000000000e+00 0.000000000000000e+00 0.000000000000000e+00
0.000000000000000e+00 0.000000000000000e+00 0.000000000000000e+00
0.000000000000000e+00 0.000000000000000e+00 0.000000000000000e+00
0.000000000000000e+00 0.000000000000000e+00 0.000000000000000e+00
0.000000000000000e+00 0.000000000000000e+00 0.000000000000000e+00
0.000000000000000e+00 0.000000000000000e+00 0.000000000000000e+00
0.000000000000000e+00 0.000000000000000e+00 0.000000000000000e+00
0.000000000000000e+00 0.000000000000000e+00 0.000000000000000e+00
0.000000000000000e+00 0.000000000000000e+00 0.000000000000000e+00
0.000000000000000e+00 0.000000000000000e+00 0.000000000000000e+00
0.000000000000000e+00 0.000000000000000e+00 0.000000000000000e+00
0.000000000000000e+00 0.000000000000000e+00 0.000000000000000e+00
0.000000000000000e+00 0.000000000000000e+00 0.000000000000000e+00
0.000000000000000e+00 0.000000000000000e+00 0.000000000000000e+00
0.000000000000000e+00 0.000000000000000e+00 0.000000000000000e+00
0.000000000000000e+00 0.000000000000000e+00 0.000000000000000e+00
0.000000000000000e+00 0.000000000000000e+00 0.000000000000000e+00
0.000000000000000e+00 0.000000000000000e+00 0.000000000000000e+00
0.000000000000000e+00 0.000000000000000e+00 0.000000000000000e+00
0.000000000000000e+00 0.000000000000000e+00 0.000000000000000e+00
0.000000000000000e+00 0.000000000000000e+00 0.000000000000000e+00
0.000000000000000e+00 0.000000000000000e+00 0.000000000000000e+00
0.000000000000000e+00 0.000000000000000e+00 0.000000000000000e+00
0.000000000000000e+00 0.000000000000000e+00 0.000000000000000e+00
0.000000000000000e+00 0.000000000000000e+00 0.000000000000000e+00
0.000000000000000e+00 0.000000000000000e+00 0.000000000000000e+00
0.000000000000000e+00 0.000000000000000e+00 0.000000000000000e+00
0.000000000000000e+00 0.000000000000000e+00 0.000000000000000e+00
0.000000000000000e+00 0.000000000000000e+00 0.000000000000000e+00
0.000000000000000e+00 0.000000000000000e+00 0.000000000000000e+00
0.000000000000000e+00 0.000000000000000e+00 0.000000000000000e+00
0.000000000000000e+00 0.000000000000000e+00 0.000000000000000e+00
0.000000000000000e+00 0.000000000000000e+00 0.000000000000000e+00
0.000000000000000e+00 0.000000000000000e+00 0.000000000000000e+00
0.000000000000000e+00 0.000000000000000e+00 0.000000000000000e+00
0.000000000000000e+00 0.000000000000000e+00 0.000000000000000e+00
0.000000000000000e+00 0.000000000000000e+00 0.000000000000000e+00
0.000000000000000e+00 0.000000000000000e+00 0.000000000000000e+00
0.000000000000000e+00 0.000000000000000e+00 0.000000000000000e+00
0.000000000000000e+00 0.000000000000000e+00 0.000000000000000e+00
0.000000000000000e+00 0.000000000000000e+00 0.000000000000000e+00
0.000000000000000e+00 0.000000000000000e+00 0.000000000000000e+00
0.000000000000000e+00 0.000000000000000e+00 0.000000000000000e+00
0.000000000000000e+00 0.000000000000000e+00 0.000000000000000e+00
0.000000000000000e+00 0.000000000000000e+00 0.000000000000000e+00
0.000000000000000e+00 0.000000000000000e+00 0.000000000000000e+00
0.000000000000000e+00 0.000000000000000e+00 0.000000000000000e+00
0.000000000000000e+00 0.000000000000000e+00 0.000000000000000e+00
0.000000000000000e+00 0.000000000000000e+00 0.000000000000000e+00
0.000000000000000e+00 0.000000000000000e+00 0.000000000000000e+00
0.000000000000000e+00 0.000000000000000e+00 0.000000000000000e+00
0.000000000000000e+00 0.000000000000000e+00 0.000000000000000e+00
0.000000000000000e+00 0.000000000000000e+00 0.000000000000000e+00
0.000000000000000e+00 0.000000000000000e+00 0.000000000000000e+00
0.000000000000000e+00 0.000000000000000e+00 0.000000000000000e+00
0.000000000000000e+00 0.000000000000000e+00 0.000000000000000e+00
0.000000000000000e+00 0.000000000000000e+00 0.000000000000000e+00
0.000000000000000e+00 0.000000000000000e+00 0.000000000000000e+00
0.000000000000000e+00 0.000000000000000e+00 0.000000000000000e+00
0.000000000000000e+00 0.000000000000000e+00 0.000000000000000e+00
0.000000000000000e+00 0.000000000000000e+00 0.000000000000000e+00
0.000000000000000e+00 0.000000000000000e+00 0.000000000000000e+00
0.000000000000000e+00 0.000000000000000e+00 0.000000000000000e+00
0.000000000000000e+00 0.000000000000000e+00 0.000000000000000e+00
0.000000000000000e+00 0.000000000000000e+00 0.000000000000000e+00
0.000000000000000e+00 0.000000000000000e+00 0.000000000000000e+00
0.000000000000000e+00 0.000000000000000e+00 0.000000000000000e+00
0.000000000000000e+00 0.000000000000000e+00 0.000000000000000e+00
0.000000000000000e+00 0.000000000000000e+00 0.000000000000000e+00
0.000000000000000e+00 0.000000000000000e+00 0.000000000000000e+00
0.000000000000000e+00 0.000000000000000e+00 0.000000000000000e+00
0.000000000000000e+00 0.000000000000000e+00 0.000000000000000e+00
0.000000000000000e+00 0.000000000000000e+00 0.000000000000000e+00
0.000000000000000e+00 0.000000000000000e+00 0.000000000000000e+00
0.000000000000000e+00 0.000000000000000e+00 0.000000000000000e+00
0.000000000000000e+00 0.000000000000000e+00 0.000000000000000e+00
0.000000000000000e+00 0.000000000000000e+00 0.000000000000000e+00
0.000000000000000e+00 0.000000000000000e+00 0.000000000000000e+00
0.000000000000000e+00 0.000000000000000e+00 0.000000000000000e+00
0.000000000000000e+00 0.000000000000000e+00 0.000000000000000e+00
0.000000000000000e+00 0.000000000000000e+00 0.000000000000000e+00
0.000000000000000e+00 0.000000000000000e+00 0.000000000000000e+00
0.000000000000000e+00 0.000000000000000e+00 0.000000000000000e+00
0.000000000000000e+00 0.000000000000000e+00 0.000000000000000e+00
0.000000000000000e+00 0.000000000000000e+00 0.000000000000000e+00
0.000000000000000e+00 0.000000000000000e+00 0.000000000000000e+00
0.000000000000000e+00 0.000000000000000e+00 0.000000000000000e+00
0.000000000000000e+00 0.000000000000000e+00 0.000000000000000e+00
0.000000000000000e+00 0.000000000000000e+00 0.000000000000000e+00
0.000000000000000e+00 0.000000000000000e+00 0.000000000000000e+00
0.000000000000000e+00 0.000000000000000e+00 0.000000000000000e+00
0.000000000000000e+00 0.000000000000000e+00 0.000000000000000e+00
0.000000000000000e+00 0.000000000000000e+00 0.000000000000000e+00
0.000000000000000e+00 0.000000000000000e+00 0.000000000000000e+00
0.000000000000000e+00 0.000000000000000e+00 0.000000000000000e+00
0.000000000000000e+00 0.000000000000000e+00 0.000000000000000e+00
0.000000000000000e+00 0.000000000000000e+00 0.000000000000000e+00
0.000000000000000e+00 0.000000000000000e+00 0.000000000000000e+00
0.000000000000000e+00 0.000000000000000e+00 0.000000000000000e+00
0.000000000000000e+00 0.000000000000000e+00 0.000000000000000e+00
0.000000000000000e+00 0.000000000000000e+00 0.000000000000000e+00
0.000000000000000e+00 0.000000000000000e+00 0.000000000000000e+00
0.000000000000000e+00 0.000000000000000e+00 0.000000000000000e+00
0.000000000000000e+00 0.000000000000000e+00 0.000000000000000e+00
0.000000000000000e+00 0.000000000000000e+00 0.000000000000000e+00
0.000000000000000e+00 0.000000000000000e+00 0.000000000000000e+00
0.000000000000000e+00 0.000000000000000e+00 0.000000000000000e+00
0.000000000000000e+00 0.000000000000000e+00 0.000000000000000e+00
0.000000000000000e+00 0.000000000000000e+00 0.000000000000000e+00
0.000000000000000e+00 0.000000000000000e+00 0.000000000000000e+00
0.000000000000000e+00 0.000000000000000e+00 0.000000000000000e+00
0.000000000000000e+00 0.000000000000000e+00 0.000000000000000e+00
0.000000000000000e+00 0.000000000000000e+00 0.000000000000000e+00
0.000000000000000e+00 0.000000000000000e+00 0.000000000000000e+00
0.000000000000000e+00 0.000000000000000e+00 0.000000000000000e+00
0.000000000000000e+00 0.000000000000000e+00 0.000000000000000e+00
0.000000000000000e+00 0.000000000000000e+00 0.000000000000000e+00
0.000000000000000e+00 0.000000000000000e+00 0.000000000000000e+00
0.000000000000000e+00 0.000000000000000e+00 0.000000000000000e+00
0.000000000000000e+00 0.000000000000000e+00 0.000000000000000e+00
0.000000000000000e+00 0.000000000000000e+00 0.000000000000000e+00
0.000000000000000e+00 0.000000000000000e+00 0.000000000000000e+00
0.000000000000000e+00 0.000000000000000e+00 0.000000000000000e+00
0.000000000000000e+00 0.000000000000000e+00 0.000000000000000e+00
0.000000000000000e+00 0.000000000000000e+00 0.000000000000000e+00
0.000000000000000e+00 0.000000000000000e+00 0.000000000000000e+00
0.000000000000000e+00 0.000000000000000e+00 0.000000000000000e+00
0.000000000000000e+00 0.000000000000000e+00 0.000000000000000e+00
0.000000000000000e+00 0.000000000000000e+00 0.000000000000000e+00
0.000000000000000e+00 0.000000000000000e+00 0.000000000000000e+00
0.000000000000000e+00 0.000000000000000e+00 0.000000000000000e+00
0.000000000000000e+00 0.000000000000000e+00 0.000000000000000e+00
0.000000000000000e+00 0.000000000000000e+00 0.000000000000000e+00
0.000000000000000e+00 0.000000000000000e+00 0.000000000000000e+00
0.000000000000000e+00 0.000000000000000e+00 0.000000000000000e+00
0.000000000000000e+00 0.000000000000000e+00 0.000000000000000e+00
0.000000000000000e+00 0.000000000000000e+00 0.000000000000000e+00
0.000000000000000e+00 0.000000000000000e+00 0.000000000000000e+00
0.000000000000000e+00 0.000000000000000e+00 0.000000000000000e+00
0.000000000000000e+00 0.000000000000000e+00 0.000000000000000e+00
0.000000000000000e+00 0.000000000000000e+00 0.000000000000000e+00
0.000000000000000e+00 0.000000000000000e+00 0.000000000000000e+00
0.000000000000000e+00 0.000000000000000e+00 0.000000000000000e+00
0.000000000000000e+00 0.000000000000000e+00 0.000000000000000e+00
0.000000000000000e+00 0.000000000000000e+00 0.000000000000000e+00
0.000000000000000e+00 0.000000000000000e+00 0.000000000000000e+00
0.000000000000000e+00 0.000000000000000e+00 0.000000000000000e+00
0.000000000000000e+00 0.000000000000000e+00 0.000000000000000e+00
0.000000000000000e+00 0.000000000000000e+00 0.000000000000000e+00
0.000000000000000e+00 0.000000000000000e+00 0.000000000000000e+00
0.000000000000000e+00 0.000000000000000e+00 0.000000000000000e+00
0.000000000000000e+00 0.000000000000000e+00 0.000000000000000e+00
0.000000000000000e+00 0.000000000000000e+00 0.000000000000000e+00
0.000000000000000e+00 0.000000000000000e+00 0.000000000000000e+00
0.000000000000000e+00 0.000000000000000e+00 0.000000000000000e+00
0.000000000000000e+00 0.000000000000000e+00 0.000000000000000e+00
0.000000000000000e+00 0.000000000000000e+00 0.000000000000000e+00
0.000000000000000e+00 0.000000000000000e+00 0.000000000000000e+00
0.000000000000000e+00 0.000000000000000e+00 0.000000000000000e+00
0.000000000000000e+00 0.000000000000000e+00 0.000000000000000e+00
0.000000000000000e+00 0.000000000000000e+00 0.000000000000000e+00
0.000000000000000e+00 0.000000000000000e+00 0.000000000000000e+00
0.000000000000000e+00 0.000000000000000e+00 0.000000000000000e+00
0.000000000000000e+00 0.000000000000000e+00 0.000000000000000e+00
0.000000000000000e+00 0.000000000000000e+00 0.000000000000000e+00
0.000000000000000e+00 0.000000000000000e+00 0.000000000000000e+00
0.000000000000000e+00 0.000000000000000e+00 0.000000000000000e+00
0.000000000000000e+00 0.000000000000000e+00 0.000000000000000e+00
0.000000000000000e+00 0.000000000000000e+00 0.000000000000000e+00
0.000000000000000e+00 0.000000000000000e+00 0.000000000000000e+00
0.000000000000000e+00 0.000000000000000e+00 0.000000000000000e+00
0.000000000000000e+00 0.000000000000000e+00 0.000000000000000e+00
0.000000000000000e+00 0.000000000000000e+00 0.000000000000000e+00
0.000000000000000e+00 0.000000000000000e+00 0.000000000000000e+00
0.000000000000000e+00 0.000000000000000e+00 0.000000000000000e+00
0.000000000000000e+00 0.000000000000000e+00 0.000000000000000e+00
0.000000000000000e+00 0.000000000000000e+00 0.000000000000000e+00
0.000000000000000e+00 0.000000000000000e+00 0.000000000000000e+00
0.000000000000000e+00 0.000000000000000e+00 0.000000000000000e+00
0.000000000000000e+00 0.000000000000000e+00 0.000000000000000e+00
0.000000000000000e+00 0.000000000000000e+00 0.000000000000000e+00
0.000000000000000e+00 0.000000000000000e+00 0.000000000000000e+00
0.000000000000000e+00 0.000000000000000e+00 0.000000000000000e+00
0.000000000000000e+00 0.000000000000000e+00 0.000000000000000e+00
0.000000000000000e+00 0.000000000000000e+00 0.000000000000000e+00
0.000000000000000e+00 0.000000000000000e+00 0.000000000000000e+00
0.000000000000000e+00 0.000000000000000e+00 0.000000000000000e+00
0.000000000000000e+00 0.000000000000000e+00 0.000000000000000e+00
0.000000000000000e+00 0.000000000000000e+00 0.000000000000000e+00
0.000000000000000e+00 0.000000000000000e+00 0.000000000000000e+00
0.000000000000000e+00 0.000000000000000e+00 0.000000000000000e+00
0.000000000000000e+00 0.000000000000000e+00 0.000000000000000e+00
0.000000000000000e+00 0.000000000000000e+00 0.000000000000000e+00
0.000000000000000e+00 0.000000000000000e+00 0.000000000000000e+00
0.000000000000000e+00 0.000000000000000e+00 0.000000000000000e+00
0.000000000000000e+00 0.000000000000000e+00 0.000000000000000e+00
0.000000000000000e+00 0.000000000000000e+00 0.000000000000000e+00
0.000000000000000e+00 0.000000000000000e+00 0.000000000000000e+00
0.000000000000000e+00 0.000000000000000e+00 0.000000000000000e+00
0.000000000000000e+00 0.000000000000000e+00 0.000000000000000e+00
0.000000000000000e+00 0.000000000000000e+00 0.000000000000000e+00
0.000000000000000e+00 0.000000000000000e+00 0.000000000000000e+00
0.000000000000000e+00 0.000000000000000e+00 0.000000000000000e+00
0.000000000000000e+00 0.000000000000000e+00 0.000000000000000e+00
0.000000000000000e+00 0.000000000000000e+00 0.000000000000000e+00
0.000000000000000e+00 0.000000000000000e+00 0.000000000000000e+00
0.000000000000000e+00 0.000000000000000e+00 0.000000000000000e+00
0.000000000000000e+00 0.000000000000000e+00 0.000000000000000e+00
0.000000000000000e+00 0.000000000000000e+00 0.000000000000000e+00
0.000000000000000e+00 0.000000000000000e+00 0.000000000000000e+00
0.000000000000000e+00 0.000000000000000e+00 0.000000000000000e+00
0.000000000000000e+00 0.000000000000000e+00 0.000000000000000e+00
0.000000000000000e+00 0.000000000000000e+00 0.000000000000000e+00
0.000000000000000e+00 0.000000000000000e+00 0.000000000000000e+00
0.000000000000000e+00 0.000000000000000e+00 0.000000000000000e+00
0.000000000000000e+00 0.000000000000000e+00 0.000000000000000e+00
0.000000000000000e+00 0.000000000000000e+00 0.000000000000000e+00
0.000000000000000e+00 0.000000000000000e+00 0.000000000000000e+00
0.000000000000000e+00 0.000000000000000e+00 0.000000000000000e+00
0.000000000000000e+00 0.000000000000000e+00 0.000000000000000e+00
0.000000000000000e+00 0.000000000000000e+00 0.000000000000000e+00
0.000000000000000e+00 0.000000000000000e+00 0.000000000000000e+00
0.000000000000000e+00 0.000000000000000e+00 0.000000000000000e+00
0.000000000000000e+00 0.000000000000000e+00 0.000000000000000e+00
0.000000000000000e+00 0.000000000000000e+00 0.000000000000000e+00
0.000000000000000e+00 0.000000000000000e+00 0.000000000000000e+00
0.000000000000000e+00 0.000000000000000e+00 0.000000000000000e+00
0.000000000000000e+00 0.000000000000000e+00 0.000000000000000e+00
0.000000000000000e+00 0.000000000000000e+00 0.000000000000000e+00
0.000000000000000e+00 0.000000000000000e+00 0.000000000000000e+00
0.000000000000000e+00 0.000000000000000e+00 0.000000000000000e+00
0.000000000000000e+00 0.000000000000000e+00 0.000000000000000e+00
0.000000000000000e+00 0.000000000000000e+00 0.000000000000000e+00
0.000000000000000e+00 0.000000000000000e+00 0.000000000000000e+00
0.000000000000000e+00 0.000000000000000e+00 0.000000000000000e+00
0.000000000000000e+00 0.000000000000000e+00 0.000000000000000e+00
0.000000000000000e+00 0.000000000000000e+00 0.000000000000000e+00
0.000000000000000e+00 0.000000000000000e+00 0.000000000000000e+00
0.000000000000000e+00 0.000000000000000e+00 0.000000000000000e+00
0.000000000000000e+00 0.000000000000000e+00 0.000000000000000e+00
0.000000000000000e+00 0.000000000000000e+00 0.000000000000000e+00
0.000000000000000e+00 0.000000000000000e+00 0.000000000000000e+00
0.000000000000000e+00 0.000000000000000e+00 0.000000000000000e+00
0.000000000000000e+00 0.000000000000000e+00 0.000000000000000e+00
0.000000000000000e+00 0.000000000000000e+00 0.000000000000000e+00
0.000000000000000e+00 0.000000000000000e+00 0.000000000000000e+00
0.000000000000000e+00 0.000000000000000e+00 0.000000000000000e+00
0.000000000000000e+00 0.000000000000000e+00 0.000000000000000e+00
0.000000000000000e+00 0.000000000000000e+00 0.000000000000000e+00
0.000000000000000e+00 0.000000000000000e+00 0.000000000000000e+00
0.000000000000000e+00 0.000000000000000e+00 0.000000000000000e+00
0.000000000000000e+00 0.000000000000000e+00 0.000000000000000e+00
0.000000000000000e+00 0.000000000000000e+00 0.000000000000000e+00
0.000000000000000e+00 0.000000000000000e+00 0.000000000000000e+00
0.000000000000000e+00 0.000000000000000e+00 0.000000000000000e+00
0.000000000000000e+00 0.000000000000000e+00 0.000000000000000e+00
0.000000000000000e+00 0.000000000000000e+00 0.000000000000000e+00
0.000000000000000e+00 0.000000000000000e+00 0.000000000000000e+00
0.000000000000000e+00 0.000000000000000e+00 0.000000000000000e+00
0.000000000000000e+00 0.000000000000000e+00 0.000000000000000e+00
0.000000000000000e+00 0.000000000000000e+00 0.000000000000000e+00
0.000000000000000e+00 0.000000000000000e+00 0.000000000000000e+00
0.000000000000000e+00 0.000000000000000e+00 0.000000000000000e+00
0.000000000000000e+00 0.000000000000000e+00 0.000000000000000e+00
0.000000000000000e+00 0.000000000000000e+00 0.000000000000000e+00
0.000000000000000e+00 0.000000000000000e+00 0.000000000000000e+00
0.000000000000000e+00 0.000000000000000e+00 0.000000000000000e+00
0.000000000000000e+00 0.000000000000000e+00 0.000000000000000e+00
0.000000000000000e+00 0.000000000000000e+00 0.000000000000000e+00
0.000000000000000e+00 0.000000000000000e+00 0.000000000000000e+00
0.000000000000000e+00 0.000000000000000e+00 0.000000000000000e+00
0.000000000000000e+00 0.000000000000000e+00 0.000000000000000e+00
0.000000000000000e+00 0.000000000000000e+00 0.000000000000000e+00
0.000000000000000e+00 0.000000000000000e+00 0.000000000000000e+00
0.000000000000000e+00 0.000000000000000e+00 0.000000000000000e+00
0.000000000000000e+00 0.000000000000000e+00 0.000000000000000e+00
0.000000000000000e+00 0.000000000000000e+00 0.000000000000000e+00
0.000000000000000e+00 0.000000000000000e+00 0.000000000000000e+00
0.000000000000000e+00 0.000000000000000e+00 0.000000000000000e+00
0.000000000000000e+00 0.000000000000000e+00 0.000000000000000e+00
0.000000000000000e+00 0.000000000000000e+00 0.000000000000000e+00
0.000000000000000e+00 0.000000000000000e+00 0.000000000000000e+00
0.000000000000000e+00 0.000000000000000e+00 0.000000000000000e+00
0.000000000000000e+00 0.000000000000000e+00 0.000000000000000e+00
0.000000000000000e+00 0.000000000000000e+00 0.000000000000000e+00
0.000000000000000e+00 0.000000000000000e+00 0.000000000000000e+00
0.000000000000000e+00 0.000000000000000e+00 0.000000000000000e+00
0.000000000000000e+00 0.000000000000000e+00 0.000000000000000e+00
0.000000000000000e+00 0.000000000000000e+00 0.000000000000000e+00
0.000000000000000e+00 0.000000000000000e+00 0.000000000000000e+00
0.000000000000000e+00 0.000000000000000e+00 0.000000000000000e+00
0.000000000000000e+00 0.000000000000000e+00 0.000000000000000e+00
0.000000000000000e+00 0.000000000000000e+00 0.000000000000000e+00
0.000000000000000e+00 0.000000000000000e+00 0.000000000000000e+00
0.000000000000000e+00 0.000000000000000e+00 0.000000000000000e+00
0.000000000000000e+00 0.000000000000000e+00 0.000000000000000e+00
0.000000000000000e+00 0.000000000000000e+00 0.000000000000000e+00
0.000000000000000e+00 0.000000000000000e+00 0.000000000000000e+00
0.000000000000000e+00 0.000000000000000e+00 0.000000000000000e+00
0.000000000000000e+00 0.000000000000000e+00 0.000000000000000e+00
0.000000000000000e+00 0.000000000000000e+00 0.000000000000000e+00
0.000000000000000e+00 0.000000000000000e+00 0.000000000000000e+00
0.000000000000000e+00 0.000000000000000e+00 0.000000000000000e+00
0.000000000000000e+00 0.000000000000000e+00 0.000000000000000e+00
0.000000000000000e+00 0.000000000000000e+00 0.000000000000000e+00
0.000000000000000e+00 0.000000000000000e+00 0.000000000000000e+00
0.000000000000000e+00 0.000000000000000e+00 0.000000000000000e+00
0.000000000000000e+00 0.000000000000000e+00 0.000000000000000e+00
0.000000000000000e+00 0.000000000000000e+00 0.000000000000000e+00
0.000000000000000e+00 0.000000000000000e+00 0.000000000000000e+00
0.000000000000000e+00 0.000000000000000e+00 0.000000000000000e+00
0.000000000000000e+00 0.000000000000000e+00 0.000000000000000e+00
0.000000000000000e+00 0.000000000000000e+00 0.000000000000000e+00
0.000000000000000e+00 0.000000000000000e+00 0.000000000000000e+00
0.000000000000000e+00 0.000000000000000e+00 0.000000000000000e+00
0.000000000000000e+00 0.000000000000000e+00 0.000000000000000e+00
0.000000000000000e+00 0.000000000000000e+00 0.000000000000000e+00
0.000000000000000e+00 0.000000000000000e+00 0.000000000000000e+00
0.000000000000000e+00 0.000000000000000e+00 0.000000000000000e+00
0.000000000000000e+00 0.000000000000000e+00 0.000000000000000e+00
0.000000000000000e+00 0.000000000000000e+00 0.000000000000000e+00
0.000000000000000e+00 0.000000000000000e+00 0.000000000000000e+00
0.000000000000000e+00 0.000000000000000e+00 0.000000000000000e+00
0.000000000000000e+00 0.000000000000000e+00 0.000000000000000e+00
0.000000000000000e+00 0.000000000000000e+00 0.000000000000000e+00
0.000000000000000e+00 0.000000000000000e+00 0.000000000000000e+00
0.000000000000000e+00 0.000000000000000e+00 0.000000000000000e+00
0.000000000000000e+00 0.000000000000000e+00 0.000000000000000e+00
0.000000000000000e+00 0.000000000000000e+00 0.000000000000000e+00
0.000000000000000e+00 0.000000000000000e+00 0.000000000000000e+00
0.000000000000000e+00 0.000000000000000e+00 0.000000000000000e+00
0.000000000000000e+00 0.000000000000000e+00 0.000000000000000e+00
0.000000000000000e+00 0.000000000000000e+00 0.000000000000000e+00
0.000000000000000e+00 0.000000000000000e+00 0.000000000000000e+00
0.000000000000000e+00 0.000000000000000e+00 0.000000000000000e+00
0.000000000000000e+00 0.000000000000000e+00 0.000000000000000e+00
0.000000000000000e+00 0.000000000000000e+00 0.000000000000000e+00
0.000000000000000e+00 0.000000000000000e+00 0.000000000000000e+00
0.000000000000000e+00 0.000000000000000e+00 0.000000000000000e+00
0.000000000000000e+00 0.000000000000000e+00 0.000000000000000e+00
0.000000000000000e+00 0.000000000000000e+00 0.000000000000000e+00
0.000000000000000e+00 0.000000000000000e+00 0.000000000000000e+00
0.000000000000000e+00 0.000000000000000e+00 0.000000000000000e+00
0.000000000000000e+00 0.000000000000000e+00 0.000000000000000e+00
0.000000000000000e+00 0.000000000000000e+00 0.000000000000000e+00
0.000000000000000e+00 0.000000000000000e+00 0.000000000000000e+00
0.000000000000000e+00 0.000000000000000e+00 0.000000000000000e+00
0.000000000000000e+00 0.000000000000000e+00 0.000000000000000e+00
0.000000000000000e+00 0.000000000000000e+00 0.000000000000000e+00
0.000000000000000e+00 0.000000000000000e+00 0.000000000000000e+00
0.000000000000000e+00 0.000000000000000e+00 0.000000000000000e+00
0.000000000000000e+00 0.000000000000000e+00 0.000000000000000e+00
0.000000000000000e+00 0.000000000000000e+00 0.000000000000000e+00
0.000000000000000e+00 0.000000000000000e+00 0.000000000000000e+00
0.000000000000000e+00 0.000000000000000e+00 0.000000000000000e+00
0.000000000000000e+00 0.000000000000000e+00 0.000000000000000e+00
0.000000000000000e+00 0.000000000000000e+00 0.000000000000000e+00
0.000000000000000e+00 0.000000000000000e+00 0.000000000000000e+00
0.000000000000000e+00 0.000000000000000e+00 0.000000000000000e+00
0.000000000000000e+00 0.000000000000000e+00 0.000000000000000e+00
0.000000000000000e+00 0.000000000000000e+00 0.000000000000000e+00
0.000000000000000e+00 0.000000000000000e+00 0.000000000000000e+00
0.000000000000000e+00 0.000000000000000e+00 0.000000000000000e+00
0.000000000000000e+00 0.000000000000000e+00 0.000000000000000e+00
0.000000000000000e+00 0.000000000000000e+00 0.000000000000000e+00
0.000000000000000e+00 0.000000000000000e+00 0.000000000000000e+00
0.000000000000000e+00 0.000000000000000e+00 0.000000000000000e+00
0.000000000000000e+00 0.000000000000000e+00 0.000000000000000e+00
0.000000000000000e+00 0.000000000000000e+00 0.000000000000000e+00
0.000000000000000e+00 0.000000000000000e+00 0.000000000000000e+00
0.000000000000000e+00 0.000000000000000e+00 0.000000000000000e+00
0.000000000000000e+00 0.000000000000000e+00 0.000000000000000e+00
0.000000000000000e+00 0.000000000000000e+00 0.000000000000000e+00
0.000000000000000e+00 0.000000000000000e+00 0.000000000000000e+00
0.000000000000000e+00 0.000000000000000e+00 0.000000000000000e+00
0.000000000000000e+00 0.000000000000000e+00 0.000000000000000e+00
0.000000000000000e+00 0.000000000000000e+00 0.000000000000000e+00
0.000000000000000e+00 0.000000000000000e+00 0.000000000000000e+00
0.000000000000000e+00 0.000000000000000e+00 0.000000000000000e+00
0.000000000000000e+00 0.000000000000000e+00 0.000000000000000e+00
0.000000000000000e+00 0.000000000000000e+00 0.000000000000000e+00
0.000000000000000e+00 0.000000000000000e+00 0.000000000000000e+00
0.000000000000000e+00 0.000000000000000e+00 0.000000000000000e+00
0.000000000000000e+00 0.000000000000000e+00 0.000000000000000e+00
0.000000000000000e+00 0.000000000000000e+00 0.000000000000000e+00
0.000000000000000e+00 0.000000000000000e+00 0.000000000000000e+00
0.000000000000000e+00 0.000000000000000e+00 0.000000000000000e+00
0.000000000000000e+00 0.000000000000000e+00 0.000000000000000e+00
0.000000000000000e+00 0.000000000000000e+00 0.000000000000000e+00
0.000000000000000e+00 0.000000000000000e+00 0.000000000000000e+00
0.000000000000000e+00 0.000000000000000e+00 0.000000000000000e+00
0.000000000000000e+00 0.000000000000000e+00 0.000000000000000e+00
0.000000000000000e+00 0.000000000000000e+00 0.000000000000000e+00
0.000000000000000e+00 0.000000000000000e+00 0.000000000000000e+00
0.000000000000000e+00 0.000000000000000e+00 0.000000000000000e+00
0.000000000000000e+00 0.000000000000000e+00 0.000000000000000e+00
0.000000000000000e+00 0.000000000000000e+00 0.000000000000000e+00
0.000000000000000e+00 0.000000000000000e+00 0.000000000000000e+00
0.000000000000000e+00 0.000000000000000e+00 0.000000000000000e+00
0.000000000000000e+00 0.000000000000000e+00 0.000000000000000e+00
0.000000000000000e+00 0.000000000000000e+00 0.000000000000000e+00
0.000000000000000e+00 0.000000000000000e+00 0.000000000000000e+00
0.000000000000000e+00 0.000000000000000e+00 0.000000000000000e+00
0.000000000000000e+00 0.000000000000000e+00 0.000000000000000e+00
0.000000000000000e+00 0.000000000000000e+00 0.000000000000000e+00
0.000000000000000e+00 0.000000000000000e+00 0.000000000000000e+00
0.000000000000000e+00 0.000000000000000e+00 0.000000000000000e+00
0.000000000000000e+00 0.000000000000000e+00 0.000000000000000e+00
0.000000000000000e+00 0.000000000000000e+00 0.000000000000000e+00
0.000000000000000e+00 0.000000000000000e+00 0.000000000000000e+00
0.000000000000000e+00 0.000000000000000e+00 0.000000000000000e+00
0.000000000000000e+00 0.000000000000000e+00 0.000000000000000e+00
0.000000000000000e+00 0.000000000000000e+00 0.000000000000000e+00
-1.093320556079584e-01 -1.210378521530390e-02  2.070056341668092e-18
-1.096054177912587e-01  9.308726594091724e-03  1.854915367510605e-18
-1.034268721208900e-01 -3.745506805879522e-02  2.225441779377708e-18
-1.099611012888910e-01  2.925098858876287e-03  1.926834635615299e-18
-8.926373897090019e-02  6.428051730450615e-02  9.280957486015948e-19
-1.063396107852465e-01 -2.814049001069830e-02  2.181573532626366e-18
-1.099816203923027e-01 -2.010764999531302e-03  1.977914005623351e-18
-1.099982338383918e-01  6.233397423598108e-04  1.951145192385833e-18
-1.099982338383918e-01  6.233397423598108e-04  1.951145192385833e-18
-1.099870238433596e-01  1.689552035358103e-03  1.939990753166386e-18
-1.099945977139781e-01 -1.090171426909420e-03  1.968686188009136e-18
-1.099973453330782e-01 -7.642118001337332e-04  1.965385968415204e-18
-1.099050352733782e-01  4.569816359266971e-03  1.908937999153668e-18
-1.099937871568649e-01 -1.169096612875260e-03  1.969482690792971e-18
-1.099949757504498e-01 -1.051337080994554e-03  1.968293906822223e-18
-1.099182369190203e-01 -4.240423636155038e-03  1.999694953629748e-18
-1.099182369190203e-01 -4.240423636155038e-03  1.999694953629748e-18
-1.099007139052773e-01  4.672588480736750e-03  1.907805149039672e-18
-1.048208034307211e-01 -3.335564672042859e-02  2.208128384728584e-18
-1.088176566460722e-01  1.608470086938141e-02  1.771275544095835e-18
-1.087133433421761e-01 -1.677524901055340e-02  2.107043212358596e-18
-1.095522602949008e-01  9.914749834374605e-03  1.847742697811387e-18
-1.084163838655231e-01 -1.859805660609356e-02  2.120487150115705e-18
-1.099994633414905e-01 -3.436052735324108e-04  1.961102081634864e-18
-1.095246120454311e-01 -1.021564272563102e-02  2.054083134989405e-18
-1.097387912468534e-01 -7.576126693730475e-03  2.030774640993927e-18
-1.097387912468534e-01 -7.576126693730475e-03  2.030774640993927e-18
-1.090212095419383e-01 -1.464158017471881e-02  2.090599386432211e-18
-1.095416017044769e-01 -1.003182416201972e-02  2.052496817273050e-18
-1.086772092023309e-01 -1.700776881289034e-02  2.108789218738898e-18
-1.089563765887714e-01 -1.511648109335492e-02  2.094325041116106e-18
-1.071108496166297e-01  2.504527688814131e-02  1.648834213582385e-18
-1.099849202867014e-01  1.821348271983734e-03  1.938599159412922e-18
-1.093786373160344e-01  1.167534577163928e-02  1.826563386116302e-18
-1.099999874041845e-01 -5.264104072906178e-05  1.958121856162569e-18
-1.098466694460334e-01  5.805963452674726e-03  1.895198347306959e-18
-1.099735773368373e-01  2.410868668877486e-03  1.932340190167572e-18
-1.099978523452498e-01  6.873713934702712e-04  1.950480501306019e-18
-1.096930030372384e-01  8.212495642149901e-03  1.867737426240082e-18
-1.099754187493290e-01 -2.325353932126287e-03  1.981035926990285e-18
-1.089048765531094e-01  1.548314770813496e-02  1.779008466585958e-18
-1.097068513728208e-01 -8.025382349877990e-03  2.034822171501422e-18
-1.096699940638113e-01  8.514247003906053e-03  1.864227568487457e-18
-1.090891067553381e-01 -1.412681093957125e-02  2.086518631445209e-18
-1.087723527743819e-01  1.638826628796743e-02  1.767350283259369e-18
-1.097304091511192e-01 -7.696577650352111e-03  2.031863061424706e-18
-1.095382301197139e-01  1.006857200602602e-02  1.845912547173622e-18
-1.089679068732029e-01 -1.503313911573065e-02  2.093673927737057e-18
-1.095550220831139e-01  9.884186176329518e-03  1.848105877610530e-18
-1.094723554579698e-01 -1.076119837582439e-02  2.058758552802566e-18
-1.097754894544472e-01  7.024380046416056e-03  1.881412826565373e-18
-1.096559360053165e-01 -8.693428483508263e-03  2.040780003143603e-18
-1.092677965869717e-01  1.267077854861761e-02  1.814363132955869e-18
-1.096895934372634e-01 -8.257910847652587e-03  2.036904191795840e-18
-1.099548627253916e-01  3.150898767055550e-03  1.924403600906316e-18
-1.091235379150257e-01 -1.385833586358333e-02  2.084372891126376e-18
-1.099324963628823e-01  3.853082327798261e-03  1.916790883802504e-18
-1.098532960605087e-01 -5.679202817486333e-03  2.013322187009069e-18
-1.099493307064051e-01  3.338364451868707e-03  1.922379010219095e-18
-1.096067337723172e-01 -9.293218590150242e-03  2.046067016175964e-18
-1.095132605010017e-01  1.033662297076148e-02  1.842714056736402e-18
-1.099233731585824e-01 -4.105122828731213e-03  1.998396192494125e-18
-1.099991445951077e-01  4.338068055146066e-04  1.953108782462164e-18
-1.099036255452458e-01 -4.603595552426565e-03  2.003166386314059e-18
-1.098451632830442e-01  5.834389712838693e-03  1.894879473843215e-18
-1.096352320365900e-01 -8.950748364410399e-03  2.043055419622833e-18
-1.099845476489026e-01  1.843713227760357e-03  1.938362736082737e-18
-1.044828916518316e-01 -3.439949639270260e-02  2.212840017729324e-18
-1.093262817509925e-01  1.215582652486186e-02  1.820694891189976e-18
-1.098605651740812e-01 -5.536805905157112e-03  2.011988473010553e-18
-1.098173807150945e-01  6.335841923209766e-03  1.889232810608007e-18
-1.095797709856360e-01 -9.605924772529882e-03  2.048800123651320e-18
-1.099271208922529e-01  4.003510002478125e-03  1.915149631179303e-18
-1.098164844914377e-01  6.351356858320699e-03  1.889057450916847e-18
-1.099604963587356e-01 -2.947751777274732e-03  1.987165277009140e-18
-1.099604963587356e-01 -2.947751777274732e-03  1.987165277009140e-18
-1.099915776298628e-01 -1.361194509907346e-03  1.971417105732674e-18
-1.093508420146962e-01 -1.193286850161674e-02  2.068634561041253e-18
-1.099834690410265e-01 -1.906970818206839e-03  1.976880457024890e-18
-1.098058869938915e-01  6.532012054846137e-03  1.887012689289434e-18
-1.090764987529800e-01  1.422383280944640e-02  1.795001691461914e-18
-1.099996983011322e-01 -2.576308595918784e-04  1.960222907150767e-18
-1.095063092794434e-01  1.041000614768440e-02  1.841836365972183e-18
-1.099789180802810e-01 -2.153503631475887e-03  1.979332502347849e-18
-1.097605816717371e-01  7.253599870536197e-03  1.878792374365583e-18
-1.096748649280223e-01 -8.451272272267158e-03  2.038628798800323e-18
-1.097735111527003e-01  7.055228501467270e-03  1.881060663656695e-18
-1.099900309887834e-01 -1.480906170690865e-03  1.972619575236491e-18
-1.099411469714422e-01  3.597805248159158e-03  1.919567710959065e-18
-1.099997751747311e-01 -2.223994346354883e-04  1.959862285115302e-18
-1.099174200657379e-01  4.261545035788160e-03  1.912325777169400e-18
-1.099878884349409e-01  1.632298264079979e-03  1.940594401306122e-18
-9.271539784271347e-02 -5.919336958534537e-02  2.258171468769726e-18
-1.099992964947867e-01  3.934090135511648e-04  1.953526558335204e-18
-1.099984356495788e-01  5.866469512390741e-04  1.951525788955957e-18
-1.099997476957775e-01  2.355989499482164e-04  1.955156029070680e-18
-1.099999178469311e-01 -1.344383439485237e-04  1.958961055884231e-18
-1.099999788725968e-01 -6.817644902042987e-05  1.958281325009411e-18
-1.099999777879138e-01 -6.990463776793409e-05  1.958299062217765e-18
-1.099999777879138e-01 -6.990463776793409e-05  1.958299062217765e-18
-1.099981335068068e-01  6.408002954348653e-04  1.950964006025672e-18
-1.099980450937087e-01  6.558014656588865e-04  1.950808301034573e-18
-1.099974969095371e-01 -7.420738752363682e-04  1.965161206762852e-18
-1.099997148677544e-01  2.504576065050840e-04  1.955002777558453e-18
-1.099861850995918e-01 -1.743297805380712e-03  1.975247111777835e-18
-1.099724602578515e-01  2.461297388613497e-03  1.931802173638544e-18
-1.099957800946872e-01 -9.635151068627974e-04  1.967405882206393e-18
-1.099828363436824e-01  1.943118575563507e-03  1.937310927527473e-18
-1.099956807882425e-01  9.747860949858642e-04  1.947488774210228e-18
-1.099956807882425e-01  9.747860949858642e-04  1.947488774210228e-18
-1.083923816348336e-01 -1.873743855302843e-02  2.121492100660963e-18
-1.098093726916874e-01  6.473149855983930e-03  1.887679509149956e-18
-1.099543054476730e-01 -3.170286031221433e-03  1.989341560980959e-18
-1.075233454583819e-01 -2.321056185096311e-02  2.151986282205466e-18
-1.099974260144645e-01  7.525092639574524e-04  1.949803646284622e-18
-1.099748715525890e-01  2.351090596185508e-03  1.932977420261912e-18
-1.097043002882620e-01  8.060179790970120e-03  1.869503464336770e-18
-1.099874922388526e-01  1.658779975846588e-03  1.940315260555778e-18
-1.094846067891056e-01 -1.063582983292165e-02  2.057688463618530e-18
-1.099273937075057e-01 -3.996012096446832e-03  1.997346669820691e-18
-1.094925703334665e-01  1.055353219404919e-02  1.840117187052632e-18
-1.099884272725218e-01  1.595577048316480e-03  1.940981287715823e-18
-1.099909824345479e-01 -1.408468346433161e-03  1.971892235019140e-18
-1.099768679738242e-01 -2.255772742981162e-03  1.980346796227265e-18
-1.099904007263174e-01  1.453185488524968e-03  1.942479429230206e-18
-1.099310117521947e-01 -3.895209254810974e-03  1.996375344662675e-18
-1.099959383490098e-01  9.452760024325378e-04  1.947796563292122e-18
-1.099042432921694e-01 -4.588824073284564e-03  2.003025608275314e-18
-1.099972644228190e-01 -7.757702600402989e-04  1.965503287497310e-18
-1.099436887455963e-01 -3.519276205607859e-03  1.992738371367102e-18
-1.099422994239530e-01 -3.562414542665543e-03  1.993156877473557e-18
-1.099422994239530e-01 -3.562414542665543e-03  1.993156877473557e-18
-1.099410170842437e-01 -3.601772130766744e-03  1.993538441629051e-18
-1.095818702338824e-01 -9.581947403554772e-03  2.048591123522013e-18
-1.096258950870912e-01 -9.064387809113499e-03  2.044056861481345e-18
-9.379837982259537e-02 -5.746184771355740e-02  2.259653666709215e-18
-1.084970960637320e-01  1.812126225562746e-02  1.744645857735500e-18
-1.099957915909411e-01  9.622017886984818e-04  1.947620045252004e-18
-1.096602232682468e-01  8.639180097567195e-03  1.862770043372616e-18
-1.098832581619547e-01 -5.066515144864992e-03  2.007560255080137e-18
-1.098293383060270e-01  6.125067122914737e-03  1.891611244706745e-18
-1.098847021984680e-01 -5.035099080843949e-03  2.007263164787144e-18
-1.099511519614625e-01  3.277831958368977e-03  1.923033371006298e-18
-9.507083495527759e-02 -5.533115163184566e-02  2.260406395416166e-18
-1.098953116603759e-01  4.797965721925085e-03  1.906420804040382e-18
-1.098458039019576e-01 -5.822316131284625e-03  2.014659292420978e-18
-1.096412886316701e-01  8.876250739288849e-03  1.859997264205986e-18
-1.099128986284877e-01 -4.376609999042672e-03  2.000999217788032e-18
-1.092822549081982e-01  1.254546779436734e-02  1.815907958506710e-18
-1.099522526924903e-01 -3.240698666443944e-03  1.990028494001878e-18
-1.087049457438649e-01  1.682958023312858e-02  1.761616354275524e-18
-1.099218363421010e-01 -4.146069847493464e-03  1.998789558754556e-18
-1.076536945202727e-01  2.259827551243069e-02  1.683636836381265e-18
-1.065920263679183e-01  2.716873045949943e-02  1.617783420941126e-18
-1.089642087979105e-01  1.505992035321865e-02  1.784412861981612e-18
-8.835622809433631e-02  6.552233937323625e-02  8.991862393972707e-19
-2.473869142692864e-02 -1.071820747442553e-01  1.541511405132048e-18
-1.081177305070641e-01 -2.026219015806967e-02  2.132270625069669e-18
-7.302608787227165e-02  8.226293509273287e-02  4.543645680549351e-19
-1.097639022224109e-01 -7.203177695222360e-03  2.027389605279477e-18
-1.095305063110173e-01  1.015225035409059e-02  1.844915328156163e-18
-1.099628027316574e-01 -2.860422241299877e-03  1.986309042408610e-18
-1.068160402116789e-01 -2.627419938831486e-02  2.170876704400415e-18
-1.055753587021103e-01  3.088435906604924e-02  1.561513872952440e-18
-1.095571404214882e-01 -9.860678610838081e-03  2.051014888911420e-18
 1.029708823911364e-02  1.095169848644302e-01 -1.308496203115666e-18
-1.097429926163738e-01 -7.515023060674193e-03  2.030221591743667e-18
-1.060897701068778e-01 -2.906820735218713e-02  2.186659278404629e-18
-1.085476684162163e-01 -1.781582671118824e-02  2.114786387288800e-18
-1.099872876795620e-01  1.672288519719898e-03  1.940172824798166e-18
-1.099872876795620e-01  1.672288519719898e-03  1.940172824798166e-18
-1.099872876795620e-01  1.672288519719898e-03  1.940172824798166e-18
-1.099846776448282e-01  1.835942091450772e-03  1.938444895117848e-18
-1.099338028110259e-01  3.815625703131908e-03  1.917198986817131e-18
-1.099786808664071e-01  2.165584190214491e-03  1.934951222477391e-18
-1.099640561835863e-01  2.811822834567136e-03  1.928051091490964e-18
-1.099190315812771e-01  4.219774429294788e-03  1.912783633818358e-18
-1.098950985828200e-01  4.802843686004096e-03  1.906366892762220e-18
-1.090750333931840e-01  1.423506551708563e-02  1.794860201645929e-18
-1.097040605609975e-01  8.063441971571904e-03  1.869465680383515e-18
-9.742697649948188e-02  5.106842713623876e-02  1.209119724788826e-18
-4.404369156076734e-02 -1.007975854557039e-01  1.819468602214180e-18
-1.080087005896709e-01  2.083556087391783e-02  1.708065845419608e-18
-7.927925265976912e-02 -7.625483655289296e-02  2.194359613172976e-18
-1.091563097456076e-01 -1.359779550960028e-02  2.082279147452929e-18
-3.601717580411522e-02 -1.039363413205188e-01  1.708876756240598e-18
-7.765259703782502e-02  7.791068073942811e-02  5.814166497863542e-19
-7.548596063851847e-02 -8.001168506212057e-02  2.165453710528853e-18
-9.079909789266180e-02  6.209286450051045e-02  9.778966299060285e-19
-7.699505892134174e-02  7.856055563512163e-02  5.630377461914157e-19
-6.089312150843427e-02  9.160801140161805e-02  1.424266946098246e-19
-1.099889792540688e-01 -1.557062184998466e-03  1.973383333744394e-18
-7.953795020796618e-02 -7.598496217486075e-02  2.196190583432121e-18
-1.084935165962010e-01 -1.814268052383049e-02  2.117180995245243e-18
-1.038679702129732e-01  3.621387529437892e-02  1.476370014956483e-18
-9.399976284977268e-02 -5.713181761668730e-02  2.259846578541374e-18
-8.245923581752655e-03  1.096904952321933e-01 -9.802839448555971e-19
-1.037750821374818e-01 -3.647920403954610e-02  2.221611943688644e-18
-1.099969791659441e-01 -8.152143072742221e-04  1.965903484267387e-18
-1.020530045601241e-01 -4.105099584968936e-02  2.237939019078899e-18
-1.501711082755450e-03  1.099897489033585e-01 -1.103379973824036e-18
-7.956327413171227e-02 -7.595844528057387e-02  2.196368801406685e-18
-1.075892223872396e-01 -2.290325798023119e-02  2.150001205098283e-18
-8.472772806233879e-02 -7.015135135829027e-02  2.228610638985736e-18
-5.381618866826375e-02  9.593653025423513e-02 -2.798972573543354e-20
-1.048118960116810e-01 -3.338362554361789e-02  2.208257338825973e-18
-1.061009550943561e-01  2.902735482377527e-02  1.589947531699283e-18
-9.702615628165039e-02 -5.182591048123204e-02  2.259188591342124e-18
-1.099841550335399e-01 -1.866987294601362e-03  1.976481848899772e-18
-1.075046089610318e-01 -2.329718979052129e-02  2.152542914494921e-18
-1.098190500625111e-01  6.306840997488756e-03  1.889560492613130e-18
-1.099225623623655e-01  4.126776428616159e-03  1.913801988952950e-18
-1.099225623623655e-01  4.126776428616159e-03  1.913801988952950e-18
-1.099142515653536e-01  4.342499605995716e-03  1.911437611125141e-18
-1.099780264855200e-01 -2.198565521015382e-03  1.979779629900866e-18
-8.859687320418445e-02  6.519658011308251e-02  9.068158642379407e-19
-1.099839184982013e-01 -1.880869953221672e-03  1.976620278745425e-18
-1.098813535106928e-01 -5.107656082598049e-03  2.007949067728861e-18
-1.094409675117495e-01 -1.107585798446806e-02  2.061432980030644e-18
-1.011015445579006e-01  4.334140846819311e-02  1.353905356380796e-18
-1.098659049750886e-01 -5.429818045269813e-03  2.010984239744316e-18
-1.099754628694528e-01  2.323266375071241e-03  1.933273827215055e-18
-1.099810571851085e-01  2.041337905838963e-03  1.936270097340091e-18
-1.099999743077828e-01  7.518169354997201e-05  1.956808290936111e-18
-1.099999743077828e-01  7.518169354997201e-05  1.956808290936111e-18
-1.099810571851080e-01  2.041337905867532e-03  1.936270097339788e-18
-1.099971506393323e-01  7.917393687150028e-04  1.949395670580458e-18
-1.099962064315414e-01 -9.135483948080566e-04  1.966900079564384e-18
-1.099993269938352e-01  3.847868283116755e-04  1.953615690923296e-18
-1.099996840500883e-01  2.636453691517575e-04  1.954866729650867e-18
-1.099996840500883e-01  2.636453691517575e-04  1.954866729650867e-18
-1.099955045412095e-01  9.944751000884816e-04  1.947283340309064e-18
-1.099955045412095e-01  9.944751000884816e-04  1.947283340309064e-18
-1.099955045412095e-01  9.944751000884816e-04  1.947283340309064e-18
-1.099980578428350e-01 -6.536595476605179e-04  1.964262764142553e-18
-1.098461553021583e-01  5.815682705756595e-03  1.895089335708720e-18
-1.098415398749247e-01 -5.902212966782327e-03  2.015404319934114e-18
-1.090635065739182e-01  1.432311187559529e-02  1.793750423798448e-18
-1.099773509006400e-01 -2.232104136776906e-03  1.980112204155390e-18
-1.097136651747958e-01  7.931687961129624e-03  1.870990330537677e-18
-1.097980670843937e-01  6.662166654392830e-03  1.885536233443102e-18
-1.099212383207086e-01  4.161894525562131e-03  1.913417600363573e-18
-1.076656334482314e-01  2.254132591909783e-02  1.684434440228893e-18
-1.098803330361949e-01 -5.129562540298334e-03  2.008155988062785e-18
-1.081039000823789e-01  2.033584979731510e-02  1.714894383731743e-18
 5.470734318406007e-03  1.098638751638469e-01 -1.226169649824491e-18
-1.070269001005708e-01 -2.540162701211020e-02  2.165663843461147e-18
-1.070269001005708e-01 -2.540162701211020e-02  2.165663843461147e-18
-1.097226383104813e-01 -7.806576854628440e-03  2.032854971910530e-18
-1.059275228457870e-01 -2.965400316576485e-02  2.189790734039602e-18
-1.099307646947926e-01  3.902175498113705e-03  1.916255652212394e-18
-1.587286649262734e-02 -1.088487579594143e-01  1.400858039464708e-18
-1.093815846629583e-01  1.164770091563229e-02  1.826899878523419e-18
-1.099217103471267e-01 -4.149408917220079e-03  1.998821624252150e-18
-1.097279022675368e-01  7.732235379617536e-03  1.873292999405235e-18
-1.095940156054787e-01 -9.442020094556781e-03  2.047369562628735e-18
-1.071072143920769e-01  2.506081852553109e-02  1.648609835746867e-18
-1.070155246687799e-01 -2.544950844055156e-02  2.165953368366600e-18
-1.072546201653847e-01  2.442225323713955e-02  1.657794123680543e-18
-1.081781809669045e-01 -1.993692962047033e-02  2.130004479244477e-18
-1.043951926349406e-01  3.466473358780602e-02  1.501669435125159e-18
-9.811520920229323e-02 -4.973334618935430e-02  2.257069249204111e-18
-2.562927486380465e-02  1.069726145794122e-01 -6.430012368005808e-19
-1.099384039442511e-01  3.680670888654518e-03  1.918667481164831e-18
-1.099704837861084e-01  2.548076892324249e-03  1.930875372090141e-18
-1.026579653413513e-01  3.951382229010308e-02  1.420930778315345e-18
-1.092041876705548e-01 -1.320777783028571e-02  2.079123902265547e-18
-1.099397555754138e-01 -3.640074727009274e-03  1.993909536836793e-18
-1.099397555754138e-01 -3.640074727009274e-03  1.993909536836793e-18
-1.085853939936982e-01 -1.758443093288041e-02  2.113080251378154e-18
-1.099676580343723e-01  2.667243227617855e-03  1.929600693661904e-18
-1.099711450047123e-01  2.519378167816462e-03  1.931182008232819e-18
-1.090431747368266e-01  1.447708683796023e-02  1.791806557701114e-18
-1.098961276435663e-01 -4.779239369282584e-03  2.004837628621666e-18
-1.099940652615609e-01 -1.142631714688940e-03  1.969215722782850e-18
-1.099775396387025e-01  2.222785418692883e-03  1.934343191126039e-18
-1.099764624517670e-01  2.275457447414498e-03  1.933782835338738e-18
-1.099887548524184e-01 -1.572833752987878e-03  1.973541387381081e-18
-1.099908387477760e-01  1.419644871317459e-03  1.942831842002014e-18
-1.096317048093609e-01 -8.993847930284085e-03  2.043435480789374e-18
-1.099383844982463e-01  3.681251677852661e-03  1.918661167701951e-18
-1.099166004321391e-01 -4.282633470355097e-03  2.000099521106405e-18
-1.096169136999566e-01  9.172362339996562e-03  1.856521044092289e-18
-1.097542145346799e-01 -7.349312340307296e-03  2.028718681712116e-18
-1.096838513104645e-01  8.333832353956010e-03  1.866327869709919e-18
-1.088731655282233e-01 -1.570457983723319e-02  2.098886701989777e-18
-1.096130670180936e-01  9.218217771719460e-03  1.855981439897065e-18
-1.094072513705355e-01 -1.140409345561363e-02  2.064205461307121e-18
-1.099858026089395e-01  1.767264685135437e-03  1.939170550597464e-18
-1.099858026089395e-01  1.767264685135437e-03  1.939170550597464e-18
-1.081061416087464e-01 -2.032393038931195e-02  2.132698745247917e-18
-1.063392792702768e-01  2.814174273704477e-02  1.603288137166737e-18
-1.096050274095656e-01 -9.313321993161476e-03  2.046243204578324e-18
-1.090089727245849e-01  1.473240868054632e-02  1.788574552914198e-18
-1.095771020871068e-01 -9.636321818604372e-03  2.049064946024452e-18
-1.030254897561762e-01  3.854540777446726e-02  1.437421421026968e-18
-1.097747023651256e-01 -7.036669712868874e-03  2.025870997670875e-18
-1.077510789893211e-01  2.212927871931210e-02  1.690188680848534e-18
-1.092384318820871e-01 -1.292149371947952e-02  2.076791853618047e-18
-1.097695933938884e-01  7.115923421478593e-03  1.880367324210979e-18
-1.078956220086900e-01 -2.141342455932295e-02  2.140146454662792e-18
-1.092823664561139e-01  1.254449607403887e-02  1.815919927708303e-18
-1.087058121020223e-01 -1.682398333450610e-02  2.107409912431298e-18
-1.096400690071709e-01  8.891302947416312e-03  1.859820903562729e-18
-1.088062870520287e-01 -1.616143242263692e-02  2.102390514083888e-18
-1.099037902353342e-01 -4.599662151460487e-03  2.003128902904598e-18
-1.097055298213325e-01 -8.043427541828633e-03  2.034984060708274e-18
-1.099924636333116e-01 -1.287611694008301e-03  1.970676836518084e-18
-1.034087194451360e-01 -3.750515621507361e-02  2.225633368469533e-18
-1.095211279906450e-01 -1.025292756517306e-02  2.054404220260331e-18
-9.862203306215765e-02 -4.872057670724565e-02  2.255682945833345e-18
-1.036529819146121e-01  3.682471099966712e-02  1.466267926767153e-18
-9.915191588807434e-02 -4.763294632629979e-02  2.253937835728482e-18
-1.088127817257726e-01  1.611764663650708e-02  1.770850283285128e-18
-1.035317306817904e-01  3.716424009761477e-02  1.460621578305194e-18
-1.071239680233905e-01  2.498910712537632e-02  1.649644795186435e-18
-1.023676368849941e-01  4.025999153728080e-02  1.408097419165377e-18
-1.099236718725182e-01 -4.097116310636971e-03  1.998319244400051e-18
-1.057704556187913e-01  3.020944749897335e-02  1.571920326480411e-18
-1.098998147664569e-01  4.693688773063711e-03  1.907572349953306e-18
-1.079884192352214e-01  2.094042289635049e-02  1.706627495337585e-18
-1.098839016831887e-01 -5.052539052719611e-03  2.007428108038438e-18
-1.059790446013567e-01  2.946934178741664e-02  1.583236733566084e-18
-1.098315955838546e-01 -6.084456549647236e-03  2.017099836022588e-18
-1.075249719456819e-01  2.320302583889091e-02  1.675132474704720e-18
-1.095244084476840e-01 -1.021782531583030e-02  2.054101937046059e-18
-1.098179267090143e-01  6.326371261117110e-03  1.889339834833674e-18
-1.099670274880408e-01 -2.693114450670382e-03  1.984665200217349e-18
-1.099899890903601e-01  1.484014791834554e-03  1.942155343785230e-18
-1.097579894947977e-01 -7.292718427294833e-03  2.028204379733097e-18
-1.099931723126134e-01 -1.225579294728295e-03  1.970052087943599e-18
-1.094351849774919e-01 -1.113284729716749e-02  2.061915617421270e-18
-1.099485016281002e-01 -3.365559349582620e-03  1.991244637497557e-18
-1.033891123989072e-01 -3.755917247978279e-02  2.225839435191079e-18
-1.097485677935058e-01 -7.433159979053107e-03  2.029479695245907e-18
-9.240623769299289e-02 -5.967484591874562e-02  2.257616589544960e-18
-1.065341159618561e-01  2.739492902392205e-02  1.614428728109251e-18
-1.052356228544795e-01 -3.202286187132067e-02  2.201816711026971e-18
-5.897839297794637e-02  9.285229755767409e-02  9.556722819907475e-20
-1.090888573173291e-01  1.412873699943997e-02  1.796198701758559e-18
-1.068897231574549e-01  2.597281431271130e-02  1.635368894382580e-18
-1.093012325980701e-01  1.237903681804425e-02  1.817955706957487e-18
-1.098007159601329e-01  6.618366463269772e-03  1.886033404399006e-18
-1.099743941280692e-01  2.373317543869308e-03  1.932740550110052e-18
-1.099083097747084e-01 -4.490372196896039e-03  2.002086418917633e-18
-1.099945575556244e-01 -1.094215765912119e-03  1.968727027457387e-18
-1.096554309312445e-01 -8.699796967917402e-03  2.040836448611834e-18
-1.099985473559252e-01  5.653137060232319e-04  1.951746968248473e-18
-1.073298726389091e-01 -2.408938436978998e-02  2.157572784730038e-18
-1.094108130242550e-01 -1.136987217920450e-02  2.063917234000060e-18
-1.066535564522025e-01 -2.692617492509471e-02  2.174683923879207e-18
-1.073651674767966e-01 -2.393158608783247e-02  2.156579578447949e-18
-1.098475169604528e-01 -5.789906529725909e-03  2.014356781457779e-18
-1.082677966541038e-01 -1.944438756211037e-02  2.126538606572465e-18
-1.011387158610423e-01  4.325459691153376e-02  1.355458821268254e-18
-1.097392035233866e-01 -7.570152577898992e-03  2.030720596076672e-18
-1.077043789703844e-01  2.235546355152876e-02  1.687033631321220e-18
-1.084204331893208e-01 -1.857443584715178e-02  2.120316517945513e-18
-1.094781938433523e-01  1.070163879026514e-02  1.838339598788929e-18
-1.091425508213182e-01  1.370779341162902e-02  1.801479284157950e-18
-1.099991581365591e-01 -4.303594406881504e-04  1.961988017701262e-18
-1.013788463108953e-01 -4.268875168790716e-02  2.242768915156569e-18
-1.099499130269781e-01  3.319130211348209e-03  1.922586998142406e-18
-1.056923778481852e-01 -3.048149052780028e-02  2.194108180358560e-18
-1.092156797785800e-01  1.311240979006497e-02  1.808898051609507e-18
-1.089514217667753e-01  1.515215149733409e-02  1.783237660008793e-18
-1.089814680022020e-01  1.493451144446779e-02  1.786008541089443e-18
-1.090861477015708e-01  1.414964238526924e-02  1.795935685668928e-18
-1.099204046055628e-01 -4.183856038309230e-03  1.999152318679010e-18
-1.095828280735565e-01  9.570986960667936e-03  1.851818726543234e-18
-1.099887118569293e-01  1.575837571994413e-03  1.941189168183240e-18
-1.099670142418105e-01  2.693655275153013e-03  1.929317862411643e-18
-1.099670142418105e-01  2.693655275153013e-03  1.929317862411643e-18
-1.099995480303361e-01 -3.153301788830201e-04  1.960813072447902e-18
-1.099402608047386e-01  3.624783329521763e-03  1.919274750579883e-18
-1.099965524431955e-01 -8.708906999610718e-04  1.966467944936276e-18
-1.099280601543187e-01  3.977636321788820e-03  1.915432189138069e-18
-1.098514283172114e-01 -5.715216239871686e-03  2.013658973121530e-18
-1.095741430112614e-01  9.669911237832660e-03  1.850647754488273e-18
-1.096343717027743e-01 -8.961280117140286e-03  2.043148318889754e-18
-1.099366167193985e-01  3.733671690438234e-03  1.918091111382050e-18
-1.099996390147439e-01  2.818095561934432e-04  1.954679297769870e-18
-1.099658729014833e-01  2.739853465927501e-03  1.928822881271354e-18
-1.099811333772796e-01 -2.037228766969123e-03  1.978177244206973e-18
-1.099948290662531e-01 -1.066573338164918e-03  1.968447843409499e-18
-1.098968953282096e-01 -4.761554076188139e-03  2.004669580523637e-18
-1.093416783229674e-01  1.201654615589077e-02  1.822399946748563e-18
-1.089181672268268e-01 -1.538937451454462e-02  2.096448940710864e-18
-1.099858602198771e-01  1.763675620283541e-03  1.939208452190368e-18
-1.098313484340480e-01 -6.088916254857150e-03  2.017141259547919e-18
-1.096558513816537e-01  8.694495831536440e-03  1.862123891363810e-18
-1.093781264559906e-01 -1.168013069178781e-02  2.066523331036583e-18
-1.031003378263013e-01  3.834475635732314e-02  1.440815052137080e-18
-5.396468960013876e-02 -9.585307650962800e-02  1.945221563297586e-18
-7.666964193675437e-02  7.887817191904109e-02  5.539831708429058e-19
-9.276137817058104e-02  5.912128821240601e-02  1.043349615015720e-18
-1.084922334186273e-01  1.815035227862014e-02  1.744260431746813e-18
-1.099141142978172e-01  4.345972632945417e-03  1.911399484195332e-18
-1.099997710453023e-01 -2.244325756336719e-04  1.959883101412365e-18
-1.090023680942576e-01  1.478119581914476e-02  1.787955745513111e-18
-1.099731734177908e-01  2.429223830865274e-03  1.932144409324807e-18
-1.094704760608471e-01  1.078030013549803e-02  1.837394034896299e-18
-1.099003875017328e-01  4.680259284366969e-03  1.907720525578534e-18
-1.099616068645060e-01 -2.906030931658164e-03  1.986756373251265e-18
-1.099569823560728e-01 -3.076041473423719e-03  1.988420871164050e-18
-1.099476553304221e-01 -3.393094066280468e-03  1.991512485832368e-18
-1.099983497079593e-01  6.025458699824656e-04  1.951360903907858e-18
-1.099983497079593e-01  6.025458699824656e-04  1.951360903907858e-18
-1.099817744094019e-01  2.002323090650021e-03  1.936683724255026e-18
-1.098874642688589e-01  4.974454398241642e-03  1.904467793311772e-18
-1.099988409738269e-01  5.049598148961118e-04  1.952372307835762e-18
-1.096795642711603e-01  8.390064438867157e-03  1.865673812486785e-18
-1.099970440033572e-01 -8.064183302834467e-04  1.965814262658242e-18
-1.036089608560092e-01  3.694838603156946e-02  1.464213803493905e-18
-1.082073562053752e-01 -1.977796913343179e-02  2.128890426156030e-18
-1.062589710971861e-01  2.844347133117354e-02  1.598758805736240e-18
-1.046606969385678e-01 -3.385466757085637e-02  2.210406356676901e-18
-1.048492793956701e-01  3.326602786941411e-02  1.524121643833271e-18
-1.084049769270440e-01 -1.866443080961727e-02  2.120966120868133e-18
-1.064441233455346e-01  2.774254143369960e-02  1.609255610921929e-18
-1.087724543980630e-01 -1.638759177613449e-02  2.104112126849471e-18
-1.074075462083166e-01  2.374066169061598e-02  1.667518730569088e-18
-1.083657367101803e-01 -1.889092658552843e-02  2.122594956219658e-18
-7.740959528708302e-02  7.815212445922338e-02  5.746113972576310e-19
-1.001364307961715e-01 -4.552686270108545e-02  2.249819208720918e-18
-9.392910033177795e-02  5.724791796094182e-02  1.083378822575517e-18
-9.521058628908644e-02 -5.509032817553694e-02  2.260419063573431e-18
-1.041282956347690e-01  3.545839883861175e-02  1.488765062504729e-18
-1.086244178359846e-01  1.734173721959138e-02  1.754921037113729e-18
-1.059873774984457e-01  2.943935819616153e-02  1.583693097917586e-18
-1.095447316153484e-01  9.997588475287695e-03  1.846757579035750e-18
-1.096750254389064e-01  8.449189012868032e-03  1.864985555033121e-18
-1.096750254389064e-01  8.449189012868032e-03  1.864985555033121e-18
-1.096395172229774e-01  8.898104467377670e-03  1.859741200758009e-18
-1.095075279039417e-01 -1.039717905815546e-02  2.055644322182623e-18
 1.087007640106917e-01  1.685656855625869e-02 -2.107654876940714e-18
 1.099744014620111e-01  2.372977680541321e-03 -1.981507139863613e-18
 1.094091714323273e-01  1.138565792967389e-02 -2.064050212765106e-18
 1.064398792020571e-01 -2.775882049820240e-02 -1.609012819852102e-18
 1.099980712437774e-01 -6.514005287028917e-04 -1.950853984434728e-18
 1.099980712437774e-01 -6.514005287028917e-04 -1.950853984434728e-18
 1.099896220459438e-01  1.510973921138168e-03 -1.972921232823946e-18
 1.098834511518103e-01 -5.062327821035370e-03 -1.903493507609574e-18
 1.099783123453562e-01 -2.184219235150581e-03 -1.934753195888564e-18
 1.099566851180546e-01 -3.086648319608225e-03 -1.925096182564751e-18
 1.099553844818950e-01 -3.132638414910998e-03 -1.924600504670489e-18
 1.099553844818950e-01 -3.132638414910998e-03 -1.924600504670489e-18
 1.098788524042218e-01 -5.161181485973779e-03 -1.902395981914122e-18
 1.099969572785492e-01 -8.181622461033487e-04 -1.949120744028185e-18
 1.095827779718364e-01 -9.571560582013104e-03 -1.851811941172419e-18
 1.099931739571066e-01  1.225431696020392e-03 -1.970050600686212e-18
 1.081543887423814e-01 -2.006559731883835e-02 -1.718569635702881e-18
 1.099306744887241e-01  3.904715924893355e-03 -1.996467020238508e-18
 1.091694946109362e-01 -1.349153239601421e-02 -1.804180784407909e-18
 1.098732042849812e-01 -5.280054938228799e-03 -1.901074085356325e-18
 1.098732042849812e-01 -5.280054938228799e-03 -1.901074085356325e-18
 1.077098392752109e-01  2.232914067554239e-02 -2.146248879751506e-18
 1.092982151485481e-01 -1.240565054084731e-02 -1.817628561510101e-18
 1.099230150483871e-01  4.114700799814872e-03 -1.998488229669511e-18
 1.098871867316147e-01  4.980581513354723e-03 -2.006747231816871e-18
 1.099495202267675e-01  3.332116730182368e-03 -1.990919153910280e-18
 1.094677222044014e-01 -1.080822813322862e-02 -1.837058076704691e-18
 1.084144946452198e-01  1.860906636082343e-02 -2.120566650417184e-18
 1.099895702016453e-01 -1.514743165446956e-03 -1.941832166284755e-18
 1.094252533359420e-01  1.123004596450244e-02 -2.062737553010365e-18
 1.072760701049364e-01 -2.432786021911293e-02 -1.659145704911215e-18
 1.084047012279539e-01  1.866603202820523e-02 -2.120977666413274e-18
 1.089590605775674e-01 -1.509712284026107e-02 -1.783939001219826e-18
 1.088237476735440e-01  1.604343922869218e-02 -2.101488909467313e-18
 1.093090946434614e-01 -1.230942030425179e-02 -1.818810905822938e-18
 1.081743702209904e-01  1.995759572924630e-02 -2.130148999235579e-18
 7.769903738820527e-02 -7.786436661879559e-02 -5.827189719823273e-19
 1.088828294998833e-01 -1.563743713334353e-02 -1.777030845180046e-18
 1.058371801429723e-01  2.997484444303174e-02 -2.191479505449782e-18
 1.099152240655261e-01  4.317814102658948e-03 -2.000436495237540e-18
 1.098435517364548e-01 -5.864651901067999e-03 -1.894539861458665e-18
 1.098435517364548e-01 -5.864651901067999e-03 -1.894539861458665e-18
 1.099162414019164e-01  4.291838309578854e-03 -2.000187708114494e-18
 1.099196554564473e-01 -4.203491921704201e-03 -1.912962033271721e-18
 1.084580129116707e-01  1.835373082650492e-02 -2.118717630020129e-18
 1.097052024704993e-01 -8.047891084419851e-03 -1.869645781741512e-18
 1.060590558549712e-01  2.918007318620093e-02 -2.187262062461493e-18
 9.240654009208646e-02 -5.967437765246943e-02 -1.031352055067673e-18
 1.090125890639696e-01  1.470562564361089e-02 -2.091104018670858e-18
 1.077567204939518e-01 -2.210179151988062e-02 -1.690571499141711e-18
 1.081056177906264e-01 -2.032671646151782e-02 -1.715018794106399e-18
 1.070887924292338e-01  2.513942195135762e-02 -2.164071229529925e-18
 1.099645965835701e-01 -2.790608932224029e-03 -1.928278673693456e-18
 1.099645965835701e-01 -2.790608932224029e-03 -1.928278673693456e-18
 1.099458511594081e-01  3.451059668162086e-03 -1.992075953959166e-18
 1.099203504711984e-01 -4.185278042000589e-03 -1.913161542885630e-18
 1.099204502903120e-01  4.182655612762951e-03 -1.999140797757209e-18
 1.097844878983850e-01  6.882311885498827e-03 -2.024459172305395e-18
 1.092559609750961e-01  1.277243091224963e-02 -2.075572238543576e-18
 7.511268797388600e-02 -8.036220570229247e-02 -5.110274098559316e-19
 1.097983137798696e-01 -6.658099661105705e-03 -1.885582410561968e-18
 1.022749809251066e-01  4.049479320565791e-02 -2.236174573161868e-18
 1.065076396245461e-01 -2.749768538636932e-02 -1.612901765809007e-18
 1.094990417362280e-01  1.048617465273774e-02 -2.056407698110265e-18
 1.098954769653362e-01  4.794177985971625e-03 -2.004979537886112e-18
 1.094935212826918e-01 -1.054366146633290e-02 -1.840235528469962e-18
 1.094935212826918e-01 -1.054366146633290e-02 -1.840235528469962e-18
 1.099964228493935e-01 -8.871078498978194e-04 -1.948402842190850e-18
 1.099964228493935e-01 -8.871078498978194e-04 -1.948402842190850e-18
 1.099646636734427e-01  2.787963985878980e-03 -1.985597677835056e-18
 2.396818192056775e-02 -1.073570037557983e-01  6.765118262986250e-19
 6.964412141413505e-02 -8.514514873117053e-02 -3.645647426677291e-19
 2.806086413556383e-02  1.063606501670865e-01 -1.592193592182943e-18
 9.891854044354154e-02 -4.811571839346647e-02 -1.266001894072470e-18
 1.093890366933521e-01  1.157750626432109e-02 -2.065663063012936e-18
 7.815349050096542e-03 -1.097220138314326e-01  9.882703744116867e-19
 1.073996146185704e-01  2.377651740231286e-02 -2.155599332014162e-18
 1.098052148809786e-01  6.543300768115989e-03 -2.021344817606637e-18
 1.099997042638867e-01 -2.550722591330883e-04 -1.954955174970599e-18
 1.099628529888954e-01 -2.858489556131501e-03 -1.927550195594828e-18
 1.099628529888954e-01 -2.858489556131501e-03 -1.927550195594828e-18
 1.099073460996147e-01  4.513897798957864e-03 -2.002310986184833e-18
 1.087306938203269e-01 -1.666241943267142e-02 -1.763792088509534e-18
 1.099716278624231e-01  2.498212418640921e-03 -1.982744521790246e-18
 1.099980585741512e-01 -6.535364699213750e-04 -1.950831812943524e-18
 1.098152808069330e-01  6.372134751743814e-03 -2.019765284127567e-18
 2.149645672168631e-02  1.078791098795897e-01 -1.490973753877313e-18
 1.070647490883318e-01 -2.524162242512324e-02 -1.645996420624860e-18
 1.041077038890751e-01 -3.551881178959367e-02 -1.487777886702344e-18
 1.096968736934204e-01 -8.160631218826514e-03 -1.868339197292712e-18
 1.099843691897987e-01 -1.854328428834519e-03 -1.938250492855273e-18
 1.099843691897987e-01 -1.854328428834519e-03 -1.938250492855273e-18
 1.099741774943277e-01  2.383334732267118e-03 -1.981609569035591e-18
 1.097074695059284e-01 -8.016928003026304e-03 -1.870004260754507e-18
 1.091695298918678e-01  1.349124691007093e-02 -2.081419667571091e-18
 1.098830656021851e-01 -5.070689683445951e-03 -1.903400731195450e-18
 1.098491859621203e-01  5.758154518544171e-03 -2.014060242953016e-18
 9.744084777597226e-02  5.104195514182157e-02 -2.258513664821645e-18
 1.093793165825049e-01 -1.166898041579064e-02 -1.826640876192395e-18
 1.087623718803636e-01 -1.645437519194845e-02 -1.766493416371745e-18
 1.090862314546897e-01  1.414899667869818e-02 -2.086695412450471e-18
 1.099446746867466e-01  3.488338863328174e-03 -1.992438047412671e-18
 1.099446746867466e-01  3.488338863328174e-03 -1.992438047412671e-18
 1.093888447497672e-01  1.157931968257389e-02 -2.065678279361669e-18
 1.080357952477988e-01 -2.069461150095908e-02 -1.709996230784940e-18
 1.052327800697741e-01  3.203220252787015e-02 -2.201862092134994e-18
 8.988712461504292e-02 -6.340587376923108e-02 -9.481762843323617e-19
 1.072634755324941e-01  2.438333071362418e-02 -2.159411360920632e-18
 1.099116001597758e-01 -4.409098583326350e-03 -1.910706145901606e-18
 1.097746829608964e-01 -7.036972419628811e-03 -1.881269091990305e-18
 1.086048978884462e-01  1.746356649256138e-02 -2.112185508232601e-18
 1.096383485661001e-01  8.912492563713752e-03 -2.042717817528079e-18
 1.098606565181165e-01 -5.534993171481192e-03 -1.898231385142561e-18
 1.098606565181165e-01 -5.534993171481192e-03 -1.898231385142561e-18
 1.097270117993072e-01 -7.744861625272580e-03 -1.873147422373547e-18
 1.099015085559557e-01 -4.653860453980446e-03 -1.908011714467952e-18
 1.071804296330725e-01 -2.474581790262617e-02 -1.653149305264303e-18
 1.051971355048875e-01  3.214906968430432e-02 -2.202428522162323e-18
 1.099348132752671e-01 -3.786400682981798e-03 -1.917517245699056e-18
 9.814944733097521e-02  4.966574260618724e-02 -2.256983955286135e-18
 9.752641132979913e-02 -5.087827722251172e-02 -1.212843007491992e-18
 1.099936473638926e-01 -1.182175785394233e-03 -1.945321733268170e-18
 1.095213830401473e-01  1.025020277717772e-02 -2.054380762963645e-18
 1.099949555804689e-01  1.053445229041034e-03 -1.968315208328700e-18
 1.099949555804689e-01  1.053445229041034e-03 -1.968315208328700e-18
 1.099701220691081e-01  2.563640400951730e-03 -1.983389973152156e-18
 1.099936983409173e-01  1.177423155545267e-03 -1.969566662408380e-18
 1.099994878915436e-01 -3.356539856526055e-04 -1.954123376399706e-18
 1.099244825680937e-01 -4.075307612537296e-03 -1.914364984692444e-18
 1.095573512815397e-01  9.858335568098588e-03 -2.050994567504571e-18
 1.058482079008064e-01 -2.993587954591598e-02 -1.576114832423389e-18
 1.099083230019362e-01  4.490048429803961e-03 -2.002083327722674e-18
 1.095362264130601e-01 -1.009034703004683e-02 -1.845653158362039e-18
 1.099257966319925e-01  4.039707269316483e-03 -1.997767199984899e-18
 1.058062096972398e-01 -3.008398227468633e-02 -1.573845722557027e-18
 1.099987346803785e-01 -5.276065917302400e-04 -1.952137728812011e-18
 1.094567423901943e-01 -1.091886190619613e-02 -1.835725955986526e-18
 1.098235629837989e-01  6.227761519475737e-03 -2.018429292829353e-18
 1.092651507749247e-01 -1.269357420638077e-02 -1.814081830471950e-18
 1.096931139069858e-01  8.211014638213715e-03 -2.036485001237988e-18
 1.073440991541247e-01 -2.402591052987117e-02 -1.663458786356768e-18
 1.092690268942599e-01  1.266016435838959e-02 -2.074651264103008e-18
-1.099059371764527e-02 -1.094495630403958e-01  1.320145225599886e-18
 1.091453844543999e-01  1.368521290667988e-02 -2.082982900862480e-18
 1.093857064267845e-01 -1.160892887019522e-02 -1.827371598909415e-18
 1.085899751342567e-01  1.755611860125793e-02 -2.112870879316614e-18
 1.079347214954663e-01 -2.121546359842390e-02 -1.702845936706289e-18
 1.086102769542895e-01  1.743008146603034e-02 -2.111937188642213e-18
 1.099995660074635e-01  3.089954200545939e-04 -1.960748305026603e-18
 1.099086256906890e-01  4.482633019103894e-03 -2.002012523778953e-18
 1.099086256906890e-01  4.482633019103894e-03 -2.002012523778953e-18
 1.096245596783979e-01  9.080523956099649e-03 -2.044198889339197e-18
 1.099552529389016e-01 -3.137252164252311e-03 -1.924550759107573e-18
 1.092789679478315e-01  1.257406713266401e-02 -2.073943559291766e-18
 1.082208705561862e-01 -1.970388733375029e-02 -1.723469197579788e-18
 1.096059332175544e-01  9.302655723444768e-03 -2.046149732465384e-18
 1.099359878731266e-01 -3.752142102810350e-03 -1.917890143535175e-18
 1.097369685406094e-01  7.602482194470427e-03 -2.031012996958013e-18
 1.097369685406094e-01  7.602482194470427e-03 -2.031012996958013e-18
 1.099958877868371e-01  9.511414119224789e-04 -1.967280663496159e-18
 1.075827723297250e-01 -2.293353653169276e-02 -1.678930006219252e-18
 1.072414785675102e-01  2.447989531542546e-02 -2.160012064894159e-18
 1.099566122536367e-01 -3.089242901315470e-03 -1.925068227471015e-18
 1.099064592325118e-01 -4.535440328363184e-03 -1.909316541434717e-18
 1.098502253176328e-01 -5.738292225500801e-03 -1.895956925559856e-18
 8.714504618331374e-02  6.712481601991947e-02 -2.240533147282008e-18
 1.095006163228696e-01 -1.046971942850602e-02 -1.841121520750836e-18
 1.099015648913216e-01 -4.652529896578704e-03 -1.908026388016937e-18
 1.096436762269970e-01 -8.846709186436982e-03 -1.860343283036805e-18
 1.096436762269970e-01 -8.846709186436982e-03 -1.860343283036805e-18
 1.093747116100183e-01 -1.171206472938287e-02 -1.826116249543126e-18
 1.098586423938700e-01 -5.574826578085321e-03 -1.897786267616540e-18
 1.047113290201174e-01 -3.369773842323320e-02 -1.517230983234770e-18
 1.099873314882138e-01  1.669404714772177e-03 -1.974508288468071e-18
 1.091207783252904e-01 -1.388004818733510e-02 -1.799321961374823e-18
 1.099919148764036e-01 -1.333664808680946e-03 -1.943734406904083e-18
 1.055454868695602e-01  3.098629054061519e-02 -2.196680716928272e-18
 9.977878615268962e-02 -4.630544065113485e-02 -1.299910938785239e-18
 1.075365146901036e-01  2.314947101566381e-02 -2.151592958252637e-18
 1.094839702238728e-01 -1.064238056160651e-02 -1.839051253143253e-18
 1.097254304979988e-01  7.767232584952865e-03 -2.032500414139778e-18
 1.098323095676085e-01 -6.071554582225566e-03 -1.892213943766841e-18
 1.098793552491377e-01  5.150465030821935e-03 -2.008353352672608e-18
 1.099486588186029e-01 -3.360420210388248e-03 -1.922140438267638e-18
 1.097100466976697e-01  7.981582148613534e-03 -2.034429004961999e-18
 1.099024580472237e-01 -4.631383721759036e-03 -1.908259552056079e-18
 1.099977197382951e-01  7.082742233150168e-04 -1.964817893121358e-18
 1.096596376020068e-01 -8.646610954384515e-03 -1.862683271388886e-18
 1.099765401432461e-01  2.271699390525765e-03 -1.980504602608902e-18
 1.082560308245948e-01 -1.950978703380208e-02 -1.726089226567678e-18
 1.098711707596039e-01  5.322202167702402e-03 -2.009972236612791e-18
 3.736219884165339e-02 -1.034604566861981e-01  3.981137125903148e-19
 9.194935284078828e-02  6.037645660487333e-02 -2.256694573532837e-18
 1.097559549660232e-01  7.323274506408054e-03 -2.028482125479419e-18
 1.007719896334323e-01  4.410222336027216e-02 -2.246492084655927e-18
 1.078026302526861e-01  2.187676645673634e-02 -2.143252225117164e-18
 8.169633913841816e-02  7.365940653698271e-02 -2.210707449697776e-18
 7.827676267372639e-02 -7.728355857050734e-02 -5.989678742790272e-19
 8.591368110045546e-02  6.869380903523382e-02 -2.234740370069108e-18
 9.808470801825332e-02 -4.979347399985179e-02 -1.233924522058233e-18
 1.099139159049532e-01  4.350987294719039e-03 -2.000754057457259e-18
 1.099821065510108e-01  1.983995615425625e-03 -1.977647611700338e-18
 1.056938082665160e-01  3.047653021787217e-02 -2.194082670976449e-18
 1.099792401196356e-01 -2.136993848252115e-03 -1.935254930433302e-18
 1.099303214904604e-01  3.914641363387386e-03 -1.996562718488233e-18
 1.099999801522938e-01 -6.607945893536314e-05 -1.956901917100238e-18
 1.099999801522938e-01 -6.607945893536314e-05 -1.956901917100238e-18
 1.099737549059130e-01  2.402755063276600e-03 -1.981801585416941e-18
 1.099982828868649e-01  6.146234141021715e-04 -1.963865686977907e-18
 1.099827181188575e-01 -1.949798755734269e-03 -1.937240187151154e-18
 1.099982828868649e-01  6.146234141137717e-04 -1.963865686978026e-18
 1.098881159975070e-01  4.960036544057135e-03 -2.006552677115760e-18
 1.093179059541416e-01  1.223092137990336e-02 -2.071110809606426e-18
 1.074156049002151e-01  2.370417313303295e-02 -2.155140587063684e-18
 1.099686510607874e-01  2.625982458188623e-03 -1.984004336795427e-18
 9.387567910846378e-02 -5.733547655618348e-02 -1.081528495424929e-18
 1.032070024065588e-01 -3.805672942138467e-02 -1.445672647711688e-18
 1.099856352565909e-01  1.777649347893200e-03 -1.975590276286139e-18
 1.068091183016692e-01 -2.630232399655890e-02 -1.630548842524846e-18
 1.096125372952266e-01 -9.224514496844177e-03 -1.855907316283533e-18
 9.599036365835913e-02 -5.372010875580852e-02 -1.156308420266340e-18
 6.857714703277844e-02  8.600683057085998e-02 -2.104101073520682e-18
 1.099650643403983e-01  2.772115548097058e-03 -1.985441971240539e-18
 1.072030852400171e-01  2.464748496341087e-02 -2.161050732586717e-18
 1.099975056734876e-01  7.407736570628951e-04 -1.965148003458404e-18
 1.091675620617934e-01  1.350716082248330e-02 -2.081548157356570e-18
 1.099910116242561e-01 -1.406186997764965e-03 -1.942973193307082e-18
 1.099590581156608e-01  3.000922910815395e-03 -1.987685995839602e-18
 1.087136357584080e-01  1.677335387416955e-02 -2.107028944416355e-18
 1.098638222994097e-01 -5.471795844477941e-03 -1.898937053574128e-18
 9.955719894305438e-02  4.677995445287454e-02 -2.252386149499122e-18
 1.083056944085630e-01 -1.923217508964866e-02 -1.729825411162944e-18
 9.550140326640440e-02  5.458463129991382e-02 -2.260398646892058e-18
 1.087648396099480e-01 -1.643805537836537e-02 -1.766705012719357e-18
 9.729994169960182e-02  5.131005111334436e-02 -2.258760661829568e-18
 1.061437753456071e-01 -2.887038197497937e-02 -1.592322408145764e-18
 9.655500578739055e-02  5.269849008649968e-02 -2.259769344748991e-18
 9.651892125678632e-02 -5.276455097341597e-02 -1.175532742303909e-18
 4.433240258517410e-02  1.006709396053597e-01 -1.823305319175009e-18
 7.758065138188956e-02 -7.798232191440341e-02 -5.794002039714195e-19
 1.094784270560455e-01 -1.069925274652605e-02 -1.838368264819630e-18
 1.088735060390348e-01 -1.570221903961932e-02 -1.776199312519254e-18
 1.095528616258927e-01 -9.908103228062596e-03 -1.847821690679015e-18
 3.147491098642634e-02  1.054008063460449e-01 -1.643088581739184e-18
 1.053562596560722e-01 -3.162370236519172e-02 -1.550018260261004e-18
 7.824057237706253e-02  7.732019680594175e-02 -2.186821248144646e-18
 8.893112621231362e-02 -6.473990107043309e-02 -9.174565064937887e-19
 1.093487688937221e-01  1.195185096239453e-02 -2.068792705269316e-18
 1.030911830439904e-01 -3.836936249913985e-02 -1.440399312697180e-18
 1.073731182919509e-01  2.389588810366011e-02 -2.156354288868382e-18
 1.039455196894824e-01 -3.599067846656052e-02 -1.480043366720129e-18
 1.091428617808620e-01  1.370531729963131e-02 -2.083144572211942e-18
 1.094238114314828e-01 -1.124408697081384e-02 -1.831798340900816e-18
 1.093839673521058e-01  1.162530370843629e-02 -2.066063949413365e-18
 9.588323768719573e-02 -5.391108170516204e-02 -1.152439808145415e-18
 1.092707178630431e-01  1.264556118545815e-02 -2.074531314612611e-18
 1.099976063192198e-01  7.256748871679747e-04 -1.964994660193545e-18
 1.099868065399994e-01  1.703639378708569e-03 -1.974850695123885e-18
 1.099449163033641e-01  3.480715306682363e-03 -1.992364017993477e-18
 1.099449163033641e-01  3.480715306682363e-03 -1.992364017993477e-18
 1.073552280443311e-01  2.397613420778236e-02 -2.156860410140466e-18
 1.097723543598202e-01 -7.073204245743002e-03 -1.880855382905163e-18
 1.082269631608267e-01  1.967039514054024e-02 -2.128134071617912e-18
 1.091896149014215e-01 -1.332771539609114e-02 -1.806222009141618e-18
 1.064690621966264e-01  2.764667782882464e-02 -2.178803534126215e-18
 1.099733103695699e-01 -2.423015963254267e-03 -1.932210630129639e-18
 9.957743752893641e-02  4.673685842213501e-02 -2.252303523216060e-18
 4.912890662759803e-02 -9.841925895665281e-02  1.369146363543975e-19
 1.099964218566401e-01 -8.872309372376001e-04 -1.948401559845917e-18
 1.066188690873264e-01 -2.706319926652202e-02 -1.619345413823523e-18
 1.094238559398532e-01  1.124365382134219e-02 -2.062852500465773e-18
 1.078022599275734e-01 -2.187859123681959e-02 -1.693675229510572e-18
 1.099947950072619e-01  1.070080048571689e-03 -1.968483267464665e-18
 1.087951221771587e-01 -1.623642172576904e-02 -1.769315639657905e-18
 1.099174876504912e-01 -4.259801474721896e-03 -1.912344894377274e-18
 1.098132366264651e-01 -6.407266314107958e-03 -1.888425201937561e-18
 1.098132366264651e-01 -6.407266314107958e-03 -1.888425201937561e-18
 1.088436269507085e-01 -1.590801283048626e-02 -1.773553122059270e-18
 1.099977538155652e-01  7.029619692705813e-04 -1.964763918086511e-18
 1.094101291833601e-01 -1.137645076816066e-02 -1.830194859040946e-18
 1.099265961167842e-01  4.017893251111896e-03 -1.997557296657785e-18
 1.097956184916468e-01  6.702399573040145e-03 -2.022808720836032e-18
 1.097956184916468e-01  6.702399573040145e-03 -2.022808720836032e-18
 1.044260260319171e-01 -3.457173827248647e-02 -1.503173645286128e-18
 1.098347799819829e-01  6.026699454040095e-03 -2.016563073009912e-18
 1.068997940215006e-01 -2.593133313504509e-02 -1.635974321452827e-18
 1.096919755598499e-01  8.226207982856431e-03 -2.036620849089730e-18
 9.688943190159699e-02 -5.208107128108768e-02 -1.189148926739430e-18
-6.590565960987620e-03  1.098023881357495e-01 -1.010892667235701e-18
 1.036125831731757e-01 -3.693822692254847e-02 -1.464382648103413e-18
 1.044334202744920e-01  3.454939550514966e-02 -2.213499774484298e-18
 1.089402100124239e-01 -1.523255206618061e-02 -1.782212046828577e-18
 1.092233523344758e-01  1.304834490726288e-02 -2.077826844953829e-18
 1.099060603515584e-01 -4.545096038536482e-03 -1.909210233957963e-18
 1.099889358582518e-01  1.560124600568829e-03 -1.973414026671564e-18
 1.099889358582518e-01  1.560124600568829e-03 -1.973414026671564e-18
 1.081406867953986e-01 -2.013931129456572e-02 -1.717568408889633e-18
 1.090214188748155e-01  1.464002139759193e-02 -2.090587095891744e-18
 1.099929076923617e-01  1.249102629703138e-03 -1.970289072432080e-18
 1.093268644945073e-01  1.215058433984033e-02 -2.070444803615870e-18
 1.094030170256806e-01 -1.144464353654452e-02 -1.829367633788692e-18
 1.093515874030808e-01  1.192603590579417e-02 -2.068577623676700e-18
 7.814940326814133e-02 -7.741234248382713e-02 -5.953781538109999e-19
 1.076477223523782e-01  2.262670705925245e-02 -2.148200821509203e-18
 1.099892287935437e-01 -1.539334077264154e-03 -1.941573427834594e-18
 1.099997840418007e-01 -2.179696243267351e-04 -1.955337810808048e-18
 1.099933343250049e-01 -1.210951719779254e-03 -1.945020500095426e-18
 1.099933343250049e-01 -1.210951719779254e-03 -1.945020500095426e-18
 1.099303981056249e-01  3.912489276502676e-03 -1.996541970035526e-18
 1.099420950175689e-01  3.568717297263408e-03 -1.993217998332009e-18
 1.097762984941410e-01  7.011725103367116e-03 -2.025643105889668e-18
 1.098838151122003e-01  5.054421469140905e-03 -2.007445908549334e-18
 1.097048365752146e-01  8.052877250112769e-03 -2.035068815886482e-18
 1.099134991546738e-01 -4.361502444736005e-03 -1.911228973814717e-18
 1.098543687908722e-01  5.658414756712355e-03 -2.013127687752742e-18
 1.072612599912489e-01  2.439307494125418e-02 -2.159472051120478e-18
 1.098331181632281e-01 -6.056909652809341e-03 -1.892378805020087e-18
 1.077947939566260e-01  2.191534612659477e-02 -2.143509160974207e-18
 1.099948511447993e-01 -1.064293960033967e-03 -1.946554348917804e-18
 1.086752606430552e-01  1.702021516209294e-02 -2.108882423518915e-18
 1.067719370978540e-01  2.645285331248488e-02 -2.171927441052781e-18
-3.537697301668865e-02 -1.041559877307897e-01  1.699740371051081e-18
 1.078096012250346e-01 -2.184238731684171e-02 -1.694177858781836e-18
 1.091750979747669e-01  1.344611401855435e-02 -2.081055034183289e-18
 1.040568704857082e-01 -3.566746002619858e-02 -1.485345939021694e-18
 1.074291841146619e-01  2.364255486316964e-02 -2.154749140043951e-18
 1.086968170098759e-01 -1.688200141930733e-02 -1.760933085113017e-18
 1.077054481750891e-01  2.235031170706839e-02 -2.146388259545044e-18
 4.580893665427258e-02 -1.000077063160873e-01  2.123181818138885e-19
 1.079688524771535e-01  2.104107636901224e-02 -2.137623935809584e-18
 1.098463710780337e-01 -5.811605715019715e-03 -1.895135065296576e-18
 1.099752441696295e-01 -2.333595901242255e-03 -1.933163803061840e-18
 1.099947656001058e-01 -1.073098587133213e-03 -1.946462362202966e-18
 1.099947656001058e-01 -1.073098587133213e-03 -1.946462362202966e-18
 1.099486050682759e-01  3.362178392088057e-03 -1.991211740228819e-18
 1.098939757185395e-01  4.828467745877689e-03 -2.005305136235155e-18
 1.099168860239562e-01  4.275297275810067e-03 -2.000029226819537e-18
 1.096507669053886e-01  8.758385528170959e-03 -2.041355422881330e-18
 1.099988922232267e-01  4.936695887870433e-04 -1.962633774229264e-18
 1.081701107192771e-01  1.998066933261441e-02 -2.130310269214298e-18
 1.099895610717320e-01 -1.515405967936757e-03 -1.941825193752251e-18
 1.065104648597070e-01  2.748673999165884e-02 -2.177897040726587e-18
 1.099669506537348e-01  2.696249973386456e-03 -1.984696049216083e-18
 1.060302356404016e-01  2.928462275735915e-02 -2.187823381229009e-18
 1.097183857811001e-01 -7.866118584767476e-03 -1.871748040880445e-18
 1.099552359953467e-01 -3.137845950257879e-03 -1.924544356641300e-18
 1.099999327221452e-01 -1.216598678716598e-04 -1.956330004513123e-18
 1.073712821304101e-01 -2.390413716643640e-02 -1.665193716917302e-18
 1.099767970991767e-01  2.259225488179516e-03 -1.980381010631001e-18
 1.039296111006169e-01 -3.603659163231801e-02 -1.479288513305599e-18
 1.026912496778318e-01  3.942723981722718e-02 -2.232613848905486e-18
 7.587399862923645e-02 -7.964380912544650e-02 -5.319571049462478e-19
 1.099001615227198e-01 -4.685562642843847e-03 -1.907662013930649e-18
 1.097915520397999e-01 -6.768685300103645e-03 -1.884325850063631e-18
 1.087336766050704e-01  1.664294360814460e-02 -2.106045677079219e-18
 1.088456368610911e-01 -1.589425482063918e-02 -1.773730249365323e-18
 1.088456368610911e-01 -1.589425482063918e-02 -1.773730249365323e-18
 1.094520340630928e-01  1.096595820945403e-02 -2.060500742247639e-18
 1.099970990607295e-01 -7.988730963011799e-04 -1.949321456218227e-18
 1.099525351403408e-01  3.231101393031443e-03 -1.989934912000397e-18
 1.099930279280314e-01 -1.238469710259858e-03 -1.944732310040112e-18
 1.084872478111903e-01  1.818012822708712e-02 -2.117454196285578e-18
 7.310738443025259e-02 -8.219069498287010e-02 -4.565535781643220e-19
 1.094825078192811e-01  1.065741439566732e-02 -2.057872883487918e-18
 9.818518179850308e-02 -4.959506099597846e-02 -1.237751194364261e-18
 1.099838841041159e-01  1.882880073804959e-03 -1.976640319920421e-18
 1.091803342880590e-01 -1.340352956305229e-02 -1.805277886532112e-18
 1.098085514369020e-01  6.487066465604429e-03 -2.020826408569291e-18
 1.099230883555385e-01 -4.112741954024847e-03 -1.913955548756992e-18
 1.099230883555385e-01 -4.112741954024847e-03 -1.913955548756992e-18
 1.099885624663774e-01 -1.586230304758554e-03 -1.941079728046401e-18
 1.098688176564721e-01  5.370559260338277e-03 -2.010427211895761e-18
 1.098360766380414e-01  6.003021635993571e-03 -2.016342867572227e-18
 1.071168823459702e-01 -2.501946275361471e-02 -1.649206804051821e-18
 1.088853039138608e-01  1.562019819291996e-02 -2.098235728299512e-18
-3.023524291813606e-02 -1.057630847019943e-01  1.624749488236359e-18
 1.028154827989227e-01  3.910212905743561e-02 -2.231484330532527e-18
 1.048900709345286e-01 -3.313718484345760e-02 -1.526171393211879e-18
 1.097879646413003e-01  6.826625807859657e-03 -2.023948890874200e-18
 1.090829802218692e-01 -1.417404056418714e-02 -1.795628634164112e-18
 1.091915522245295e-01  1.331183393818373e-02 -2.079968178139462e-18
 1.099987498867269e-01 -5.244266938429321e-04 -1.952170671722747e-18
 1.099987498867269e-01 -5.244266938429321e-04 -1.952170671722747e-18
 1.099742375647356e-01 -2.380561289910559e-03 -1.932663337019649e-18
 1.094541549073629e-01 -1.094476923077561e-02 -1.835413720294418e-18
 1.022727242180491e-01 -4.050049235526416e-02 -1.403937276503462e-18
 1.087556940809791e-01  1.649845462352212e-02 -2.104952932498135e-18
 1.087556940809791e-01  1.649845462352212e-02 -2.104952932498135e-18
 1.099636187806066e-01  2.828876927928047e-03 -1.985999448337694e-18
 1.094068202220198e-01  1.140822899956664e-02 -2.064240279716783e-18
 1.099008408190687e-01 -4.669602473619742e-03 -1.907838087760377e-18
 1.097773980708402e-01  6.994488744449303e-03 -2.025485576842249e-18
 1.094924683906019e-01 -1.055458979463287e-02 -1.840104506395954e-18
 1.055514150692397e-01  3.096609075878004e-02 -2.196578670892629e-18
 1.077396775310364e-01 -2.218472189386679e-02 -1.689416119820578e-18
 1.094445760983005e-01  1.104014323563033e-02 -2.061130243062637e-18
 1.083155921268074e-01 -1.917635268290104e-02 -1.730575107816178e-18
 5.081832982877835e-02  9.755766168483858e-02 -1.906742331500615e-18
 8.860717400414565e-02 -6.518257984307604e-02 -9.071430269489069e-19
 9.802689632487553e-02  4.990718983184717e-02 -2.257283796481234e-18
 1.099996349192135e-01  2.834036691066825e-04 -1.960486585449159e-18
 1.090582603603760e-01  1.436300272117100e-02 -2.088396467806157e-18
-2.067103277757500e-02 -1.080403091624064e-01  1.477940614262376e-18
 1.039606997491366e-01  3.594680664078233e-02 -2.219445040633216e-18
 1.093977607173296e-01  1.149477925120025e-02 -2.064968327418552e-18
 1.098796898499471e-01  5.143321735936544e-03 -2.008285912533145e-18
 4.895276866065696e-02  9.850698675960062e-02 -1.883296415472474e-18
 1.082428756081882e-01 -1.958264231584260e-02 -1.725106552242890e-18
 1.094868109076560e-01  1.061311628463157e-02 -2.057494315079805e-18
 1.088800590879310e-01 -1.565671526880947e-02 -1.776783466555972e-18
 1.069855713570898e-01  2.557513482656461e-02 -2.166711078935280e-18
 1.099962781891643e-01  9.048671349518344e-04 -1.966812159785509e-18
 1.090319066091519e-01  1.456170804449474e-02 -2.089969096380414e-18
 1.093611849362342e-01 -1.183770371916429e-02 -1.824584631268990e-18
 1.095064746331284e-01  1.040826659074074e-02 -2.055739498341643e-18
 1.096812893440698e-01 -8.367482764987492e-03 -1.865936530712787e-18
 1.061101300289966e-01  2.899379770277364e-02 -2.186257075388104e-18
 1.095768690446645e-01 -9.638971437262840e-03 -1.851014162715720e-18
 1.091234888991020e-01  1.385872182012117e-02 -2.084375984392764e-18
 1.099739871726930e-01 -2.392100612493513e-03 -1.932540318646937e-18
 1.096449493068159e-01  8.830916798707360e-03 -2.041997124231471e-18
 1.099259266281063e-01  4.036168350319868e-03 -1.997733152313707e-18
 1.099259266281063e-01  4.036168350319868e-03 -1.997733152313707e-18
 1.090106771864008e-01  1.471979141707656e-02 -2.091215542705289e-18
 1.099163511423002e-01 -4.289026878264921e-03 -1.912024388453689e-18
 1.071691360595459e-01  2.479468241882694e-02 -2.161958966805952e-18
 1.098276168647728e-01 -6.155856870054560e-03 -1.891264256139393e-18
 1.019128200582599e-01  4.139779109774648e-02 -2.239007463843077e-18
-3.481319049059455e-03 -1.099448971879941e-01  1.191598103911159e-18
 9.451492971425766e-02  5.627546588975390e-02 -2.260215884502049e-18
 1.099553399915009e-01 -3.134199635212402e-03 -1.924583671939407e-18
 1.062114618599722e-01  2.862036634230238e-02 -2.184223524621404e-18
 8.477109399927280e-02 -7.009894166224180e-02 -7.883615757022409e-19
 8.926650605609429e-02  6.427667459146595e-02 -2.249023437758154e-18
 1.097992488535976e-01 -6.642661453489049e-03 -1.885757673289355e-18
 1.099702003684518e-01  2.560279461794526e-03 -1.983356834153470e-18
 1.058360867980071e-01 -2.997870462986406e-02 -1.575459110760064e-18
 1.079115156404174e-01 -2.133318523305690e-02 -1.701223413803801e-18
 1.098496698830375e-01 -5.748915253128229e-03 -1.895837893188856e-18
 1.098496698830375e-01 -5.748915253128229e-03 -1.895837893188856e-18
 1.093104580413782e-01 -1.229730713546935e-02 -1.818959627524058e-18
 7.265851495021138e-03  1.097597713283526e-01 -1.257046272183882e-18
 1.099816483786134e-01  2.009233665608601e-03 -1.977898769773365e-18
 1.099895331745667e-01  1.517429418738635e-03 -1.972985979144528e-18
 1.065072122234915e-01  2.749934079901007e-02 -2.177968624903270e-18
 1.065072122234915e-01  2.749934079901007e-02 -2.177968624903270e-18
 1.062775261384525e-01 -2.837406276673293e-02 -1.599802162614308e-18
 1.010985778630264e-01 -4.334832815776811e-02 -1.353781463210050e-18
 9.034186822156742e-02  6.275624945961093e-02 -2.252538974328389e-18
 1.029434521291763e-01 -3.876397378659657e-02 -1.433715777220643e-18
 1.073266566828962e-01  2.410370853772722e-02 -2.157662728578650e-18
 1.066111098261510e-01 -2.709374949386543e-02 -1.618893436027395e-18
 4.378693426706144e-02  1.009093870137561e-01 -1.816048020296170e-18
 9.127612249977535e-02 -6.138948982852001e-02 -9.936127710439349e-19
 1.094198700686869e-01  1.128237714985813e-02 -2.063179435267271e-18
 1.030279590534966e-01 -3.853880710752449e-02 -1.437533184573273e-18
-1.930187616826695e-02  1.082932942355382e-01 -7.691743478835386e-19
 1.058888187264249e-01 -2.979191280737575e-02 -1.578316756447114e-18
 1.099648395639227e-01  2.781017741890114e-03 -1.985529437882344e-18
 1.078622288617305e-01 -2.158100055557320e-02 -1.697800084371044e-18
 1.079239549728777e-01  2.127016556146717e-02 -2.139178739396230e-18
 1.084687065567467e-01 -1.829042640034212e-02 -1.742402532460027e-18
 1.097971830076539e-01  6.676721020360898e-03 -2.022572725464107e-18
 1.075140424523522e-01 -2.325361639732136e-02 -1.674418171723978e-18
 1.094742738061945e-01  1.074166535535042e-02 -2.058591997407931e-18
 1.097934152272457e-01 -6.738395412676244e-03 -1.884670225296585e-18
 1.076879848333215e-01  2.243430236352987e-02 -2.146940452030996e-18
 1.098182802777667e-01 -6.320230757958245e-03 -1.889409218450665e-18
 1.097099807419382e-01  7.982488684833613e-03 -2.034437145531426e-18
 1.096083765798072e-01 -9.273822488011181e-03 -1.855326649692508e-18
 1.096374192390801e-01  8.923917446623133e-03 -2.042818665566778e-18
 1.099903830671210e-01 -1.454521484179790e-03 -1.942465388093719e-18
 1.098339025334534e-01  6.042669465709599e-03 -2.016711543835124e-18
 1.099981240037789e-01 -6.424294897099933e-04 -1.950947097528618e-18
 1.099741052627304e-01  2.386665385398457e-03 -1.981642504839149e-18
 1.099962949473969e-01 -9.028276940984772e-04 -1.948239050333662e-18
 1.099999981192384e-01 -2.034127622423557e-05 -1.957372180055430e-18
 1.099493451285089e-01 -3.337889424772936e-03 -1.922384147608481e-18
 1.093206065895740e-01 -1.220675939336660e-02 -1.820070578201527e-18
 1.092271466243834e-01  1.301654486779847e-02 -2.077567635015277e-18
 1.099184245803640e-01  4.235556370867945e-03 -1.999648283904524e-18
 1.026841945923221e-01 -3.944561041391161e-02 -1.422098411372195e-18
 1.098952208983750e-01 -4.800044134936259e-03 -1.906397833883649e-18
 1.085043266254757e-01  1.807791756680082e-02 -2.116707956753907e-18
 1.099998016020250e-01  2.089198772371843e-04 -1.959724257864990e-18
 1.098260585078192e-01  6.183597062959016e-03 -2.018019929909038e-18
 1.072823763707807e-01 -2.430003539582033e-02 -1.659543822385668e-18
 1.097485370621723e-01  7.433613704852231e-03 -2.029483810212929e-18
 1.099015203720669e-01 -4.653581406630690e-03 -1.908014791859893e-18
 1.096390769741778e-01  8.903527404926103e-03 -2.042638666668941e-18
 1.097459321322459e-01 -7.471972994091630e-03 -1.876287963819920e-18
 1.098884121593212e-01  4.953470813794783e-03 -2.006490487175216e-18
 1.098947031950774e-01 -4.811882133406706e-03 -1.906266989602054e-18
 1.090018436727443e-01  1.478506259515225e-02 -2.091728977436349e-18
 1.098785785730333e-01 -5.167007912680203e-03 -1.902331244343652e-18
 1.095023029591584e-01 -1.045206422868901e-02 -1.841332937219979e-18
 1.097047797572339e-01  8.053651247525533e-03 -2.035075757284986e-18
 1.099999837987840e-01  5.970148432573430e-05 -1.958194335493264e-18
 1.091734167363279e-01  1.345975772872740e-02 -2.081165298705469e-18
 1.098553233359101e-01 -5.639852370640358e-03 -1.897059084624539e-18
 1.089312935879594e-01  1.529618505555412e-02 -2.095725052126850e-18
 1.062068610222686e-01 -2.863743479776931e-02 -1.595838540636051e-18
 1.089947996204345e-01  1.483690182286387e-02 -2.092136249356071e-18
 1.090670561293056e-01 -1.429605775334104e-02 -1.794091563648801e-18
 1.058517680785285e-01  2.992328849991890e-02 -2.191209396577441e-18
 9.403494311502755e-02 -5.707389485004067e-02 -1.087050445404169e-18
 1.091644639625098e-01  1.353217675682167e-02 -2.081750052622025e-18
 1.088392716917173e-01 -1.593778333447030e-02 -1.773169733916717e-18
 1.088423046694471e-01  1.591705733617978e-02 -2.100520625310359e-18
 1.090110757073359e-01 -1.471683978065428e-02 -1.788771942791435e-18
 1.098388358665926e-01 -5.952321855519167e-03 -1.893555159995179e-18
 1.098388358665926e-01 -5.952321855519167e-03 -1.893555159995179e-18
 1.099580322959834e-01 -3.038278064206143e-03 -1.925617144005692e-18
 1.099583493045919e-01 -3.026783475790410e-03 -1.925740888272338e-18
 1.099769584649565e-01 -2.251356657039730e-03 -1.934039289351082e-18
 1.098078379781983e-01 -6.499132138501278e-03 -1.887385238578502e-18
 1.098684304901088e-01 -5.378473913676077e-03 -1.899977910762265e-18
 1.099943927686816e-01 -1.110657214885756e-03 -1.946069825966862e-18
 1.098928523721838e-01 -4.853967192449953e-03 -1.905801643307551e-18
 1.096429990850994e-01  8.855097493807928e-03 -2.042210865567719e-18
 1.079373946910344e-01 -2.120185905320151e-02 -1.703033291170143e-18
 1.097271316162321e-01  7.743163905926614e-03 -2.032283390634376e-18
 1.099470274665045e-01 -3.413378279603870e-03 -1.921567281488063e-18
 1.095480615568011e-01  9.961034542017910e-03 -2.051884440421080e-18
 1.099698375833724e-01 -2.575814800537642e-03 -1.930578875211132e-18
 1.099829000940194e-01  1.939506872611370e-03 -1.977204628073822e-18
 1.099998569499193e-01 -1.774006686971059e-04 -1.955755939576538e-18
 1.099988155346706e-01  5.104713209140542e-04 -1.962805041158948e-18
 1.097957635151814e-01  6.700023441624810e-03 -2.022786887815710e-18
 1.093395946370707e-01 -1.203549104112627e-02 -1.822168213258861e-18
 1.090704095529008e-01  1.427045058722574e-02 -2.087661737624477e-18
 1.099779080584398e-01 -2.204481591965828e-03 -1.934537812765096e-18
 3.880839111903622e-02  1.029267155735180e-01 -1.748176224469531e-18
 6.029871087654719e-02 -9.200035579619532e-02 -1.278172522499585e-19
 1.046071283638911e-01 -3.401982797517314e-02 -1.512067255121934e-18
 1.075620891518977e-01 -2.303034904814019e-02 -1.677567210960753e-18
 1.098926413486637e-01  4.858742369579536e-03 -2.005592450292151e-18
 1.098243496561124e-01 -6.213873398447436e-03 -1.890610013510525e-18
 1.098603676918202e-01  5.540722932797768e-03 -2.012025204614216e-18
 1.099815771651478e-01  2.013127980683689e-03 -1.977937515117501e-18
 1.099805474222853e-01 -2.068619997589138e-03 -1.935980711920655e-18
 1.099916857893912e-01  1.352426414930697e-03 -1.971328941569814e-18
 1.099236068565879e-01 -4.098860285281792e-03 -1.914107405205177e-18
 1.096938390426109e-01  8.201321606530417e-03 -2.036398313512064e-18
 1.097340942808722e-01 -7.643857164850054e-03 -1.874311247720091e-18
 1.094135885178323e-01  1.134313217988936e-02 -2.063691883439913e-18
 1.074996232058895e-01 -2.332018461744585e-02 -1.673477599753828e-18
 1.053008907441294e-01  3.180758413480803e-02 -2.200766330439235e-18
 1.041365584226243e-01 -3.543412479364089e-02 -1.489161515664833e-18
 1.060761049932124e-01  2.911803478033763e-02 -2.186928050129980e-18
 6.100855086381206e-02 -9.153117895830697e-02 -1.452703231218805e-19
 1.081119567723023e-01  2.029297422419418e-02 -2.132484169668878e-18
 8.939559943101515e-02 -6.409701086922426e-02 -9.323278247380634e-19
 1.567714431473726e-02  1.088771194794153e-01 -1.397666334158369e-18
 1.099134428309698e-01  4.362921617803245e-03 -2.000868259375713e-18
 1.087067918205094e-01  1.681765180078333e-02 -2.107362293481490e-18
 1.092299874500237e-01  1.299268415946526e-02 -2.077373030785997e-18
 1.099300583866720e-01  3.922022833035629e-03 -1.996633878161635e-18
 1.099392441337645e-01 -3.655488927148176e-03 -1.918941168846024e-18
 1.096779997417468e-01  8.410491819706337e-03 -2.038265582214203e-18
 1.097186278606103e-01 -7.862741276735611e-03 -1.871787049587240e-18
 1.098898085211574e-01  4.922396081516767e-03 -2.006196055514138e-18
 1.096985966517447e-01 -8.137437719442628e-03 -1.868608164171942e-18
 1.098182759074107e-01  6.320306695389502e-03 -2.019286071061865e-18
 9.995589407670408e-02 -4.592188192274650e-02 -1.307003712153316e-18
 1.096038425140651e-01  9.327256089117296e-03 -2.046365285723585e-18
 1.066467287181696e-01 -2.695320488760310e-02 -1.620971361472122e-18
 9.832914169934245e-02  4.930902445466347e-02 -2.256516681497041e-18
 1.092054874131670e-01 -1.319702689444082e-02 -1.807847256300603e-18
 1.099685877045158e-01 -2.628634298295863e-03 -1.930013930974321e-18
 1.098466702549170e-01  5.805948148881021e-03 -2.014506535132139e-18
 1.098828156854656e-01  5.076102543680397e-03 -2.007650887723209e-18
 1.099973803421950e-01  7.591560145662152e-04 -1.965334645084114e-18
 1.099611499453727e-01 -2.923269178713849e-03 -1.926854300814431e-18
 1.091888196929630e-01  1.333422866376536e-02 -2.080149647150742e-18
 1.094602831672820e-01 -1.088330873119074e-02 -1.836154264296122e-18
 1.075743439794433e-01  2.297303892375520e-02 -2.150453399929226e-18
 1.094352844215856e-01  1.113186972465165e-02 -2.061907342945063e-18
 1.098749026438929e-01 -5.244594264098593e-03 -1.901468655223872e-18
 1.099844088680868e-01  1.851973525041945e-03 -1.976332105160172e-18
 1.096872648100875e-01  8.288783896429125e-03 -2.037179960458439e-18
 1.098033639710607e-01  6.574287842704575e-03 -2.021630259391480e-18
 1.097223346559819e-01  7.810843593407653e-03 -2.032893407207473e-18
 1.099449211150513e-01  3.480563317208756e-03 -1.992362541986562e-18
 1.098380320242393e-01 -5.967136754101795e-03 -1.893388636960537e-18
 1.099838939588940e-01  1.882304342749185e-03 -1.976634579870501e-18
 1.089362295850378e-01  1.526099222842012e-02 -2.095451300568478e-18
 1.098832087999891e-01  5.067585600457667e-03 -2.007570375167428e-18
 4.158425882571312e-02 -1.018368765129609e-01  3.062954224388176e-19
 1.098560438420925e-01  5.625800508745287e-03 -2.012822397737245e-18
 1.059477421144859e-01 -2.958168252216849e-02 -1.581525408233865e-18
 1.094468007453643e-01 -1.101806728081232e-02 -1.834529733372250e-18
 1.099551492143202e-01  3.140885425569050e-03 -1.989054496272248e-18
 1.051458268935445e-01 -3.231648320706827e-02 -1.539155286755753e-18
 3.081168391101437e-02 -1.055965914912394e-01  5.366359486431180e-19
 1.047094565183603e-01  3.370355642405680e-02 -2.209721479422838e-18
 1.056415470358004e-01  3.065719393360622e-02 -2.195008874085610e-18
 1.099402988144206e-01 -3.623630306180550e-03 -1.919287273903485e-18
 1.076398284062937e-01  2.266423042292910e-02 -2.148445878253000e-18
 1.099978666172995e-01  6.850836757360308e-04 -1.964582232556533e-18
 1.091116922333596e-01  1.395129449092740e-02 -2.085117199217834e-18
 1.099880973584021e-01  1.618159287160095e-03 -1.973995389888921e-18
 1.061770003980807e-01  2.874794925670236e-02 -2.184921109898156e-18
 1.099172839517829e-01 -4.265054356404214e-03 -1.912287297864716e-18
 1.091329302882074e-01  1.378417667868599e-02 -2.083778080925866e-18
 1.098711708118160e-01 -5.322201089842781e-03 -1.900604860878394e-18
 9.625382722099655e-02  5.324660313400755e-02 -2.260041175350540e-18
 1.086306550690896e-01  1.730262347912742e-02 -2.110990256989394e-18
 5.028086118219516e-02  9.783575521646866e-02 -1.900034745832920e-18
 5.173218662672422e-02 -9.707616013634726e-02  7.678631099596272e-20
 1.074281963019789e-01  2.364704292936982e-02 -2.154777673988770e-18
 5.259080074631140e-02 -9.661370335962559e-02  5.675467316243737e-20
 1.037085858904616e-01  3.666782257785053e-02 -2.222366550614674e-18
 1.026494778295034e-01 -3.953586601214489e-02 -1.420553241681616e-18
 1.053628010160091e-01  3.160190124123628e-02 -2.199754780563850e-18
 9.715663528174220e-02 -5.158089007307341e-02 -1.199043309831644e-18
 1.054717540775335e-01  3.123634248448864e-02 -2.197937746829068e-18
 1.065811088972826e-01 -2.721152745116572e-02 -1.617149407985887e-18
 1.042951069541479e-01  3.496470599651602e-02 -2.215305488391025e-18
 3.301290141063810e-02 -1.049292539783422e-01  4.906060070096761e-19
 1.091995099034884e-01  1.324639712668694e-02 -2.079437455061995e-18
 1.063072515656487e-01 -2.826248864763777e-02 -1.601477545591048e-18
 1.042370290795510e-01  3.513746958260928e-02 -2.216047006421808e-18
 1.093419012307095e-01 -1.201451768710354e-02 -1.822424755437632e-18
 1.088339987818217e-01  1.597375062902910e-02 -2.100955315121416e-18
 1.096124477984998e-01 -9.225577901743012e-03 -1.855894797483493e-18
 1.088401559630583e-01  1.593174346821854e-02 -2.100633281188747e-18
 1.094905450625009e-01 -1.057452324771333e-02 -1.839865469489020e-18
 1.085415575031288e-01 -1.785301920670403e-02 -1.748193201967740e-18
 1.099873366517506e-01 -1.669064484805184e-03 -1.940206822104226e-18
 1.097273828711235e-01 -7.739602590173805e-03 -1.873208060714333e-18
 1.065391625449910e-01  2.737529623971141e-02 -2.177262706201127e-18
 1.027706885937067e-01 -3.921970889712618e-02 -1.425958731322015e-18
-1.253972433449140e-02  1.092829140973781e-01 -8.996828905320335e-19
 1.072814312691308e-01 -2.430420755438710e-02 -1.659484135760803e-18
 1.078948944019899e-01  2.141709041824801e-02 -2.140171171402396e-18
-5.069584963425155e-02 -9.762136461790177e-02  1.905217174835114e-18
 1.091163790163757e-01  1.391459055648466e-02 -2.084823486519293e-18
 1.097379320609902e-01 -7.588561588171504e-03 -1.874947687558229e-18
 1.074002397550302e-01  2.377369345646573e-02 -2.155581442045433e-18
 1.070225638382133e-01 -2.541989043043899e-02 -1.643414044783669e-18
 1.094684109438327e-01  1.080125017912892e-02 -2.059099873197588e-18
 1.098910788514905e-01 -4.893954316854882e-03 -1.905359228214201e-18
 1.089475733229110e-01  1.517979799104378e-02 -2.094818934621737e-18
 1.099898633406328e-01  1.493305832334529e-03 -1.972743993756619e-18
 8.865932692339680e-02  6.511162530217025e-02 -2.246796776061056e-18
 1.093360730620887e-01 -1.206744079585906e-02 -1.821777270507924e-18
 1.094282243264205e-01 -1.120105891273513e-02 -1.832318971296019e-18
 1.077342519115685e-01  2.221105501894626e-02 -2.145470044511559e-18
 1.099996126168870e-01  2.919317296020195e-04 -1.960573811276244e-18
 8.280985478821311e-02  7.240530332755343e-02 -2.217638334038417e-18
 1.072770333325374e-01 -2.432361238323010e-02 -1.659206491665933e-18
 1.096286698925530e-01  9.030766168471724e-03 -2.043760792310633e-18
 1.095927345329511e-01 -9.456877792911472e-03 -1.853167454051110e-18
 1.081958830537326e-01  1.984063734417250e-02 -2.129330140836671e-18
 1.077775600965643e-01 -2.199994408246160e-02 -1.691988810149793e-18
 1.097190987342824e-01  7.856167827684942e-03 -2.033301510163082e-18
 1.091288991727176e-01 -1.381605462318374e-02 -1.800123992166308e-18
 1.099995370401968e-01  3.191409443011196e-04 -1.960852031095594e-18
 1.099995370401968e-01  3.191409443011196e-04 -1.960852031095594e-18
 1.099819138908469e-01 -1.994647063094528e-03 -1.936765074888370e-18
 1.099819138908469e-01 -1.994647063094528e-03 -1.936765074888370e-18
 1.099522292073150e-01  3.241495386705295e-03 -1.990036262066431e-18
 1.099259515551235e-01 -4.035489400385275e-03 -1.914800244733954e-18
 1.092318943353614e-01  1.297664285970816e-02 -2.077242147557537e-18
 1.097803433177760e-01 -6.948109169492202e-03 -1.882282862406570e-18
 1.099721667837241e-01  2.474375253013967e-03 -1.982509194320190e-18
 1.099165381598745e-01 -4.284231430353489e-03 -1.912076988139746e-18
 1.099838818792929e-01  1.883010026985734e-03 -1.976641615548765e-18
 1.099928335088645e-01 -1.255618051472704e-03 -1.944552657142666e-18
 1.099552148222025e-01  3.138587803975873e-03 -1.989032056615565e-18
 1.089910241322677e-01 -1.486461094678895e-02 -1.786896806043723e-18
 1.099893077625348e-01 -1.533681165810605e-03 -1.941632914793634e-18
 1.092526772593823e-01  1.280048872727949e-02 -2.075802084762320e-18
 1.099942571461741e-01  1.124008390226505e-03 -1.969027789704900e-18
 1.099744178167707e-01 -2.372219606679587e-03 -1.932752252584528e-18
 1.099987116735578e-01 -5.323815900699299e-04 -1.952088258004876e-18
 1.099516319331549e-01 -3.261692081727306e-03 -1.923207744044431e-18
 1.099987116735579e-01 -5.323815900626454e-04 -1.952088258004951e-18
 1.099975343286164e-01  7.365063644123889e-04 -1.965104668528805e-18
 1.099385875972552e-01  3.675181236430575e-03 -1.994249457903359e-18
 1.099346995841944e-01 -3.789700163981796e-03 -1.917481321462135e-18
 1.099974434341769e-01 -7.499586288624489e-04 -1.949830163138212e-18
 1.099998698449096e-01  1.692161426032443e-04 -1.959317530878394e-18
 1.099785872755778e-01  2.170331971859756e-03 -1.979499520367748e-18
 1.099785872755778e-01  2.170331971859756e-03 -1.979499520367748e-18
 1.099101975561586e-01 -4.443925423107488e-03 -1.910323351769997e-18
 1.099605316724439e-01 -2.946434169201042e-03 -1.926605286048083e-18
 1.014984407077177e-01  4.240361463250378e-02 -2.241967560443263e-18
 1.092389149793277e-01 -1.291740895610181e-02 -1.811315112453500e-18
 1.099018153870648e-01 -4.646608938513164e-03 -1.908091681580699e-18
 1.099018153870648e-01 -4.646608938513164e-03 -1.908091681580699e-18
 1.099444127391628e-01 -3.496585111302116e-03 -1.920665829327024e-18
 1.099982475521809e-01  6.209150095513745e-04 -1.963929702012740e-18
 1.099982475521809e-01  6.209150095513745e-04 -1.963929702012740e-18
 1.099985627985140e-01 -5.623008637139333e-04 -1.951778198928011e-18
 1.099584428462165e-01  3.023383342432060e-03 -1.987905819161550e-18
 1.099584428462165e-01  3.023383342432060e-03 -1.987905819161550e-18
 1.099584428462165e-01  3.023383342432060e-03 -1.987905819161550e-18
 1.098874070874546e-01  4.975717395109321e-03 -2.006701176263916e-18
 1.099059218787276e-01  4.548443248737801e-03 -2.002640582422389e-18
 1.099838231622049e-01  1.886436488410691e-03 -1.976675776254551e-18
 1.099955957609960e-01  9.843338780753203e-04 -1.967616507079821e-18
 1.099733473868841e-01  2.421335277004646e-03 -1.981985238076111e-18
 1.099197224081338e-01  4.201740796237660e-03 -1.999323937552700e-18
 1.099197224081338e-01  4.201740796237660e-03 -1.999323937552700e-18
 1.099553052506960e-01  3.135418190007551e-03 -1.989001099266379e-18
 1.099999230992475e-01  1.300698258937660e-04 -1.958916264419410e-18
 1.055577971613694e-01 -3.094432837272695e-02 -1.560585181545814e-18
 1.055577971613694e-01 -3.094432837272695e-02 -1.560585181545814e-18
 1.076230080393689e-01 -2.274396932283156e-02 -1.681593782873954e-18
 1.292683134293578e-03  1.099924041482606e-01 -1.153136833867296e-18
 1.024045250066058e-01 -4.016607098250213e-02 -1.409718886872898e-18
 1.062104394922262e-01 -2.862416012511303e-02 -1.596038616216735e-18
 1.078155801462218e-01 -2.181285579041863e-02 -1.694587686522313e-18
 1.099873288943411e-01 -1.669575601165612e-03 -1.940201432516940e-18
 1.091998427688099e-01 -1.324365279170213e-02 -1.807267738964590e-18
 1.097418950035417e-01 -7.531034525985583e-03 -1.875609282514125e-18
 1.094041994634685e-01 -1.143333458609369e-02 -1.829504872037254e-18
 1.070008635856343e-01 -2.551107978758301e-02 -1.642090925385864e-18
 1.092340255021211e-01  1.295869100649918e-02 -2.077095625441847e-18
 1.097337156999868e-01 -7.649290076499844e-03 -1.874248689228069e-18
 1.099139035318457e-01  4.351299850859935e-03 -2.000757048663855e-18
 1.099568126995262e-01  3.082100089432344e-03 -1.988480102001996e-18
 1.099610914360019e-01 -2.925469227865700e-03 -1.926830654864566e-18
 1.087507071492523e-01  1.653129439994123e-02 -2.105201600872383e-18
 1.099272797292385e-01 -3.999146325120991e-03 -1.915197293072573e-18
 1.097070682380901e-01  8.022417254357478e-03 -2.034795565598236e-18
 1.099951333640724e-01 -1.034715526065283e-03 -1.946863279010441e-18
 1.098691167388430e-01  5.364437251608025e-03 -2.010369633007558e-18
 1.099789964776132e-01  2.149496168198862e-03 -1.979292722292519e-18
 1.099999428768114e-01 -1.121030695000469e-04 -1.956428377859077e-18
 1.096927130552254e-01  8.216367967899816e-03 -2.036532871120571e-18
 1.096932928578406e-01 -8.208623636394814e-03 -1.867782367395953e-18
 1.094097587505814e-01  1.138001274777566e-02 -2.064002662600746e-18
 1.074087884201653e-01 -2.373504097557292e-02 -1.667598588015924e-18
 1.094653250942581e-01  1.083247903336747e-02 -2.059365821956224e-18
 1.058208870366785e-01 -3.003231370991082e-02 -1.574637799053457e-18
 1.081537942686919e-01  2.006880129169234e-02 -2.130925422376871e-18
 1.057718523208266e-01 -3.020455688503311e-02 -1.571995431740793e-18
 1.094775322320868e-01  1.070840494062283e-02 -2.058308246304710e-18
 1.061970270961506e-01 -2.867388072688118e-02 -1.595289065508592e-18
 9.126060850254539e-02  6.141255031135819e-02 -2.255083032920698e-18
 1.098155299847041e-01 -6.367839050927629e-03 -1.888871115789419e-18
 1.095380745743063e-01  1.007026407566703e-02 -2.052829003932956e-18
 1.096137524513872e-01 -9.210063709116516e-03 -1.856077418031245e-18
 1.088683152495397e-01  1.573816808674997e-02 -2.099145492557115e-18
 1.099999928832788e-01  3.956865643483710e-05 -1.957987639669788e-18
 1.089673567978307e-01  1.503712580562630e-02 -2.093705100280083e-18
 1.098267065069118e-01 -6.172077271440131e-03 -1.891081396503514e-18
 1.099965467971289e-01  8.716035262589060e-04 -1.966475168489048e-18
 1.098782930675277e-01  5.173075735620184e-03 -2.008566766661820e-18
 1.099901246162201e-01 -1.473935856247947e-03 -1.942261313031332e-18
 1.098393144838204e-01  5.943483298905359e-03 -2.015788754115102e-18
 1.093706126592911e-01 -1.175028027458346e-02 -1.825650652981212e-18
 1.097483562488511e-01  7.436282718886746e-03 -2.029508015573827e-18
 1.093041385382525e-01 -1.235335170755110e-02 -1.818271326809014e-18
 1.097907921306366e-01  6.781000171605175e-03 -2.023530422581668e-18
 1.099608063946328e-01 -2.936163660639154e-03 -1.926715700801626e-18
 1.098892766275575e-01  4.934255999855695e-03 -2.006308446185625e-18
 1.098671336210756e-01  5.404900543829818e-03 -2.010750086689758e-18
 1.099999927455649e-01 -3.994966362205964e-05 -1.957170615367156e-18
 1.099932225444440e-01 -1.221062770034983e-03 -1.944914623458688e-18
 1.099312299354129e-01  3.889046783896786e-03 -1.996315910343309e-18
 1.099901835919773e-01 -1.469528292713322e-03 -1.942307648689457e-18
 1.099365280455320e-01 -3.736281747128107e-03 -1.918062715940491e-18
 1.099876582705789e-01  1.647734248697205e-03 -1.974291447783399e-18
 1.099439682942175e-01 -3.510532113520714e-03 -1.920514619517821e-18
 1.099780325515803e-01 -2.198262059789124e-03 -1.934603931702768e-18
 1.099999818677788e-01  6.315922971307923e-05 -1.958229828206478e-18
 1.098869674437304e-01  4.985417336641859e-03 -2.006793015654953e-18
 1.098997873927716e-01 -4.694329667116632e-03 -1.907565277852348e-18
 1.098677480815229e-01  5.392395710163049e-03 -2.010632539123096e-18
 1.099013082342551e-01 -4.658588670319951e-03 -1.907959568799074e-18
 1.099634398804332e-01  2.835822572429848e-03 -1.986067628569812e-18
 1.098856488433198e-01 -5.014397100605468e-03 -1.904025088892042e-18
 1.099872227757474e-01  1.676551841751648e-03 -1.974579787933422e-18
 1.099197306274743e-01 -4.201525768509915e-03 -1.912983572539636e-18
 1.097303666167018e-01  7.697184041205357e-03 -2.031868534919743e-18
 1.099318206479370e-01 -3.872313136844903e-03 -1.916581269072080e-18
 1.085231621970332e-01  1.796450018109023e-02 -2.115877835780777e-18
 1.084967409127344e-01 -1.812338851636068e-02 -1.744617690843233e-18
 1.099602040586319e-01 -2.958635392204776e-03 -1.926474092635499e-18
 1.099951579102983e-01 -1.032102847825546e-03 -1.946890560159613e-18
 1.041816490521422e-01  3.530133143064489e-02 -2.216745073736617e-18
 1.099867071618444e-01 -1.710043185027047e-03 -1.939774578322073e-18
 1.099651839697242e-01 -2.767365986759288e-03 -1.928527939751881e-18
 1.096134617076887e-01  9.213523346529459e-03 -2.045367908134073e-18
 1.098888502243291e-01 -4.943743154224398e-03 -1.904808004918351e-18
 1.099788544774402e-01  2.156749366521875e-03 -1.979364719207945e-18
 1.097528578952897e-01 -7.369544342515948e-03 -1.877463633220170e-18
 1.098408652769151e-01  5.914754028575564e-03 -2.015521169511959e-18
 1.098197793250834e-01 -6.294129724589351e-03 -1.889704074421897e-18
 1.099978348403734e-01 -6.901669579883746e-04 -1.950451466375989e-18
 1.099393883259748e-01  3.651149751857609e-03 -1.994016793052032e-18
 1.099926341242181e-01 -1.272964420500192e-03 -1.944370881214731e-18
 1.077397502041396e-01  2.218436895540577e-02 -2.145293703577867e-18
 1.093191051198592e-01 -1.222019868059161e-02 -1.819905773962806e-18
 1.096468870775270e-01 -8.806824297555015e-03 -1.860810226696249e-18
 1.074671345733040e-01  2.346944793989250e-02 -2.153645902972561e-18
 1.097869385012595e-01  6.843108542222693e-03 -2.024099983596023e-18
 1.095836314986644e-01 -9.561783702054693e-03 -1.851927584590360e-18
 1.099379042836426e-01  3.695565142247529e-03 -1.994446734749916e-18
 1.099843191099291e-01 -1.857296402096576e-03 -1.938219106777169e-18
 1.095639128449996e-01  9.785141904607124e-03 -2.050359300050048e-18
 1.085507045066287e-01 -1.779731864957630e-02 -1.748928286796025e-18
 1.099710481521270e-01  2.523602251252841e-03 -1.982995076460709e-18
 1.099816537384051e-01 -2.008940259326364e-03 -1.936613587766374e-18
 1.092223657979200e-01  1.305660022767518e-02 -2.077894108777349e-18
 1.094994306329407e-01 -1.048211291018031e-02 -1.840973081462205e-18
 1.099670768506270e-01  2.691098089678262e-03 -1.984645361306743e-18
 1.099888121367353e-01 -1.568822727377462e-03 -1.941263027762151e-18
 1.099909306057774e-01 -1.412509991121982e-03 -1.942906785026831e-18
 1.095022706128719e-01 -1.045240310289180e-02 -1.841328879769894e-18
 1.088043168046388e-01  1.617469148626189e-02 -2.102491683243496e-18
 1.099915227172965e-01 -1.365624520287011e-03 -1.943399053538286e-18
 1.099842567557496e-01  1.860985192126038e-03 -1.976421989745293e-18
 1.099940905819774e-01 -1.140191669726565e-03 -1.945760992399535e-18
 1.099927949986499e-01 -1.258987047167769e-03 -1.944517356600554e-18
 1.099518958802294e-01  3.252782246502108e-03 -1.990146298497554e-18
 1.094742950661542e-01 -1.074144868109342e-02 -1.837861183231596e-18
 1.096950122189582e-01  8.185615082727858e-03 -2.036257812758239e-18
 1.099167580486678e-01 -4.278586223343104e-03 -1.912138903774407e-18
 1.097137682357409e-01  7.930262260108300e-03 -2.033967940959846e-18
 1.098520553013791e-01 -5.703152291735017e-03 -1.896350542357613e-18
 1.087324640646657e-01  1.665086359400433e-02 -2.106105473453951e-18
 1.067605570284852e-01 -2.649874455455433e-02 -1.627666486863128e-18
 1.099677550380396e-01  2.663240862875401e-03 -1.984371207575058e-18
 1.099363914852206e-01 -3.740297743264630e-03 -1.918019022785450e-18
 1.099795318729578e-01  2.121925777454574e-03 -1.979018974541957e-18
 1.098220013904140e-01  6.255238652831786e-03 -2.018683819975906e-18
 1.098861314868165e-01 -5.003809235175917e-03 -1.904142464579803e-18
 1.098647493985755e-01  5.453149510895708e-03 -2.011203397215494e-18
 1.092650038056681e-01 -1.269483924070285e-02 -1.814066217210610e-18
 1.051641093627344e-01  3.225693881853637e-02 -2.202949098736159e-18
 1.092166356191881e-01 -1.310444596407938e-02 -1.808996887352264e-18
 1.099104508265103e-01  4.437656939560014e-03 -2.001582891369206e-18
 1.081360856928954e-01 -2.016400186021475e-02 -1.717232840189528e-18
 1.083570768896197e-01  1.894053557682560e-02 -2.122950558747026e-18
 1.083344036816171e-01 -1.906979231529248e-02 -1.732004750940089e-18
 1.040883173740319e-01  3.557558413073196e-02 -2.217901972059808e-18
 1.099698338742837e-01 -2.575973148621848e-03 -1.930577182234433e-18
 1.081857206478393e-01  1.989597567116654e-02 -2.129717869908672e-18
 1.096232590438902e-01 -9.096212211470079e-03 -1.857416381964031e-18
 1.099971322261851e-01  7.942934061989167e-04 -1.965691253498368e-18
 1.099971322261851e-01  7.942934061989167e-04 -1.965691253498368e-18
 1.099887677437895e-01  1.571931996844074e-03 -1.973532351581611e-18
 1.093374370780156e-01  1.205507582767287e-02 -2.069651640083830e-18
 1.098049998621784e-01  6.546908069232946e-03 -2.021378054799149e-18
 1.065734853504634e-01  2.724136964718411e-02 -2.176497474379722e-18
 1.099153592846933e-01 -4.314370558581507e-03 -1.911746340055825e-18
 5.331043428335996e-02  9.621848884969830e-02 -1.937332788561872e-18
 5.758873067599218e-02 -9.372053189738097e-02 -6.191573745085416e-20
 9.633315414346641e-02  5.310295107403262e-02 -2.259976919828917e-18
 6.466951514660198e-02 -8.898232302375217e-02 -2.366101182913817e-19
 1.002438631153150e-01  4.528982123742559e-02 -2.249295580061275e-18
 1.097795166900959e-01  6.961157611267590e-03 -2.025180814913894e-18
 4.190854747681302e-02 -1.017038526722743e-01  2.991575474276960e-19
 1.045168648605492e-01 -3.429613622147033e-02 -1.507621941553952e-18
 9.693250212314294e-02 -5.200086568651386e-02 -1.190739496055706e-18
 1.091571967629449e-01 -1.359067308324718e-02 -1.802943294987161e-18
 1.003302789347639e-01 -4.509806125403217e-02 -1.322130795385432e-18
 9.641769485889826e-02  5.294929761664788e-02 -2.259902689247126e-18
 1.097939403813406e-01 -6.729833247456998e-03 -1.884767544177370e-18
 1.060950871071180e-01  2.904879501344253e-02 -2.186554446037598e-18
 1.098126213870616e-01 -6.417802123923461e-03 -1.888306001399995e-18
 1.071299387426220e-01 -2.496349785190383e-02 -1.650014177239105e-18
 1.098017435292870e-01  6.601296685398009e-03 -2.021878927744318e-18
 1.099501494352468e-01 -3.311289653120656e-03 -1.922671764197084e-18
 1.099947969454536e-01  1.069880801025519e-03 -1.968481254760941e-18
 1.091693113872579e-01 -1.349301490519813e-02 -1.804162291480684e-18
 1.099990691442848e-01 -4.525344084394889e-04 -1.952915020407920e-18
 1.093943680578805e-01 -1.152702204461056e-02 -1.828367305845208e-18
 1.091611798363491e-01 -1.355864361712553e-02 -1.803343269658580e-18
 1.091611798363491e-01 -1.355864361712553e-02 -1.803343269658580e-18
 1.062853771855489e-01 -2.834463964360069e-02 -1.600244193264058e-18
 6.129024924932513e-02  9.134279033922467e-02 -2.029247083555974e-18
 1.068927635977232e-01  2.596029835038951e-02 -2.169016869440639e-18
 1.099474119218432e-01 -3.400972168147135e-03 -1.921701591617841e-18
 1.092756023082150e-01 -1.260328291266986e-02 -1.815195538216523e-18
 1.090531645873186e-01  1.440164204148842e-02 -2.088702787425841e-18
 1.093782353004184e-01  1.167911137742320e-02 -2.066514794968202e-18
 1.097210518964171e-01 -7.828842235204046e-03 -1.872178488533100e-18
 1.099995802879579e-01 -3.038691709871630e-04 -1.954451598128284e-18
 1.099995802879579e-01 -3.038691709871630e-04 -1.954451598128284e-18
-1.094764715677694e-01 -1.071924312026403e-02  2.058400728876588e-18
-1.090528856487773e-01  1.440375408269165e-02  1.792732842383563e-18
-1.065277890722010e-01  2.741952142887667e-02  1.614063455533661e-18
-1.099996625151973e-01  2.724821877866942e-04  1.954775551310484e-18
-1.048278115301390e-01  3.333361561249584e-02  1.523045158050879e-18
 1.839467187095627e-02 -1.084510767432017e-01  7.869402884550030e-19
-1.033934725881012e-01  3.754716801802142e-02  1.454226665332371e-18
-1.098194683615911e-01  6.299553061723114e-03  1.889642817636715e-18
 2.927008761555092e-02  1.060342490470788e-01 -1.610359513487419e-18
-1.090874687667300e-01 -1.413945395224551e-02  2.086619383846447e-18
-1.099528288388457e-01  3.221091482009266e-03  1.923646200821984e-18
-1.099528288388457e-01  3.221091482009266e-03  1.923646200821984e-18
-1.099595288013495e-01  2.983626281079407e-03  1.926205303321974e-18
-7.352962812986787e-02  8.181316389850293e-02  4.679469032151047e-19
-1.095301874636004e-01 -1.015568974459702e-02  2.053566361105409e-18
-1.010132800377374e-01  4.354672497464769e-02  1.350225031440563e-18
-1.096848189825242e-01  8.321086754196027e-03  1.866476046995925e-18
-1.078015579685382e-01  2.188204971102685e-02  1.693627202746101e-18
-1.071280826283325e-01  2.497146195914689e-02  1.649899317162479e-18
-1.038542273619838e-01  3.625326825329454e-02  1.475720696187539e-18
-1.507030398447102e-02 -1.089627731742158e-01  1.387746947214468e-18
-1.094795739618532e-01 -1.068751070788151e-02  2.058129900670227e-18
-9.764441828714859e-02 -5.065143213537333e-02  2.258123962870321e-18
-1.051264729356744e-01  3.237938677777719e-02  1.538164548651253e-18
-1.763711011930731e-02 -1.085768499572509e-01  1.429461103321637e-18
-1.099128986840139e-01 -4.376608604577482e-03  2.000999204448564e-18
-1.099128868829915e-01 -4.376904962032512e-03  2.001002039400487e-18
-1.099880422167843e-01  1.621902993044759e-03  1.940703945671044e-18
-1.096445192410958e-01 -8.836254884786735e-03  2.042044317594272e-18
-1.098229952033968e-01  6.237765990692295e-03  1.890340421702982e-18
-1.093190942582097e-01 -1.222029584603523e-02  2.071022783394235e-18
-1.094981109547856e-01  1.049588954464662e-02  1.840808046300782e-18
-1.095876872333493e-01 -9.515188219135762e-03  2.048008717598095e-18
-1.091346243682556e-01  1.377075756811278e-02  1.800691289635893e-18
-1.049556605481349e-01 -3.292885237758288e-02  2.206143171165810e-18
-1.089268641880223e-01  1.532769578782525e-02  1.780996974786972e-18
-1.099956103753160e-01 -9.826994258782297e-04  1.967599973756505e-18
-1.098004188362647e-01  6.623293997763186e-03  1.885977488098462e-18
-1.099996773201319e-01 -2.664384859921688e-04  1.960313028930544e-18
-1.097657686454785e-01 -7.174680039365000e-03  2.027130017442764e-18
-1.088530733335319e-01  1.584324543282361e-02  1.774386693192503e-18
-1.095741037191985e-01 -9.670356463661791e-03  2.049361280105093e-18
-1.099585080843598e-01 -3.021009742080971e-03  1.987882592270781e-18
-1.098409408587554e-01 -5.913350257117659e-03  2.015508091339185e-18
-1.015822345271578e-01  4.220248367655013e-02  1.374161846266760e-18
-1.099355661881861e-01 -3.764476973354550e-03  1.995113169583210e-18
-1.088442234367514e-01 -1.590393110053294e-02  2.100419904760445e-18
-1.098722140270936e-01  5.300621169683658e-03  1.900845151978918e-18
-1.098246220354067e-01 -6.209057479201770e-03  2.018255962696823e-18
-1.099928021152185e-01 -1.258365146662869e-03  1.970382362557834e-18
-1.097975926870221e-01 -6.669980519818181e-03  2.022510760002702e-18
-1.099951286677694e-01 -1.035214644807395e-03  1.968130975993327e-18
-1.091615710477701e-01 -1.355549358683027e-02  2.081938141711439e-18
-1.099983173577017e-01  6.084229403115533e-04  1.951299943433777e-18
-1.099673420061052e-01 -2.680241054876736e-03  1.984538527976233e-18
-1.099665586577418e-01  2.712190438261496e-03  1.929119312682055e-18
-1.090651100484903e-01 -1.431089690098600e-02  2.087982997802911e-18
-1.099990085217719e-01  4.670377148883041e-04  1.952764925352864e-18
-1.099996659281670e-01 -2.711008882692163e-04  1.960360730686619e-18
-1.094952203913328e-01  1.052600168408739e-02  1.840447213982278e-18
-1.098096707450679e-01 -6.468091747936815e-03  2.020651369662202e-18
-1.098584262754335e-01 -5.579083821301397e-03  2.012384798987769e-18
-1.099254941173877e-01  4.047930711872714e-03  1.914664274127835e-18
-1.099027351112981e-01 -4.624804326218468e-03  2.003368452425983e-18
-1.062798100019635e-01  2.836550697496010e-02  1.599930714342168e-18
-6.951957519935913e-02 -8.524686894015882e-02  2.113064377230896e-18
-1.046127564033597e-01  3.400251751990274e-02  1.512345271437154e-18
-1.096581663938511e-01 -8.665249167706680e-03  2.040530163334960e-18
-1.038093629996907e-01  3.638153588839278e-02  1.473604377989718e-18
-1.099849127842042e-01 -1.821801265494292e-03  1.976031063942441e-18
-9.269866360125280e-02  5.921957249543212e-02  1.041223699141657e-18
-2.659416030565158e-02 -1.067368288719375e-01  1.569956947519360e-18
-9.929712543455313e-02  4.732949271262666e-02  1.280817448837339e-18
-1.095429037817945e-01  1.001759607153744e-02  1.846519479774061e-18
-9.917822042177533e-02  4.757815248588065e-02  1.276146503460733e-18
-3.616514841851499e-02 -1.038849461657788e-01  1.710982038877403e-18
-1.099546161779326e-01  3.159490649373150e-03  1.924310934830565e-18
-1.099551394402359e-01 -3.141227575046872e-03  1.989057837792352e-18
-1.096834962159883e-01 -8.338504532422826e-03  2.037623755303850e-18
-1.089961776383633e-01  1.482677511215161e-02  1.787377268288239e-18
-1.096600549177884e-01 -8.641316764683202e-03  2.040317875124029e-18
-1.099298576791445e-01  3.927644414022147e-03  1.915977826928180e-18
-1.094646236173832e-01 -1.083956531898756e-02  2.059426147348984e-18
-1.095439172961050e-01  1.000650705411594e-02  1.846651452095863e-18
-1.099053557908478e-01 -4.562101323638186e-03  2.002770839971325e-18
-1.093845744160879e-01 -1.161959034610526e-02  2.066016050118609e-18
-1.099292942493596e-01  3.943382537577449e-03  1.915806096520755e-18
-1.099980793732058e-01  6.500263116809506e-04  1.950868248688289e-18
-1.099616840050822e-01  2.903110532930876e-03  1.927070927806371e-18
-1.078672975741732e-01 -2.155565155695190e-02  2.141103718297589e-18
-1.096628395976870e-01  8.605905610214844e-03  1.863158487345752e-18
-1.095511163110003e-01 -9.927382082585385e-03  2.051593036620207e-18
-1.099944232847129e-01  1.107630923811854e-03  1.946101463077459e-18
-1.092185906175254e-01 -1.308814209585776e-02  2.078151006176346e-18
-1.090165762592768e-01 -1.467603831779074e-02  2.090870976542875e-18
-1.094749026044657e-01  1.073525499197461e-02  1.837935633006251e-18
-1.098337372991673e-01 -6.045672079881769e-03  2.016739454063760e-18
-1.086343231361658e-01  1.727957860444182e-02  1.755735970936135e-18
-1.052652335999824e-01 -3.192539107264139e-02  2.201342192516101e-18
-1.077690122824517e-01  2.204177832355494e-02  1.691406859971409e-18
-9.832972870410756e-02 -4.930785386707247e-02  2.256515100584784e-18
-6.583741318365970e-02  8.812170575564247e-02  2.662367867721828e-19
-1.039463474713116e-01 -3.598828764158293e-02  2.219615826943667e-18
-1.068456209893786e-01  2.615364745870109e-02  1.632726048811165e-18
-1.090567369536926e-01 -1.437456521127024e-02  2.088488157352487e-18
-1.099729894087256e-01  2.437539847527631e-03  1.932055690613764e-18
-1.094044442023267e-01  1.143099246697162e-02  1.829533291880324e-18
-1.043454057405034e-01 -3.481431172448604e-02  2.214655368781620e-18
-1.062884359031839e-01  2.833316772361896e-02  1.600416496603337e-18
-1.085531622663917e-01 -1.778232161351267e-02  2.114539904198801e-18
-1.097791700044175e-01  6.966622793086975e-03  1.882071761138811e-18
-1.093037348889600e-01 -1.235692272873457e-02  2.072153236684208e-18
-1.097916623519020e-01  6.766895743685927e-03  1.884346200241170e-18
-1.009284819786622e-01 -4.374290257267832e-02  2.245585162048573e-18
-1.052264566748526e-01  3.205296890547474e-02  1.543297703614467e-18
-1.099957159794155e-01 -9.708069713966648e-04  1.967479662457815e-18
-1.096794655982349e-01  8.391354246220872e-03  1.865658804182367e-18
-1.099889381162642e-01  1.559965402366313e-03  1.941356275515019e-18
-1.090713679570089e-01  1.426312350036751e-02  1.794506685251344e-18
-1.090105146350748e-01  1.472099517682476e-02  1.788719262655163e-18
0.000000000000000e+00 0.000000000000000e+00 0.000000000000000e+00
-1.082293542635090e-01 -1.965723469117259e-02  2.128041405305916e-18
-1.095342948665636e-01  1.011129309656628e-02  1.845403570963723e-18
-1.098107391950894e-01  6.449926931992267e-03  1.887942434815807e-18
-1.095058932660292e-01 -1.041438140308780e-02  2.055791979696162e-18
-1.099703938536034e-01 -2.551955266715018e-03  1.983274749372040e-18
 1.241625621124922e-02 -1.092970108543531e-01  9.020249921202056e-19
-1.080339358910378e-01  2.070431587594943e-02  1.709863432385755e-18
-1.077660762277363e-01 -2.205612872826281e-02  2.144444584822706e-18
-1.090558351338211e-01  1.438140546903517e-02  1.793014955874897e-18
-1.098857727017954e-01 -5.011682125724342e-03  2.007041614963656e-18
-9.295805777862676e-02  5.881155918716541e-02  1.050032116467459e-18
-1.088393615950622e-01 -1.593716937160613e-02  2.100674893648932e-18
-1.088393615950622e-01 -1.593716937160613e-02  2.100674893648932e-18
-1.098504280078887e-01 -5.734410735518630e-03  2.013838387893880e-18
-1.099345687269017e-01 -3.793494277061022e-03  1.995393560824265e-18
-1.099823883828300e-01 -1.968310343494737e-03  1.977491466762662e-18
-1.097620575464011e-01 -7.231232480048099e-03  2.027645029792055e-18
-1.098051276014911e-01 -6.544765268534535e-03  2.021358311573835e-18
-1.097874727384485e-01 -6.834532149634101e-03  2.024021371665775e-18
-1.099883555728700e-01  1.600511910571129e-03  1.940929307818022e-18
-1.097770085091861e-01 -7.000600172416789e-03  2.025541436830188e-18
-1.099561316545487e-01 -3.106301911841570e-03  1.988716646927666e-18
-1.099492034736481e-01 -3.342552244960244e-03  1.991020738034102e-18
-1.099492034736481e-01 -3.342552244960244e-03  1.991020738034102e-18
-1.099676334096506e-01 -2.668258285972194e-03  1.984420595252425e-18
-1.097635160101914e-01 -7.209060485280211e-03  2.027443175703135e-18
-1.098061226276771e-01  6.528049745176078e-03  1.887057593966190e-18
-1.084364176207665e-01 -1.848089103843949e-02  2.119639841042649e-18
-1.097050810263106e-01  8.049546385392679e-03  1.869626612881137e-18
-1.093752409759449e-01  1.170712011785753e-02  1.826176474328428e-18
-1.093752409759449e-01  1.170712011785753e-02  1.826176474328428e-18
-1.069845548643718e-01  2.557938663205594e-02  1.641098864224213e-18
-1.099984756663744e-01 -5.790950474571423e-04  1.963504076658399e-18
-1.096298686534967e-01  9.016202028406566e-03  1.858356083416768e-18
-1.044483607817724e-01 -3.450420162821726e-02  2.213301307965201e-18
-1.077657448363115e-01  2.205774784231067e-02  1.691184630865848e-18
-1.099166983479659e-01 -4.280119657467783e-03  2.000075435121119e-18
-1.082738194335493e-01  1.941082237493146e-02  1.727422622001905e-18
-1.080141337456234e-01 -2.080737636470646e-02  2.136028587347754e-18
-1.095914544037560e-01  9.471701096921227e-03  1.852992368561273e-18
-1.099854586861713e-01 -1.788540632044204e-03  1.975699037993060e-18
-1.099885913454049e-01  1.584226578961903e-03  1.941100829537808e-18
-1.099885913454049e-01  1.584226578961903e-03  1.941100829537808e-18
-1.099767534173420e-01  2.261350875278555e-03  1.933932953322401e-18
-1.099335991552297e-01  3.821488816841218e-03  1.917135121155847e-18
-1.099159541305970e-01 -4.299189174769357e-03  2.000258123248169e-18
-1.099443879077573e-01  3.497365807083900e-03  1.920657366056990e-18
-1.099124230792901e-01  4.388536525893661e-03  1.910932058406489e-18
-1.083590898272442e-01 -1.892901613426309e-02  2.122868023285526e-18
-1.097792165413243e-01  6.965889431580215e-03  1.882080124341650e-18
-1.082174225034952e-01  1.972281589175303e-02  1.723213351311892e-18
-1.041093095592101e-01 -3.551410512887143e-02  2.217643878624889e-18
-1.041093095592101e-01 -3.551410512887143e-02  2.217643878624889e-18
-1.094043905142682e-01  1.143150629626170e-02  1.829527057027987e-18
-1.099584799311711e-01 -3.022034286073181e-03  1.987892618068540e-18
-1.098795965737679e-01  5.145314060964873e-03  1.902572257326658e-18
-1.093743244169831e-01 -1.171568001989264e-02  2.066820925649428e-18
-1.094967117011910e-01  1.051047699327865e-02  1.840633264178484e-18
-1.077531682686487e-01 -2.211910323833783e-02  2.144861912507752e-18
-1.045732693540545e-01  3.412376498284318e-02  1.510396778656940e-18
-1.055080062071813e-01 -3.111367265665287e-02  2.197322508800689e-18
-1.090124843942363e-01  1.470640153798208e-02  1.788904261206711e-18
-1.081676183491216e-01 -1.999415766364591e-02  2.130404502215800e-18
-1.098395117293314e-01  5.939836955845657e-03  1.893695465587552e-18
-1.098995831298384e-01 -4.699109265351198e-03  2.004075815412813e-18
-1.099539442276224e-01  3.182789466628255e-03  1.924059589789761e-18
-1.099539442276224e-01  3.182789466628255e-03  1.924059589789761e-18
-1.099775675199243e-01  2.221405501130416e-03  1.934357865457309e-18
-1.082770802223940e-01 -1.939262484846291e-02  2.126171975665217e-18
-1.098659637200710e-01  5.428629280030160e-03  1.899418683477696e-18
-1.093855697292031e-01  1.161021683766595e-02  1.827355932815014e-18
-1.098659637200701e-01  5.428629280049246e-03  1.899418683477483e-18
-1.098385684820563e-01  5.957253881831989e-03  1.893499726789707e-18
-1.075995176018036e-01 -2.285484219720461e-02  2.149686966139498e-18
-1.097081454415813e-01 -8.007672806053995e-03  2.034663241869216e-18
-1.097081454415813e-01 -8.007672806053995e-03  2.034663241869216e-18
-1.099523463643895e-01 -3.237518952114114e-03  1.989997490595421e-18
-1.096306386269884e-01  9.006834862405656e-03  1.858466030241346e-18
-1.099863233239939e-01  1.734555179245490e-03  1.939515895633579e-18
-1.099956040851212e-01  9.834032485448129e-04  1.947398871064236e-18
-1.098856581878254e-01 -5.014192320640857e-03  2.007065368391846e-18
-1.089968249233140e-01 -1.482201594373714e-02  2.092019345036269e-18
-1.093357810310016e-01  1.207008642640260e-02  1.821744890573630e-18
-1.095938625818246e-01 -9.443796079761309e-03  2.047385086993088e-18
-1.063744321560053e-01  2.800857339257730e-02  1.605281991337939e-18
-1.072329371085032e-01 -2.451728368077834e-02  2.160244211314385e-18
-7.162193327644840e-02  8.348831459398337e-02  4.167856328560574e-19
-9.405927194472866e-02 -5.703379139797343e-02  2.259898430083974e-18
-1.096473636785185e-01  8.800888497797515e-03  1.860879696565604e-18
-1.084362199939654e-01  1.848205057401096e-02  1.739855526551100e-18
-1.076697315858051e-01 -2.252174283310770e-02  2.147514032778468e-18
-1.096143107567958e-01 -9.203416610833511e-03  2.045279174937930e-18
-1.096143107567958e-01 -9.203416610833511e-03  2.045279174937930e-18
-1.064835636871503e-01 -2.759077136443557e-02  2.178487186835717e-18
-1.036410001799432e-01  3.685841941403595e-02  1.465708355794052e-18
-1.067587943810615e-01  2.650584505919754e-02  1.627562163343864e-18
-1.061041449931314e-01 -2.901569256930671e-02  2.186375526335521e-18
 3.586485250601604e-02 -1.039890011237808e-01  4.301913788234062e-19
-1.047248906475688e-01  3.365556831870064e-02  1.517905611077038e-18
-1.047248906475688e-01  3.365556831870064e-02  1.517905611077038e-18
-9.975312269443078e-02 -4.636070008865052e-02  2.251565160071911e-18
 1.357972471015505e-02  1.091585593382231e-01 -1.363231942712348e-18
-9.884246842652640e-02 -4.827179751522723e-02  2.254994812917781e-18
-1.096922164271400e-01 -8.222995518753641e-03  2.036592128708813e-18
-9.684053974932394e-02 -5.217192598572119e-02  2.259440507349035e-18
-2.719468622893571e-02  1.065854072606081e-01 -6.111644597284538e-19
-8.847009317294006e-02 -6.536851393424260e-02  2.246068573119730e-18
-9.851948012907580e-02 -4.892762037026326e-02  2.255985192484043e-18
-9.660654129203877e-02 -5.260395593099026e-02  2.259715176421682e-18
-1.087750028035708e-01  1.637066782642458e-02  1.767578261489188e-18
-1.073698068143688e-01 -2.391076294569226e-02  2.156448190773010e-18
-9.706105746448779e-02  5.176051703639911e-02  1.195496786769428e-18
-1.042761223337521e-01 -3.502128368630043e-02  2.215548949634881e-18
-1.067447882752321e-01  2.656219448908238e-02  1.626733938061613e-18
-1.003411700764116e-01 -4.507382375277928e-02  2.248807977816910e-18
-1.099997700252983e-01  2.249319484451199e-04  1.955266026016566e-18
-1.096002091206155e-01  9.369853825823761e-03  1.854194612903113e-18
-1.081402532758157e-01  2.014163899593099e-02  1.717536777605592e-18
-4.650437571060674e-02 -9.968622291854923e-02  1.851840565527882e-18
-1.067186708808974e-01 -2.666693243353377e-02  2.173179090383742e-18
-1.098602105759658e-01 -5.543837317635988e-03  2.012054407723018e-18
-1.097433190627970e-01 -7.510254395231103e-03  2.030178404942062e-18
-1.097433190627970e-01 -7.510254395231103e-03  2.030178404942062e-18
-1.053789974679201e-01 -3.154785084052573e-02  2.199487667513100e-18
-1.092023661607154e-01  1.322282968584965e-02  1.807526595581756e-18
-1.092023661607154e-01  1.322282968584965e-02  1.807526595581756e-18
-1.066922987943701e-01  2.677225014773359e-02  1.623641579552534e-18
-1.093029538089999e-01  1.236382985274409e-02  1.818142584003319e-18
-1.093029538089999e-01  1.236382985274409e-02  1.818142584003319e-18
-1.044589756107321e-01  3.447205265655696e-02  1.504784255835561e-18
-1.099214805431488e-01 -4.155492173273383e-03  1.998880037862316e-18
 2.437472815181424e-02  1.072654307198974e-01 -1.535890696869154e-18
-1.099999999008344e-01  4.670804565080889e-06  1.957533220164718e-18
-9.630110096269989e-02  5.316105673678669e-02  1.167582417665775e-18
 2.730149249550466e-02 -1.065580992112654e-01  6.089831345249702e-19
-1.038511174296869e-01 -3.626217600483128e-02  2.220735198195005e-18
-1.091434229491039e-01 -1.370084767278901e-02  2.083108635078077e-18
-1.079854642660820e-01 -2.095565573392262e-02  2.137041896414159e-18
-5.355346840269870e-02  9.608343260958735e-02 -3.417451458105457e-20
-1.090247018828320e-01 -1.461555265323789e-02  2.090394113476070e-18
-1.004059391336855e-01  4.492935996297525e-02  1.325210603357244e-18
-1.095021033088475e-01 -1.045415567793196e-02  2.056133199112456e-18
-1.099998605311850e-01 -1.751659778863948e-04  1.959378497525685e-18
-1.089469970127568e-01  1.518393367682838e-02  1.782832365884250e-18
-1.099941132068251e-01 -1.138006961360615e-03  1.969169058365610e-18
 6.258598571575441e-02  9.045990488601759e-02 -2.043234932281855e-18
-1.093267925643658e-01 -1.215123152557326e-02  2.070450173131506e-18
-1.051640221882404e-01  3.225722302355302e-02  1.540087970587086e-18
-1.032222683310688e-01 -3.801530376820363e-02  2.227556829274142e-18
-1.096435554889040e-01  8.848205453740553e-03  1.860325760755425e-18
-1.067812016319927e-01 -2.641543068033691e-02  2.171707810538169e-18
-1.095921953611643e-01  9.463124004279219e-03  1.853093681293282e-18
-1.056630487163078e-01 -3.058300403778446e-02  2.194629247909873e-18
-1.099335844417841e-01  3.821912058263910e-03  1.917130510660664e-18
-1.097368232367559e-01 -7.604579272054185e-03  2.031031957812981e-18
-1.097224473019013e-01  7.809261045800443e-03  1.872404511046027e-18
-1.095075268092143e-01 -1.039719058828789e-02  2.055644421168564e-18
-1.099226177237808e-01  4.125301534617257e-03  1.913818128175424e-18
-1.099443987968630e-01 -3.497023476657602e-03  1.992522368870190e-18
-1.059435796149167e-01  2.959658660010930e-02  1.581298197602207e-18
-1.099692383096736e-01 -2.601273839905312e-03  1.983760915512928e-18
-1.097391891400198e-01  7.570361080616756e-03  1.875157062382461e-18
-1.099023209689140e-01 -4.634635438282180e-03  2.003462093373341e-18
-1.085531182118911e-01  1.778259054455096e-02  1.749122567489179e-18
-1.099759392654567e-01 -2.300604851023160e-03  1.980790902377970e-18
-1.096416726193374e-01  8.871506367805546e-03  1.860052844418057e-18
-1.096584336029147e-01 -8.661866990154131e-03  2.040500167993281e-18
-9.740066330316412e-02  5.111859532600271e-02  1.208135990147679e-18
-1.066060086710896e-01 -2.711381410313812e-02  2.175765678787700e-18
-1.052813261097134e-01  3.187228219911679e-02  1.546130660927955e-18
-9.388557294264120e-02  5.731927418619293e-02  1.081871041471703e-18
-7.084140514801326e-02 -8.415162099838008e-02  2.125334643173555e-18
-1.021709311981638e-01 -4.075660459483887e-02  2.237012901071147e-18
-9.100627883523701e-02 -6.178881138655327e-02  2.254422878978263e-18
-7.686638061791481e-02  7.868646345275543e-02  5.594541052014242e-19
-8.760511293834423e-02 -6.652326049630998e-02  2.242539819498120e-18
-1.600387766902756e-03  1.099883573792950e-01 -1.101609607119573e-18
-1.099555002877392e-01 -3.128570995351728e-03  1.988934217745513e-18
-1.088543659809633e-01  1.583436158746078e-02  1.774500975679327e-18
-1.075682493267472e-01 -2.300155944232267e-02  2.150637976282125e-18
-1.094662407559469e-01 -1.082322201384758e-02  2.059287004735460e-18
-1.078834935176406e-01 -2.147444589341398e-02  2.140557585737657e-18
-2.706711604632386e-02  1.066178748096903e-01 -6.137683155715400e-19
-1.077887626973462e-01  2.194499114092210e-02  1.692752795305137e-18
-1.096845659634720e-01  8.324421265452471e-03  1.866437283328252e-18
-1.098463422608643e-01  5.812150368754575e-03  1.895128956341405e-18
-1.094845185776781e-01 -1.063673783704492e-02  2.057696223203471e-18
-2.140897246018377e-02 -1.078965054957716e-01  1.489595600725808e-18
-9.868114435203687e-02  4.860073815666208e-02  1.256793745574829e-18
-1.095670244229668e-01 -9.750238925122386e-03  2.050056058856650e-18
-1.064548379259812e-01  2.770139855951398e-02  1.609869017748015e-18
-1.097955903866578e-01 -6.702859960137613e-03  2.022812950984410e-18
-4.321284020005722e-02  1.011565640077019e-01 -2.703229103867478e-19
-7.900289846272793e-02 -7.654111336064995e-02  2.192382950792924e-18
-1.094342940289980e-01 -1.114160178676198e-02  2.061989711130386e-18
-8.741808180066046e-02 -6.676884733386516e-02  2.241734692845416e-18
 8.642887077089050e-04  1.099966045159108e-01 -1.145556201290586e-18
-9.751905774344512e-02 -5.089237051691135e-02  2.258368576803919e-18
-1.083891104332407e-01  1.875635197714941e-02  1.736198808452303e-18
-7.887190481450994e-02 -7.667608904300512e-02  2.191438588671393e-18
-5.691329689650084e-02  9.413222953043614e-02  4.566554403657953e-20
-1.015121087277030e-01 -4.237088365440309e-02  2.241874500252951e-18
-1.047662649492287e-01  3.352655259026759e-02  1.519967505870051e-18
-1.063735856077608e-01 -2.801178832113975e-02  2.180855792013078e-18
-3.668780936803102e-02  1.037015170755712e-01 -4.125920856447615e-19
-6.765669618589391e-02 -8.673275887004640e-02  2.095179202311979e-18
-1.056262120009644e-01 -3.070998759894393e-02  2.195278404581327e-18
-1.098324209182357e-01 -6.069539952869723e-03  2.016961261219279e-18
-1.071332905191968e-01 -2.494910945363245e-02  2.162907734341030e-18
-1.098654490293081e-01 -5.439035722301680e-03  2.011070833928263e-18
-1.098889517526955e-01 -4.941485879138420e-03  2.006376949033152e-18
-1.098634810675829e-01  5.478642871442922e-03  1.898860630231999e-18
-1.098974818929947e-01 -4.747996796425165e-03  2.004540723019076e-18
-1.099967422731771e-01 -8.465750340127356e-04  1.966221488552804e-18
-1.099967422731771e-01 -8.465750340127356e-04  1.966221488552804e-18
-1.097008520078976e-01  8.106976547475914e-03  1.868961278401254e-18
-1.099978453161613e-01  6.884953172095241e-04  1.950468828306874e-18
-1.087605364799300e-01 -1.646650250046410e-02  2.104710812306561e-18
-1.080518180272362e-01  2.061078894678739e-02  1.711142621551466e-18
-1.099833094914546e-01  1.916150648273576e-03  1.937596433412696e-18
-1.087318992356716e-01  1.665455158819069e-02  1.763894379557344e-18
-1.086096103532966e-01 -1.743423468079549e-02  2.111967998455362e-18
-1.096529305985975e-01  8.731254843326685e-03  1.861694227052643e-18
-1.098392304385570e-01  5.945036304812401e-03  1.893637038260828e-18
-1.054834897913349e-01  3.119668862942530e-02  1.556669883296709e-18
-1.097205411823333e-01 -7.835996596213202e-03  2.033119928171022e-18
-1.061279109659685e-01  2.892864521541638e-02  1.591441448956259e-18
-6.091473352249489e-02  9.159364191843999e-02  1.429589473994093e-19
-1.040268105307759e-01 -3.575503727859902e-02  2.218651200320181e-18
-1.078889886535452e-01 -2.144682091395292e-02  2.140371541607318e-18
-1.082540204490713e-01 -1.952093892752133e-02  2.127079980041731e-18
-1.091456586758259e-01 -1.368302569682857e-02  2.082965308173187e-18
-1.098110486982561e-01 -6.444655443790833e-03  2.020435092471507e-18
-1.087201119218804e-01 -1.673132581996307e-02  2.106712372481014e-18
-1.074008854708719e-01 -2.377077617732806e-02  2.155562959345699e-18
-1.092415749674217e-01 -1.289489428561364e-02  2.076574489050626e-18
-1.090770286651520e-01 -1.421976854880472e-02  2.087258793089110e-18
-2.202488712371272e-02 -1.077724656263727e-01  1.499282072254980e-18
-6.288861954933610e-02  9.024977302563608e-02  1.918943684679018e-19
-1.085178570119900e-01  1.799651937251357e-02  1.746297011382774e-18
-1.083047117785574e-01  1.923770793425165e-02  1.729751076121501e-18
-1.094711201922488e-01  1.077375718373879e-02  1.837472724435399e-18
-1.080543216828821e-01 -2.059765922749975e-02  2.134589012228627e-18
-1.098830259823902e-01  5.071548181111119e-03  1.903391205362296e-18
-8.502273556461054e-02 -6.979351285836151e-02  2.230183988792088e-18
-1.069628631880550e-01  2.566994153895538e-02  1.639782416197010e-18
-9.343757891745899e-02 -5.804669539296430e-02  2.259241881670862e-18
-1.052467606574470e-01 -3.198623721405864e-02  2.201638616467755e-18
-5.778886199751535e-02 -9.359726186717267e-02  1.990099596768666e-18
-9.439066027556704e-02  5.648365473960108e-02  1.099445359308149e-18
-1.042750747004893e-01 -3.502440286724860e-02  2.215562354202443e-18
-1.064117205842811e-01  2.786656997717624e-02  1.607404616905815e-18
-5.042372448106731e-02 -9.776220133291484e-02  1.901821429216371e-18
-5.240818434573333e-02  9.671288545785195e-02 -6.102360987270428e-20
-8.428060296227463e-02 -7.068790536092712e-02  2.226166411942317e-18
-1.050064446382620e-01  3.276654672728865e-02  1.532050574086785e-18
-1.069633256134871e-01 -2.566801460384317e-02  2.167269495363151e-18
-1.053279730659172e-01  3.171778822404546e-02  1.548548168626713e-18
-1.006316287392909e-01 -4.442156342675802e-02  2.247275298292162e-18
-1.082083899626329e-01 -1.977231250245469e-02  2.128850703271146e-18
-9.564315249697904e-02  5.433587562963887e-02  1.143802602543029e-18
-1.053431000915006e-01 -3.166751116068402e-02  2.200078297200225e-18
-1.034278786380827e-01  3.745228858729466e-02  1.455813813716544e-18
-8.036457308935782e-02 -7.511015505352941e-02  2.201912998258715e-18
-1.095771424485011e-01  9.635862847761710e-03  1.851050967890982e-18
-1.089915214038951e-01 -1.486096437194589e-02  2.092325143532935e-18
-1.029572934501911e-01  3.872719619868185e-02  1.434339976394203e-18
-1.080201529717638e-01 -2.077610531251531e-02  2.135814407955531e-18
-1.094743275183575e-01  1.074111793080021e-02  1.837865159096374e-18
-1.096242753740285e-01 -9.083955565673488e-03  2.044229088345578e-18
-1.099583334949430e-01  3.027357761294035e-03  1.925734706345849e-18
-1.093774474576735e-01 -1.168648739544269e-02  2.066576560272436e-18
-1.099250040789939e-01  4.061216348970742e-03  1.914519048215188e-18
-1.093014748216987e-01 -1.237689790704945e-02  2.072318253792162e-18
-1.099999418251285e-01  1.131303156186204e-04  1.956417804562426e-18
-1.096518841341495e-01 -8.744387104367483e-03  2.041231476580456e-18
-1.096518841341495e-01 -8.744387104367483e-03  2.041231476580456e-18
-1.089249230634277e-01 -1.534148414027517e-02  2.096077112683417e-18
-1.090427148138881e-01  1.448055061166640e-02  1.791762783807269e-18
-1.099128102273789e-01 -4.378829514855504e-03  2.001020449303542e-18
-1.083082370444604e-01  1.921785077267853e-02  1.730017837554958e-18
-1.099910114498824e-01 -1.406200637105765e-03  1.971869451492084e-18
-1.096158944554783e-01  9.184534976001441e-03  1.856377836008020e-18
-1.099280043225020e-01  3.979179019840405e-03  1.915415344882231e-18
-1.099280043225020e-01  3.979179019840405e-03  1.915415344882231e-18
-1.099855108917459e-01 -1.785327387795929e-03  1.975666952136161e-18
-1.095362741140343e-01  1.008982919652800e-02  1.845659327809067e-18
-1.097030149214483e-01 -8.077655423726878e-03  2.035290984117446e-18

TENSORS stress double
0.000000000000000e+00 0.000000000000000e+00 0.000000000000000e+00
0.000000000000000e+00 0.000000000000000e+00 0.000000000000000e+00
0.000000000000000e+00 0.000000000000000e+00 0.000000000000000e+00

0.000000000000000e+00 0.000000000000000e+00 0.000000000000000e+00
0.000000000000000e+00 0.000000000000000e+00 0.000000000000000e+00
0.000000000000000e+00 0.000000000000000e+00 0.000000000000000e+00

0.000000000000000e+00 0.000000000000000e+00 0.000000000000000e+00
0.000000000000000e+00 0.000000000000000e+00 0.000000000000000e+00
0.000000000000000e+00 0.000000000000000e+00 0.000000000000000e+00

0.000000000000000e+00 0.000000000000000e+00 0.000000000000000e+00
0.000000000000000e+00 0.000000000000000e+00 0.000000000000000e+00
0.000000000000000e+00 0.000000000000000e+00 0.000000000000000e+00

0.000000000000000e+00 0.000000000000000e+00 0.000000000000000e+00
0.000000000000000e+00 0.000000000000000e+00 0.000000000000000e+00
0.000000000000000e+00 0.000000000000000e+00 0.000000000000000e+00

0.000000000000000e+00 0.000000000000000e+00 0.000000000000000e+00
0.000000000000000e+00 0.000000000000000e+00 0.000000000000000e+00
0.000000000000000e+00 0.000000000000000e+00 0.000000000000000e+00

0.000000000000000e+00 0.000000000000000e+00 0.000000000000000e+00
0.000000000000000e+00 0.000000000000000e+00 0.000000000000000e+00
0.000000000000000e+00 0.000000000000000e+00 0.000000000000000e+00

0.000000000000000e+00 0.000000000000000e+00 0.000000000000000e+00
0.000000000000000e+00 0.000000000000000e+00 0.000000000000000e+00
0.000000000000000e+00 0.000000000000000e+00 0.000000000000000e+00

0.000000000000000e+00 0.000000000000000e+00 0.000000000000000e+00
0.000000000000000e+00 0.000000000000000e+00 0.000000000000000e+00
0.000000000000000e+00 0.000000000000000e+00 0.000000000000000e+00

0.000000000000000e+00 0.000000000000000e+00 0.000000000000000e+00
0.000000000000000e+00 0.000000000000000e+00 0.000000000000000e+00
0.000000000000000e+00 0.000000000000000e+00 0.000000000000000e+00

0.000000000000000e+00 0.000000000000000e+00 0.000000000000000e+00
0.000000000000000e+00 0.000000000000000e+00 0.000000000000000e+00
0.000000000000000e+00 0.000000000000000e+00 0.000000000000000e+00

0.000000000000000e+00 0.000000000000000e+00 0.000000000000000e+00
0.000000000000000e+00 0.000000000000000e+00 0.000000000000000e+00
0.000000000000000e+00 0.000000000000000e+00 0.000000000000000e+00

0.000000000000000e+00 0.000000000000000e+00 0.000000000000000e+00
0.000000000000000e+00 0.000000000000000e+00 0.000000000000000e+00
0.000000000000000e+00 0.000000000000000e+00 0.000000000000000e+00

0.000000000000000e+00 0.000000000000000e+00 0.000000000000000e+00
0.000000000000000e+00 0.000000000000000e+00 0.000000000000000e+00
0.000000000000000e+00 0.000000000000000e+00 0.000000000000000e+00

0.000000000000000e+00 0.000000000000000e+00 0.000000000000000e+00
0.000000000000000e+00 0.000000000000000e+00 0.000000000000000e+00
0.000000000000000e+00 0.000000000000000e+00 0.000000000000000e+00

0.000000000000000e+00 0.000000000000000e+00 0.000000000000000e+00
0.000000000000000e+00 0.000000000000000e+00 0.000000000000000e+00
0.000000000000000e+00 0.000000000000000e+00 0.000000000000000e+00

0.000000000000000e+00 0.000000000000000e+00 0.000000000000000e+00
0.000000000000000e+00 0.000000000000000e+00 0.000000000000000e+00
0.000000000000000e+00 0.000000000000000e+00 0.000000000000000e+00

0.000000000000000e+00 0.000000000000000e+00 0.000000000000000e+00
0.000000000000000e+00 0.000000000000000e+00 0.000000000000000e+00
0.000000000000000e+00 0.000000000000000e+00 0.000000000000000e+00

0.000000000000000e+00 0.000000000000000e+00 0.000000000000000e+00
0.000000000000000e+00 0.000000000000000e+00 0.000000000000000e+00
0.000000000000000e+00 0.000000000000000e+00 0.000000000000000e+00

0.000000000000000e+00 0.000000000000000e+00 0.000000000000000e+00
0.000000000000000e+00 0.000000000000000e+00 0.000000000000000e+00
0.000000000000000e+00 0.000000000000000e+00 0.000000000000000e+00

0.000000000000000e+00 0.000000000000000e+00 0.000000000000000e+00
0.000000000000000e+00 0.000000000000000e+00 0.000000000000000e+00
0.000000000000000e+00 0.000000000000000e+00 0.000000000000000e+00

0.000000000000000e+00 0.000000000000000e+00 0.000000000000000e+00
0.000000000000000e+00 0.000000000000000e+00 0.000000000000000e+00
0.000000000000000e+00 0.000000000000000e+00 0.000000000000000e+00

0.000000000000000e+00 0.000000000000000e+00 0.000000000000000e+00
0.000000000000000e+00 0.000000000000000e+00 0.000000000000000e+00
0.000000000000000e+00 0.000000000000000e+00 0.000000000000000e+00

0.000000000000000e+00 0.000000000000000e+00 0.000000000000000e+00
0.000000000000000e+00 0.000000000000000e+00 0.000000000000000e+00
0.000000000000000e+00 0.000000000000000e+00 0.000000000000000e+00

0.000000000000000e+00 0.000000000000000e+00 0.000000000000000e+00
0.000000000000000e+00 0.000000000000000e+00 0.000000000000000e+00
0.000000000000000e+00 0.000000000000000e+00 0.000000000000000e+00

0.000000000000000e+00 0.000000000000000e+00 0.000000000000000e+00
0.000000000000000e+00 0.000000000000000e+00 0.000000000000000e+00
0.000000000000000e+00 0.000000000000000e+00 0.000000000000000e+00

0.000000000000000e+00 0.000000000000000e+00 0.000000000000000e+00
0.000000000000000e+00 0.000000000000000e+00 0.000000000000000e+00
0.000000000000000e+00 0.000000000000000e+00 0.000000000000000e+00

0.000000000000000e+00 0.000000000000000e+00 0.000000000000000e+00
0.000000000000000e+00 0.000000000000000e+00 0.000000000000000e+00
0.000000000000000e+00 0.000000000000000e+00 0.000000000000000e+00

0.000000000000000e+00 0.000000000000000e+00 0.000000000000000e+00
0.000000000000000e+00 0.000000000000000e+00 0.000000000000000e+00
0.000000000000000e+00 0.000000000000000e+00 0.000000000000000e+00

0.000000000000000e+00 0.000000000000000e+00 0.000000000000000e+00
0.000000000000000e+00 0.000000000000000e+00 0.000000000000000e+00
0.000000000000000e+00 0.000000000000000e+00 0.000000000000000e+00

0.000000000000000e+00 0.000000000000000e+00 0.000000000000000e+00
0.000000000000000e+00 0.000000000000000e+00 0.000000000000000e+00
0.000000000000000e+00 0.000000000000000e+00 0.000000000000000e+00

0.000000000000000e+00 0.000000000000000e+00 0.000000000000000e+00
0.000000000000000e+00 0.000000000000000e+00 0.000000000000000e+00
0.000000000000000e+00 0.000000000000000e+00 0.000000000000000e+00

0.000000000000000e+00 0.000000000000000e+00 0.000000000000000e+00
0.000000000000000e+00 0.000000000000000e+00 0.000000000000000e+00
0.000000000000000e+00 0.000000000000000e+00 0.000000000000000e+00

0.000000000000000e+00 0.000000000000000e+00 0.000000000000000e+00
0.000000000000000e+00 0.000000000000000e+00 0.000000000000000e+00
0.000000000000000e+00 0.000000000000000e+00 0.000000000000000e+00

0.000000000000000e+00 0.000000000000000e+00 0.000000000000000e+00
0.000000000000000e+00 0.000000000000000e+00 0.000000000000000e+00
0.000000000000000e+00 0.000000000000000e+00 0.000000000000000e+00

0.000000000000000e+00 0.000000000000000e+00 0.000000000000000e+00
0.000000000000000e+00 0.000000000000000e+00 0.000000000000000e+00
0.000000000000000e+00 0.000000000000000e+00 0.000000000000000e+00

0.000000000000000e+00 0.000000000000000e+00 0.000000000000000e+00
0.000000000000000e+00 0.000000000000000e+00 0.000000000000000e+00
0.000000000000000e+00 0.000000000000000e+00 0.000000000000000e+00

0.000000000000000e+00 0.000000000000000e+00 0.000000000000000e+00
0.000000000000000e+00 0.000000000000000e+00 0.000000000000000e+00
0.000000000000000e+00 0.000000000000000e+00 0.000000000000000e+00

0.000000000000000e+00 0.000000000000000e+00 0.000000000000000e+00
0.000000000000000e+00 0.000000000000000e+00 0.000000000000000e+00
0.000000000000000e+00 0.000000000000000e+00 0.000000000000000e+00

0.000000000000000e+00 0.000000000000000e+00 0.000000000000000e+00
0.000000000000000e+00 0.000000000000000e+00 0.000000000000000e+00
0.000000000000000e+00 0.000000000000000e+00 0.000000000000000e+00

0.000000000000000e+00 0.000000000000000e+00 0.000000000000000e+00
0.000000000000000e+00 0.000000000000000e+00 0.000000000000000e+00
0.000000000000000e+00 0.000000000000000e+00 0.000000000000000e+00

0.000000000000000e+00 0.000000000000000e+00 0.000000000000000e+00
0.000000000000000e+00 0.000000000000000e+00 0.000000000000000e+00
0.000000000000000e+00 0.000000000000000e+00 0.000000000000000e+00

0.000000000000000e+00 0.000000000000000e+00 0.000000000000000e+00
0.000000000000000e+00 0.000000000000000e+00 0.000000000000000e+00
0.000000000000000e+00 0.000000000000000e+00 0.000000000000000e+00

0.000000000000000e+00 0.000000000000000e+00 0.000000000000000e+00
0.000000000000000e+00 0.000000000000000e+00 0.000000000000000e+00
0.000000000000000e+00 0.000000000000000e+00 0.000000000000000e+00

0.000000000000000e+00 0.000000000000000e+00 0.000000000000000e+00
0.000000000000000e+00 0.000000000000000e+00 0.000000000000000e+00
0.000000000000000e+00 0.000000000000000e+00 0.000000000000000e+00

0.000000000000000e+00 0.000000000000000e+00 0.000000000000000e+00
0.000000000000000e+00 0.000000000000000e+00 0.000000000000000e+00
0.000000000000000e+00 0.000000000000000e+00 0.000000000000000e+00

0.000000000000000e+00 0.000000000000000e+00 0.000000000000000e+00
0.000000000000000e+00 0.000000000000000e+00 0.000000000000000e+00
0.000000000000000e+00 0.000000000000000e+00 0.000000000000000e+00

0.000000000000000e+00 0.000000000000000e+00 0.000000000000000e+00
0.000000000000000e+00 0.000000000000000e+00 0.000000000000000e+00
0.000000000000000e+00 0.000000000000000e+00 0.000000000000000e+00

0.000000000000000e+00 0.000000000000000e+00 0.000000000000000e+00
0.000000000000000e+00 0.000000000000000e+00 0.000000000000000e+00
0.000000000000000e+00 0.000000000000000e+00 0.000000000000000e+00

0.000000000000000e+00 0.000000000000000e+00 0.000000000000000e+00
0.000000000000000e+00 0.000000000000000e+00 0.000000000000000e+00
0.000000000000000e+00 0.000000000000000e+00 0.000000000000000e+00

0.000000000000000e+00 0.000000000000000e+00 0.000000000000000e+00
0.000000000000000e+00 0.000000000000000e+00 0.000000000000000e+00
0.000000000000000e+00 0.000000000000000e+00 0.000000000000000e+00

0.000000000000000e+00 0.000000000000000e+00 0.000000000000000e+00
0.000000000000000e+00 0.000000000000000e+00 0.000000000000000e+00
0.000000000000000e+00 0.000000000000000e+00 0.000000000000000e+00

0.000000000000000e+00 0.000000000000000e+00 0.000000000000000e+00
0.000000000000000e+00 0.000000000000000e+00 0.000000000000000e+00
0.000000000000000e+00 0.000000000000000e+00 0.000000000000000e+00

0.000000000000000e+00 0.000000000000000e+00 0.000000000000000e+00
0.000000000000000e+00 0.000000000000000e+00 0.000000000000000e+00
0.000000000000000e+00 0.000000000000000e+00 0.000000000000000e+00

0.000000000000000e+00 0.000000000000000e+00 0.000000000000000e+00
0.000000000000000e+00 0.000000000000000e+00 0.000000000000000e+00
0.000000000000000e+00 0.000000000000000e+00 0.000000000000000e+00

0.000000000000000e+00 0.000000000000000e+00 0.000000000000000e+00
0.000000000000000e+00 0.000000000000000e+00 0.000000000000000e+00
0.000000000000000e+00 0.000000000000000e+00 0.000000000000000e+00

0.000000000000000e+00 0.000000000000000e+00 0.000000000000000e+00
0.000000000000000e+00 0.000000000000000e+00 0.000000000000000e+00
0.000000000000000e+00 0.000000000000000e+00 0.000000000000000e+00

0.000000000000000e+00 0.000000000000000e+00 0.000000000000000e+00
0.000000000000000e+00 0.000000000000000e+00 0.000000000000000e+00
0.000000000000000e+00 0.000000000000000e+00 0.000000000000000e+00

0.000000000000000e+00 0.000000000000000e+00 0.000000000000000e+00
0.000000000000000e+00 0.000000000000000e+00 0.000000000000000e+00
0.000000000000000e+00 0.000000000000000e+00 0.000000000000000e+00

0.000000000000000e+00 0.000000000000000e+00 0.000000000000000e+00
0.000000000000000e+00 0.000000000000000e+00 0.000000000000000e+00
0.000000000000000e+00 0.000000000000000e+00 0.000000000000000e+00

0.000000000000000e+00 0.000000000000000e+00 0.000000000000000e+00
0.000000000000000e+00 0.000000000000000e+00 0.000000000000000e+00
0.000000000000000e+00 0.000000000000000e+00 0.000000000000000e+00

0.000000000000000e+00 0.000000000000000e+00 0.000000000000000e+00
0.000000000000000e+00 0.000000000000000e+00 0.000000000000000e+00
0.000000000000000e+00 0.000000000000000e+00 0.000000000000000e+00

0.000000000000000e+00 0.000000000000000e+00 0.000000000000000e+00
0.000000000000000e+00 0.000000000000000e+00 0.000000000000000e+00
0.000000000000000e+00 0.000000000000000e+00 0.000000000000000e+00

0.000000000000000e+00 0.000000000000000e+00 0.000000000000000e+00
0.000000000000000e+00 0.000000000000000e+00 0.000000000000000e+00
0.000000000000000e+00 0.000000000000000e+00 0.000000000000000e+00

0.000000000000000e+00 0.000000000000000e+00 0.000000000000000e+00
0.000000000000000e+00 0.000000000000000e+00 0.000000000000000e+00
0.000000000000000e+00 0.000000000000000e+00 0.000000000000000e+00

0.000000000000000e+00 0.000000000000000e+00 0.000000000000000e+00
0.000000000000000e+00 0.000000000000000e+00 0.000000000000000e+00
0.000000000000000e+00 0.000000000000000e+00 0.000000000000000e+00

0.000000000000000e+00 0.000000000000000e+00 0.000000000000000e+00
0.000000000000000e+00 0.000000000000000e+00 0.000000000000000e+00
0.000000000000000e+00 0.000000000000000e+00 0.000000000000000e+00

0.000000000000000e+00 0.000000000000000e+00 0.000000000000000e+00
0.000000000000000e+00 0.000000000000000e+00 0.000000000000000e+00
0.000000000000000e+00 0.000000000000000e+00 0.000000000000000e+00

0.000000000000000e+00 0.000000000000000e+00 0.000000000000000e+00
0.000000000000000e+00 0.000000000000000e+00 0.000000000000000e+00
0.000000000000000e+00 0.000000000000000e+00 0.000000000000000e+00

0.000000000000000e+00 0.000000000000000e+00 0.000000000000000e+00
0.000000000000000e+00 0.000000000000000e+00 0.000000000000000e+00
0.000000000000000e+00 0.000000000000000e+00 0.000000000000000e+00

0.000000000000000e+00 0.000000000000000e+00 0.000000000000000e+00
0.000000000000000e+00 0.000000000000000e+00 0.000000000000000e+00
0.000000000000000e+00 0.000000000000000e+00 0.000000000000000e+00

0.000000000000000e+00 0.000000000000000e+00 0.000000000000000e+00
0.000000000000000e+00 0.000000000000000e+00 0.000000000000000e+00
0.000000000000000e+00 0.000000000000000e+00 0.000000000000000e+00

0.000000000000000e+00 0.000000000000000e+00 0.000000000000000e+00
0.000000000000000e+00 0.000000000000000e+00 0.000000000000000e+00
0.000000000000000e+00 0.000000000000000e+00 0.000000000000000e+00

0.000000000000000e+00 0.000000000000000e+00 0.000000000000000e+00
0.000000000000000e+00 0.000000000000000e+00 0.000000000000000e+00
0.000000000000000e+00 0.000000000000000e+00 0.000000000000000e+00

0.000000000000000e+00 0.000000000000000e+00 0.000000000000000e+00
0.000000000000000e+00 0.000000000000000e+00 0.000000000000000e+00
0.000000000000000e+00 0.000000000000000e+00 0.000000000000000e+00

0.000000000000000e+00 0.000000000000000e+00 0.000000000000000e+00
0.000000000000000e+00 0.000000000000000e+00 0.000000000000000e+00
0.000000000000000e+00 0.000000000000000e+00 0.000000000000000e+00

0.000000000000000e+00 0.000000000000000e+00 0.000000000000000e+00
0.000000000000000e+00 0.000000000000000e+00 0.000000000000000e+00
0.000000000000000e+00 0.000000000000000e+00 0.000000000000000e+00

0.000000000000000e+00 0.000000000000000e+00 0.000000000000000e+00
0.000000000000000e+00 0.000000000000000e+00 0.000000000000000e+00
0.000000000000000e+00 0.000000000000000e+00 0.000000000000000e+00

0.000000000000000e+00 0.000000000000000e+00 0.000000000000000e+00
0.000000000000000e+00 0.000000000000000e+00 0.000000000000000e+00
0.000000000000000e+00 0.000000000000000e+00 0.000000000000000e+00

0.000000000000000e+00 0.000000000000000e+00 0.000000000000000e+00
0.000000000000000e+00 0.000000000000000e+00 0.000000000000000e+00
0.000000000000000e+00 0.000000000000000e+00 0.000000000000000e+00

0.000000000000000e+00 0.000000000000000e+00 0.000000000000000e+00
0.000000000000000e+00 0.000000000000000e+00 0.000000000000000e+00
0.000000000000000e+00 0.000000000000000e+00 0.000000000000000e+00

0.000000000000000e+00 0.000000000000000e+00 0.000000000000000e+00
0.000000000000000e+00 0.000000000000000e+00 0.000000000000000e+00
0.000000000000000e+00 0.000000000000000e+00 0.000000000000000e+00

0.000000000000000e+00 0.000000000000000e+00 0.000000000000000e+00
0.000000000000000e+00 0.000000000000000e+00 0.000000000000000e+00
0.000000000000000e+00 0.000000000000000e+00 0.000000000000000e+00

0.000000000000000e+00 0.000000000000000e+00 0.000000000000000e+00
0.000000000000000e+00 0.000000000000000e+00 0.000000000000000e+00
0.000000000000000e+00 0.000000000000000e+00 0.000000000000000e+00

0.000000000000000e+00 0.000000000000000e+00 0.000000000000000e+00
0.000000000000000e+00 0.000000000000000e+00 0.000000000000000e+00
0.000000000000000e+00 0.000000000000000e+00 0.000000000000000e+00

0.000000000000000e+00 0.000000000000000e+00 0.000000000000000e+00
0.000000000000000e+00 0.000000000000000e+00 0.000000000000000e+00
0.000000000000000e+00 0.000000000000000e+00 0.000000000000000e+00

0.000000000000000e+00 0.000000000000000e+00 0.000000000000000e+00
0.000000000000000e+00 0.000000000000000e+00 0.000000000000000e+00
0.000000000000000e+00 0.000000000000000e+00 0.000000000000000e+00

0.000000000000000e+00 0.000000000000000e+00 0.000000000000000e+00
0.000000000000000e+00 0.000000000000000e+00 0.000000000000000e+00
0.000000000000000e+00 0.000000000000000e+00 0.000000000000000e+00

0.000000000000000e+00 0.000000000000000e+00 0.000000000000000e+00
0.000000000000000e+00 0.000000000000000e+00 0.000000000000000e+00
0.000000000000000e+00 0.000000000000000e+00 0.000000000000000e+00

0.000000000000000e+00 0.000000000000000e+00 0.000000000000000e+00
0.000000000000000e+00 0.000000000000000e+00 0.000000000000000e+00
0.000000000000000e+00 0.000000000000000e+00 0.000000000000000e+00

0.000000000000000e+00 0.000000000000000e+00 0.000000000000000e+00
0.000000000000000e+00 0.000000000000000e+00 0.000000000000000e+00
0.000000000000000e+00 0.000000000000000e+00 0.000000000000000e+00

0.000000000000000e+00 0.000000000000000e+00 0.000000000000000e+00
0.000000000000000e+00 0.000000000000000e+00 0.000000000000000e+00
0.000000000000000e+00 0.000000000000000e+00 0.000000000000000e+00

0.000000000000000e+00 0.000000000000000e+00 0.000000000000000e+00
0.000000000000000e+00 0.000000000000000e+00 0.000000000000000e+00
0.000000000000000e+00 0.000000000000000e+00 0.000000000000000e+00

0.000000000000000e+00 0.000000000000000e+00 0.000000000000000e+00
0.000000000000000e+00 0.000000000000000e+00 0.000000000000000e+00
0.000000000000000e+00 0.000000000000000e+00 0.000000000000000e+00

0.000000000000000e+00 0.000000000000000e+00 0.000000000000000e+00
0.000000000000000e+00 0.000000000000000e+00 0.000000000000000e+00
0.000000000000000e+00 0.000000000000000e+00 0.000000000000000e+00

0.000000000000000e+00 0.000000000000000e+00 0.000000000000000e+00
0.000000000000000e+00 0.000000000000000e+00 0.000000000000000e+00
0.000000000000000e+00 0.000000000000000e+00 0.000000000000000e+00

0.000000000000000e+00 0.000000000000000e+00 0.000000000000000e+00
0.000000000000000e+00 0.000000000000000e+00 0.000000000000000e+00
0.000000000000000e+00 0.000000000000000e+00 0.000000000000000e+00

0.000000000000000e+00 0.000000000000000e+00 0.000000000000000e+00
0.000000000000000e+00 0.000000000000000e+00 0.000000000000000e+00
0.000000000000000e+00 0.000000000000000e+00 0.000000000000000e+00

0.000000000000000e+00 0.000000000000000e+00 0.000000000000000e+00
0.000000000000000e+00 0.000000000000000e+00 0.000000000000000e+00
0.000000000000000e+00 0.000000000000000e+00 0.000000000000000e+00

0.000000000000000e+00 0.000000000000000e+00 0.000000000000000e+00
0.000000000000000e+00 0.000000000000000e+00 0.000000000000000e+00
0.000000000000000e+00 0.000000000000000e+00 0.000000000000000e+00

0.000000000000000e+00 0.000000000000000e+00 0.000000000000000e+00
0.000000000000000e+00 0.000000000000000e+00 0.000000000000000e+00
0.000000000000000e+00 0.000000000000000e+00 0.000000000000000e+00

0.000000000000000e+00 0.000000000000000e+00 0.000000000000000e+00
0.000000000000000e+00 0.000000000000000e+00 0.000000000000000e+00
0.000000000000000e+00 0.000000000000000e+00 0.000000000000000e+00

0.000000000000000e+00 0.000000000000000e+00 0.000000000000000e+00
0.000000000000000e+00 0.000000000000000e+00 0.000000000000000e+00
0.000000000000000e+00 0.000000000000000e+00 0.000000000000000e+00

0.000000000000000e+00 0.000000000000000e+00 0.000000000000000e+00
0.000000000000000e+00 0.000000000000000e+00 0.000000000000000e+00
0.000000000000000e+00 0.000000000000000e+00 0.000000000000000e+00

0.000000000000000e+00 0.000000000000000e+00 0.000000000000000e+00
0.000000000000000e+00 0.000000000000000e+00 0.000000000000000e+00
0.000000000000000e+00 0.000000000000000e+00 0.000000000000000e+00

0.000000000000000e+00 0.000000000000000e+00 0.000000000000000e+00
0.000000000000000e+00 0.000000000000000e+00 0.000000000000000e+00
0.000000000000000e+00 0.000000000000000e+00 0.000000000000000e+00

0.000000000000000e+00 0.000000000000000e+00 0.000000000000000e+00
0.000000000000000e+00 0.000000000000000e+00 0.000000000000000e+00
0.000000000000000e+00 0.000000000000000e+00 0.000000000000000e+00

0.000000000000000e+00 0.000000000000000e+00 0.000000000000000e+00
0.000000000000000e+00 0.000000000000000e+00 0.000000000000000e+00
0.000000000000000e+00 0.000000000000000e+00 0.000000000000000e+00

0.000000000000000e+00 0.000000000000000e+00 0.000000000000000e+00
0.000000000000000e+00 0.000000000000000e+00 0.000000000000000e+00
0.000000000000000e+00 0.000000000000000e+00 0.000000000000000e+00

0.000000000000000e+00 0.000000000000000e+00 0.000000000000000e+00
0.000000000000000e+00 0.000000000000000e+00 0.000000000000000e+00
0.000000000000000e+00 0.000000000000000e+00 0.000000000000000e+00

0.000000000000000e+00 0.000000000000000e+00 0.000000000000000e+00
0.000000000000000e+00 0.000000000000000e+00 0.000000000000000e+00
0.000000000000000e+00 0.000000000000000e+00 0.000000000000000e+00

0.000000000000000e+00 0.000000000000000e+00 0.000000000000000e+00
0.000000000000000e+00 0.000000000000000e+00 0.000000000000000e+00
0.000000000000000e+00 0.000000000000000e+00 0.000000000000000e+00

0.000000000000000e+00 0.000000000000000e+00 0.000000000000000e+00
0.000000000000000e+00 0.000000000000000e+00 0.000000000000000e+00
0.000000000000000e+00 0.000000000000000e+00 0.000000000000000e+00

0.000000000000000e+00 0.000000000000000e+00 0.000000000000000e+00
0.000000000000000e+00 0.000000000000000e+00 0.000000000000000e+00
0.000000000000000e+00 0.000000000000000e+00 0.000000000000000e+00

0.000000000000000e+00 0.000000000000000e+00 0.000000000000000e+00
0.000000000000000e+00 0.000000000000000e+00 0.000000000000000e+00
0.000000000000000e+00 0.000000000000000e+00 0.000000000000000e+00

0.000000000000000e+00 0.000000000000000e+00 0.000000000000000e+00
0.000000000000000e+00 0.000000000000000e+00 0.000000000000000e+00
0.000000000000000e+00 0.000000000000000e+00 0.000000000000000e+00

0.000000000000000e+00 0.000000000000000e+00 0.000000000000000e+00
0.000000000000000e+00 0.000000000000000e+00 0.000000000000000e+00
0.000000000000000e+00 0.000000000000000e+00 0.000000000000000e+00

0.000000000000000e+00 0.000000000000000e+00 0.000000000000000e+00
0.000000000000000e+00 0.000000000000000e+00 0.000000000000000e+00
0.000000000000000e+00 0.000000000000000e+00 0.000000000000000e+00

0.000000000000000e+00 0.000000000000000e+00 0.000000000000000e+00
0.000000000000000e+00 0.000000000000000e+00 0.000000000000000e+00
0.000000000000000e+00 0.000000000000000e+00 0.000000000000000e+00

0.000000000000000e+00 0.000000000000000e+00 0.000000000000000e+00
0.000000000000000e+00 0.000000000000000e+00 0.000000000000000e+00
0.000000000000000e+00 0.000000000000000e+00 0.000000000000000e+00

0.000000000000000e+00 0.000000000000000e+00 0.000000000000000e+00
0.000000000000000e+00 0.000000000000000e+00 0.000000000000000e+00
0.000000000000000e+00 0.000000000000000e+00 0.000000000000000e+00

0.000000000000000e+00 0.000000000000000e+00 0.000000000000000e+00
0.000000000000000e+00 0.000000000000000e+00 0.000000000000000e+00
0.000000000000000e+00 0.000000000000000e+00 0.000000000000000e+00

0.000000000000000e+00 0.000000000000000e+00 0.000000000000000e+00
0.000000000000000e+00 0.000000000000000e+00 0.000000000000000e+00
0.000000000000000e+00 0.000000000000000e+00 0.000000000000000e+00

0.000000000000000e+00 0.000000000000000e+00 0.000000000000000e+00
0.000000000000000e+00 0.000000000000000e+00 0.000000000000000e+00
0.000000000000000e+00 0.000000000000000e+00 0.000000000000000e+00

0.000000000000000e+00 0.000000000000000e+00 0.000000000000000e+00
0.000000000000000e+00 0.000000000000000e+00 0.000000000000000e+00
0.000000000000000e+00 0.000000000000000e+00 0.000000000000000e+00

0.000000000000000e+00 0.000000000000000e+00 0.000000000000000e+00
0.000000000000000e+00 0.000000000000000e+00 0.000000000000000e+00
0.000000000000000e+00 0.000000000000000e+00 0.000000000000000e+00

0.000000000000000e+00 0.000000000000000e+00 0.000000000000000e+00
0.000000000000000e+00 0.000000000000000e+00 0.000000000000000e+00
0.000000000000000e+00 0.000000000000000e+00 0.000000000000000e+00

0.000000000000000e+00 0.000000000000000e+00 0.000000000000000e+00
0.000000000000000e+00 0.000000000000000e+00 0.000000000000000e+00
0.000000000000000e+00 0.000000000000000e+00 0.000000000000000e+00

0.000000000000000e+00 0.000000000000000e+00 0.000000000000000e+00
0.000000000000000e+00 0.000000000000000e+00 0.000000000000000e+00
0.000000000000000e+00 0.000000000000000e+00 0.000000000000000e+00

0.000000000000000e+00 0.000000000000000e+00 0.000000000000000e+00
0.000000000000000e+00 0.000000000000000e+00 0.000000000000000e+00
0.000000000000000e+00 0.000000000000000e+00 0.000000000000000e+00

0.000000000000000e+00 0.000000000000000e+00 0.000000000000000e+00
0.000000000000000e+00 0.000000000000000e+00 0.000000000000000e+00
0.000000000000000e+00 0.000000000000000e+00 0.000000000000000e+00

0.000000000000000e+00 0.000000000000000e+00 0.000000000000000e+00
0.000000000000000e+00 0.000000000000000e+00 0.000000000000000e+00
0.000000000000000e+00 0.000000000000000e+00 0.000000000000000e+00

0.000000000000000e+00 0.000000000000000e+00 0.000000000000000e+00
0.000000000000000e+00 0.000000000000000e+00 0.000000000000000e+00
0.000000000000000e+00 0.000000000000000e+00 0.000000000000000e+00

0.000000000000000e+00 0.000000000000000e+00 0.000000000000000e+00
0.000000000000000e+00 0.000000000000000e+00 0.000000000000000e+00
0.000000000000000e+00 0.000000000000000e+00 0.000000000000000e+00

0.000000000000000e+00 0.000000000000000e+00 0.000000000000000e+00
0.000000000000000e+00 0.000000000000000e+00 0.000000000000000e+00
0.000000000000000e+00 0.000000000000000e+00 0.000000000000000e+00

0.000000000000000e+00 0.000000000000000e+00 0.000000000000000e+00
0.000000000000000e+00 0.000000000000000e+00 0.000000000000000e+00
0.000000000000000e+00 0.000000000000000e+00 0.000000000000000e+00

0.000000000000000e+00 0.000000000000000e+00 0.000000000000000e+00
0.000000000000000e+00 0.000000000000000e+00 0.000000000000000e+00
0.000000000000000e+00 0.000000000000000e+00 0.000000000000000e+00

0.000000000000000e+00 0.000000000000000e+00 0.000000000000000e+00
0.000000000000000e+00 0.000000000000000e+00 0.000000000000000e+00
0.000000000000000e+00 0.000000000000000e+00 0.000000000000000e+00

0.000000000000000e+00 0.000000000000000e+00 0.000000000000000e+00
0.000000000000000e+00 0.000000000000000e+00 0.000000000000000e+00
0.000000000000000e+00 0.000000000000000e+00 0.000000000000000e+00

0.000000000000000e+00 0.000000000000000e+00 0.000000000000000e+00
0.000000000000000e+00 0.000000000000000e+00 0.000000000000000e+00
0.000000000000000e+00 0.000000000000000e+00 0.000000000000000e+00

0.000000000000000e+00 0.000000000000000e+00 0.000000000000000e+00
0.000000000000000e+00 0.000000000000000e+00 0.000000000000000e+00
0.000000000000000e+00 0.000000000000000e+00 0.000000000000000e+00

0.000000000000000e+00 0.000000000000000e+00 0.000000000000000e+00
0.000000000000000e+00 0.000000000000000e+00 0.000000000000000e+00
0.000000000000000e+00 0.000000000000000e+00 0.000000000000000e+00

0.000000000000000e+00 0.000000000000000e+00 0.000000000000000e+00
0.000000000000000e+00 0.000000000000000e+00 0.000000000000000e+00
0.000000000000000e+00 0.000000000000000e+00 0.000000000000000e+00

0.000000000000000e+00 0.000000000000000e+00 0.000000000000000e+00
0.000000000000000e+00 0.000000000000000e+00 0.000000000000000e+00
0.000000000000000e+00 0.000000000000000e+00 0.000000000000000e+00

0.000000000000000e+00 0.000000000000000e+00 0.000000000000000e+00
0.000000000000000e+00 0.000000000000000e+00 0.000000000000000e+00
0.000000000000000e+00 0.000000000000000e+00 0.000000000000000e+00

0.000000000000000e+00 0.000000000000000e+00 0.000000000000000e+00
0.000000000000000e+00 0.000000000000000e+00 0.000000000000000e+00
0.000000000000000e+00 0.000000000000000e+00 0.000000000000000e+00

0.000000000000000e+00 0.000000000000000e+00 0.000000000000000e+00
0.000000000000000e+00 0.000000000000000e+00 0.000000000000000e+00
0.000000000000000e+00 0.000000000000000e+00 0.000000000000000e+00

0.000000000000000e+00 0.000000000000000e+00 0.000000000000000e+00
0.000000000000000e+00 0.000000000000000e+00 0.000000000000000e+00
0.000000000000000e+00 0.000000000000000e+00 0.000000000000000e+00

0.000000000000000e+00 0.000000000000000e+00 0.000000000000000e+00
0.000000000000000e+00 0.000000000000000e+00 0.000000000000000e+00
0.000000000000000e+00 0.000000000000000e+00 0.000000000000000e+00

0.000000000000000e+00 0.000000000000000e+00 0.000000000000000e+00
0.000000000000000e+00 0.000000000000000e+00 0.000000000000000e+00
0.000000000000000e+00 0.000000000000000e+00 0.000000000000000e+00

0.000000000000000e+00 0.000000000000000e+00 0.000000000000000e+00
0.000000000000000e+00 0.000000000000000e+00 0.000000000000000e+00
0.000000000000000e+00 0.000000000000000e+00 0.000000000000000e+00

0.000000000000000e+00 0.000000000000000e+00 0.000000000000000e+00
0.000000000000000e+00 0.000000000000000e+00 0.000000000000000e+00
0.000000000000000e+00 0.000000000000000e+00 0.000000000000000e+00

0.000000000000000e+00 0.000000000000000e+00 0.000000000000000e+00
0.000000000000000e+00 0.000000000000000e+00 0.000000000000000e+00
0.000000000000000e+00 0.000000000000000e+00 0.000000000000000e+00

0.000000000000000e+00 0.000000000000000e+00 0.000000000000000e+00
0.000000000000000e+00 0.000000000000000e+00 0.000000000000000e+00
0.000000000000000e+00 0.000000000000000e+00 0.000000000000000e+00

0.000000000000000e+00 0.000000000000000e+00 0.000000000000000e+00
0.000000000000000e+00 0.000000000000000e+00 0.000000000000000e+00
0.000000000000000e+00 0.000000000000000e+00 0.000000000000000e+00

0.000000000000000e+00 0.000000000000000e+00 0.000000000000000e+00
0.000000000000000e+00 0.000000000000000e+00 0.000000000000000e+00
0.000000000000000e+00 0.000000000000000e+00 0.000000000000000e+00

0.000000000000000e+00 0.000000000000000e+00 0.000000000000000e+00
0.000000000000000e+00 0.000000000000000e+00 0.000000000000000e+00
0.000000000000000e+00 0.000000000000000e+00 0.000000000000000e+00

0.000000000000000e+00 0.000000000000000e+00 0.000000000000000e+00
0.000000000000000e+00 0.000000000000000e+00 0.000000000000000e+00
0.000000000000000e+00 0.000000000000000e+00 0.000000000000000e+00

0.000000000000000e+00 0.000000000000000e+00 0.000000000000000e+00
0.000000000000000e+00 0.000000000000000e+00 0.000000000000000e+00
0.000000000000000e+00 0.000000000000000e+00 0.000000000000000e+00

0.000000000000000e+00 0.000000000000000e+00 0.000000000000000e+00
0.000000000000000e+00 0.000000000000000e+00 0.000000000000000e+00
0.000000000000000e+00 0.000000000000000e+00 0.000000000000000e+00

0.000000000000000e+00 0.000000000000000e+00 0.000000000000000e+00
0.000000000000000e+00 0.000000000000000e+00 0.000000000000000e+00
0.000000000000000e+00 0.000000000000000e+00 0.000000000000000e+00

0.000000000000000e+00 0.000000000000000e+00 0.000000000000000e+00
0.000000000000000e+00 0.000000000000000e+00 0.000000000000000e+00
0.000000000000000e+00 0.000000000000000e+00 0.000000000000000e+00

0.000000000000000e+00 0.000000000000000e+00 0.000000000000000e+00
0.000000000000000e+00 0.000000000000000e+00 0.000000000000000e+00
0.000000000000000e+00 0.000000000000000e+00 0.000000000000000e+00

0.000000000000000e+00 0.000000000000000e+00 0.000000000000000e+00
0.000000000000000e+00 0.000000000000000e+00 0.000000000000000e+00
0.000000000000000e+00 0.000000000000000e+00 0.000000000000000e+00

0.000000000000000e+00 0.000000000000000e+00 0.000000000000000e+00
0.000000000000000e+00 0.000000000000000e+00 0.000000000000000e+00
0.000000000000000e+00 0.000000000000000e+00 0.000000000000000e+00

0.000000000000000e+00 0.000000000000000e+00 0.000000000000000e+00
0.000000000000000e+00 0.000000000000000e+00 0.000000000000000e+00
0.000000000000000e+00 0.000000000000000e+00 0.000000000000000e+00

0.000000000000000e+00 0.000000000000000e+00 0.000000000000000e+00
0.000000000000000e+00 0.000000000000000e+00 0.000000000000000e+00
0.000000000000000e+00 0.000000000000000e+00 0.000000000000000e+00

0.000000000000000e+00 0.000000000000000e+00 0.000000000000000e+00
0.000000000000000e+00 0.000000000000000e+00 0.000000000000000e+00
0.000000000000000e+00 0.000000000000000e+00 0.000000000000000e+00

0.000000000000000e+00 0.000000000000000e+00 0.000000000000000e+00
0.000000000000000e+00 0.000000000000000e+00 0.000000000000000e+00
0.000000000000000e+00 0.000000000000000e+00 0.000000000000000e+00

0.000000000000000e+00 0.000000000000000e+00 0.000000000000000e+00
0.000000000000000e+00 0.000000000000000e+00 0.000000000000000e+00
0.000000000000000e+00 0.000000000000000e+00 0.000000000000000e+00

0.000000000000000e+00 0.000000000000000e+00 0.000000000000000e+00
0.000000000000000e+00 0.000000000000000e+00 0.000000000000000e+00
0.000000000000000e+00 0.000000000000000e+00 0.000000000000000e+00

0.000000000000000e+00 0.000000000000000e+00 0.000000000000000e+00
0.000000000000000e+00 0.000000000000000e+00 0.000000000000000e+00
0.000000000000000e+00 0.000000000000000e+00 0.000000000000000e+00

0.000000000000000e+00 0.000000000000000e+00 0.000000000000000e+00
0.000000000000000e+00 0.000000000000000e+00 0.000000000000000e+00
0.000000000000000e+00 0.000000000000000e+00 0.000000000000000e+00

0.000000000000000e+00 0.000000000000000e+00 0.000000000000000e+00
0.000000000000000e+00 0.000000000000000e+00 0.000000000000000e+00
0.000000000000000e+00 0.000000000000000e+00 0.000000000000000e+00

0.000000000000000e+00 0.000000000000000e+00 0.000000000000000e+00
0.000000000000000e+00 0.000000000000000e+00 0.000000000000000e+00
0.000000000000000e+00 0.000000000000000e+00 0.000000000000000e+00

0.000000000000000e+00 0.000000000000000e+00 0.000000000000000e+00
0.000000000000000e+00 0.000000000000000e+00 0.000000000000000e+00
0.000000000000000e+00 0.000000000000000e+00 0.000000000000000e+00

0.000000000000000e+00 0.000000000000000e+00 0.000000000000000e+00
0.000000000000000e+00 0.000000000000000e+00 0.000000000000000e+00
0.000000000000000e+00 0.000000000000000e+00 0.000000000000000e+00

0.000000000000000e+00 0.000000000000000e+00 0.000000000000000e+00
0.000000000000000e+00 0.000000000000000e+00 0.000000000000000e+00
0.000000000000000e+00 0.000000000000000e+00 0.000000000000000e+00

0.000000000000000e+00 0.000000000000000e+00 0.000000000000000e+00
0.000000000000000e+00 0.000000000000000e+00 0.000000000000000e+00
0.000000000000000e+00 0.000000000000000e+00 0.000000000000000e+00

0.000000000000000e+00 0.000000000000000e+00 0.000000000000000e+00
0.000000000000000e+00 0.000000000000000e+00 0.000000000000000e+00
0.000000000000000e+00 0.000000000000000e+00 0.000000000000000e+00

0.000000000000000e+00 0.000000000000000e+00 0.000000000000000e+00
0.000000000000000e+00 0.000000000000000e+00 0.000000000000000e+00
0.000000000000000e+00 0.000000000000000e+00 0.000000000000000e+00

0.000000000000000e+00 0.000000000000000e+00 0.000000000000000e+00
0.000000000000000e+00 0.000000000000000e+00 0.000000000000000e+00
0.000000000000000e+00 0.000000000000000e+00 0.000000000000000e+00

0.000000000000000e+00 0.000000000000000e+00 0.000000000000000e+00
0.000000000000000e+00 0.000000000000000e+00 0.000000000000000e+00
0.000000000000000e+00 0.000000000000000e+00 0.000000000000000e+00

0.000000000000000e+00 0.000000000000000e+00 0.000000000000000e+00
0.000000000000000e+00 0.000000000000000e+00 0.000000000000000e+00
0.000000000000000e+00 0.000000000000000e+00 0.000000000000000e+00

0.000000000000000e+00 0.000000000000000e+00 0.000000000000000e+00
0.000000000000000e+00 0.000000000000000e+00 0.000000000000000e+00
0.000000000000000e+00 0.000000000000000e+00 0.000000000000000e+00

0.000000000000000e+00 0.000000000000000e+00 0.000000000000000e+00
0.000000000000000e+00 0.000000000000000e+00 0.000000000000000e+00
0.000000000000000e+00 0.000000000000000e+00 0.000000000000000e+00

0.000000000000000e+00 0.000000000000000e+00 0.000000000000000e+00
0.000000000000000e+00 0.000000000000000e+00 0.000000000000000e+00
0.000000000000000e+00 0.000000000000000e+00 0.000000000000000e+00

0.000000000000000e+00 0.000000000000000e+00 0.000000000000000e+00
0.000000000000000e+00 0.000000000000000e+00 0.000000000000000e+00
0.000000000000000e+00 0.000000000000000e+00 0.000000000000000e+00

0.000000000000000e+00 0.000000000000000e+00 0.000000000000000e+00
0.000000000000000e+00 0.000000000000000e+00 0.000000000000000e+00
0.000000000000000e+00 0.000000000000000e+00 0.000000000000000e+00

0.000000000000000e+00 0.000000000000000e+00 0.000000000000000e+00
0.000000000000000e+00 0.000000000000000e+00 0.000000000000000e+00
0.000000000000000e+00 0.000000000000000e+00 0.000000000000000e+00

0.000000000000000e+00 0.000000000000000e+00 0.000000000000000e+00
0.000000000000000e+00 0.000000000000000e+00 0.000000000000000e+00
0.000000000000000e+00 0.000000000000000e+00 0.000000000000000e+00

0.000000000000000e+00 0.000000000000000e+00 0.000000000000000e+00
0.000000000000000e+00 0.000000000000000e+00 0.000000000000000e+00
0.000000000000000e+00 0.000000000000000e+00 0.000000000000000e+00

0.000000000000000e+00 0.000000000000000e+00 0.000000000000000e+00
0.000000000000000e+00 0.000000000000000e+00 0.000000000000000e+00
0.000000000000000e+00 0.000000000000000e+00 0.000000000000000e+00

0.000000000000000e+00 0.000000000000000e+00 0.000000000000000e+00
0.000000000000000e+00 0.000000000000000e+00 0.000000000000000e+00
0.000000000000000e+00 0.000000000000000e+00 0.000000000000000e+00

0.000000000000000e+00 0.000000000000000e+00 0.000000000000000e+00
0.000000000000000e+00 0.000000000000000e+00 0.000000000000000e+00
0.000000000000000e+00 0.000000000000000e+00 0.000000000000000e+00

0.000000000000000e+00 0.000000000000000e+00 0.000000000000000e+00
0.000000000000000e+00 0.000000000000000e+00 0.000000000000000e+00
0.000000000000000e+00 0.000000000000000e+00 0.000000000000000e+00

0.000000000000000e+00 0.000000000000000e+00 0.000000000000000e+00
0.000000000000000e+00 0.000000000000000e+00 0.000000000000000e+00
0.000000000000000e+00 0.000000000000000e+00 0.000000000000000e+00

0.000000000000000e+00 0.000000000000000e+00 0.000000000000000e+00
0.000000000000000e+00 0.000000000000000e+00 0.000000000000000e+00
0.000000000000000e+00 0.000000000000000e+00 0.000000000000000e+00

0.000000000000000e+00 0.000000000000000e+00 0.000000000000000e+00
0.000000000000000e+00 0.000000000000000e+00 0.000000000000000e+00
0.000000000000000e+00 0.000000000000000e+00 0.000000000000000e+00

0.000000000000000e+00 0.000000000000000e+00 0.000000000000000e+00
0.000000000000000e+00 0.000000000000000e+00 0.000000000000000e+00
0.000000000000000e+00 0.000000000000000e+00 0.000000000000000e+00

0.000000000000000e+00 0.000000000000000e+00 0.000000000000000e+00
0.000000000000000e+00 0.000000000000000e+00 0.000000000000000e+00
0.000000000000000e+00 0.000000000000000e+00 0.000000000000000e+00

0.000000000000000e+00 0.000000000000000e+00 0.000000000000000e+00
0.000000000000000e+00 0.000000000000000e+00 0.000000000000000e+00
0.000000000000000e+00 0.000000000000000e+00 0.000000000000000e+00

0.000000000000000e+00 0.000000000000000e+00 0.000000000000000e+00
0.000000000000000e+00 0.000000000000000e+00 0.000000000000000e+00
0.000000000000000e+00 0.000000000000000e+00 0.000000000000000e+00

0.000000000000000e+00 0.000000000000000e+00 0.000000000000000e+00
0.000000000000000e+00 0.000000000000000e+00 0.000000000000000e+00
0.000000000000000e+00 0.000000000000000e+00 0.000000000000000e+00

0.000000000000000e+00 0.000000000000000e+00 0.000000000000000e+00
0.000000000000000e+00 0.000000000000000e+00 0.000000000000000e+00
0.000000000000000e+00 0.000000000000000e+00 0.000000000000000e+00

0.000000000000000e+00 0.000000000000000e+00 0.000000000000000e+00
0.000000000000000e+00 0.000000000000000e+00 0.000000000000000e+00
0.000000000000000e+00 0.000000000000000e+00 0.000000000000000e+00

0.000000000000000e+00 0.000000000000000e+00 0.000000000000000e+00
0.000000000000000e+00 0.000000000000000e+00 0.000000000000000e+00
0.000000000000000e+00 0.000000000000000e+00 0.000000000000000e+00

0.000000000000000e+00 0.000000000000000e+00 0.000000000000000e+00
0.000000000000000e+00 0.000000000000000e+00 0.000000000000000e+00
0.000000000000000e+00 0.000000000000000e+00 0.000000000000000e+00

0.000000000000000e+00 0.000000000000000e+00 0.000000000000000e+00
0.000000000000000e+00 0.000000000000000e+00 0.000000000000000e+00
0.000000000000000e+00 0.000000000000000e+00 0.000000000000000e+00

0.000000000000000e+00 0.000000000000000e+00 0.000000000000000e+00
0.000000000000000e+00 0.000000000000000e+00 0.000000000000000e+00
0.000000000000000e+00 0.000000000000000e+00 0.000000000000000e+00

0.000000000000000e+00 0.000000000000000e+00 0.000000000000000e+00
0.000000000000000e+00 0.000000000000000e+00 0.000000000000000e+00
0.000000000000000e+00 0.000000000000000e+00 0.000000000000000e+00

0.000000000000000e+00 0.000000000000000e+00 0.000000000000000e+00
0.000000000000000e+00 0.000000000000000e+00 0.000000000000000e+00
0.000000000000000e+00 0.000000000000000e+00 0.000000000000000e+00

0.000000000000000e+00 0.000000000000000e+00 0.000000000000000e+00
0.000000000000000e+00 0.000000000000000e+00 0.000000000000000e+00
0.000000000000000e+00 0.000000000000000e+00 0.000000000000000e+00

0.000000000000000e+00 0.000000000000000e+00 0.000000000000000e+00
0.000000000000000e+00 0.000000000000000e+00 0.000000000000000e+00
0.000000000000000e+00 0.000000000000000e+00 0.000000000000000e+00

0.000000000000000e+00 0.000000000000000e+00 0.000000000000000e+00
0.000000000000000e+00 0.000000000000000e+00 0.000000000000000e+00
0.000000000000000e+00 0.000000000000000e+00 0.000000000000000e+00

0.000000000000000e+00 0.000000000000000e+00 0.000000000000000e+00
0.000000000000000e+00 0.000000000000000e+00 0.000000000000000e+00
0.000000000000000e+00 0.000000000000000e+00 0.000000000000000e+00

0.000000000000000e+00 0.000000000000000e+00 0.000000000000000e+00
0.000000000000000e+00 0.000000000000000e+00 0.000000000000000e+00
0.000000000000000e+00 0.000000000000000e+00 0.000000000000000e+00

0.000000000000000e+00 0.000000000000000e+00 0.000000000000000e+00
0.000000000000000e+00 0.000000000000000e+00 0.000000000000000e+00
0.000000000000000e+00 0.000000000000000e+00 0.000000000000000e+00

0.000000000000000e+00 0.000000000000000e+00 0.000000000000000e+00
0.000000000000000e+00 0.000000000000000e+00 0.000000000000000e+00
0.000000000000000e+00 0.000000000000000e+00 0.000000000000000e+00

0.000000000000000e+00 0.000000000000000e+00 0.000000000000000e+00
0.000000000000000e+00 0.000000000000000e+00 0.000000000000000e+00
0.000000000000000e+00 0.000000000000000e+00 0.000000000000000e+00

0.000000000000000e+00 0.000000000000000e+00 0.000000000000000e+00
0.000000000000000e+00 0.000000000000000e+00 0.000000000000000e+00
0.000000000000000e+00 0.000000000000000e+00 0.000000000000000e+00

0.000000000000000e+00 0.000000000000000e+00 0.000000000000000e+00
0.000000000000000e+00 0.000000000000000e+00 0.000000000000000e+00
0.000000000000000e+00 0.000000000000000e+00 0.000000000000000e+00

0.000000000000000e+00 0.000000000000000e+00 0.000000000000000e+00
0.000000000000000e+00 0.000000000000000e+00 0.000000000000000e+00
0.000000000000000e+00 0.000000000000000e+00 0.000000000000000e+00

0.000000000000000e+00 0.000000000000000e+00 0.000000000000000e+00
0.000000000000000e+00 0.000000000000000e+00 0.000000000000000e+00
0.000000000000000e+00 0.000000000000000e+00 0.000000000000000e+00

0.000000000000000e+00 0.000000000000000e+00 0.000000000000000e+00
0.000000000000000e+00 0.000000000000000e+00 0.000000000000000e+00
0.000000000000000e+00 0.000000000000000e+00 0.000000000000000e+00

0.000000000000000e+00 0.000000000000000e+00 0.000000000000000e+00
0.000000000000000e+00 0.000000000000000e+00 0.000000000000000e+00
0.000000000000000e+00 0.000000000000000e+00 0.000000000000000e+00

0.000000000000000e+00 0.000000000000000e+00 0.000000000000000e+00
0.000000000000000e+00 0.000000000000000e+00 0.000000000000000e+00
0.000000000000000e+00 0.000000000000000e+00 0.000000000000000e+00

0.000000000000000e+00 0.000000000000000e+00 0.000000000000000e+00
0.000000000000000e+00 0.000000000000000e+00 0.000000000000000e+00
0.000000000000000e+00 0.000000000000000e+00 0.000000000000000e+00

0.000000000000000e+00 0.000000000000000e+00 0.000000000000000e+00
0.000000000000000e+00 0.000000000000000e+00 0.000000000000000e+00
0.000000000000000e+00 0.000000000000000e+00 0.000000000000000e+00

0.000000000000000e+00 0.000000000000000e+00 0.000000000000000e+00
0.000000000000000e+00 0.000000000000000e+00 0.000000000000000e+00
0.000000000000000e+00 0.000000000000000e+00 0.000000000000000e+00

0.000000000000000e+00 0.000000000000000e+00 0.000000000000000e+00
0.000000000000000e+00 0.000000000000000e+00 0.000000000000000e+00
0.000000000000000e+00 0.000000000000000e+00 0.000000000000000e+00

0.000000000000000e+00 0.000000000000000e+00 0.000000000000000e+00
0.000000000000000e+00 0.000000000000000e+00 0.000000000000000e+00
0.000000000000000e+00 0.000000000000000e+00 0.000000000000000e+00

0.000000000000000e+00 0.000000000000000e+00 0.000000000000000e+00
0.000000000000000e+00 0.000000000000000e+00 0.000000000000000e+00
0.000000000000000e+00 0.000000000000000e+00 0.000000000000000e+00

0.000000000000000e+00 0.000000000000000e+00 0.000000000000000e+00
0.000000000000000e+00 0.000000000000000e+00 0.000000000000000e+00
0.000000000000000e+00 0.000000000000000e+00 0.000000000000000e+00

0.000000000000000e+00 0.000000000000000e+00 0.000000000000000e+00
0.000000000000000e+00 0.000000000000000e+00 0.000000000000000e+00
0.000000000000000e+00 0.000000000000000e+00 0.000000000000000e+00

0.000000000000000e+00 0.000000000000000e+00 0.000000000000000e+00
0.000000000000000e+00 0.000000000000000e+00 0.000000000000000e+00
0.000000000000000e+00 0.000000000000000e+00 0.000000000000000e+00

0.000000000000000e+00 0.000000000000000e+00 0.000000000000000e+00
0.000000000000000e+00 0.000000000000000e+00 0.000000000000000e+00
0.000000000000000e+00 0.000000000000000e+00 0.000000000000000e+00

0.000000000000000e+00 0.000000000000000e+00 0.000000000000000e+00
0.000000000000000e+00 0.000000000000000e+00 0.000000000000000e+00
0.000000000000000e+00 0.000000000000000e+00 0.000000000000000e+00

0.000000000000000e+00 0.000000000000000e+00 0.000000000000000e+00
0.000000000000000e+00 0.000000000000000e+00 0.000000000000000e+00
0.000000000000000e+00 0.000000000000000e+00 0.000000000000000e+00

0.000000000000000e+00 0.000000000000000e+00 0.000000000000000e+00
0.000000000000000e+00 0.000000000000000e+00 0.000000000000000e+00
0.000000000000000e+00 0.000000000000000e+00 0.000000000000000e+00

0.000000000000000e+00 0.000000000000000e+00 0.000000000000000e+00
0.000000000000000e+00 0.000000000000000e+00 0.000000000000000e+00
0.000000000000000e+00 0.000000000000000e+00 0.000000000000000e+00

0.000000000000000e+00 0.000000000000000e+00 0.000000000000000e+00
0.000000000000000e+00 0.000000000000000e+00 0.000000000000000e+00
0.000000000000000e+00 0.000000000000000e+00 0.000000000000000e+00

0.000000000000000e+00 0.000000000000000e+00 0.000000000000000e+00
0.000000000000000e+00 0.000000000000000e+00 0.000000000000000e+00
0.000000000000000e+00 0.000000000000000e+00 0.000000000000000e+00

0.000000000000000e+00 0.000000000000000e+00 0.000000000000000e+00
0.000000000000000e+00 0.000000000000000e+00 0.000000000000000e+00
0.000000000000000e+00 0.000000000000000e+00 0.000000000000000e+00

0.000000000000000e+00 0.000000000000000e+00 0.000000000000000e+00
0.000000000000000e+00 0.000000000000000e+00 0.000000000000000e+00
0.000000000000000e+00 0.000000000000000e+00 0.000000000000000e+00

0.000000000000000e+00 0.000000000000000e+00 0.000000000000000e+00
0.000000000000000e+00 0.000000000000000e+00 0.000000000000000e+00
0.000000000000000e+00 0.000000000000000e+00 0.000000000000000e+00

0.000000000000000e+00 0.000000000000000e+00 0.000000000000000e+00
0.000000000000000e+00 0.000000000000000e+00 0.000000000000000e+00
0.000000000000000e+00 0.000000000000000e+00 0.000000000000000e+00

0.000000000000000e+00 0.000000000000000e+00 0.000000000000000e+00
0.000000000000000e+00 0.000000000000000e+00 0.000000000000000e+00
0.000000000000000e+00 0.000000000000000e+00 0.000000000000000e+00

0.000000000000000e+00 0.000000000000000e+00 0.000000000000000e+00
0.000000000000000e+00 0.000000000000000e+00 0.000000000000000e+00
0.000000000000000e+00 0.000000000000000e+00 0.000000000000000e+00

0.000000000000000e+00 0.000000000000000e+00 0.000000000000000e+00
0.000000000000000e+00 0.000000000000000e+00 0.000000000000000e+00
0.000000000000000e+00 0.000000000000000e+00 0.000000000000000e+00

0.000000000000000e+00 0.000000000000000e+00 0.000000000000000e+00
0.000000000000000e+00 0.000000000000000e+00 0.000000000000000e+00
0.000000000000000e+00 0.000000000000000e+00 0.000000000000000e+00

0.000000000000000e+00 0.000000000000000e+00 0.000000000000000e+00
0.000000000000000e+00 0.000000000000000e+00 0.000000000000000e+00
0.000000000000000e+00 0.000000000000000e+00 0.000000000000000e+00

0.000000000000000e+00 0.000000000000000e+00 0.000000000000000e+00
0.000000000000000e+00 0.000000000000000e+00 0.000000000000000e+00
0.000000000000000e+00 0.000000000000000e+00 0.000000000000000e+00

0.000000000000000e+00 0.000000000000000e+00 0.000000000000000e+00
0.000000000000000e+00 0.000000000000000e+00 0.000000000000000e+00
0.000000000000000e+00 0.000000000000000e+00 0.000000000000000e+00

0.000000000000000e+00 0.000000000000000e+00 0.000000000000000e+00
0.000000000000000e+00 0.000000000000000e+00 0.000000000000000e+00
0.000000000000000e+00 0.000000000000000e+00 0.000000000000000e+00

0.000000000000000e+00 0.000000000000000e+00 0.000000000000000e+00
0.000000000000000e+00 0.000000000000000e+00 0.000000000000000e+00
0.000000000000000e+00 0.000000000000000e+00 0.000000000000000e+00

0.000000000000000e+00 0.000000000000000e+00 0.000000000000000e+00
0.000000000000000e+00 0.000000000000000e+00 0.000000000000000e+00
0.000000000000000e+00 0.000000000000000e+00 0.000000000000000e+00

0.000000000000000e+00 0.000000000000000e+00 0.000000000000000e+00
0.000000000000000e+00 0.000000000000000e+00 0.000000000000000e+00
0.000000000000000e+00 0.000000000000000e+00 0.000000000000000e+00

0.000000000000000e+00 0.000000000000000e+00 0.000000000000000e+00
0.000000000000000e+00 0.000000000000000e+00 0.000000000000000e+00
0.000000000000000e+00 0.000000000000000e+00 0.000000000000000e+00

0.000000000000000e+00 0.000000000000000e+00 0.000000000000000e+00
0.000000000000000e+00 0.000000000000000e+00 0.000000000000000e+00
0.000000000000000e+00 0.000000000000000e+00 0.000000000000000e+00

0.000000000000000e+00 0.000000000000000e+00 0.000000000000000e+00
0.000000000000000e+00 0.000000000000000e+00 0.000000000000000e+00
0.000000000000000e+00 0.000000000000000e+00 0.000000000000000e+00

0.000000000000000e+00 0.000000000000000e+00 0.000000000000000e+00
0.000000000000000e+00 0.000000000000000e+00 0.000000000000000e+00
0.000000000000000e+00 0.000000000000000e+00 0.000000000000000e+00

0.000000000000000e+00 0.000000000000000e+00 0.000000000000000e+00
0.000000000000000e+00 0.000000000000000e+00 0.000000000000000e+00
0.000000000000000e+00 0.000000000000000e+00 0.000000000000000e+00

0.000000000000000e+00 0.000000000000000e+00 0.000000000000000e+00
0.000000000000000e+00 0.000000000000000e+00 0.000000000000000e+00
0.000000000000000e+00 0.000000000000000e+00 0.000000000000000e+00

0.000000000000000e+00 0.000000000000000e+00 0.000000000000000e+00
0.000000000000000e+00 0.000000000000000e+00 0.000000000000000e+00
0.000000000000000e+00 0.000000000000000e+00 0.000000000000000e+00

0.000000000000000e+00 0.000000000000000e+00 0.000000000000000e+00
0.000000000000000e+00 0.000000000000000e+00 0.000000000000000e+00
0.000000000000000e+00 0.000000000000000e+00 0.000000000000000e+00

0.000000000000000e+00 0.000000000000000e+00 0.000000000000000e+00
0.000000000000000e+00 0.000000000000000e+00 0.000000000000000e+00
0.000000000000000e+00 0.000000000000000e+00 0.000000000000000e+00

0.000000000000000e+00 0.000000000000000e+00 0.000000000000000e+00
0.000000000000000e+00 0.000000000000000e+00 0.000000000000000e+00
0.000000000000000e+00 0.000000000000000e+00 0.000000000000000e+00

0.000000000000000e+00 0.000000000000000e+00 0.000000000000000e+00
0.000000000000000e+00 0.000000000000000e+00 0.000000000000000e+00
0.000000000000000e+00 0.000000000000000e+00 0.000000000000000e+00

0.000000000000000e+00 0.000000000000000e+00 0.000000000000000e+00
0.000000000000000e+00 0.000000000000000e+00 0.000000000000000e+00
0.000000000000000e+00 0.000000000000000e+00 0.000000000000000e+00

0.000000000000000e+00 0.000000000000000e+00 0.000000000000000e+00
0.000000000000000e+00 0.000000000000000e+00 0.000000000000000e+00
0.000000000000000e+00 0.000000000000000e+00 0.000000000000000e+00

0.000000000000000e+00 0.000000000000000e+00 0.000000000000000e+00
0.000000000000000e+00 0.000000000000000e+00 0.000000000000000e+00
0.000000000000000e+00 0.000000000000000e+00 0.000000000000000e+00

0.000000000000000e+00 0.000000000000000e+00 0.000000000000000e+00
0.000000000000000e+00 0.000000000000000e+00 0.000000000000000e+00
0.000000000000000e+00 0.000000000000000e+00 0.000000000000000e+00

0.000000000000000e+00 0.000000000000000e+00 0.000000000000000e+00
0.000000000000000e+00 0.000000000000000e+00 0.000000000000000e+00
0.000000000000000e+00 0.000000000000000e+00 0.000000000000000e+00

0.000000000000000e+00 0.000000000000000e+00 0.000000000000000e+00
0.000000000000000e+00 0.000000000000000e+00 0.000000000000000e+00
0.000000000000000e+00 0.000000000000000e+00 0.000000000000000e+00

0.000000000000000e+00 0.000000000000000e+00 0.000000000000000e+00
0.000000000000000e+00 0.000000000000000e+00 0.000000000000000e+00
0.000000000000000e+00 0.000000000000000e+00 0.000000000000000e+00

0.000000000000000e+00 0.000000000000000e+00 0.000000000000000e+00
0.000000000000000e+00 0.000000000000000e+00 0.000000000000000e+00
0.000000000000000e+00 0.000000000000000e+00 0.000000000000000e+00

0.000000000000000e+00 0.000000000000000e+00 0.000000000000000e+00
0.000000000000000e+00 0.000000000000000e+00 0.000000000000000e+00
0.000000000000000e+00 0.000000000000000e+00 0.000000000000000e+00

0.000000000000000e+00 0.000000000000000e+00 0.000000000000000e+00
0.000000000000000e+00 0.000000000000000e+00 0.000000000000000e+00
0.000000000000000e+00 0.000000000000000e+00 0.000000000000000e+00

0.000000000000000e+00 0.000000000000000e+00 0.000000000000000e+00
0.000000000000000e+00 0.000000000000000e+00 0.000000000000000e+00
0.000000000000000e+00 0.000000000000000e+00 0.000000000000000e+00

0.000000000000000e+00 0.000000000000000e+00 0.000000000000000e+00
0.000000000000000e+00 0.000000000000000e+00 0.000000000000000e+00
0.000000000000000e+00 0.000000000000000e+00 0.000000000000000e+00

0.000000000000000e+00 0.000000000000000e+00 0.000000000000000e+00
0.000000000000000e+00 0.000000000000000e+00 0.000000000000000e+00
0.000000000000000e+00 0.000000000000000e+00 0.000000000000000e+00

0.000000000000000e+00 0.000000000000000e+00 0.000000000000000e+00
0.000000000000000e+00 0.000000000000000e+00 0.000000000000000e+00
0.000000000000000e+00 0.000000000000000e+00 0.000000000000000e+00

0.000000000000000e+00 0.000000000000000e+00 0.000000000000000e+00
0.000000000000000e+00 0.000000000000000e+00 0.000000000000000e+00
0.000000000000000e+00 0.000000000000000e+00 0.000000000000000e+00

0.000000000000000e+00 0.000000000000000e+00 0.000000000000000e+00
0.000000000000000e+00 0.000000000000000e+00 0.000000000000000e+00
0.000000000000000e+00 0.000000000000000e+00 0.000000000000000e+00

0.000000000000000e+00 0.000000000000000e+00 0.000000000000000e+00
0.000000000000000e+00 0.000000000000000e+00 0.000000000000000e+00
0.000000000000000e+00 0.000000000000000e+00 0.000000000000000e+00

0.000000000000000e+00 0.000000000000000e+00 0.000000000000000e+00
0.000000000000000e+00 0.000000000000000e+00 0.000000000000000e+00
0.000000000000000e+00 0.000000000000000e+00 0.000000000000000e+00

0.000000000000000e+00 0.000000000000000e+00 0.000000000000000e+00
0.000000000000000e+00 0.000000000000000e+00 0.000000000000000e+00
0.000000000000000e+00 0.000000000000000e+00 0.000000000000000e+00

0.000000000000000e+00 0.000000000000000e+00 0.000000000000000e+00
0.000000000000000e+00 0.000000000000000e+00 0.000000000000000e+00
0.000000000000000e+00 0.000000000000000e+00 0.000000000000000e+00

0.000000000000000e+00 0.000000000000000e+00 0.000000000000000e+00
0.000000000000000e+00 0.000000000000000e+00 0.000000000000000e+00
0.000000000000000e+00 0.000000000000000e+00 0.000000000000000e+00

0.000000000000000e+00 0.000000000000000e+00 0.000000000000000e+00
0.000000000000000e+00 0.000000000000000e+00 0.000000000000000e+00
0.000000000000000e+00 0.000000000000000e+00 0.000000000000000e+00

0.000000000000000e+00 0.000000000000000e+00 0.000000000000000e+00
0.000000000000000e+00 0.000000000000000e+00 0.000000000000000e+00
0.000000000000000e+00 0.000000000000000e+00 0.000000000000000e+00

0.000000000000000e+00 0.000000000000000e+00 0.000000000000000e+00
0.000000000000000e+00 0.000000000000000e+00 0.000000000000000e+00
0.000000000000000e+00 0.000000000000000e+00 0.000000000000000e+00

0.000000000000000e+00 0.000000000000000e+00 0.000000000000000e+00
0.000000000000000e+00 0.000000000000000e+00 0.000000000000000e+00
0.000000000000000e+00 0.000000000000000e+00 0.000000000000000e+00

0.000000000000000e+00 0.000000000000000e+00 0.000000000000000e+00
0.000000000000000e+00 0.000000000000000e+00 0.000000000000000e+00
0.000000000000000e+00 0.000000000000000e+00 0.000000000000000e+00

0.000000000000000e+00 0.000000000000000e+00 0.000000000000000e+00
0.000000000000000e+00 0.000000000000000e+00 0.000000000000000e+00
0.000000000000000e+00 0.000000000000000e+00 0.000000000000000e+00

0.000000000000000e+00 0.000000000000000e+00 0.000000000000000e+00
0.000000000000000e+00 0.000000000000000e+00 0.000000000000000e+00
0.000000000000000e+00 0.000000000000000e+00 0.000000000000000e+00

0.000000000000000e+00 0.000000000000000e+00 0.000000000000000e+00
0.000000000000000e+00 0.000000000000000e+00 0.000000000000000e+00
0.000000000000000e+00 0.000000000000000e+00 0.000000000000000e+00

0.000000000000000e+00 0.000000000000000e+00 0.000000000000000e+00
0.000000000000000e+00 0.000000000000000e+00 0.000000000000000e+00
0.000000000000000e+00 0.000000000000000e+00 0.000000000000000e+00

0.000000000000000e+00 0.000000000000000e+00 0.000000000000000e+00
0.000000000000000e+00 0.000000000000000e+00 0.000000000000000e+00
0.000000000000000e+00 0.000000000000000e+00 0.000000000000000e+00

0.000000000000000e+00 0.000000000000000e+00 0.000000000000000e+00
0.000000000000000e+00 0.000000000000000e+00 0.000000000000000e+00
0.000000000000000e+00 0.000000000000000e+00 0.000000000000000e+00

0.000000000000000e+00 0.000000000000000e+00 0.000000000000000e+00
0.000000000000000e+00 0.000000000000000e+00 0.000000000000000e+00
0.000000000000000e+00 0.000000000000000e+00 0.000000000000000e+00

0.000000000000000e+00 0.000000000000000e+00 0.000000000000000e+00
0.000000000000000e+00 0.000000000000000e+00 0.000000000000000e+00
0.000000000000000e+00 0.000000000000000e+00 0.000000000000000e+00

0.000000000000000e+00 0.000000000000000e+00 0.000000000000000e+00
0.000000000000000e+00 0.000000000000000e+00 0.000000000000000e+00
0.000000000000000e+00 0.000000000000000e+00 0.000000000000000e+00

0.000000000000000e+00 0.000000000000000e+00 0.000000000000000e+00
0.000000000000000e+00 0.000000000000000e+00 0.000000000000000e+00
0.000000000000000e+00 0.000000000000000e+00 0.000000000000000e+00

0.000000000000000e+00 0.000000000000000e+00 0.000000000000000e+00
0.000000000000000e+00 0.000000000000000e+00 0.000000000000000e+00
0.000000000000000e+00 0.000000000000000e+00 0.000000000000000e+00

0.000000000000000e+00 0.000000000000000e+00 0.000000000000000e+00
0.000000000000000e+00 0.000000000000000e+00 0.000000000000000e+00
0.000000000000000e+00 0.000000000000000e+00 0.000000000000000e+00

0.000000000000000e+00 0.000000000000000e+00 0.000000000000000e+00
0.000000000000000e+00 0.000000000000000e+00 0.000000000000000e+00
0.000000000000000e+00 0.000000000000000e+00 0.000000000000000e+00

0.000000000000000e+00 0.000000000000000e+00 0.000000000000000e+00
0.000000000000000e+00 0.000000000000000e+00 0.000000000000000e+00
0.000000000000000e+00 0.000000000000000e+00 0.000000000000000e+00

0.000000000000000e+00 0.000000000000000e+00 0.000000000000000e+00
0.000000000000000e+00 0.000000000000000e+00 0.000000000000000e+00
0.000000000000000e+00 0.000000000000000e+00 0.000000000000000e+00

0.000000000000000e+00 0.000000000000000e+00 0.000000000000000e+00
0.000000000000000e+00 0.000000000000000e+00 0.000000000000000e+00
0.000000000000000e+00 0.000000000000000e+00 0.000000000000000e+00

0.000000000000000e+00 0.000000000000000e+00 0.000000000000000e+00
0.000000000000000e+00 0.000000000000000e+00 0.000000000000000e+00
0.000000000000000e+00 0.000000000000000e+00 0.000000000000000e+00

0.000000000000000e+00 0.000000000000000e+00 0.000000000000000e+00
0.000000000000000e+00 0.000000000000000e+00 0.000000000000000e+00
0.000000000000000e+00 0.000000000000000e+00 0.000000000000000e+00

0.000000000000000e+00 0.000000000000000e+00 0.000000000000000e+00
0.000000000000000e+00 0.000000000000000e+00 0.000000000000000e+00
0.000000000000000e+00 0.000000000000000e+00 0.000000000000000e+00

0.000000000000000e+00 0.000000000000000e+00 0.000000000000000e+00
0.000000000000000e+00 0.000000000000000e+00 0.000000000000000e+00
0.000000000000000e+00 0.000000000000000e+00 0.000000000000000e+00

0.000000000000000e+00 0.000000000000000e+00 0.000000000000000e+00
0.000000000000000e+00 0.000000000000000e+00 0.000000000000000e+00
0.000000000000000e+00 0.000000000000000e+00 0.000000000000000e+00

0.000000000000000e+00 0.000000000000000e+00 0.000000000000000e+00
0.000000000000000e+00 0.000000000000000e+00 0.000000000000000e+00
0.000000000000000e+00 0.000000000000000e+00 0.000000000000000e+00

0.000000000000000e+00 0.000000000000000e+00 0.000000000000000e+00
0.000000000000000e+00 0.000000000000000e+00 0.000000000000000e+00
0.000000000000000e+00 0.000000000000000e+00 0.000000000000000e+00

0.000000000000000e+00 0.000000000000000e+00 0.000000000000000e+00
0.000000000000000e+00 0.000000000000000e+00 0.000000000000000e+00
0.000000000000000e+00 0.000000000000000e+00 0.000000000000000e+00

0.000000000000000e+00 0.000000000000000e+00 0.000000000000000e+00
0.000000000000000e+00 0.000000000000000e+00 0.000000000000000e+00
0.000000000000000e+00 0.000000000000000e+00 0.000000000000000e+00

0.000000000000000e+00 0.000000000000000e+00 0.000000000000000e+00
0.000000000000000e+00 0.000000000000000e+00 0.000000000000000e+00
0.000000000000000e+00 0.000000000000000e+00 0.000000000000000e+00

0.000000000000000e+00 0.000000000000000e+00 0.000000000000000e+00
0.000000000000000e+00 0.000000000000000e+00 0.000000000000000e+00
0.000000000000000e+00 0.000000000000000e+00 0.000000000000000e+00

0.000000000000000e+00 0.000000000000000e+00 0.000000000000000e+00
0.000000000000000e+00 0.000000000000000e+00 0.000000000000000e+00
0.000000000000000e+00 0.000000000000000e+00 0.000000000000000e+00

0.000000000000000e+00 0.000000000000000e+00 0.000000000000000e+00
0.000000000000000e+00 0.000000000000000e+00 0.000000000000000e+00
0.000000000000000e+00 0.000000000000000e+00 0.000000000000000e+00

0.000000000000000e+00 0.000000000000000e+00 0.000000000000000e+00
0.000000000000000e+00 0.000000000000000e+00 0.000000000000000e+00
0.000000000000000e+00 0.000000000000000e+00 0.000000000000000e+00

0.000000000000000e+00 0.000000000000000e+00 0.000000000000000e+00
0.000000000000000e+00 0.000000000000000e+00 0.000000000000000e+00
0.000000000000000e+00 0.000000000000000e+00 0.000000000000000e+00

0.000000000000000e+00 0.000000000000000e+00 0.000000000000000e+00
0.000000000000000e+00 0.000000000000000e+00 0.000000000000000e+00
0.000000000000000e+00 0.000000000000000e+00 0.000000000000000e+00

0.000000000000000e+00 0.000000000000000e+00 0.000000000000000e+00
0.000000000000000e+00 0.000000000000000e+00 0.000000000000000e+00
0.000000000000000e+00 0.000000000000000e+00 0.000000000000000e+00

0.000000000000000e+00 0.000000000000000e+00 0.000000000000000e+00
0.000000000000000e+00 0.000000000000000e+00 0.000000000000000e+00
0.000000000000000e+00 0.000000000000000e+00 0.000000000000000e+00

0.000000000000000e+00 0.000000000000000e+00 0.000000000000000e+00
0.000000000000000e+00 0.000000000000000e+00 0.000000000000000e+00
0.000000000000000e+00 0.000000000000000e+00 0.000000000000000e+00

0.000000000000000e+00 0.000000000000000e+00 0.000000000000000e+00
0.000000000000000e+00 0.000000000000000e+00 0.000000000000000e+00
0.000000000000000e+00 0.000000000000000e+00 0.000000000000000e+00

0.000000000000000e+00 0.000000000000000e+00 0.000000000000000e+00
0.000000000000000e+00 0.000000000000000e+00 0.000000000000000e+00
0.000000000000000e+00 0.000000000000000e+00 0.000000000000000e+00

0.000000000000000e+00 0.000000000000000e+00 0.000000000000000e+00
0.000000000000000e+00 0.000000000000000e+00 0.000000000000000e+00
0.000000000000000e+00 0.000000000000000e+00 0.000000000000000e+00

0.000000000000000e+00 0.000000000000000e+00 0.000000000000000e+00
0.000000000000000e+00 0.000000000000000e+00 0.000000000000000e+00
0.000000000000000e+00 0.000000000000000e+00 0.000000000000000e+00

0.000000000000000e+00 0.000000000000000e+00 0.000000000000000e+00
0.000000000000000e+00 0.000000000000000e+00 0.000000000000000e+00
0.000000000000000e+00 0.000000000000000e+00 0.000000000000000e+00

0.000000000000000e+00 0.000000000000000e+00 0.000000000000000e+00
0.000000000000000e+00 0.000000000000000e+00 0.000000000000000e+00
0.000000000000000e+00 0.000000000000000e+00 0.000000000000000e+00

0.000000000000000e+00 0.000000000000000e+00 0.000000000000000e+00
0.000000000000000e+00 0.000000000000000e+00 0.000000000000000e+00
0.000000000000000e+00 0.000000000000000e+00 0.000000000000000e+00

0.000000000000000e+00 0.000000000000000e+00 0.000000000000000e+00
0.000000000000000e+00 0.000000000000000e+00 0.000000000000000e+00
0.000000000000000e+00 0.000000000000000e+00 0.000000000000000e+00

0.000000000000000e+00 0.000000000000000e+00 0.000000000000000e+00
0.000000000000000e+00 0.000000000000000e+00 0.000000000000000e+00
0.000000000000000e+00 0.000000000000000e+00 0.000000000000000e+00

0.000000000000000e+00 0.000000000000000e+00 0.000000000000000e+00
0.000000000000000e+00 0.000000000000000e+00 0.000000000000000e+00
0.000000000000000e+00 0.000000000000000e+00 0.000000000000000e+00

0.000000000000000e+00 0.000000000000000e+00 0.000000000000000e+00
0.000000000000000e+00 0.000000000000000e+00 0.000000000000000e+00
0.000000000000000e+00 0.000000000000000e+00 0.000000000000000e+00

0.000000000000000e+00 0.000000000000000e+00 0.000000000000000e+00
0.000000000000000e+00 0.000000000000000e+00 0.000000000000000e+00
0.000000000000000e+00 0.000000000000000e+00 0.000000000000000e+00

0.000000000000000e+00 0.000000000000000e+00 0.000000000000000e+00
0.000000000000000e+00 0.000000000000000e+00 0.000000000000000e+00
0.000000000000000e+00 0.000000000000000e+00 0.000000000000000e+00

0.000000000000000e+00 0.000000000000000e+00 0.000000000000000e+00
0.000000000000000e+00 0.000000000000000e+00 0.000000000000000e+00
0.000000000000000e+00 0.000000000000000e+00 0.000000000000000e+00

0.000000000000000e+00 0.000000000000000e+00 0.000000000000000e+00
0.000000000000000e+00 0.000000000000000e+00 0.000000000000000e+00
0.000000000000000e+00 0.000000000000000e+00 0.000000000000000e+00

0.000000000000000e+00 0.000000000000000e+00 0.000000000000000e+00
0.000000000000000e+00 0.000000000000000e+00 0.000000000000000e+00
0.000000000000000e+00 0.000000000000000e+00 0.000000000000000e+00

0.000000000000000e+00 0.000000000000000e+00 0.000000000000000e+00
0.000000000000000e+00 0.000000000000000e+00 0.000000000000000e+00
0.000000000000000e+00 0.000000000000000e+00 0.000000000000000e+00

0.000000000000000e+00 0.000000000000000e+00 0.000000000000000e+00
0.000000000000000e+00 0.000000000000000e+00 0.000000000000000e+00
0.000000000000000e+00 0.000000000000000e+00 0.000000000000000e+00

0.000000000000000e+00 0.000000000000000e+00 0.000000000000000e+00
0.000000000000000e+00 0.000000000000000e+00 0.000000000000000e+00
0.000000000000000e+00 0.000000000000000e+00 0.000000000000000e+00

0.000000000000000e+00 0.000000000000000e+00 0.000000000000000e+00
0.000000000000000e+00 0.000000000000000e+00 0.000000000000000e+00
0.000000000000000e+00 0.000000000000000e+00 0.000000000000000e+00

0.000000000000000e+00 0.000000000000000e+00 0.000000000000000e+00
0.000000000000000e+00 0.000000000000000e+00 0.000000000000000e+00
0.000000000000000e+00 0.000000000000000e+00 0.000000000000000e+00

0.000000000000000e+00 0.000000000000000e+00 0.000000000000000e+00
0.000000000000000e+00 0.000000000000000e+00 0.000000000000000e+00
0.000000000000000e+00 0.000000000000000e+00 0.000000000000000e+00

0.000000000000000e+00 0.000000000000000e+00 0.000000000000000e+00
0.000000000000000e+00 0.000000000000000e+00 0.000000000000000e+00
0.000000000000000e+00 0.000000000000000e+00 0.000000000000000e+00

0.000000000000000e+00 0.000000000000000e+00 0.000000000000000e+00
0.000000000000000e+00 0.000000000000000e+00 0.000000000000000e+00
0.000000000000000e+00 0.000000000000000e+00 0.000000000000000e+00

0.000000000000000e+00 0.000000000000000e+00 0.000000000000000e+00
0.000000000000000e+00 0.000000000000000e+00 0.000000000000000e+00
0.000000000000000e+00 0.000000000000000e+00 0.000000000000000e+00

0.000000000000000e+00 0.000000000000000e+00 0.000000000000000e+00
0.000000000000000e+00 0.000000000000000e+00 0.000000000000000e+00
0.000000000000000e+00 0.000000000000000e+00 0.000000000000000e+00

0.000000000000000e+00 0.000000000000000e+00 0.000000000000000e+00
0.000000000000000e+00 0.000000000000000e+00 0.000000000000000e+00
0.000000000000000e+00 0.000000000000000e+00 0.000000000000000e+00

0.000000000000000e+00 0.000000000000000e+00 0.000000000000000e+00
0.000000000000000e+00 0.000000000000000e+00 0.000000000000000e+00
0.000000000000000e+00 0.000000000000000e+00 0.000000000000000e+00

0.000000000000000e+00 0.000000000000000e+00 0.000000000000000e+00
0.000000000000000e+00 0.000000000000000e+00 0.000000000000000e+00
0.000000000000000e+00 0.000000000000000e+00 0.000000000000000e+00

0.000000000000000e+00 0.000000000000000e+00 0.000000000000000e+00
0.000000000000000e+00 0.000000000000000e+00 0.000000000000000e+00
0.000000000000000e+00 0.000000000000000e+00 0.000000000000000e+00

0.000000000000000e+00 0.000000000000000e+00 0.000000000000000e+00
0.000000000000000e+00 0.000000000000000e+00 0.000000000000000e+00
0.000000000000000e+00 0.000000000000000e+00 0.000000000000000e+00

0.000000000000000e+00 0.000000000000000e+00 0.000000000000000e+00
0.000000000000000e+00 0.000000000000000e+00 0.000000000000000e+00
0.000000000000000e+00 0.000000000000000e+00 0.000000000000000e+00

0.000000000000000e+00 0.000000000000000e+00 0.000000000000000e+00
0.000000000000000e+00 0.000000000000000e+00 0.000000000000000e+00
0.000000000000000e+00 0.000000000000000e+00 0.000000000000000e+00

0.000000000000000e+00 0.000000000000000e+00 0.000000000000000e+00
0.000000000000000e+00 0.000000000000000e+00 0.000000000000000e+00
0.000000000000000e+00 0.000000000000000e+00 0.000000000000000e+00

0.000000000000000e+00 0.000000000000000e+00 0.000000000000000e+00
0.000000000000000e+00 0.000000000000000e+00 0.000000000000000e+00
0.000000000000000e+00 0.000000000000000e+00 0.000000000000000e+00

0.000000000000000e+00 0.000000000000000e+00 0.000000000000000e+00
0.000000000000000e+00 0.000000000000000e+00 0.000000000000000e+00
0.000000000000000e+00 0.000000000000000e+00 0.000000000000000e+00

0.000000000000000e+00 0.000000000000000e+00 0.000000000000000e+00
0.000000000000000e+00 0.000000000000000e+00 0.000000000000000e+00
0.000000000000000e+00 0.000000000000000e+00 0.000000000000000e+00

0.000000000000000e+00 0.000000000000000e+00 0.000000000000000e+00
0.000000000000000e+00 0.000000000000000e+00 0.000000000000000e+00
0.000000000000000e+00 0.000000000000000e+00 0.000000000000000e+00

0.000000000000000e+00 0.000000000000000e+00 0.000000000000000e+00
0.000000000000000e+00 0.000000000000000e+00 0.000000000000000e+00
0.000000000000000e+00 0.000000000000000e+00 0.000000000000000e+00

0.000000000000000e+00 0.000000000000000e+00 0.000000000000000e+00
0.000000000000000e+00 0.000000000000000e+00 0.000000000000000e+00
0.000000000000000e+00 0.000000000000000e+00 0.000000000000000e+00

0.000000000000000e+00 0.000000000000000e+00 0.000000000000000e+00
0.000000000000000e+00 0.000000000000000e+00 0.000000000000000e+00
0.000000000000000e+00 0.000000000000000e+00 0.000000000000000e+00

0.000000000000000e+00 0.000000000000000e+00 0.000000000000000e+00
0.000000000000000e+00 0.000000000000000e+00 0.000000000000000e+00
0.000000000000000e+00 0.000000000000000e+00 0.000000000000000e+00

0.000000000000000e+00 0.000000000000000e+00 0.000000000000000e+00
0.000000000000000e+00 0.000000000000000e+00 0.000000000000000e+00
0.000000000000000e+00 0.000000000000000e+00 0.000000000000000e+00

0.000000000000000e+00 0.000000000000000e+00 0.000000000000000e+00
0.000000000000000e+00 0.000000000000000e+00 0.000000000000000e+00
0.000000000000000e+00 0.000000000000000e+00 0.000000000000000e+00

0.000000000000000e+00 0.000000000000000e+00 0.000000000000000e+00
0.000000000000000e+00 0.000000000000000e+00 0.000000000000000e+00
0.000000000000000e+00 0.000000000000000e+00 0.000000000000000e+00

0.000000000000000e+00 0.000000000000000e+00 0.000000000000000e+00
0.000000000000000e+00 0.000000000000000e+00 0.000000000000000e+00
0.000000000000000e+00 0.000000000000000e+00 0.000000000000000e+00

0.000000000000000e+00 0.000000000000000e+00 0.000000000000000e+00
0.000000000000000e+00 0.000000000000000e+00 0.000000000000000e+00
0.000000000000000e+00 0.000000000000000e+00 0.000000000000000e+00

0.000000000000000e+00 0.000000000000000e+00 0.000000000000000e+00
0.000000000000000e+00 0.000000000000000e+00 0.000000000000000e+00
0.000000000000000e+00 0.000000000000000e+00 0.000000000000000e+00

0.000000000000000e+00 0.000000000000000e+00 0.000000000000000e+00
0.000000000000000e+00 0.000000000000000e+00 0.000000000000000e+00
0.000000000000000e+00 0.000000000000000e+00 0.000000000000000e+00

0.000000000000000e+00 0.000000000000000e+00 0.000000000000000e+00
0.000000000000000e+00 0.000000000000000e+00 0.000000000000000e+00
0.000000000000000e+00 0.000000000000000e+00 0.000000000000000e+00

0.000000000000000e+00 0.000000000000000e+00 0.000000000000000e+00
0.000000000000000e+00 0.000000000000000e+00 0.000000000000000e+00
0.000000000000000e+00 0.000000000000000e+00 0.000000000000000e+00

0.000000000000000e+00 0.000000000000000e+00 0.000000000000000e+00
0.000000000000000e+00 0.000000000000000e+00 0.000000000000000e+00
0.000000000000000e+00 0.000000000000000e+00 0.000000000000000e+00

0.000000000000000e+00 0.000000000000000e+00 0.000000000000000e+00
0.000000000000000e+00 0.000000000000000e+00 0.000000000000000e+00
0.000000000000000e+00 0.000000000000000e+00 0.000000000000000e+00

0.000000000000000e+00 0.000000000000000e+00 0.000000000000000e+00
0.000000000000000e+00 0.000000000000000e+00 0.000000000000000e+00
0.000000000000000e+00 0.000000000000000e+00 0.000000000000000e+00

0.000000000000000e+00 0.000000000000000e+00 0.000000000000000e+00
0.000000000000000e+00 0.000000000000000e+00 0.000000000000000e+00
0.000000000000000e+00 0.000000000000000e+00 0.000000000000000e+00

0.000000000000000e+00 0.000000000000000e+00 0.000000000000000e+00
0.000000000000000e+00 0.000000000000000e+00 0.000000000000000e+00
0.000000000000000e+00 0.000000000000000e+00 0.000000000000000e+00

0.000000000000000e+00 0.000000000000000e+00 0.000000000000000e+00
0.000000000000000e+00 0.000000000000000e+00 0.000000000000000e+00
0.000000000000000e+00 0.000000000000000e+00 0.000000000000000e+00

0.000000000000000e+00 0.000000000000000e+00 0.000000000000000e+00
0.000000000000000e+00 0.000000000000000e+00 0.000000000000000e+00
0.000000000000000e+00 0.000000000000000e+00 0.000000000000000e+00

0.000000000000000e+00 0.000000000000000e+00 0.000000000000000e+00
0.000000000000000e+00 0.000000000000000e+00 0.000000000000000e+00
0.000000000000000e+00 0.000000000000000e+00 0.000000000000000e+00

0.000000000000000e+00 0.000000000000000e+00 0.000000000000000e+00
0.000000000000000e+00 0.000000000000000e+00 0.000000000000000e+00
0.000000000000000e+00 0.000000000000000e+00 0.000000000000000e+00

0.000000000000000e+00 0.000000000000000e+00 0.000000000000000e+00
0.000000000000000e+00 0.000000000000000e+00 0.000000000000000e+00
0.000000000000000e+00 0.000000000000000e+00 0.000000000000000e+00

0.000000000000000e+00 0.000000000000000e+00 0.000000000000000e+00
0.000000000000000e+00 0.000000000000000e+00 0.000000000000000e+00
0.000000000000000e+00 0.000000000000000e+00 0.000000000000000e+00

0.000000000000000e+00 0.000000000000000e+00 0.000000000000000e+00
0.000000000000000e+00 0.000000000000000e+00 0.000000000000000e+00
0.000000000000000e+00 0.000000000000000e+00 0.000000000000000e+00

0.000000000000000e+00 0.000000000000000e+00 0.000000000000000e+00
0.000000000000000e+00 0.000000000000000e+00 0.000000000000000e+00
0.000000000000000e+00 0.000000000000000e+00 0.000000000000000e+00

0.000000000000000e+00 0.000000000000000e+00 0.000000000000000e+00
0.000000000000000e+00 0.000000000000000e+00 0.000000000000000e+00
0.000000000000000e+00 0.000000000000000e+00 0.000000000000000e+00

0.000000000000000e+00 0.000000000000000e+00 0.000000000000000e+00
0.000000000000000e+00 0.000000000000000e+00 0.000000000000000e+00
0.000000000000000e+00 0.000000000000000e+00 0.000000000000000e+00

0.000000000000000e+00 0.000000000000000e+00 0.000000000000000e+00
0.000000000000000e+00 0.000000000000000e+00 0.000000000000000e+00
0.000000000000000e+00 0.000000000000000e+00 0.000000000000000e+00

0.000000000000000e+00 0.000000000000000e+00 0.000000000000000e+00
0.000000000000000e+00 0.000000000000000e+00 0.000000000000000e+00
0.000000000000000e+00 0.000000000000000e+00 0.000000000000000e+00

0.000000000000000e+00 0.000000000000000e+00 0.000000000000000e+00
0.000000000000000e+00 0.000000000000000e+00 0.000000000000000e+00
0.000000000000000e+00 0.000000000000000e+00 0.000000000000000e+00

0.000000000000000e+00 0.000000000000000e+00 0.000000000000000e+00
0.000000000000000e+00 0.000000000000000e+00 0.000000000000000e+00
0.000000000000000e+00 0.000000000000000e+00 0.000000000000000e+00

0.000000000000000e+00 0.000000000000000e+00 0.000000000000000e+00
0.000000000000000e+00 0.000000000000000e+00 0.000000000000000e+00
0.000000000000000e+00 0.000000000000000e+00 0.000000000000000e+00

0.000000000000000e+00 0.000000000000000e+00 0.000000000000000e+00
0.000000000000000e+00 0.000000000000000e+00 0.000000000000000e+00
0.000000000000000e+00 0.000000000000000e+00 0.000000000000000e+00

0.000000000000000e+00 0.000000000000000e+00 0.000000000000000e+00
0.000000000000000e+00 0.000000000000000e+00 0.000000000000000e+00
0.000000000000000e+00 0.000000000000000e+00 0.000000000000000e+00

0.000000000000000e+00 0.000000000000000e+00 0.000000000000000e+00
0.000000000000000e+00 0.000000000000000e+00 0.000000000000000e+00
0.000000000000000e+00 0.000000000000000e+00 0.000000000000000e+00

0.000000000000000e+00 0.000000000000000e+00 0.000000000000000e+00
0.000000000000000e+00 0.000000000000000e+00 0.000000000000000e+00
0.000000000000000e+00 0.000000000000000e+00 0.000000000000000e+00

0.000000000000000e+00 0.000000000000000e+00 0.000000000000000e+00
0.000000000000000e+00 0.000000000000000e+00 0.000000000000000e+00
0.000000000000000e+00 0.000000000000000e+00 0.000000000000000e+00

0.000000000000000e+00 0.000000000000000e+00 0.000000000000000e+00
0.000000000000000e+00 0.000000000000000e+00 0.000000000000000e+00
0.000000000000000e+00 0.000000000000000e+00 0.000000000000000e+00

0.000000000000000e+00 0.000000000000000e+00 0.000000000000000e+00
0.000000000000000e+00 0.000000000000000e+00 0.000000000000000e+00
0.000000000000000e+00 0.000000000000000e+00 0.000000000000000e+00

0.000000000000000e+00 0.000000000000000e+00 0.000000000000000e+00
0.000000000000000e+00 0.000000000000000e+00 0.000000000000000e+00
0.000000000000000e+00 0.000000000000000e+00 0.000000000000000e+00

0.000000000000000e+00 0.000000000000000e+00 0.000000000000000e+00
0.000000000000000e+00 0.000000000000000e+00 0.000000000000000e+00
0.000000000000000e+00 0.000000000000000e+00 0.000000000000000e+00

0.000000000000000e+00 0.000000000000000e+00 0.000000000000000e+00
0.000000000000000e+00 0.000000000000000e+00 0.000000000000000e+00
0.000000000000000e+00 0.000000000000000e+00 0.000000000000000e+00

0.000000000000000e+00 0.000000000000000e+00 0.000000000000000e+00
0.000000000000000e+00 0.000000000000000e+00 0.000000000000000e+00
0.000000000000000e+00 0.000000000000000e+00 0.000000000000000e+00

0.000000000000000e+00 0.000000000000000e+00 0.000000000000000e+00
0.000000000000000e+00 0.000000000000000e+00 0.000000000000000e+00
0.000000000000000e+00 0.000000000000000e+00 0.000000000000000e+00

0.000000000000000e+00 0.000000000000000e+00 0.000000000000000e+00
0.000000000000000e+00 0.000000000000000e+00 0.000000000000000e+00
0.000000000000000e+00 0.000000000000000e+00 0.000000000000000e+00

0.000000000000000e+00 0.000000000000000e+00 0.000000000000000e+00
0.000000000000000e+00 0.000000000000000e+00 0.000000000000000e+00
0.000000000000000e+00 0.000000000000000e+00 0.000000000000000e+00

0.000000000000000e+00 0.000000000000000e+00 0.000000000000000e+00
0.000000000000000e+00 0.000000000000000e+00 0.000000000000000e+00
0.000000000000000e+00 0.000000000000000e+00 0.000000000000000e+00

0.000000000000000e+00 0.000000000000000e+00 0.000000000000000e+00
0.000000000000000e+00 0.000000000000000e+00 0.000000000000000e+00
0.000000000000000e+00 0.000000000000000e+00 0.000000000000000e+00

0.000000000000000e+00 0.000000000000000e+00 0.000000000000000e+00
0.000000000000000e+00 0.000000000000000e+00 0.000000000000000e+00
0.000000000000000e+00 0.000000000000000e+00 0.000000000000000e+00

0.000000000000000e+00 0.000000000000000e+00 0.000000000000000e+00
0.000000000000000e+00 0.000000000000000e+00 0.000000000000000e+00
0.000000000000000e+00 0.000000000000000e+00 0.000000000000000e+00

0.000000000000000e+00 0.000000000000000e+00 0.000000000000000e+00
0.000000000000000e+00 0.000000000000000e+00 0.000000000000000e+00
0.000000000000000e+00 0.000000000000000e+00 0.000000000000000e+00

0.000000000000000e+00 0.000000000000000e+00 0.000000000000000e+00
0.000000000000000e+00 0.000000000000000e+00 0.000000000000000e+00
0.000000000000000e+00 0.000000000000000e+00 0.000000000000000e+00

0.000000000000000e+00 0.000000000000000e+00 0.000000000000000e+00
0.000000000000000e+00 0.000000000000000e+00 0.000000000000000e+00
0.000000000000000e+00 0.000000000000000e+00 0.000000000000000e+00

0.000000000000000e+00 0.000000000000000e+00 0.000000000000000e+00
0.000000000000000e+00 0.000000000000000e+00 0.000000000000000e+00
0.000000000000000e+00 0.000000000000000e+00 0.000000000000000e+00

0.000000000000000e+00 0.000000000000000e+00 0.000000000000000e+00
0.000000000000000e+00 0.000000000000000e+00 0.000000000000000e+00
0.000000000000000e+00 0.000000000000000e+00 0.000000000000000e+00

0.000000000000000e+00 0.000000000000000e+00 0.000000000000000e+00
0.000000000000000e+00 0.000000000000000e+00 0.000000000000000e+00
0.000000000000000e+00 0.000000000000000e+00 0.000000000000000e+00

0.000000000000000e+00 0.000000000000000e+00 0.000000000000000e+00
0.000000000000000e+00 0.000000000000000e+00 0.000000000000000e+00
0.000000000000000e+00 0.000000000000000e+00 0.000000000000000e+00

0.000000000000000e+00 0.000000000000000e+00 0.000000000000000e+00
0.000000000000000e+00 0.000000000000000e+00 0.000000000000000e+00
0.000000000000000e+00 0.000000000000000e+00 0.000000000000000e+00

0.000000000000000e+00 0.000000000000000e+00 0.000000000000000e+00
0.000000000000000e+00 0.000000000000000e+00 0.000000000000000e+00
0.000000000000000e+00 0.000000000000000e+00 0.000000000000000e+00

0.000000000000000e+00 0.000000000000000e+00 0.000000000000000e+00
0.000000000000000e+00 0.000000000000000e+00 0.000000000000000e+00
0.000000000000000e+00 0.000000000000000e+00 0.000000000000000e+00

0.000000000000000e+00 0.000000000000000e+00 0.000000000000000e+00
0.000000000000000e+00 0.000000000000000e+00 0.000000000000000e+00
0.000000000000000e+00 0.000000000000000e+00 0.000000000000000e+00

0.000000000000000e+00 0.000000000000000e+00 0.000000000000000e+00
0.000000000000000e+00 0.000000000000000e+00 0.000000000000000e+00
0.000000000000000e+00 0.000000000000000e+00 0.000000000000000e+00

0.000000000000000e+00 0.000000000000000e+00 0.000000000000000e+00
0.000000000000000e+00 0.000000000000000e+00 0.000000000000000e+00
0.000000000000000e+00 0.000000000000000e+00 0.000000000000000e+00

0.000000000000000e+00 0.000000000000000e+00 0.000000000000000e+00
0.000000000000000e+00 0.000000000000000e+00 0.000000000000000e+00
0.000000000000000e+00 0.000000000000000e+00 0.000000000000000e+00

0.000000000000000e+00 0.000000000000000e+00 0.000000000000000e+00
0.000000000000000e+00 0.000000000000000e+00 0.000000000000000e+00
0.000000000000000e+00 0.000000000000000e+00 0.000000000000000e+00

0.000000000000000e+00 0.000000000000000e+00 0.000000000000000e+00
0.000000000000000e+00 0.000000000000000e+00 0.000000000000000e+00
0.000000000000000e+00 0.000000000000000e+00 0.000000000000000e+00

0.000000000000000e+00 0.000000000000000e+00 0.000000000000000e+00
0.000000000000000e+00 0.000000000000000e+00 0.000000000000000e+00
0.000000000000000e+00 0.000000000000000e+00 0.000000000000000e+00

0.000000000000000e+00 0.000000000000000e+00 0.000000000000000e+00
0.000000000000000e+00 0.000000000000000e+00 0.000000000000000e+00
0.000000000000000e+00 0.000000000000000e+00 0.000000000000000e+00

0.000000000000000e+00 0.000000000000000e+00 0.000000000000000e+00
0.000000000000000e+00 0.000000000000000e+00 0.000000000000000e+00
0.000000000000000e+00 0.000000000000000e+00 0.000000000000000e+00

0.000000000000000e+00 0.000000000000000e+00 0.000000000000000e+00
0.000000000000000e+00 0.000000000000000e+00 0.000000000000000e+00
0.000000000000000e+00 0.000000000000000e+00 0.000000000000000e+00

0.000000000000000e+00 0.000000000000000e+00 0.000000000000000e+00
0.000000000000000e+00 0.000000000000000e+00 0.000000000000000e+00
0.000000000000000e+00 0.000000000000000e+00 0.000000000000000e+00

0.000000000000000e+00 0.000000000000000e+00 0.000000000000000e+00
0.000000000000000e+00 0.000000000000000e+00 0.000000000000000e+00
0.000000000000000e+00 0.000000000000000e+00 0.000000000000000e+00

0.000000000000000e+00 0.000000000000000e+00 0.000000000000000e+00
0.000000000000000e+00 0.000000000000000e+00 0.000000000000000e+00
0.000000000000000e+00 0.000000000000000e+00 0.000000000000000e+00

0.000000000000000e+00 0.000000000000000e+00 0.000000000000000e+00
0.000000000000000e+00 0.000000000000000e+00 0.000000000000000e+00
0.000000000000000e+00 0.000000000000000e+00 0.000000000000000e+00

0.000000000000000e+00 0.000000000000000e+00 0.000000000000000e+00
0.000000000000000e+00 0.000000000000000e+00 0.000000000000000e+00
0.000000000000000e+00 0.000000000000000e+00 0.000000000000000e+00

0.000000000000000e+00 0.000000000000000e+00 0.000000000000000e+00
0.000000000000000e+00 0.000000000000000e+00 0.000000000000000e+00
0.000000000000000e+00 0.000000000000000e+00 0.000000000000000e+00

0.000000000000000e+00 0.000000000000000e+00 0.000000000000000e+00
0.000000000000000e+00 0.000000000000000e+00 0.000000000000000e+00
0.000000000000000e+00 0.000000000000000e+00 0.000000000000000e+00

0.000000000000000e+00 0.000000000000000e+00 0.000000000000000e+00
0.000000000000000e+00 0.000000000000000e+00 0.000000000000000e+00
0.000000000000000e+00 0.000000000000000e+00 0.000000000000000e+00

0.000000000000000e+00 0.000000000000000e+00 0.000000000000000e+00
0.000000000000000e+00 0.000000000000000e+00 0.000000000000000e+00
0.000000000000000e+00 0.000000000000000e+00 0.000000000000000e+00

0.000000000000000e+00 0.000000000000000e+00 0.000000000000000e+00
0.000000000000000e+00 0.000000000000000e+00 0.000000000000000e+00
0.000000000000000e+00 0.000000000000000e+00 0.000000000000000e+00

0.000000000000000e+00 0.000000000000000e+00 0.000000000000000e+00
0.000000000000000e+00 0.000000000000000e+00 0.000000000000000e+00
0.000000000000000e+00 0.000000000000000e+00 0.000000000000000e+00

0.000000000000000e+00 0.000000000000000e+00 0.000000000000000e+00
0.000000000000000e+00 0.000000000000000e+00 0.000000000000000e+00
0.000000000000000e+00 0.000000000000000e+00 0.000000000000000e+00

0.000000000000000e+00 0.000000000000000e+00 0.000000000000000e+00
0.000000000000000e+00 0.000000000000000e+00 0.000000000000000e+00
0.000000000000000e+00 0.000000000000000e+00 0.000000000000000e+00

0.000000000000000e+00 0.000000000000000e+00 0.000000000000000e+00
0.000000000000000e+00 0.000000000000000e+00 0.000000000000000e+00
0.000000000000000e+00 0.000000000000000e+00 0.000000000000000e+00

0.000000000000000e+00 0.000000000000000e+00 0.000000000000000e+00
0.000000000000000e+00 0.000000000000000e+00 0.000000000000000e+00
0.000000000000000e+00 0.000000000000000e+00 0.000000000000000e+00

0.000000000000000e+00 0.000000000000000e+00 0.000000000000000e+00
0.000000000000000e+00 0.000000000000000e+00 0.000000000000000e+00
0.000000000000000e+00 0.000000000000000e+00 0.000000000000000e+00

0.000000000000000e+00 0.000000000000000e+00 0.000000000000000e+00
0.000000000000000e+00 0.000000000000000e+00 0.000000000000000e+00
0.000000000000000e+00 0.000000000000000e+00 0.000000000000000e+00

0.000000000000000e+00 0.000000000000000e+00 0.000000000000000e+00
0.000000000000000e+00 0.000000000000000e+00 0.000000000000000e+00
0.000000000000000e+00 0.000000000000000e+00 0.000000000000000e+00

0.000000000000000e+00 0.000000000000000e+00 0.000000000000000e+00
0.000000000000000e+00 0.000000000000000e+00 0.000000000000000e+00
0.000000000000000e+00 0.000000000000000e+00 0.000000000000000e+00

0.000000000000000e+00 0.000000000000000e+00 0.000000000000000e+00
0.000000000000000e+00 0.000000000000000e+00 0.000000000000000e+00
0.000000000000000e+00 0.000000000000000e+00 0.000000000000000e+00

0.000000000000000e+00 0.000000000000000e+00 0.000000000000000e+00
0.000000000000000e+00 0.000000000000000e+00 0.000000000000000e+00
0.000000000000000e+00 0.000000000000000e+00 0.000000000000000e+00

0.000000000000000e+00 0.000000000000000e+00 0.000000000000000e+00
0.000000000000000e+00 0.000000000000000e+00 0.000000000000000e+00
0.000000000000000e+00 0.000000000000000e+00 0.000000000000000e+00

0.000000000000000e+00 0.000000000000000e+00 0.000000000000000e+00
0.000000000000000e+00 0.000000000000000e+00 0.000000000000000e+00
0.000000000000000e+00 0.000000000000000e+00 0.000000000000000e+00

0.000000000000000e+00 0.000000000000000e+00 0.000000000000000e+00
0.000000000000000e+00 0.000000000000000e+00 0.000000000000000e+00
0.000000000000000e+00 0.000000000000000e+00 0.000000000000000e+00

0.000000000000000e+00 0.000000000000000e+00 0.000000000000000e+00
0.000000000000000e+00 0.000000000000000e+00 0.000000000000000e+00
0.000000000000000e+00 0.000000000000000e+00 0.000000000000000e+00

0.000000000000000e+00 0.000000000000000e+00 0.000000000000000e+00
0.000000000000000e+00 0.000000000000000e+00 0.000000000000000e+00
0.000000000000000e+00 0.000000000000000e+00 0.000000000000000e+00

0.000000000000000e+00 0.000000000000000e+00 0.000000000000000e+00
0.000000000000000e+00 0.000000000000000e+00 0.000000000000000e+00
0.000000000000000e+00 0.000000000000000e+00 0.000000000000000e+00

0.000000000000000e+00 0.000000000000000e+00 0.000000000000000e+00
0.000000000000000e+00 0.000000000000000e+00 0.000000000000000e+00
0.000000000000000e+00 0.000000000000000e+00 0.000000000000000e+00

0.000000000000000e+00 0.000000000000000e+00 0.000000000000000e+00
0.000000000000000e+00 0.000000000000000e+00 0.000000000000000e+00
0.000000000000000e+00 0.000000000000000e+00 0.000000000000000e+00

0.000000000000000e+00 0.000000000000000e+00 0.000000000000000e+00
0.000000000000000e+00 0.000000000000000e+00 0.000000000000000e+00
0.000000000000000e+00 0.000000000000000e+00 0.000000000000000e+00

0.000000000000000e+00 0.000000000000000e+00 0.000000000000000e+00
0.000000000000000e+00 0.000000000000000e+00 0.000000000000000e+00
0.000000000000000e+00 0.000000000000000e+00 0.000000000000000e+00

0.000000000000000e+00 0.000000000000000e+00 0.000000000000000e+00
0.000000000000000e+00 0.000000000000000e+00 0.000000000000000e+00
0.000000000000000e+00 0.000000000000000e+00 0.000000000000000e+00

0.000000000000000e+00 0.000000000000000e+00 0.000000000000000e+00
0.000000000000000e+00 0.000000000000000e+00 0.000000000000000e+00
0.000000000000000e+00 0.000000000000000e+00 0.000000000000000e+00

0.000000000000000e+00 0.000000000000000e+00 0.000000000000000e+00
0.000000000000000e+00 0.000000000000000e+00 0.000000000000000e+00
0.000000000000000e+00 0.000000000000000e+00 0.000000000000000e+00

0.000000000000000e+00 0.000000000000000e+00 0.000000000000000e+00
0.000000000000000e+00 0.000000000000000e+00 0.000000000000000e+00
0.000000000000000e+00 0.000000000000000e+00 0.000000000000000e+00

0.000000000000000e+00 0.000000000000000e+00 0.000000000000000e+00
0.000000000000000e+00 0.000000000000000e+00 0.000000000000000e+00
0.000000000000000e+00 0.000000000000000e+00 0.000000000000000e+00

0.000000000000000e+00 0.000000000000000e+00 0.000000000000000e+00
0.000000000000000e+00 0.000000000000000e+00 0.000000000000000e+00
0.000000000000000e+00 0.000000000000000e+00 0.000000000000000e+00

0.000000000000000e+00 0.000000000000000e+00 0.000000000000000e+00
0.000000000000000e+00 0.000000000000000e+00 0.000000000000000e+00
0.000000000000000e+00 0.000000000000000e+00 0.000000000000000e+00

0.000000000000000e+00 0.000000000000000e+00 0.000000000000000e+00
0.000000000000000e+00 0.000000000000000e+00 0.000000000000000e+00
0.000000000000000e+00 0.000000000000000e+00 0.000000000000000e+00

0.000000000000000e+00 0.000000000000000e+00 0.000000000000000e+00
0.000000000000000e+00 0.000000000000000e+00 0.000000000000000e+00
0.000000000000000e+00 0.000000000000000e+00 0.000000000000000e+00

0.000000000000000e+00 0.000000000000000e+00 0.000000000000000e+00
0.000000000000000e+00 0.000000000000000e+00 0.000000000000000e+00
0.000000000000000e+00 0.000000000000000e+00 0.000000000000000e+00

0.000000000000000e+00 0.000000000000000e+00 0.000000000000000e+00
0.000000000000000e+00 0.000000000000000e+00 0.000000000000000e+00
0.000000000000000e+00 0.000000000000000e+00 0.000000000000000e+00

0.000000000000000e+00 0.000000000000000e+00 0.000000000000000e+00
0.000000000000000e+00 0.000000000000000e+00 0.000000000000000e+00
0.000000000000000e+00 0.000000000000000e+00 0.000000000000000e+00

0.000000000000000e+00 0.000000000000000e+00 0.000000000000000e+00
0.000000000000000e+00 0.000000000000000e+00 0.000000000000000e+00
0.000000000000000e+00 0.000000000000000e+00 0.000000000000000e+00

0.000000000000000e+00 0.000000000000000e+00 0.000000000000000e+00
0.000000000000000e+00 0.000000000000000e+00 0.000000000000000e+00
0.000000000000000e+00 0.000000000000000e+00 0.000000000000000e+00

0.000000000000000e+00 0.000000000000000e+00 0.000000000000000e+00
0.000000000000000e+00 0.000000000000000e+00 0.000000000000000e+00
0.000000000000000e+00 0.000000000000000e+00 0.000000000000000e+00

0.000000000000000e+00 0.000000000000000e+00 0.000000000000000e+00
0.000000000000000e+00 0.000000000000000e+00 0.000000000000000e+00
0.000000000000000e+00 0.000000000000000e+00 0.000000000000000e+00

0.000000000000000e+00 0.000000000000000e+00 0.000000000000000e+00
0.000000000000000e+00 0.000000000000000e+00 0.000000000000000e+00
0.000000000000000e+00 0.000000000000000e+00 0.000000000000000e+00

0.000000000000000e+00 0.000000000000000e+00 0.000000000000000e+00
0.000000000000000e+00 0.000000000000000e+00 0.000000000000000e+00
0.000000000000000e+00 0.000000000000000e+00 0.000000000000000e+00

0.000000000000000e+00 0.000000000000000e+00 0.000000000000000e+00
0.000000000000000e+00 0.000000000000000e+00 0.000000000000000e+00
0.000000000000000e+00 0.000000000000000e+00 0.000000000000000e+00

0.000000000000000e+00 0.000000000000000e+00 0.000000000000000e+00
0.000000000000000e+00 0.000000000000000e+00 0.000000000000000e+00
0.000000000000000e+00 0.000000000000000e+00 0.000000000000000e+00

0.000000000000000e+00 0.000000000000000e+00 0.000000000000000e+00
0.000000000000000e+00 0.000000000000000e+00 0.000000000000000e+00
0.000000000000000e+00 0.000000000000000e+00 0.000000000000000e+00

0.000000000000000e+00 0.000000000000000e+00 0.000000000000000e+00
0.000000000000000e+00 0.000000000000000e+00 0.000000000000000e+00
0.000000000000000e+00 0.000000000000000e+00 0.000000000000000e+00

0.000000000000000e+00 0.000000000000000e+00 0.000000000000000e+00
0.000000000000000e+00 0.000000000000000e+00 0.000000000000000e+00
0.000000000000000e+00 0.000000000000000e+00 0.000000000000000e+00

0.000000000000000e+00 0.000000000000000e+00 0.000000000000000e+00
0.000000000000000e+00 0.000000000000000e+00 0.000000000000000e+00
0.000000000000000e+00 0.000000000000000e+00 0.000000000000000e+00

0.000000000000000e+00 0.000000000000000e+00 0.000000000000000e+00
0.000000000000000e+00 0.000000000000000e+00 0.000000000000000e+00
0.000000000000000e+00 0.000000000000000e+00 0.000000000000000e+00

0.000000000000000e+00 0.000000000000000e+00 0.000000000000000e+00
0.000000000000000e+00 0.000000000000000e+00 0.000000000000000e+00
0.000000000000000e+00 0.000000000000000e+00 0.000000000000000e+00

0.000000000000000e+00 0.000000000000000e+00 0.000000000000000e+00
0.000000000000000e+00 0.000000000000000e+00 0.000000000000000e+00
0.000000000000000e+00 0.000000000000000e+00 0.000000000000000e+00

0.000000000000000e+00 0.000000000000000e+00 0.000000000000000e+00
0.000000000000000e+00 0.000000000000000e+00 0.000000000000000e+00
0.000000000000000e+00 0.000000000000000e+00 0.000000000000000e+00

0.000000000000000e+00 0.000000000000000e+00 0.000000000000000e+00
0.000000000000000e+00 0.000000000000000e+00 0.000000000000000e+00
0.000000000000000e+00 0.000000000000000e+00 0.000000000000000e+00

0.000000000000000e+00 0.000000000000000e+00 0.000000000000000e+00
0.000000000000000e+00 0.000000000000000e+00 0.000000000000000e+00
0.000000000000000e+00 0.000000000000000e+00 0.000000000000000e+00

0.000000000000000e+00 0.000000000000000e+00 0.000000000000000e+00
0.000000000000000e+00 0.000000000000000e+00 0.000000000000000e+00
0.000000000000000e+00 0.000000000000000e+00 0.000000000000000e+00

0.000000000000000e+00 0.000000000000000e+00 0.000000000000000e+00
0.000000000000000e+00 0.000000000000000e+00 0.000000000000000e+00
0.000000000000000e+00 0.000000000000000e+00 0.000000000000000e+00

0.000000000000000e+00 0.000000000000000e+00 0.000000000000000e+00
0.000000000000000e+00 0.000000000000000e+00 0.000000000000000e+00
0.000000000000000e+00 0.000000000000000e+00 0.000000000000000e+00

0.000000000000000e+00 0.000000000000000e+00 0.000000000000000e+00
0.000000000000000e+00 0.000000000000000e+00 0.000000000000000e+00
0.000000000000000e+00 0.000000000000000e+00 0.000000000000000e+00

0.000000000000000e+00 0.000000000000000e+00 0.000000000000000e+00
0.000000000000000e+00 0.000000000000000e+00 0.000000000000000e+00
0.000000000000000e+00 0.000000000000000e+00 0.000000000000000e+00

0.000000000000000e+00 0.000000000000000e+00 0.000000000000000e+00
0.000000000000000e+00 0.000000000000000e+00 0.000000000000000e+00
0.000000000000000e+00 0.000000000000000e+00 0.000000000000000e+00

0.000000000000000e+00 0.000000000000000e+00 0.000000000000000e+00
0.000000000000000e+00 0.000000000000000e+00 0.000000000000000e+00
0.000000000000000e+00 0.000000000000000e+00 0.000000000000000e+00

0.000000000000000e+00 0.000000000000000e+00 0.000000000000000e+00
0.000000000000000e+00 0.000000000000000e+00 0.000000000000000e+00
0.000000000000000e+00 0.000000000000000e+00 0.000000000000000e+00

0.000000000000000e+00 0.000000000000000e+00 0.000000000000000e+00
0.000000000000000e+00 0.000000000000000e+00 0.000000000000000e+00
0.000000000000000e+00 0.000000000000000e+00 0.000000000000000e+00

0.000000000000000e+00 0.000000000000000e+00 0.000000000000000e+00
0.000000000000000e+00 0.000000000000000e+00 0.000000000000000e+00
0.000000000000000e+00 0.000000000000000e+00 0.000000000000000e+00

0.000000000000000e+00 0.000000000000000e+00 0.000000000000000e+00
0.000000000000000e+00 0.000000000000000e+00 0.000000000000000e+00
0.000000000000000e+00 0.000000000000000e+00 0.000000000000000e+00

0.000000000000000e+00 0.000000000000000e+00 0.000000000000000e+00
0.000000000000000e+00 0.000000000000000e+00 0.000000000000000e+00
0.000000000000000e+00 0.000000000000000e+00 0.000000000000000e+00

0.000000000000000e+00 0.000000000000000e+00 0.000000000000000e+00
0.000000000000000e+00 0.000000000000000e+00 0.000000000000000e+00
0.000000000000000e+00 0.000000000000000e+00 0.000000000000000e+00

0.000000000000000e+00 0.000000000000000e+00 0.000000000000000e+00
0.000000000000000e+00 0.000000000000000e+00 0.000000000000000e+00
0.000000000000000e+00 0.000000000000000e+00 0.000000000000000e+00

0.000000000000000e+00 0.000000000000000e+00 0.000000000000000e+00
0.000000000000000e+00 0.000000000000000e+00 0.000000000000000e+00
0.000000000000000e+00 0.000000000000000e+00 0.000000000000000e+00

0.000000000000000e+00 0.000000000000000e+00 0.000000000000000e+00
0.000000000000000e+00 0.000000000000000e+00 0.000000000000000e+00
0.000000000000000e+00 0.000000000000000e+00 0.000000000000000e+00

0.000000000000000e+00 0.000000000000000e+00 0.000000000000000e+00
0.000000000000000e+00 0.000000000000000e+00 0.000000000000000e+00
0.000000000000000e+00 0.000000000000000e+00 0.000000000000000e+00

0.000000000000000e+00 0.000000000000000e+00 0.000000000000000e+00
0.000000000000000e+00 0.000000000000000e+00 0.000000000000000e+00
0.000000000000000e+00 0.000000000000000e+00 0.000000000000000e+00

0.000000000000000e+00 0.000000000000000e+00 0.000000000000000e+00
0.000000000000000e+00 0.000000000000000e+00 0.000000000000000e+00
0.000000000000000e+00 0.000000000000000e+00 0.000000000000000e+00

0.000000000000000e+00 0.000000000000000e+00 0.000000000000000e+00
0.000000000000000e+00 0.000000000000000e+00 0.000000000000000e+00
0.000000000000000e+00 0.000000000000000e+00 0.000000000000000e+00

0.000000000000000e+00 0.000000000000000e+00 0.000000000000000e+00
0.000000000000000e+00 0.000000000000000e+00 0.000000000000000e+00
0.000000000000000e+00 0.000000000000000e+00 0.000000000000000e+00

0.000000000000000e+00 0.000000000000000e+00 0.000000000000000e+00
0.000000000000000e+00 0.000000000000000e+00 0.000000000000000e+00
0.000000000000000e+00 0.000000000000000e+00 0.000000000000000e+00

0.000000000000000e+00 0.000000000000000e+00 0.000000000000000e+00
0.000000000000000e+00 0.000000000000000e+00 0.000000000000000e+00
0.000000000000000e+00 0.000000000000000e+00 0.000000000000000e+00

0.000000000000000e+00 0.000000000000000e+00 0.000000000000000e+00
0.000000000000000e+00 0.000000000000000e+00 0.000000000000000e+00
0.000000000000000e+00 0.000000000000000e+00 0.000000000000000e+00

0.000000000000000e+00 0.000000000000000e+00 0.000000000000000e+00
0.000000000000000e+00 0.000000000000000e+00 0.000000000000000e+00
0.000000000000000e+00 0.000000000000000e+00 0.000000000000000e+00

0.000000000000000e+00 0.000000000000000e+00 0.000000000000000e+00
0.000000000000000e+00 0.000000000000000e+00 0.000000000000000e+00
0.000000000000000e+00 0.000000000000000e+00 0.000000000000000e+00

0.000000000000000e+00 0.000000000000000e+00 0.000000000000000e+00
0.000000000000000e+00 0.000000000000000e+00 0.000000000000000e+00
0.000000000000000e+00 0.000000000000000e+00 0.000000000000000e+00

0.000000000000000e+00 0.000000000000000e+00 0.000000000000000e+00
0.000000000000000e+00 0.000000000000000e+00 0.000000000000000e+00
0.000000000000000e+00 0.000000000000000e+00 0.000000000000000e+00

0.000000000000000e+00 0.000000000000000e+00 0.000000000000000e+00
0.000000000000000e+00 0.000000000000000e+00 0.000000000000000e+00
0.000000000000000e+00 0.000000000000000e+00 0.000000000000000e+00

0.000000000000000e+00 0.000000000000000e+00 0.000000000000000e+00
0.000000000000000e+00 0.000000000000000e+00 0.000000000000000e+00
0.000000000000000e+00 0.000000000000000e+00 0.000000000000000e+00

0.000000000000000e+00 0.000000000000000e+00 0.000000000000000e+00
0.000000000000000e+00 0.000000000000000e+00 0.000000000000000e+00
0.000000000000000e+00 0.000000000000000e+00 0.000000000000000e+00

0.000000000000000e+00 0.000000000000000e+00 0.000000000000000e+00
0.000000000000000e+00 0.000000000000000e+00 0.000000000000000e+00
0.000000000000000e+00 0.000000000000000e+00 0.000000000000000e+00

0.000000000000000e+00 0.000000000000000e+00 0.000000000000000e+00
0.000000000000000e+00 0.000000000000000e+00 0.000000000000000e+00
0.000000000000000e+00 0.000000000000000e+00 0.000000000000000e+00

0.000000000000000e+00 0.000000000000000e+00 0.000000000000000e+00
0.000000000000000e+00 0.000000000000000e+00 0.000000000000000e+00
0.000000000000000e+00 0.000000000000000e+00 0.000000000000000e+00

0.000000000000000e+00 0.000000000000000e+00 0.000000000000000e+00
0.000000000000000e+00 0.000000000000000e+00 0.000000000000000e+00
0.000000000000000e+00 0.000000000000000e+00 0.000000000000000e+00

0.000000000000000e+00 0.000000000000000e+00 0.000000000000000e+00
0.000000000000000e+00 0.000000000000000e+00 0.000000000000000e+00
0.000000000000000e+00 0.000000000000000e+00 0.000000000000000e+00

0.000000000000000e+00 0.000000000000000e+00 0.000000000000000e+00
0.000000000000000e+00 0.000000000000000e+00 0.000000000000000e+00
0.000000000000000e+00 0.000000000000000e+00 0.000000000000000e+00

0.000000000000000e+00 0.000000000000000e+00 0.000000000000000e+00
0.000000000000000e+00 0.000000000000000e+00 0.000000000000000e+00
0.000000000000000e+00 0.000000000000000e+00 0.000000000000000e+00

0.000000000000000e+00 0.000000000000000e+00 0.000000000000000e+00
0.000000000000000e+00 0.000000000000000e+00 0.000000000000000e+00
0.000000000000000e+00 0.000000000000000e+00 0.000000000000000e+00

0.000000000000000e+00 0.000000000000000e+00 0.000000000000000e+00
0.000000000000000e+00 0.000000000000000e+00 0.000000000000000e+00
0.000000000000000e+00 0.000000000000000e+00 0.000000000000000e+00

0.000000000000000e+00 0.000000000000000e+00 0.000000000000000e+00
0.000000000000000e+00 0.000000000000000e+00 0.000000000000000e+00
0.000000000000000e+00 0.000000000000000e+00 0.000000000000000e+00

0.000000000000000e+00 0.000000000000000e+00 0.000000000000000e+00
0.000000000000000e+00 0.000000000000000e+00 0.000000000000000e+00
0.000000000000000e+00 0.000000000000000e+00 0.000000000000000e+00

0.000000000000000e+00 0.000000000000000e+00 0.000000000000000e+00
0.000000000000000e+00 0.000000000000000e+00 0.000000000000000e+00
0.000000000000000e+00 0.000000000000000e+00 0.000000000000000e+00

0.000000000000000e+00 0.000000000000000e+00 0.000000000000000e+00
0.000000000000000e+00 0.000000000000000e+00 0.000000000000000e+00
0.000000000000000e+00 0.000000000000000e+00 0.000000000000000e+00

0.000000000000000e+00 0.000000000000000e+00 0.000000000000000e+00
0.000000000000000e+00 0.000000000000000e+00 0.000000000000000e+00
0.000000000000000e+00 0.000000000000000e+00 0.000000000000000e+00

0.000000000000000e+00 0.000000000000000e+00 0.000000000000000e+00
0.000000000000000e+00 0.000000000000000e+00 0.000000000000000e+00
0.000000000000000e+00 0.000000000000000e+00 0.000000000000000e+00

0.000000000000000e+00 0.000000000000000e+00 0.000000000000000e+00
0.000000000000000e+00 0.000000000000000e+00 0.000000000000000e+00
0.000000000000000e+00 0.000000000000000e+00 0.000000000000000e+00

0.000000000000000e+00 0.000000000000000e+00 0.000000000000000e+00
0.000000000000000e+00 0.000000000000000e+00 0.000000000000000e+00
0.000000000000000e+00 0.000000000000000e+00 0.000000000000000e+00

0.000000000000000e+00 0.000000000000000e+00 0.000000000000000e+00
0.000000000000000e+00 0.000000000000000e+00 0.000000000000000e+00
0.000000000000000e+00 0.000000000000000e+00 0.000000000000000e+00

0.000000000000000e+00 0.000000000000000e+00 0.000000000000000e+00
0.000000000000000e+00 0.000000000000000e+00 0.000000000000000e+00
0.000000000000000e+00 0.000000000000000e+00 0.000000000000000e+00

0.000000000000000e+00 0.000000000000000e+00 0.000000000000000e+00
0.000000000000000e+00 0.000000000000000e+00 0.000000000000000e+00
0.000000000000000e+00 0.000000000000000e+00 0.000000000000000e+00

0.000000000000000e+00 0.000000000000000e+00 0.000000000000000e+00
0.000000000000000e+00 0.000000000000000e+00 0.000000000000000e+00
0.000000000000000e+00 0.000000000000000e+00 0.000000000000000e+00

0.000000000000000e+00 0.000000000000000e+00 0.000000000000000e+00
0.000000000000000e+00 0.000000000000000e+00 0.000000000000000e+00
0.000000000000000e+00 0.000000000000000e+00 0.000000000000000e+00

0.000000000000000e+00 0.000000000000000e+00 0.000000000000000e+00
0.000000000000000e+00 0.000000000000000e+00 0.000000000000000e+00
0.000000000000000e+00 0.000000000000000e+00 0.000000000000000e+00

0.000000000000000e+00 0.000000000000000e+00 0.000000000000000e+00
0.000000000000000e+00 0.000000000000000e+00 0.000000000000000e+00
0.000000000000000e+00 0.000000000000000e+00 0.000000000000000e+00

0.000000000000000e+00 0.000000000000000e+00 0.000000000000000e+00
0.000000000000000e+00 0.000000000000000e+00 0.000000000000000e+00
0.000000000000000e+00 0.000000000000000e+00 0.000000000000000e+00

0.000000000000000e+00 0.000000000000000e+00 0.000000000000000e+00
0.000000000000000e+00 0.000000000000000e+00 0.000000000000000e+00
0.000000000000000e+00 0.000000000000000e+00 0.000000000000000e+00

0.000000000000000e+00 0.000000000000000e+00 0.000000000000000e+00
0.000000000000000e+00 0.000000000000000e+00 0.000000000000000e+00
0.000000000000000e+00 0.000000000000000e+00 0.000000000000000e+00

0.000000000000000e+00 0.000000000000000e+00 0.000000000000000e+00
0.000000000000000e+00 0.000000000000000e+00 0.000000000000000e+00
0.000000000000000e+00 0.000000000000000e+00 0.000000000000000e+00

0.000000000000000e+00 0.000000000000000e+00 0.000000000000000e+00
0.000000000000000e+00 0.000000000000000e+00 0.000000000000000e+00
0.000000000000000e+00 0.000000000000000e+00 0.000000000000000e+00

0.000000000000000e+00 0.000000000000000e+00 0.000000000000000e+00
0.000000000000000e+00 0.000000000000000e+00 0.000000000000000e+00
0.000000000000000e+00 0.000000000000000e+00 0.000000000000000e+00

0.000000000000000e+00 0.000000000000000e+00 0.000000000000000e+00
0.000000000000000e+00 0.000000000000000e+00 0.000000000000000e+00
0.000000000000000e+00 0.000000000000000e+00 0.000000000000000e+00

0.000000000000000e+00 0.000000000000000e+00 0.000000000000000e+00
0.000000000000000e+00 0.000000000000000e+00 0.000000000000000e+00
0.000000000000000e+00 0.000000000000000e+00 0.000000000000000e+00

0.000000000000000e+00 0.000000000000000e+00 0.000000000000000e+00
0.000000000000000e+00 0.000000000000000e+00 0.000000000000000e+00
0.000000000000000e+00 0.000000000000000e+00 0.000000000000000e+00

0.000000000000000e+00 0.000000000000000e+00 0.000000000000000e+00
0.000000000000000e+00 0.000000000000000e+00 0.000000000000000e+00
0.000000000000000e+00 0.000000000000000e+00 0.000000000000000e+00

0.000000000000000e+00 0.000000000000000e+00 0.000000000000000e+00
0.000000000000000e+00 0.000000000000000e+00 0.000000000000000e+00
0.000000000000000e+00 0.000000000000000e+00 0.000000000000000e+00

0.000000000000000e+00 0.000000000000000e+00 0.000000000000000e+00
0.000000000000000e+00 0.000000000000000e+00 0.000000000000000e+00
0.000000000000000e+00 0.000000000000000e+00 0.000000000000000e+00

0.000000000000000e+00 0.000000000000000e+00 0.000000000000000e+00
0.000000000000000e+00 0.000000000000000e+00 0.000000000000000e+00
0.000000000000000e+00 0.000000000000000e+00 0.000000000000000e+00

0.000000000000000e+00 0.000000000000000e+00 0.000000000000000e+00
0.000000000000000e+00 0.000000000000000e+00 0.000000000000000e+00
0.000000000000000e+00 0.000000000000000e+00 0.000000000000000e+00

0.000000000000000e+00 0.000000000000000e+00 0.000000000000000e+00
0.000000000000000e+00 0.000000000000000e+00 0.000000000000000e+00
0.000000000000000e+00 0.000000000000000e+00 0.000000000000000e+00

0.000000000000000e+00 0.000000000000000e+00 0.000000000000000e+00
0.000000000000000e+00 0.000000000000000e+00 0.000000000000000e+00
0.000000000000000e+00 0.000000000000000e+00 0.000000000000000e+00

0.000000000000000e+00 0.000000000000000e+00 0.000000000000000e+00
0.000000000000000e+00 0.000000000000000e+00 0.000000000000000e+00
0.000000000000000e+00 0.000000000000000e+00 0.000000000000000e+00

0.000000000000000e+00 0.000000000000000e+00 0.000000000000000e+00
0.000000000000000e+00 0.000000000000000e+00 0.000000000000000e+00
0.000000000000000e+00 0.000000000000000e+00 0.000000000000000e+00

0.000000000000000e+00 0.000000000000000e+00 0.000000000000000e+00
0.000000000000000e+00 0.000000000000000e+00 0.000000000000000e+00
0.000000000000000e+00 0.000000000000000e+00 0.000000000000000e+00

0.000000000000000e+00 0.000000000000000e+00 0.000000000000000e+00
0.000000000000000e+00 0.000000000000000e+00 0.000000000000000e+00
0.000000000000000e+00 0.000000000000000e+00 0.000000000000000e+00

0.000000000000000e+00 0.000000000000000e+00 0.000000000000000e+00
0.000000000000000e+00 0.000000000000000e+00 0.000000000000000e+00
0.000000000000000e+00 0.000000000000000e+00 0.000000000000000e+00

0.000000000000000e+00 0.000000000000000e+00 0.000000000000000e+00
0.000000000000000e+00 0.000000000000000e+00 0.000000000000000e+00
0.000000000000000e+00 0.000000000000000e+00 0.000000000000000e+00

0.000000000000000e+00 0.000000000000000e+00 0.000000000000000e+00
0.000000000000000e+00 0.000000000000000e+00 0.000000000000000e+00
0.000000000000000e+00 0.000000000000000e+00 0.000000000000000e+00

0.000000000000000e+00 0.000000000000000e+00 0.000000000000000e+00
0.000000000000000e+00 0.000000000000000e+00 0.000000000000000e+00
0.000000000000000e+00 0.000000000000000e+00 0.000000000000000e+00

0.000000000000000e+00 0.000000000000000e+00 0.000000000000000e+00
0.000000000000000e+00 0.000000000000000e+00 0.000000000000000e+00
0.000000000000000e+00 0.000000000000000e+00 0.000000000000000e+00

0.000000000000000e+00 0.000000000000000e+00 0.000000000000000e+00
0.000000000000000e+00 0.000000000000000e+00 0.000000000000000e+00
0.000000000000000e+00 0.000000000000000e+00 0.000000000000000e+00

0.000000000000000e+00 0.000000000000000e+00 0.000000000000000e+00
0.000000000000000e+00 0.000000000000000e+00 0.000000000000000e+00
0.000000000000000e+00 0.000000000000000e+00 0.000000000000000e+00

0.000000000000000e+00 0.000000000000000e+00 0.000000000000000e+00
0.000000000000000e+00 0.000000000000000e+00 0.000000000000000e+00
0.000000000000000e+00 0.000000000000000e+00 0.000000000000000e+00

0.000000000000000e+00 0.000000000000000e+00 0.000000000000000e+00
0.000000000000000e+00 0.000000000000000e+00 0.000000000000000e+00
0.000000000000000e+00 0.000000000000000e+00 0.000000000000000e+00

0.000000000000000e+00 0.000000000000000e+00 0.000000000000000e+00
0.000000000000000e+00 0.000000000000000e+00 0.000000000000000e+00
0.000000000000000e+00 0.000000000000000e+00 0.000000000000000e+00

0.000000000000000e+00 0.000000000000000e+00 0.000000000000000e+00
0.000000000000000e+00 0.000000000000000e+00 0.000000000000000e+00
0.000000000000000e+00 0.000000000000000e+00 0.000000000000000e+00

0.000000000000000e+00 0.000000000000000e+00 0.000000000000000e+00
0.000000000000000e+00 0.000000000000000e+00 0.000000000000000e+00
0.000000000000000e+00 0.000000000000000e+00 0.000000000000000e+00

0.000000000000000e+00 0.000000000000000e+00 0.000000000000000e+00
0.000000000000000e+00 0.000000000000000e+00 0.000000000000000e+00
0.000000000000000e+00 0.000000000000000e+00 0.000000000000000e+00

0.000000000000000e+00 0.000000000000000e+00 0.000000000000000e+00
0.000000000000000e+00 0.000000000000000e+00 0.000000000000000e+00
0.000000000000000e+00 0.000000000000000e+00 0.000000000000000e+00

0.000000000000000e+00 0.000000000000000e+00 0.000000000000000e+00
0.000000000000000e+00 0.000000000000000e+00 0.000000000000000e+00
0.000000000000000e+00 0.000000000000000e+00 0.000000000000000e+00

0.000000000000000e+00 0.000000000000000e+00 0.000000000000000e+00
0.000000000000000e+00 0.000000000000000e+00 0.000000000000000e+00
0.000000000000000e+00 0.000000000000000e+00 0.000000000000000e+00

0.000000000000000e+00 0.000000000000000e+00 0.000000000000000e+00
0.000000000000000e+00 0.000000000000000e+00 0.000000000000000e+00
0.000000000000000e+00 0.000000000000000e+00 0.000000000000000e+00

0.000000000000000e+00 0.000000000000000e+00 0.000000000000000e+00
0.000000000000000e+00 0.000000000000000e+00 0.000000000000000e+00
0.000000000000000e+00 0.000000000000000e+00 0.000000000000000e+00

0.000000000000000e+00 0.000000000000000e+00 0.000000000000000e+00
0.000000000000000e+00 0.000000000000000e+00 0.000000000000000e+00
0.000000000000000e+00 0.000000000000000e+00 0.000000000000000e+00

0.000000000000000e+00 0.000000000000000e+00 0.000000000000000e+00
0.000000000000000e+00 0.000000000000000e+00 0.000000000000000e+00
0.000000000000000e+00 0.000000000000000e+00 0.000000000000000e+00

0.000000000000000e+00 0.000000000000000e+00 0.000000000000000e+00
0.000000000000000e+00 0.000000000000000e+00 0.000000000000000e+00
0.000000000000000e+00 0.000000000000000e+00 0.000000000000000e+00

0.000000000000000e+00 0.000000000000000e+00 0.000000000000000e+00
0.000000000000000e+00 0.000000000000000e+00 0.000000000000000e+00
0.000000000000000e+00 0.000000000000000e+00 0.000000000000000e+00

0.000000000000000e+00 0.000000000000000e+00 0.000000000000000e+00
0.000000000000000e+00 0.000000000000000e+00 0.000000000000000e+00
0.000000000000000e+00 0.000000000000000e+00 0.000000000000000e+00

0.000000000000000e+00 0.000000000000000e+00 0.000000000000000e+00
0.000000000000000e+00 0.000000000000000e+00 0.000000000000000e+00
0.000000000000000e+00 0.000000000000000e+00 0.000000000000000e+00

0.000000000000000e+00 0.000000000000000e+00 0.000000000000000e+00
0.000000000000000e+00 0.000000000000000e+00 0.000000000000000e+00
0.000000000000000e+00 0.000000000000000e+00 0.000000000000000e+00

0.000000000000000e+00 0.000000000000000e+00 0.000000000000000e+00
0.000000000000000e+00 0.000000000000000e+00 0.000000000000000e+00
0.000000000000000e+00 0.000000000000000e+00 0.000000000000000e+00

0.000000000000000e+00 0.000000000000000e+00 0.000000000000000e+00
0.000000000000000e+00 0.000000000000000e+00 0.000000000000000e+00
0.000000000000000e+00 0.000000000000000e+00 0.000000000000000e+00

0.000000000000000e+00 0.000000000000000e+00 0.000000000000000e+00
0.000000000000000e+00 0.000000000000000e+00 0.000000000000000e+00
0.000000000000000e+00 0.000000000000000e+00 0.000000000000000e+00

0.000000000000000e+00 0.000000000000000e+00 0.000000000000000e+00
0.000000000000000e+00 0.000000000000000e+00 0.000000000000000e+00
0.000000000000000e+00 0.000000000000000e+00 0.000000000000000e+00

0.000000000000000e+00 0.000000000000000e+00 0.000000000000000e+00
0.000000000000000e+00 0.000000000000000e+00 0.000000000000000e+00
0.000000000000000e+00 0.000000000000000e+00 0.000000000000000e+00

0.000000000000000e+00 0.000000000000000e+00 0.000000000000000e+00
0.000000000000000e+00 0.000000000000000e+00 0.000000000000000e+00
0.000000000000000e+00 0.000000000000000e+00 0.000000000000000e+00

0.000000000000000e+00 0.000000000000000e+00 0.000000000000000e+00
0.000000000000000e+00 0.000000000000000e+00 0.000000000000000e+00
0.000000000000000e+00 0.000000000000000e+00 0.000000000000000e+00

0.000000000000000e+00 0.000000000000000e+00 0.000000000000000e+00
0.000000000000000e+00 0.000000000000000e+00 0.000000000000000e+00
0.000000000000000e+00 0.000000000000000e+00 0.000000000000000e+00

0.000000000000000e+00 0.000000000000000e+00 0.000000000000000e+00
0.000000000000000e+00 0.000000000000000e+00 0.000000000000000e+00
0.000000000000000e+00 0.000000000000000e+00 0.000000000000000e+00

0.000000000000000e+00 0.000000000000000e+00 0.000000000000000e+00
0.000000000000000e+00 0.000000000000000e+00 0.000000000000000e+00
0.000000000000000e+00 0.000000000000000e+00 0.000000000000000e+00

0.000000000000000e+00 0.000000000000000e+00 0.000000000000000e+00
0.000000000000000e+00 0.000000000000000e+00 0.000000000000000e+00
0.000000000000000e+00 0.000000000000000e+00 0.000000000000000e+00

0.000000000000000e+00 0.000000000000000e+00 0.000000000000000e+00
0.000000000000000e+00 0.000000000000000e+00 0.000000000000000e+00
0.000000000000000e+00 0.000000000000000e+00 0.000000000000000e+00

0.000000000000000e+00 0.000000000000000e+00 0.000000000000000e+00
0.000000000000000e+00 0.000000000000000e+00 0.000000000000000e+00
0.000000000000000e+00 0.000000000000000e+00 0.000000000000000e+00

0.000000000000000e+00 0.000000000000000e+00 0.000000000000000e+00
0.000000000000000e+00 0.000000000000000e+00 0.000000000000000e+00
0.000000000000000e+00 0.000000000000000e+00 0.000000000000000e+00

0.000000000000000e+00 0.000000000000000e+00 0.000000000000000e+00
0.000000000000000e+00 0.000000000000000e+00 0.000000000000000e+00
0.000000000000000e+00 0.000000000000000e+00 0.000000000000000e+00

0.000000000000000e+00 0.000000000000000e+00 0.000000000000000e+00
0.000000000000000e+00 0.000000000000000e+00 0.000000000000000e+00
0.000000000000000e+00 0.000000000000000e+00 0.000000000000000e+00

0.000000000000000e+00 0.000000000000000e+00 0.000000000000000e+00
0.000000000000000e+00 0.000000000000000e+00 0.000000000000000e+00
0.000000000000000e+00 0.000000000000000e+00 0.000000000000000e+00

0.000000000000000e+00 0.000000000000000e+00 0.000000000000000e+00
0.000000000000000e+00 0.000000000000000e+00 0.000000000000000e+00
0.000000000000000e+00 0.000000000000000e+00 0.000000000000000e+00

0.000000000000000e+00 0.000000000000000e+00 0.000000000000000e+00
0.000000000000000e+00 0.000000000000000e+00 0.000000000000000e+00
0.000000000000000e+00 0.000000000000000e+00 0.000000000000000e+00

0.000000000000000e+00 0.000000000000000e+00 0.000000000000000e+00
0.000000000000000e+00 0.000000000000000e+00 0.000000000000000e+00
0.000000000000000e+00 0.000000000000000e+00 0.000000000000000e+00

0.000000000000000e+00 0.000000000000000e+00 0.000000000000000e+00
0.000000000000000e+00 0.000000000000000e+00 0.000000000000000e+00
0.000000000000000e+00 0.000000000000000e+00 0.000000000000000e+00

0.000000000000000e+00 0.000000000000000e+00 0.000000000000000e+00
0.000000000000000e+00 0.000000000000000e+00 0.000000000000000e+00
0.000000000000000e+00 0.000000000000000e+00 0.000000000000000e+00

0.000000000000000e+00 0.000000000000000e+00 0.000000000000000e+00
0.000000000000000e+00 0.000000000000000e+00 0.000000000000000e+00
0.000000000000000e+00 0.000000000000000e+00 0.000000000000000e+00

0.000000000000000e+00 0.000000000000000e+00 0.000000000000000e+00
0.000000000000000e+00 0.000000000000000e+00 0.000000000000000e+00
0.000000000000000e+00 0.000000000000000e+00 0.000000000000000e+00

0.000000000000000e+00 0.000000000000000e+00 0.000000000000000e+00
0.000000000000000e+00 0.000000000000000e+00 0.000000000000000e+00
0.000000000000000e+00 0.000000000000000e+00 0.000000000000000e+00

0.000000000000000e+00 0.000000000000000e+00 0.000000000000000e+00
0.000000000000000e+00 0.000000000000000e+00 0.000000000000000e+00
0.000000000000000e+00 0.000000000000000e+00 0.000000000000000e+00

0.000000000000000e+00 0.000000000000000e+00 0.000000000000000e+00
0.000000000000000e+00 0.000000000000000e+00 0.000000000000000e+00
0.000000000000000e+00 0.000000000000000e+00 0.000000000000000e+00

0.000000000000000e+00 0.000000000000000e+00 0.000000000000000e+00
0.000000000000000e+00 0.000000000000000e+00 0.000000000000000e+00
0.000000000000000e+00 0.000000000000000e+00 0.000000000000000e+00

0.000000000000000e+00 0.000000000000000e+00 0.000000000000000e+00
0.000000000000000e+00 0.000000000000000e+00 0.000000000000000e+00
0.000000000000000e+00 0.000000000000000e+00 0.000000000000000e+00

0.000000000000000e+00 0.000000000000000e+00 0.000000000000000e+00
0.000000000000000e+00 0.000000000000000e+00 0.000000000000000e+00
0.000000000000000e+00 0.000000000000000e+00 0.000000000000000e+00

0.000000000000000e+00 0.000000000000000e+00 0.000000000000000e+00
0.000000000000000e+00 0.000000000000000e+00 0.000000000000000e+00
0.000000000000000e+00 0.000000000000000e+00 0.000000000000000e+00

0.000000000000000e+00 0.000000000000000e+00 0.000000000000000e+00
0.000000000000000e+00 0.000000000000000e+00 0.000000000000000e+00
0.000000000000000e+00 0.000000000000000e+00 0.000000000000000e+00

0.000000000000000e+00 0.000000000000000e+00 0.000000000000000e+00
0.000000000000000e+00 0.000000000000000e+00 0.000000000000000e+00
0.000000000000000e+00 0.000000000000000e+00 0.000000000000000e+00

0.000000000000000e+00 0.000000000000000e+00 0.000000000000000e+00
0.000000000000000e+00 0.000000000000000e+00 0.000000000000000e+00
0.000000000000000e+00 0.000000000000000e+00 0.000000000000000e+00

0.000000000000000e+00 0.000000000000000e+00 0.000000000000000e+00
0.000000000000000e+00 0.000000000000000e+00 0.000000000000000e+00
0.000000000000000e+00 0.000000000000000e+00 0.000000000000000e+00

0.000000000000000e+00 0.000000000000000e+00 0.000000000000000e+00
0.000000000000000e+00 0.000000000000000e+00 0.000000000000000e+00
0.000000000000000e+00 0.000000000000000e+00 0.000000000000000e+00

0.000000000000000e+00 0.000000000000000e+00 0.000000000000000e+00
0.000000000000000e+00 0.000000000000000e+00 0.000000000000000e+00
0.000000000000000e+00 0.000000000000000e+00 0.000000000000000e+00

0.000000000000000e+00 0.000000000000000e+00 0.000000000000000e+00
0.000000000000000e+00 0.000000000000000e+00 0.000000000000000e+00
0.000000000000000e+00 0.000000000000000e+00 0.000000000000000e+00

0.000000000000000e+00 0.000000000000000e+00 0.000000000000000e+00
0.000000000000000e+00 0.000000000000000e+00 0.000000000000000e+00
0.000000000000000e+00 0.000000000000000e+00 0.000000000000000e+00

0.000000000000000e+00 0.000000000000000e+00 0.000000000000000e+00
0.000000000000000e+00 0.000000000000000e+00 0.000000000000000e+00
0.000000000000000e+00 0.000000000000000e+00 0.000000000000000e+00

0.000000000000000e+00 0.000000000000000e+00 0.000000000000000e+00
0.000000000000000e+00 0.000000000000000e+00 0.000000000000000e+00
0.000000000000000e+00 0.000000000000000e+00 0.000000000000000e+00

0.000000000000000e+00 0.000000000000000e+00 0.000000000000000e+00
0.000000000000000e+00 0.000000000000000e+00 0.000000000000000e+00
0.000000000000000e+00 0.000000000000000e+00 0.000000000000000e+00

0.000000000000000e+00 0.000000000000000e+00 0.000000000000000e+00
0.000000000000000e+00 0.000000000000000e+00 0.000000000000000e+00
0.000000000000000e+00 0.000000000000000e+00 0.000000000000000e+00

0.000000000000000e+00 0.000000000000000e+00 0.000000000000000e+00
0.000000000000000e+00 0.000000000000000e+00 0.000000000000000e+00
0.000000000000000e+00 0.000000000000000e+00 0.000000000000000e+00

0.000000000000000e+00 0.000000000000000e+00 0.000000000000000e+00
0.000000000000000e+00 0.000000000000000e+00 0.000000000000000e+00
0.000000000000000e+00 0.000000000000000e+00 0.000000000000000e+00

0.000000000000000e+00 0.000000000000000e+00 0.000000000000000e+00
0.000000000000000e+00 0.000000000000000e+00 0.000000000000000e+00
0.000000000000000e+00 0.000000000000000e+00 0.000000000000000e+00

0.000000000000000e+00 0.000000000000000e+00 0.000000000000000e+00
0.000000000000000e+00 0.000000000000000e+00 0.000000000000000e+00
0.000000000000000e+00 0.000000000000000e+00 0.000000000000000e+00

0.000000000000000e+00 0.000000000000000e+00 0.000000000000000e+00
0.000000000000000e+00 0.000000000000000e+00 0.000000000000000e+00
0.000000000000000e+00 0.000000000000000e+00 0.000000000000000e+00

0.000000000000000e+00 0.000000000000000e+00 0.000000000000000e+00
0.000000000000000e+00 0.000000000000000e+00 0.000000000000000e+00
0.000000000000000e+00 0.000000000000000e+00 0.000000000000000e+00

0.000000000000000e+00 0.000000000000000e+00 0.000000000000000e+00
0.000000000000000e+00 0.000000000000000e+00 0.000000000000000e+00
0.000000000000000e+00 0.000000000000000e+00 0.000000000000000e+00

0.000000000000000e+00 0.000000000000000e+00 0.000000000000000e+00
0.000000000000000e+00 0.000000000000000e+00 0.000000000000000e+00
0.000000000000000e+00 0.000000000000000e+00 0.000000000000000e+00

0.000000000000000e+00 0.000000000000000e+00 0.000000000000000e+00
0.000000000000000e+00 0.000000000000000e+00 0.000000000000000e+00
0.000000000000000e+00 0.000000000000000e+00 0.000000000000000e+00

0.000000000000000e+00 0.000000000000000e+00 0.000000000000000e+00
0.000000000000000e+00 0.000000000000000e+00 0.000000000000000e+00
0.000000000000000e+00 0.000000000000000e+00 0.000000000000000e+00

0.000000000000000e+00 0.000000000000000e+00 0.000000000000000e+00
0.000000000000000e+00 0.000000000000000e+00 0.000000000000000e+00
0.000000000000000e+00 0.000000000000000e+00 0.000000000000000e+00

0.000000000000000e+00 0.000000000000000e+00 0.000000000000000e+00
0.000000000000000e+00 0.000000000000000e+00 0.000000000000000e+00
0.000000000000000e+00 0.000000000000000e+00 0.000000000000000e+00

0.000000000000000e+00 0.000000000000000e+00 0.000000000000000e+00
0.000000000000000e+00 0.000000000000000e+00 0.000000000000000e+00
0.000000000000000e+00 0.000000000000000e+00 0.000000000000000e+00

0.000000000000000e+00 0.000000000000000e+00 0.000000000000000e+00
0.000000000000000e+00 0.000000000000000e+00 0.000000000000000e+00
0.000000000000000e+00 0.000000000000000e+00 0.000000000000000e+00

0.000000000000000e+00 0.000000000000000e+00 0.000000000000000e+00
0.000000000000000e+00 0.000000000000000e+00 0.000000000000000e+00
0.000000000000000e+00 0.000000000000000e+00 0.000000000000000e+00

0.000000000000000e+00 0.000000000000000e+00 0.000000000000000e+00
0.000000000000000e+00 0.000000000000000e+00 0.000000000000000e+00
0.000000000000000e+00 0.000000000000000e+00 0.000000000000000e+00

0.000000000000000e+00 0.000000000000000e+00 0.000000000000000e+00
0.000000000000000e+00 0.000000000000000e+00 0.000000000000000e+00
0.000000000000000e+00 0.000000000000000e+00 0.000000000000000e+00

0.000000000000000e+00 0.000000000000000e+00 0.000000000000000e+00
0.000000000000000e+00 0.000000000000000e+00 0.000000000000000e+00
0.000000000000000e+00 0.000000000000000e+00 0.000000000000000e+00

0.000000000000000e+00 0.000000000000000e+00 0.000000000000000e+00
0.000000000000000e+00 0.000000000000000e+00 0.000000000000000e+00
0.000000000000000e+00 0.000000000000000e+00 0.000000000000000e+00

0.000000000000000e+00 0.000000000000000e+00 0.000000000000000e+00
0.000000000000000e+00 0.000000000000000e+00 0.000000000000000e+00
0.000000000000000e+00 0.000000000000000e+00 0.000000000000000e+00

0.000000000000000e+00 0.000000000000000e+00 0.000000000000000e+00
0.000000000000000e+00 0.000000000000000e+00 0.000000000000000e+00
0.000000000000000e+00 0.000000000000000e+00 0.000000000000000e+00

0.000000000000000e+00 0.000000000000000e+00 0.000000000000000e+00
0.000000000000000e+00 0.000000000000000e+00 0.000000000000000e+00
0.000000000000000e+00 0.000000000000000e+00 0.000000000000000e+00

0.000000000000000e+00 0.000000000000000e+00 0.000000000000000e+00
0.000000000000000e+00 0.000000000000000e+00 0.000000000000000e+00
0.000000000000000e+00 0.000000000000000e+00 0.000000000000000e+00

0.000000000000000e+00 0.000000000000000e+00 0.000000000000000e+00
0.000000000000000e+00 0.000000000000000e+00 0.000000000000000e+00
0.000000000000000e+00 0.000000000000000e+00 0.000000000000000e+00

0.000000000000000e+00 0.000000000000000e+00 0.000000000000000e+00
0.000000000000000e+00 0.000000000000000e+00 0.000000000000000e+00
0.000000000000000e+00 0.000000000000000e+00 0.000000000000000e+00

0.000000000000000e+00 0.000000000000000e+00 0.000000000000000e+00
0.000000000000000e+00 0.000000000000000e+00 0.000000000000000e+00
0.000000000000000e+00 0.000000000000000e+00 0.000000000000000e+00

0.000000000000000e+00 0.000000000000000e+00 0.000000000000000e+00
0.000000000000000e+00 0.000000000000000e+00 0.000000000000000e+00
0.000000000000000e+00 0.000000000000000e+00 0.000000000000000e+00

0.000000000000000e+00 0.000000000000000e+00 0.000000000000000e+00
0.000000000000000e+00 0.000000000000000e+00 0.000000000000000e+00
0.000000000000000e+00 0.000000000000000e+00 0.000000000000000e+00

0.000000000000000e+00 0.000000000000000e+00 0.000000000000000e+00
0.000000000000000e+00 0.000000000000000e+00 0.000000000000000e+00
0.000000000000000e+00 0.000000000000000e+00 0.000000000000000e+00

0.000000000000000e+00 0.000000000000000e+00 0.000000000000000e+00
0.000000000000000e+00 0.000000000000000e+00 0.000000000000000e+00
0.000000000000000e+00 0.000000000000000e+00 0.000000000000000e+00

0.000000000000000e+00 0.000000000000000e+00 0.000000000000000e+00
0.000000000000000e+00 0.000000000000000e+00 0.000000000000000e+00
0.000000000000000e+00 0.000000000000000e+00 0.000000000000000e+00

0.000000000000000e+00 0.000000000000000e+00 0.000000000000000e+00
0.000000000000000e+00 0.000000000000000e+00 0.000000000000000e+00
0.000000000000000e+00 0.000000000000000e+00 0.000000000000000e+00

0.000000000000000e+00 0.000000000000000e+00 0.000000000000000e+00
0.000000000000000e+00 0.000000000000000e+00 0.000000000000000e+00
0.000000000000000e+00 0.000000000000000e+00 0.000000000000000e+00

0.000000000000000e+00 0.000000000000000e+00 0.000000000000000e+00
0.000000000000000e+00 0.000000000000000e+00 0.000000000000000e+00
0.000000000000000e+00 0.000000000000000e+00 0.000000000000000e+00

0.000000000000000e+00 0.000000000000000e+00 0.000000000000000e+00
0.000000000000000e+00 0.000000000000000e+00 0.000000000000000e+00
0.000000000000000e+00 0.000000000000000e+00 0.000000000000000e+00

0.000000000000000e+00 0.000000000000000e+00 0.000000000000000e+00
0.000000000000000e+00 0.000000000000000e+00 0.000000000000000e+00
0.000000000000000e+00 0.000000000000000e+00 0.000000000000000e+00

0.000000000000000e+00 0.000000000000000e+00 0.000000000000000e+00
0.000000000000000e+00 0.000000000000000e+00 0.000000000000000e+00
0.000000000000000e+00 0.000000000000000e+00 0.000000000000000e+00

0.000000000000000e+00 0.000000000000000e+00 0.000000000000000e+00
0.000000000000000e+00 0.000000000000000e+00 0.000000000000000e+00
0.000000000000000e+00 0.000000000000000e+00 0.000000000000000e+00

0.000000000000000e+00 0.000000000000000e+00 0.000000000000000e+00
0.000000000000000e+00 0.000000000000000e+00 0.000000000000000e+00
0.000000000000000e+00 0.000000000000000e+00 0.000000000000000e+00

0.000000000000000e+00 0.000000000000000e+00 0.000000000000000e+00
0.000000000000000e+00 0.000000000000000e+00 0.000000000000000e+00
0.000000000000000e+00 0.000000000000000e+00 0.000000000000000e+00

0.000000000000000e+00 0.000000000000000e+00 0.000000000000000e+00
0.000000000000000e+00 0.000000000000000e+00 0.000000000000000e+00
0.000000000000000e+00 0.000000000000000e+00 0.000000000000000e+00

0.000000000000000e+00 0.000000000000000e+00 0.000000000000000e+00
0.000000000000000e+00 0.000000000000000e+00 0.000000000000000e+00
0.000000000000000e+00 0.000000000000000e+00 0.000000000000000e+00

0.000000000000000e+00 0.000000000000000e+00 0.000000000000000e+00
0.000000000000000e+00 0.000000000000000e+00 0.000000000000000e+00
0.000000000000000e+00 0.000000000000000e+00 0.000000000000000e+00

0.000000000000000e+00 0.000000000000000e+00 0.000000000000000e+00
0.000000000000000e+00 0.000000000000000e+00 0.000000000000000e+00
0.000000000000000e+00 0.000000000000000e+00 0.000000000000000e+00

0.000000000000000e+00 0.000000000000000e+00 0.000000000000000e+00
0.000000000000000e+00 0.000000000000000e+00 0.000000000000000e+00
0.000000000000000e+00 0.000000000000000e+00 0.000000000000000e+00

0.000000000000000e+00 0.000000000000000e+00 0.000000000000000e+00
0.000000000000000e+00 0.000000000000000e+00 0.000000000000000e+00
0.000000000000000e+00 0.000000000000000e+00 0.000000000000000e+00

0.000000000000000e+00 0.000000000000000e+00 0.000000000000000e+00
0.000000000000000e+00 0.000000000000000e+00 0.000000000000000e+00
0.000000000000000e+00 0.000000000000000e+00 0.000000000000000e+00

0.000000000000000e+00 0.000000000000000e+00 0.000000000000000e+00
0.000000000000000e+00 0.000000000000000e+00 0.000000000000000e+00
0.000000000000000e+00 0.000000000000000e+00 0.000000000000000e+00

0.000000000000000e+00 0.000000000000000e+00 0.000000000000000e+00
0.000000000000000e+00 0.000000000000000e+00 0.000000000000000e+00
0.000000000000000e+00 0.000000000000000e+00 0.000000000000000e+00

0.000000000000000e+00 0.000000000000000e+00 0.000000000000000e+00
0.000000000000000e+00 0.000000000000000e+00 0.000000000000000e+00
0.000000000000000e+00 0.000000000000000e+00 0.000000000000000e+00

0.000000000000000e+00 0.000000000000000e+00 0.000000000000000e+00
0.000000000000000e+00 0.000000000000000e+00 0.000000000000000e+00
0.000000000000000e+00 0.000000000000000e+00 0.000000000000000e+00

0.000000000000000e+00 0.000000000000000e+00 0.000000000000000e+00
0.000000000000000e+00 0.000000000000000e+00 0.000000000000000e+00
0.000000000000000e+00 0.000000000000000e+00 0.000000000000000e+00

0.000000000000000e+00 0.000000000000000e+00 0.000000000000000e+00
0.000000000000000e+00 0.000000000000000e+00 0.000000000000000e+00
0.000000000000000e+00 0.000000000000000e+00 0.000000000000000e+00

0.000000000000000e+00 0.000000000000000e+00 0.000000000000000e+00
0.000000000000000e+00 0.000000000000000e+00 0.000000000000000e+00
0.000000000000000e+00 0.000000000000000e+00 0.000000000000000e+00

0.000000000000000e+00 0.000000000000000e+00 0.000000000000000e+00
0.000000000000000e+00 0.000000000000000e+00 0.000000000000000e+00
0.000000000000000e+00 0.000000000000000e+00 0.000000000000000e+00

0.000000000000000e+00 0.000000000000000e+00 0.000000000000000e+00
0.000000000000000e+00 0.000000000000000e+00 0.000000000000000e+00
0.000000000000000e+00 0.000000000000000e+00 0.000000000000000e+00

0.000000000000000e+00 0.000000000000000e+00 0.000000000000000e+00
0.000000000000000e+00 0.000000000000000e+00 0.000000000000000e+00
0.000000000000000e+00 0.000000000000000e+00 0.000000000000000e+00

0.000000000000000e+00 0.000000000000000e+00 0.000000000000000e+00
0.000000000000000e+00 0.000000000000000e+00 0.000000000000000e+00
0.000000000000000e+00 0.000000000000000e+00 0.000000000000000e+00

0.000000000000000e+00 0.000000000000000e+00 0.000000000000000e+00
0.000000000000000e+00 0.000000000000000e+00 0.000000000000000e+00
0.000000000000000e+00 0.000000000000000e+00 0.000000000000000e+00

0.000000000000000e+00 0.000000000000000e+00 0.000000000000000e+00
0.000000000000000e+00 0.000000000000000e+00 0.000000000000000e+00
0.000000000000000e+00 0.000000000000000e+00 0.000000000000000e+00

0.000000000000000e+00 0.000000000000000e+00 0.000000000000000e+00
0.000000000000000e+00 0.000000000000000e+00 0.000000000000000e+00
0.000000000000000e+00 0.000000000000000e+00 0.000000000000000e+00

0.000000000000000e+00 0.000000000000000e+00 0.000000000000000e+00
0.000000000000000e+00 0.000000000000000e+00 0.000000000000000e+00
0.000000000000000e+00 0.000000000000000e+00 0.000000000000000e+00

0.000000000000000e+00 0.000000000000000e+00 0.000000000000000e+00
0.000000000000000e+00 0.000000000000000e+00 0.000000000000000e+00
0.000000000000000e+00 0.000000000000000e+00 0.000000000000000e+00

0.000000000000000e+00 0.000000000000000e+00 0.000000000000000e+00
0.000000000000000e+00 0.000000000000000e+00 0.000000000000000e+00
0.000000000000000e+00 0.000000000000000e+00 0.000000000000000e+00

0.000000000000000e+00 0.000000000000000e+00 0.000000000000000e+00
0.000000000000000e+00 0.000000000000000e+00 0.000000000000000e+00
0.000000000000000e+00 0.000000000000000e+00 0.000000000000000e+00

0.000000000000000e+00 0.000000000000000e+00 0.000000000000000e+00
0.000000000000000e+00 0.000000000000000e+00 0.000000000000000e+00
0.000000000000000e+00 0.000000000000000e+00 0.000000000000000e+00

0.000000000000000e+00 0.000000000000000e+00 0.000000000000000e+00
0.000000000000000e+00 0.000000000000000e+00 0.000000000000000e+00
0.000000000000000e+00 0.000000000000000e+00 0.000000000000000e+00

0.000000000000000e+00 0.000000000000000e+00 0.000000000000000e+00
0.000000000000000e+00 0.000000000000000e+00 0.000000000000000e+00
0.000000000000000e+00 0.000000000000000e+00 0.000000000000000e+00

0.000000000000000e+00 0.000000000000000e+00 0.000000000000000e+00
0.000000000000000e+00 0.000000000000000e+00 0.000000000000000e+00
0.000000000000000e+00 0.000000000000000e+00 0.000000000000000e+00

0.000000000000000e+00 0.000000000000000e+00 0.000000000000000e+00
0.000000000000000e+00 0.000000000000000e+00 0.000000000000000e+00
0.000000000000000e+00 0.000000000000000e+00 0.000000000000000e+00

0.000000000000000e+00 0.000000000000000e+00 0.000000000000000e+00
0.000000000000000e+00 0.000000000000000e+00 0.000000000000000e+00
0.000000000000000e+00 0.000000000000000e+00 0.000000000000000e+00

0.000000000000000e+00 0.000000000000000e+00 0.000000000000000e+00
0.000000000000000e+00 0.000000000000000e+00 0.000000000000000e+00
0.000000000000000e+00 0.000000000000000e+00 0.000000000000000e+00

0.000000000000000e+00 0.000000000000000e+00 0.000000000000000e+00
0.000000000000000e+00 0.000000000000000e+00 0.000000000000000e+00
0.000000000000000e+00 0.000000000000000e+00 0.000000000000000e+00

0.000000000000000e+00 0.000000000000000e+00 0.000000000000000e+00
0.000000000000000e+00 0.000000000000000e+00 0.000000000000000e+00
0.000000000000000e+00 0.000000000000000e+00 0.000000000000000e+00

0.000000000000000e+00 0.000000000000000e+00 0.000000000000000e+00
0.000000000000000e+00 0.000000000000000e+00 0.000000000000000e+00
0.000000000000000e+00 0.000000000000000e+00 0.000000000000000e+00

0.000000000000000e+00 0.000000000000000e+00 0.000000000000000e+00
0.000000000000000e+00 0.000000000000000e+00 0.000000000000000e+00
0.000000000000000e+00 0.000000000000000e+00 0.000000000000000e+00

0.000000000000000e+00 0.000000000000000e+00 0.000000000000000e+00
0.000000000000000e+00 0.000000000000000e+00 0.000000000000000e+00
0.000000000000000e+00 0.000000000000000e+00 0.000000000000000e+00

0.000000000000000e+00 0.000000000000000e+00 0.000000000000000e+00
0.000000000000000e+00 0.000000000000000e+00 0.000000000000000e+00
0.000000000000000e+00 0.000000000000000e+00 0.000000000000000e+00

0.000000000000000e+00 0.000000000000000e+00 0.000000000000000e+00
0.000000000000000e+00 0.000000000000000e+00 0.000000000000000e+00
0.000000000000000e+00 0.000000000000000e+00 0.000000000000000e+00

0.000000000000000e+00 0.000000000000000e+00 0.000000000000000e+00
0.000000000000000e+00 0.000000000000000e+00 0.000000000000000e+00
0.000000000000000e+00 0.000000000000000e+00 0.000000000000000e+00

0.000000000000000e+00 0.000000000000000e+00 0.000000000000000e+00
0.000000000000000e+00 0.000000000000000e+00 0.000000000000000e+00
0.000000000000000e+00 0.000000000000000e+00 0.000000000000000e+00

0.000000000000000e+00 0.000000000000000e+00 0.000000000000000e+00
0.000000000000000e+00 0.000000000000000e+00 0.000000000000000e+00
0.000000000000000e+00 0.000000000000000e+00 0.000000000000000e+00

0.000000000000000e+00 0.000000000000000e+00 0.000000000000000e+00
0.000000000000000e+00 0.000000000000000e+00 0.000000000000000e+00
0.000000000000000e+00 0.000000000000000e+00 0.000000000000000e+00

0.000000000000000e+00 0.000000000000000e+00 0.000000000000000e+00
0.000000000000000e+00 0.000000000000000e+00 0.000000000000000e+00
0.000000000000000e+00 0.000000000000000e+00 0.000000000000000e+00

0.000000000000000e+00 0.000000000000000e+00 0.000000000000000e+00
0.000000000000000e+00 0.000000000000000e+00 0.000000000000000e+00
0.000000000000000e+00 0.000000000000000e+00 0.000000000000000e+00

0.000000000000000e+00 0.000000000000000e+00 0.000000000000000e+00
0.000000000000000e+00 0.000000000000000e+00 0.000000000000000e+00
0.000000000000000e+00 0.000000000000000e+00 0.000000000000000e+00

0.000000000000000e+00 0.000000000000000e+00 0.000000000000000e+00
0.000000000000000e+00 0.000000000000000e+00 0.000000000000000e+00
0.000000000000000e+00 0.000000000000000e+00 0.000000000000000e+00

0.000000000000000e+00 0.000000000000000e+00 0.000000000000000e+00
0.000000000000000e+00 0.000000000000000e+00 0.000000000000000e+00
0.000000000000000e+00 0.000000000000000e+00 0.000000000000000e+00

0.000000000000000e+00 0.000000000000000e+00 0.000000000000000e+00
0.000000000000000e+00 0.000000000000000e+00 0.000000000000000e+00
0.000000000000000e+00 0.000000000000000e+00 0.000000000000000e+00

0.000000000000000e+00 0.000000000000000e+00 0.000000000000000e+00
0.000000000000000e+00 0.000000000000000e+00 0.000000000000000e+00
0.000000000000000e+00 0.000000000000000e+00 0.000000000000000e+00

0.000000000000000e+00 0.000000000000000e+00 0.000000000000000e+00
0.000000000000000e+00 0.000000000000000e+00 0.000000000000000e+00
0.000000000000000e+00 0.000000000000000e+00 0.000000000000000e+00

0.000000000000000e+00 0.000000000000000e+00 0.000000000000000e+00
0.000000000000000e+00 0.000000000000000e+00 0.000000000000000e+00
0.000000000000000e+00 0.000000000000000e+00 0.000000000000000e+00

0.000000000000000e+00 0.000000000000000e+00 0.000000000000000e+00
0.000000000000000e+00 0.000000000000000e+00 0.000000000000000e+00
0.000000000000000e+00 0.000000000000000e+00 0.000000000000000e+00

0.000000000000000e+00 0.000000000000000e+00 0.000000000000000e+00
0.000000000000000e+00 0.000000000000000e+00 0.000000000000000e+00
0.000000000000000e+00 0.000000000000000e+00 0.000000000000000e+00

0.000000000000000e+00 0.000000000000000e+00 0.000000000000000e+00
0.000000000000000e+00 0.000000000000000e+00 0.000000000000000e+00
0.000000000000000e+00 0.000000000000000e+00 0.000000000000000e+00

0.000000000000000e+00 0.000000000000000e+00 0.000000000000000e+00
0.000000000000000e+00 0.000000000000000e+00 0.000000000000000e+00
0.000000000000000e+00 0.000000000000000e+00 0.000000000000000e+00

0.000000000000000e+00 0.000000000000000e+00 0.000000000000000e+00
0.000000000000000e+00 0.000000000000000e+00 0.000000000000000e+00
0.000000000000000e+00 0.000000000000000e+00 0.000000000000000e+00

0.000000000000000e+00 0.000000000000000e+00 0.000000000000000e+00
0.000000000000000e+00 0.000000000000000e+00 0.000000000000000e+00
0.000000000000000e+00 0.000000000000000e+00 0.000000000000000e+00

0.000000000000000e+00 0.000000000000000e+00 0.000000000000000e+00
0.000000000000000e+00 0.000000000000000e+00 0.000000000000000e+00
0.000000000000000e+00 0.000000000000000e+00 0.000000000000000e+00

0.000000000000000e+00 0.000000000000000e+00 0.000000000000000e+00
0.000000000000000e+00 0.000000000000000e+00 0.000000000000000e+00
0.000000000000000e+00 0.000000000000000e+00 0.000000000000000e+00

0.000000000000000e+00 0.000000000000000e+00 0.000000000000000e+00
0.000000000000000e+00 0.000000000000000e+00 0.000000000000000e+00
0.000000000000000e+00 0.000000000000000e+00 0.000000000000000e+00

0.000000000000000e+00 0.000000000000000e+00 0.000000000000000e+00
0.000000000000000e+00 0.000000000000000e+00 0.000000000000000e+00
0.000000000000000e+00 0.000000000000000e+00 0.000000000000000e+00

0.000000000000000e+00 0.000000000000000e+00 0.000000000000000e+00
0.000000000000000e+00 0.000000000000000e+00 0.000000000000000e+00
0.000000000000000e+00 0.000000000000000e+00 0.000000000000000e+00

0.000000000000000e+00 0.000000000000000e+00 0.000000000000000e+00
0.000000000000000e+00 0.000000000000000e+00 0.000000000000000e+00
0.000000000000000e+00 0.000000000000000e+00 0.000000000000000e+00

0.000000000000000e+00 0.000000000000000e+00 0.000000000000000e+00
0.000000000000000e+00 0.000000000000000e+00 0.000000000000000e+00
0.000000000000000e+00 0.000000000000000e+00 0.000000000000000e+00

0.000000000000000e+00 0.000000000000000e+00 0.000000000000000e+00
0.000000000000000e+00 0.000000000000000e+00 0.000000000000000e+00
0.000000000000000e+00 0.000000000000000e+00 0.000000000000000e+00

0.000000000000000e+00 0.000000000000000e+00 0.000000000000000e+00
0.000000000000000e+00 0.000000000000000e+00 0.000000000000000e+00
0.000000000000000e+00 0.000000000000000e+00 0.000000000000000e+00

0.000000000000000e+00 0.000000000000000e+00 0.000000000000000e+00
0.000000000000000e+00 0.000000000000000e+00 0.000000000000000e+00
0.000000000000000e+00 0.000000000000000e+00 0.000000000000000e+00

0.000000000000000e+00 0.000000000000000e+00 0.000000000000000e+00
0.000000000000000e+00 0.000000000000000e+00 0.000000000000000e+00
0.000000000000000e+00 0.000000000000000e+00 0.000000000000000e+00

0.000000000000000e+00 0.000000000000000e+00 0.000000000000000e+00
0.000000000000000e+00 0.000000000000000e+00 0.000000000000000e+00
0.000000000000000e+00 0.000000000000000e+00 0.000000000000000e+00

0.000000000000000e+00 0.000000000000000e+00 0.000000000000000e+00
0.000000000000000e+00 0.000000000000000e+00 0.000000000000000e+00
0.000000000000000e+00 0.000000000000000e+00 0.000000000000000e+00

0.000000000000000e+00 0.000000000000000e+00 0.000000000000000e+00
0.000000000000000e+00 0.000000000000000e+00 0.000000000000000e+00
0.000000000000000e+00 0.000000000000000e+00 0.000000000000000e+00

0.000000000000000e+00 0.000000000000000e+00 0.000000000000000e+00
0.000000000000000e+00 0.000000000000000e+00 0.000000000000000e+00
0.000000000000000e+00 0.000000000000000e+00 0.000000000000000e+00

0.000000000000000e+00 0.000000000000000e+00 0.000000000000000e+00
0.000000000000000e+00 0.000000000000000e+00 0.000000000000000e+00
0.000000000000000e+00 0.000000000000000e+00 0.000000000000000e+00

0.000000000000000e+00 0.000000000000000e+00 0.000000000000000e+00
0.000000000000000e+00 0.000000000000000e+00 0.000000000000000e+00
0.000000000000000e+00 0.000000000000000e+00 0.000000000000000e+00

0.000000000000000e+00 0.000000000000000e+00 0.000000000000000e+00
0.000000000000000e+00 0.000000000000000e+00 0.000000000000000e+00
0.000000000000000e+00 0.000000000000000e+00 0.000000000000000e+00

0.000000000000000e+00 0.000000000000000e+00 0.000000000000000e+00
0.000000000000000e+00 0.000000000000000e+00 0.000000000000000e+00
0.000000000000000e+00 0.000000000000000e+00 0.000000000000000e+00

0.000000000000000e+00 0.000000000000000e+00 0.000000000000000e+00
0.000000000000000e+00 0.000000000000000e+00 0.000000000000000e+00
0.000000000000000e+00 0.000000000000000e+00 0.000000000000000e+00

0.000000000000000e+00 0.000000000000000e+00 0.000000000000000e+00
0.000000000000000e+00 0.000000000000000e+00 0.000000000000000e+00
0.000000000000000e+00 0.000000000000000e+00 0.000000000000000e+00

0.000000000000000e+00 0.000000000000000e+00 0.000000000000000e+00
0.000000000000000e+00 0.000000000000000e+00 0.000000000000000e+00
0.000000000000000e+00 0.000000000000000e+00 0.000000000000000e+00

0.000000000000000e+00 0.000000000000000e+00 0.000000000000000e+00
0.000000000000000e+00 0.000000000000000e+00 0.000000000000000e+00
0.000000000000000e+00 0.000000000000000e+00 0.000000000000000e+00

0.000000000000000e+00 0.000000000000000e+00 0.000000000000000e+00
0.000000000000000e+00 0.000000000000000e+00 0.000000000000000e+00
0.000000000000000e+00 0.000000000000000e+00 0.000000000000000e+00

0.000000000000000e+00 0.000000000000000e+00 0.000000000000000e+00
0.000000000000000e+00 0.000000000000000e+00 0.000000000000000e+00
0.000000000000000e+00 0.000000000000000e+00 0.000000000000000e+00

0.000000000000000e+00 0.000000000000000e+00 0.000000000000000e+00
0.000000000000000e+00 0.000000000000000e+00 0.000000000000000e+00
0.000000000000000e+00 0.000000000000000e+00 0.000000000000000e+00

0.000000000000000e+00 0.000000000000000e+00 0.000000000000000e+00
0.000000000000000e+00 0.000000000000000e+00 0.000000000000000e+00
0.000000000000000e+00 0.000000000000000e+00 0.000000000000000e+00

0.000000000000000e+00 0.000000000000000e+00 0.000000000000000e+00
0.000000000000000e+00 0.000000000000000e+00 0.000000000000000e+00
0.000000000000000e+00 0.000000000000000e+00 0.000000000000000e+00

0.000000000000000e+00 0.000000000000000e+00 0.000000000000000e+00
0.000000000000000e+00 0.000000000000000e+00 0.000000000000000e+00
0.000000000000000e+00 0.000000000000000e+00 0.000000000000000e+00

0.000000000000000e+00 0.000000000000000e+00 0.000000000000000e+00
0.000000000000000e+00 0.000000000000000e+00 0.000000000000000e+00
0.000000000000000e+00 0.000000000000000e+00 0.000000000000000e+00

0.000000000000000e+00 0.000000000000000e+00 0.000000000000000e+00
0.000000000000000e+00 0.000000000000000e+00 0.000000000000000e+00
0.000000000000000e+00 0.000000000000000e+00 0.000000000000000e+00

0.000000000000000e+00 0.000000000000000e+00 0.000000000000000e+00
0.000000000000000e+00 0.000000000000000e+00 0.000000000000000e+00
0.000000000000000e+00 0.000000000000000e+00 0.000000000000000e+00

0.000000000000000e+00 0.000000000000000e+00 0.000000000000000e+00
0.000000000000000e+00 0.000000000000000e+00 0.000000000000000e+00
0.000000000000000e+00 0.000000000000000e+00 0.000000000000000e+00

0.000000000000000e+00 0.000000000000000e+00 0.000000000000000e+00
0.000000000000000e+00 0.000000000000000e+00 0.000000000000000e+00
0.000000000000000e+00 0.000000000000000e+00 0.000000000000000e+00

0.000000000000000e+00 0.000000000000000e+00 0.000000000000000e+00
0.000000000000000e+00 0.000000000000000e+00 0.000000000000000e+00
0.000000000000000e+00 0.000000000000000e+00 0.000000000000000e+00

0.000000000000000e+00 0.000000000000000e+00 0.000000000000000e+00
0.000000000000000e+00 0.000000000000000e+00 0.000000000000000e+00
0.000000000000000e+00 0.000000000000000e+00 0.000000000000000e+00

0.000000000000000e+00 0.000000000000000e+00 0.000000000000000e+00
0.000000000000000e+00 0.000000000000000e+00 0.000000000000000e+00
0.000000000000000e+00 0.000000000000000e+00 0.000000000000000e+00

0.000000000000000e+00 0.000000000000000e+00 0.000000000000000e+00
0.000000000000000e+00 0.000000000000000e+00 0.000000000000000e+00
0.000000000000000e+00 0.000000000000000e+00 0.000000000000000e+00

0.000000000000000e+00 0.000000000000000e+00 0.000000000000000e+00
0.000000000000000e+00 0.000000000000000e+00 0.000000000000000e+00
0.000000000000000e+00 0.000000000000000e+00 0.000000000000000e+00

0.000000000000000e+00 0.000000000000000e+00 0.000000000000000e+00
0.000000000000000e+00 0.000000000000000e+00 0.000000000000000e+00
0.000000000000000e+00 0.000000000000000e+00 0.000000000000000e+00

0.000000000000000e+00 0.000000000000000e+00 0.000000000000000e+00
0.000000000000000e+00 0.000000000000000e+00 0.000000000000000e+00
0.000000000000000e+00 0.000000000000000e+00 0.000000000000000e+00

0.000000000000000e+00 0.000000000000000e+00 0.000000000000000e+00
0.000000000000000e+00 0.000000000000000e+00 0.000000000000000e+00
0.000000000000000e+00 0.000000000000000e+00 0.000000000000000e+00

0.000000000000000e+00 0.000000000000000e+00 0.000000000000000e+00
0.000000000000000e+00 0.000000000000000e+00 0.000000000000000e+00
0.000000000000000e+00 0.000000000000000e+00 0.000000000000000e+00

0.000000000000000e+00 0.000000000000000e+00 0.000000000000000e+00
0.000000000000000e+00 0.000000000000000e+00 0.000000000000000e+00
0.000000000000000e+00 0.000000000000000e+00 0.000000000000000e+00

0.000000000000000e+00 0.000000000000000e+00 0.000000000000000e+00
0.000000000000000e+00 0.000000000000000e+00 0.000000000000000e+00
0.000000000000000e+00 0.000000000000000e+00 0.000000000000000e+00

0.000000000000000e+00 0.000000000000000e+00 0.000000000000000e+00
0.000000000000000e+00 0.000000000000000e+00 0.000000000000000e+00
0.000000000000000e+00 0.000000000000000e+00 0.000000000000000e+00

0.000000000000000e+00 0.000000000000000e+00 0.000000000000000e+00
0.000000000000000e+00 0.000000000000000e+00 0.000000000000000e+00
0.000000000000000e+00 0.000000000000000e+00 0.000000000000000e+00

0.000000000000000e+00 0.000000000000000e+00 0.000000000000000e+00
0.000000000000000e+00 0.000000000000000e+00 0.000000000000000e+00
0.000000000000000e+00 0.000000000000000e+00 0.000000000000000e+00

0.000000000000000e+00 0.000000000000000e+00 0.000000000000000e+00
0.000000000000000e+00 0.000000000000000e+00 0.000000000000000e+00
0.000000000000000e+00 0.000000000000000e+00 0.000000000000000e+00

0.000000000000000e+00 0.000000000000000e+00 0.000000000000000e+00
0.000000000000000e+00 0.000000000000000e+00 0.000000000000000e+00
0.000000000000000e+00 0.000000000000000e+00 0.000000000000000e+00

0.000000000000000e+00 0.000000000000000e+00 0.000000000000000e+00
0.000000000000000e+00 0.000000000000000e+00 0.000000000000000e+00
0.000000000000000e+00 0.000000000000000e+00 0.000000000000000e+00

0.000000000000000e+00 0.000000000000000e+00 0.000000000000000e+00
0.000000000000000e+00 0.000000000000000e+00 0.000000000000000e+00
0.000000000000000e+00 0.000000000000000e+00 0.000000000000000e+00

0.000000000000000e+00 0.000000000000000e+00 0.000000000000000e+00
0.000000000000000e+00 0.000000000000000e+00 0.000000000000000e+00
0.000000000000000e+00 0.000000000000000e+00 0.000000000000000e+00

0.000000000000000e+00 0.000000000000000e+00 0.000000000000000e+00
0.000000000000000e+00 0.000000000000000e+00 0.000000000000000e+00
0.000000000000000e+00 0.000000000000000e+00 0.000000000000000e+00

0.000000000000000e+00 0.000000000000000e+00 0.000000000000000e+00
0.000000000000000e+00 0.000000000000000e+00 0.000000000000000e+00
0.000000000000000e+00 0.000000000000000e+00 0.000000000000000e+00

0.000000000000000e+00 0.000000000000000e+00 0.000000000000000e+00
0.000000000000000e+00 0.000000000000000e+00 0.000000000000000e+00
0.000000000000000e+00 0.000000000000000e+00 0.000000000000000e+00

0.000000000000000e+00 0.000000000000000e+00 0.000000000000000e+00
0.000000000000000e+00 0.000000000000000e+00 0.000000000000000e+00
0.000000000000000e+00 0.000000000000000e+00 0.000000000000000e+00

0.000000000000000e+00 0.000000000000000e+00 0.000000000000000e+00
0.000000000000000e+00 0.000000000000000e+00 0.000000000000000e+00
0.000000000000000e+00 0.000000000000000e+00 0.000000000000000e+00

0.000000000000000e+00 0.000000000000000e+00 0.000000000000000e+00
0.000000000000000e+00 0.000000000000000e+00 0.000000000000000e+00
0.000000000000000e+00 0.000000000000000e+00 0.000000000000000e+00

0.000000000000000e+00 0.000000000000000e+00 0.000000000000000e+00
0.000000000000000e+00 0.000000000000000e+00 0.000000000000000e+00
0.000000000000000e+00 0.000000000000000e+00 0.000000000000000e+00

0.000000000000000e+00 0.000000000000000e+00 0.000000000000000e+00
0.000000000000000e+00 0.000000000000000e+00 0.000000000000000e+00
0.000000000000000e+00 0.000000000000000e+00 0.000000000000000e+00

0.000000000000000e+00 0.000000000000000e+00 0.000000000000000e+00
0.000000000000000e+00 0.000000000000000e+00 0.000000000000000e+00
0.000000000000000e+00 0.000000000000000e+00 0.000000000000000e+00

0.000000000000000e+00 0.000000000000000e+00 0.000000000000000e+00
0.000000000000000e+00 0.000000000000000e+00 0.000000000000000e+00
0.000000000000000e+00 0.000000000000000e+00 0.000000000000000e+00

0.000000000000000e+00 0.000000000000000e+00 0.000000000000000e+00
0.000000000000000e+00 0.000000000000000e+00 0.000000000000000e+00
0.000000000000000e+00 0.000000000000000e+00 0.000000000000000e+00

0.000000000000000e+00 0.000000000000000e+00 0.000000000000000e+00
0.000000000000000e+00 0.000000000000000e+00 0.000000000000000e+00
0.000000000000000e+00 0.000000000000000e+00 0.000000000000000e+00

0.000000000000000e+00 0.000000000000000e+00 0.000000000000000e+00
0.000000000000000e+00 0.000000000000000e+00 0.000000000000000e+00
0.000000000000000e+00 0.000000000000000e+00 0.000000000000000e+00

0.000000000000000e+00 0.000000000000000e+00 0.000000000000000e+00
0.000000000000000e+00 0.000000000000000e+00 0.000000000000000e+00
0.000000000000000e+00 0.000000000000000e+00 0.000000000000000e+00

0.000000000000000e+00 0.000000000000000e+00 0.000000000000000e+00
0.000000000000000e+00 0.000000000000000e+00 0.000000000000000e+00
0.000000000000000e+00 0.000000000000000e+00 0.000000000000000e+00

0.000000000000000e+00 0.000000000000000e+00 0.000000000000000e+00
0.000000000000000e+00 0.000000000000000e+00 0.000000000000000e+00
0.000000000000000e+00 0.000000000000000e+00 0.000000000000000e+00

0.000000000000000e+00 0.000000000000000e+00 0.000000000000000e+00
0.000000000000000e+00 0.000000000000000e+00 0.000000000000000e+00
0.000000000000000e+00 0.000000000000000e+00 0.000000000000000e+00

0.000000000000000e+00 0.000000000000000e+00 0.000000000000000e+00
0.000000000000000e+00 0.000000000000000e+00 0.000000000000000e+00
0.000000000000000e+00 0.000000000000000e+00 0.000000000000000e+00

0.000000000000000e+00 0.000000000000000e+00 0.000000000000000e+00
0.000000000000000e+00 0.000000000000000e+00 0.000000000000000e+00
0.000000000000000e+00 0.000000000000000e+00 0.000000000000000e+00

0.000000000000000e+00 0.000000000000000e+00 0.000000000000000e+00
0.000000000000000e+00 0.000000000000000e+00 0.000000000000000e+00
0.000000000000000e+00 0.000000000000000e+00 0.000000000000000e+00

0.000000000000000e+00 0.000000000000000e+00 0.000000000000000e+00
0.000000000000000e+00 0.000000000000000e+00 0.000000000000000e+00
0.000000000000000e+00 0.000000000000000e+00 0.000000000000000e+00

0.000000000000000e+00 0.000000000000000e+00 0.000000000000000e+00
0.000000000000000e+00 0.000000000000000e+00 0.000000000000000e+00
0.000000000000000e+00 0.000000000000000e+00 0.000000000000000e+00

0.000000000000000e+00 0.000000000000000e+00 0.000000000000000e+00
0.000000000000000e+00 0.000000000000000e+00 0.000000000000000e+00
0.000000000000000e+00 0.000000000000000e+00 0.000000000000000e+00

0.000000000000000e+00 0.000000000000000e+00 0.000000000000000e+00
0.000000000000000e+00 0.000000000000000e+00 0.000000000000000e+00
0.000000000000000e+00 0.000000000000000e+00 0.000000000000000e+00

0.000000000000000e+00 0.000000000000000e+00 0.000000000000000e+00
0.000000000000000e+00 0.000000000000000e+00 0.000000000000000e+00
0.000000000000000e+00 0.000000000000000e+00 0.000000000000000e+00

0.000000000000000e+00 0.000000000000000e+00 0.000000000000000e+00
0.000000000000000e+00 0.000000000000000e+00 0.000000000000000e+00
0.000000000000000e+00 0.000000000000000e+00 0.000000000000000e+00

0.000000000000000e+00 0.000000000000000e+00 0.000000000000000e+00
0.000000000000000e+00 0.000000000000000e+00 0.000000000000000e+00
0.000000000000000e+00 0.000000000000000e+00 0.000000000000000e+00

0.000000000000000e+00 0.000000000000000e+00 0.000000000000000e+00
0.000000000000000e+00 0.000000000000000e+00 0.000000000000000e+00
0.000000000000000e+00 0.000000000000000e+00 0.000000000000000e+00

0.000000000000000e+00 0.000000000000000e+00 0.000000000000000e+00
0.000000000000000e+00 0.000000000000000e+00 0.000000000000000e+00
0.000000000000000e+00 0.000000000000000e+00 0.000000000000000e+00

0.000000000000000e+00 0.000000000000000e+00 0.000000000000000e+00
0.000000000000000e+00 0.000000000000000e+00 0.000000000000000e+00
0.000000000000000e+00 0.000000000000000e+00 0.000000000000000e+00

0.000000000000000e+00 0.000000000000000e+00 0.000000000000000e+00
0.000000000000000e+00 0.000000000000000e+00 0.000000000000000e+00
0.000000000000000e+00 0.000000000000000e+00 0.000000000000000e+00

0.000000000000000e+00 0.000000000000000e+00 0.000000000000000e+00
0.000000000000000e+00 0.000000000000000e+00 0.000000000000000e+00
0.000000000000000e+00 0.000000000000000e+00 0.000000000000000e+00

0.000000000000000e+00 0.000000000000000e+00 0.000000000000000e+00
0.000000000000000e+00 0.000000000000000e+00 0.000000000000000e+00
0.000000000000000e+00 0.000000000000000e+00 0.000000000000000e+00

0.000000000000000e+00 0.000000000000000e+00 0.000000000000000e+00
0.000000000000000e+00 0.000000000000000e+00 0.000000000000000e+00
0.000000000000000e+00 0.000000000000000e+00 0.000000000000000e+00

0.000000000000000e+00 0.000000000000000e+00 0.000000000000000e+00
0.000000000000000e+00 0.000000000000000e+00 0.000000000000000e+00
0.000000000000000e+00 0.000000000000000e+00 0.000000000000000e+00

0.000000000000000e+00 0.000000000000000e+00 0.000000000000000e+00
0.000000000000000e+00 0.000000000000000e+00 0.000000000000000e+00
0.000000000000000e+00 0.000000000000000e+00 0.000000000000000e+00

0.000000000000000e+00 0.000000000000000e+00 0.000000000000000e+00
0.000000000000000e+00 0.000000000000000e+00 0.000000000000000e+00
0.000000000000000e+00 0.000000000000000e+00 0.000000000000000e+00

0.000000000000000e+00 0.000000000000000e+00 0.000000000000000e+00
0.000000000000000e+00 0.000000000000000e+00 0.000000000000000e+00
0.000000000000000e+00 0.000000000000000e+00 0.000000000000000e+00

0.000000000000000e+00 0.000000000000000e+00 0.000000000000000e+00
0.000000000000000e+00 0.000000000000000e+00 0.000000000000000e+00
0.000000000000000e+00 0.000000000000000e+00 0.000000000000000e+00

0.000000000000000e+00 0.000000000000000e+00 0.000000000000000e+00
0.000000000000000e+00 0.000000000000000e+00 0.000000000000000e+00
0.000000000000000e+00 0.000000000000000e+00 0.000000000000000e+00

0.000000000000000e+00 0.000000000000000e+00 0.000000000000000e+00
0.000000000000000e+00 0.000000000000000e+00 0.000000000000000e+00
0.000000000000000e+00 0.000000000000000e+00 0.000000000000000e+00

0.000000000000000e+00 0.000000000000000e+00 0.000000000000000e+00
0.000000000000000e+00 0.000000000000000e+00 0.000000000000000e+00
0.000000000000000e+00 0.000000000000000e+00 0.000000000000000e+00

0.000000000000000e+00 0.000000000000000e+00 0.000000000000000e+00
0.000000000000000e+00 0.000000000000000e+00 0.000000000000000e+00
0.000000000000000e+00 0.000000000000000e+00 0.000000000000000e+00

0.000000000000000e+00 0.000000000000000e+00 0.000000000000000e+00
0.000000000000000e+00 0.000000000000000e+00 0.000000000000000e+00
0.000000000000000e+00 0.000000000000000e+00 0.000000000000000e+00

0.000000000000000e+00 0.000000000000000e+00 0.000000000000000e+00
0.000000000000000e+00 0.000000000000000e+00 0.000000000000000e+00
0.000000000000000e+00 0.000000000000000e+00 0.000000000000000e+00

0.000000000000000e+00 0.000000000000000e+00 0.000000000000000e+00
0.000000000000000e+00 0.000000000000000e+00 0.000000000000000e+00
0.000000000000000e+00 0.000000000000000e+00 0.000000000000000e+00

0.000000000000000e+00 0.000000000000000e+00 0.000000000000000e+00
0.000000000000000e+00 0.000000000000000e+00 0.000000000000000e+00
0.000000000000000e+00 0.000000000000000e+00 0.000000000000000e+00

0.000000000000000e+00 0.000000000000000e+00 0.000000000000000e+00
0.000000000000000e+00 0.000000000000000e+00 0.000000000000000e+00
0.000000000000000e+00 0.000000000000000e+00 0.000000000000000e+00

0.000000000000000e+00 0.000000000000000e+00 0.000000000000000e+00
0.000000000000000e+00 0.000000000000000e+00 0.000000000000000e+00
0.000000000000000e+00 0.000000000000000e+00 0.000000000000000e+00

0.000000000000000e+00 0.000000000000000e+00 0.000000000000000e+00
0.000000000000000e+00 0.000000000000000e+00 0.000000000000000e+00
0.000000000000000e+00 0.000000000000000e+00 0.000000000000000e+00

0.000000000000000e+00 0.000000000000000e+00 0.000000000000000e+00
0.000000000000000e+00 0.000000000000000e+00 0.000000000000000e+00
0.000000000000000e+00 0.000000000000000e+00 0.000000000000000e+00

0.000000000000000e+00 0.000000000000000e+00 0.000000000000000e+00
0.000000000000000e+00 0.000000000000000e+00 0.000000000000000e+00
0.000000000000000e+00 0.000000000000000e+00 0.000000000000000e+00

0.000000000000000e+00 0.000000000000000e+00 0.000000000000000e+00
0.000000000000000e+00 0.000000000000000e+00 0.000000000000000e+00
0.000000000000000e+00 0.000000000000000e+00 0.000000000000000e+00

0.000000000000000e+00 0.000000000000000e+00 0.000000000000000e+00
0.000000000000000e+00 0.000000000000000e+00 0.000000000000000e+00
0.000000000000000e+00 0.000000000000000e+00 0.000000000000000e+00

0.000000000000000e+00 0.000000000000000e+00 0.000000000000000e+00
0.000000000000000e+00 0.000000000000000e+00 0.000000000000000e+00
0.000000000000000e+00 0.000000000000000e+00 0.000000000000000e+00

0.000000000000000e+00 0.000000000000000e+00 0.000000000000000e+00
0.000000000000000e+00 0.000000000000000e+00 0.000000000000000e+00
0.000000000000000e+00 0.000000000000000e+00 0.000000000000000e+00

0.000000000000000e+00 0.000000000000000e+00 0.000000000000000e+00
0.000000000000000e+00 0.000000000000000e+00 0.000000000000000e+00
0.000000000000000e+00 0.000000000000000e+00 0.000000000000000e+00

0.000000000000000e+00 0.000000000000000e+00 0.000000000000000e+00
0.000000000000000e+00 0.000000000000000e+00 0.000000000000000e+00
0.000000000000000e+00 0.000000000000000e+00 0.000000000000000e+00

0.000000000000000e+00 0.000000000000000e+00 0.000000000000000e+00
0.000000000000000e+00 0.000000000000000e+00 0.000000000000000e+00
0.000000000000000e+00 0.000000000000000e+00 0.000000000000000e+00

0.000000000000000e+00 0.000000000000000e+00 0.000000000000000e+00
0.000000000000000e+00 0.000000000000000e+00 0.000000000000000e+00
0.000000000000000e+00 0.000000000000000e+00 0.000000000000000e+00

0.000000000000000e+00 0.000000000000000e+00 0.000000000000000e+00
0.000000000000000e+00 0.000000000000000e+00 0.000000000000000e+00
0.000000000000000e+00 0.000000000000000e+00 0.000000000000000e+00

0.000000000000000e+00 0.000000000000000e+00 0.000000000000000e+00
0.000000000000000e+00 0.000000000000000e+00 0.000000000000000e+00
0.000000000000000e+00 0.000000000000000e+00 0.000000000000000e+00

0.000000000000000e+00 0.000000000000000e+00 0.000000000000000e+00
0.000000000000000e+00 0.000000000000000e+00 0.000000000000000e+00
0.000000000000000e+00 0.000000000000000e+00 0.000000000000000e+00

0.000000000000000e+00 0.000000000000000e+00 0.000000000000000e+00
0.000000000000000e+00 0.000000000000000e+00 0.000000000000000e+00
0.000000000000000e+00 0.000000000000000e+00 0.000000000000000e+00

0.000000000000000e+00 0.000000000000000e+00 0.000000000000000e+00
0.000000000000000e+00 0.000000000000000e+00 0.000000000000000e+00
0.000000000000000e+00 0.000000000000000e+00 0.000000000000000e+00

0.000000000000000e+00 0.000000000000000e+00 0.000000000000000e+00
0.000000000000000e+00 0.000000000000000e+00 0.000000000000000e+00
0.000000000000000e+00 0.000000000000000e+00 0.000000000000000e+00

0.000000000000000e+00 0.000000000000000e+00 0.000000000000000e+00
0.000000000000000e+00 0.000000000000000e+00 0.000000000000000e+00
0.000000000000000e+00 0.000000000000000e+00 0.000000000000000e+00

0.000000000000000e+00 0.000000000000000e+00 0.000000000000000e+00
0.000000000000000e+00 0.000000000000000e+00 0.000000000000000e+00
0.000000000000000e+00 0.000000000000000e+00 0.000000000000000e+00

0.000000000000000e+00 0.000000000000000e+00 0.000000000000000e+00
0.000000000000000e+00 0.000000000000000e+00 0.000000000000000e+00
0.000000000000000e+00 0.000000000000000e+00 0.000000000000000e+00

0.000000000000000e+00 0.000000000000000e+00 0.000000000000000e+00
0.000000000000000e+00 0.000000000000000e+00 0.000000000000000e+00
0.000000000000000e+00 0.000000000000000e+00 0.000000000000000e+00

0.000000000000000e+00 0.000000000000000e+00 0.000000000000000e+00
0.000000000000000e+00 0.000000000000000e+00 0.000000000000000e+00
0.000000000000000e+00 0.000000000000000e+00 0.000000000000000e+00

0.000000000000000e+00 0.000000000000000e+00 0.000000000000000e+00
0.000000000000000e+00 0.000000000000000e+00 0.000000000000000e+00
0.000000000000000e+00 0.000000000000000e+00 0.000000000000000e+00

0.000000000000000e+00 0.000000000000000e+00 0.000000000000000e+00
0.000000000000000e+00 0.000000000000000e+00 0.000000000000000e+00
0.000000000000000e+00 0.000000000000000e+00 0.000000000000000e+00

0.000000000000000e+00 0.000000000000000e+00 0.000000000000000e+00
0.000000000000000e+00 0.000000000000000e+00 0.000000000000000e+00
0.000000000000000e+00 0.000000000000000e+00 0.000000000000000e+00

0.000000000000000e+00 0.000000000000000e+00 0.000000000000000e+00
0.000000000000000e+00 0.000000000000000e+00 0.000000000000000e+00
0.000000000000000e+00 0.000000000000000e+00 0.000000000000000e+00

0.000000000000000e+00 0.000000000000000e+00 0.000000000000000e+00
0.000000000000000e+00 0.000000000000000e+00 0.000000000000000e+00
0.000000000000000e+00 0.000000000000000e+00 0.000000000000000e+00

0.000000000000000e+00 0.000000000000000e+00 0.000000000000000e+00
0.000000000000000e+00 0.000000000000000e+00 0.000000000000000e+00
0.000000000000000e+00 0.000000000000000e+00 0.000000000000000e+00

0.000000000000000e+00 0.000000000000000e+00 0.000000000000000e+00
0.000000000000000e+00 0.000000000000000e+00 0.000000000000000e+00
0.000000000000000e+00 0.000000000000000e+00 0.000000000000000e+00

0.000000000000000e+00 0.000000000000000e+00 0.000000000000000e+00
0.000000000000000e+00 0.000000000000000e+00 0.000000000000000e+00
0.000000000000000e+00 0.000000000000000e+00 0.000000000000000e+00

0.000000000000000e+00 0.000000000000000e+00 0.000000000000000e+00
0.000000000000000e+00 0.000000000000000e+00 0.000000000000000e+00
0.000000000000000e+00 0.000000000000000e+00 0.000000000000000e+00

0.000000000000000e+00 0.000000000000000e+00 0.000000000000000e+00
0.000000000000000e+00 0.000000000000000e+00 0.000000000000000e+00
0.000000000000000e+00 0.000000000000000e+00 0.000000000000000e+00

0.000000000000000e+00 0.000000000000000e+00 0.000000000000000e+00
0.000000000000000e+00 0.000000000000000e+00 0.000000000000000e+00
0.000000000000000e+00 0.000000000000000e+00 0.000000000000000e+00

0.000000000000000e+00 0.000000000000000e+00 0.000000000000000e+00
0.000000000000000e+00 0.000000000000000e+00 0.000000000000000e+00
0.000000000000000e+00 0.000000000000000e+00 0.000000000000000e+00

0.000000000000000e+00 0.000000000000000e+00 0.000000000000000e+00
0.000000000000000e+00 0.000000000000000e+00 0.000000000000000e+00
0.000000000000000e+00 0.000000000000000e+00 0.000000000000000e+00

0.000000000000000e+00 0.000000000000000e+00 0.000000000000000e+00
0.000000000000000e+00 0.000000000000000e+00 0.000000000000000e+00
0.000000000000000e+00 0.000000000000000e+00 0.000000000000000e+00

0.000000000000000e+00 0.000000000000000e+00 0.000000000000000e+00
0.000000000000000e+00 0.000000000000000e+00 0.000000000000000e+00
0.000000000000000e+00 0.000000000000000e+00 0.000000000000000e+00

0.000000000000000e+00 0.000000000000000e+00 0.000000000000000e+00
0.000000000000000e+00 0.000000000000000e+00 0.000000000000000e+00
0.000000000000000e+00 0.000000000000000e+00 0.000000000000000e+00

0.000000000000000e+00 0.000000000000000e+00 0.000000000000000e+00
0.000000000000000e+00 0.000000000000000e+00 0.000000000000000e+00
0.000000000000000e+00 0.000000000000000e+00 0.000000000000000e+00

0.000000000000000e+00 0.000000000000000e+00 0.000000000000000e+00
0.000000000000000e+00 0.000000000000000e+00 0.000000000000000e+00
0.000000000000000e+00 0.000000000000000e+00 0.000000000000000e+00

0.000000000000000e+00 0.000000000000000e+00 0.000000000000000e+00
0.000000000000000e+00 0.000000000000000e+00 0.000000000000000e+00
0.000000000000000e+00 0.000000000000000e+00 0.000000000000000e+00

0.000000000000000e+00 0.000000000000000e+00 0.000000000000000e+00
0.000000000000000e+00 0.000000000000000e+00 0.000000000000000e+00
0.000000000000000e+00 0.000000000000000e+00 0.000000000000000e+00

0.000000000000000e+00 0.000000000000000e+00 0.000000000000000e+00
0.000000000000000e+00 0.000000000000000e+00 0.000000000000000e+00
0.000000000000000e+00 0.000000000000000e+00 0.000000000000000e+00

0.000000000000000e+00 0.000000000000000e+00 0.000000000000000e+00
0.000000000000000e+00 0.000000000000000e+00 0.000000000000000e+00
0.000000000000000e+00 0.000000000000000e+00 0.000000000000000e+00

0.000000000000000e+00 0.000000000000000e+00 0.000000000000000e+00
0.000000000000000e+00 0.000000000000000e+00 0.000000000000000e+00
0.000000000000000e+00 0.000000000000000e+00 0.000000000000000e+00

0.000000000000000e+00 0.000000000000000e+00 0.000000000000000e+00
0.000000000000000e+00 0.000000000000000e+00 0.000000000000000e+00
0.000000000000000e+00 0.000000000000000e+00 0.000000000000000e+00

0.000000000000000e+00 0.000000000000000e+00 0.000000000000000e+00
0.000000000000000e+00 0.000000000000000e+00 0.000000000000000e+00
0.000000000000000e+00 0.000000000000000e+00 0.000000000000000e+00

0.000000000000000e+00 0.000000000000000e+00 0.000000000000000e+00
0.000000000000000e+00 0.000000000000000e+00 0.000000000000000e+00
0.000000000000000e+00 0.000000000000000e+00 0.000000000000000e+00

0.000000000000000e+00 0.000000000000000e+00 0.000000000000000e+00
0.000000000000000e+00 0.000000000000000e+00 0.000000000000000e+00
0.000000000000000e+00 0.000000000000000e+00 0.000000000000000e+00

0.000000000000000e+00 0.000000000000000e+00 0.000000000000000e+00
0.000000000000000e+00 0.000000000000000e+00 0.000000000000000e+00
0.000000000000000e+00 0.000000000000000e+00 0.000000000000000e+00

0.000000000000000e+00 0.000000000000000e+00 0.000000000000000e+00
0.000000000000000e+00 0.000000000000000e+00 0.000000000000000e+00
0.000000000000000e+00 0.000000000000000e+00 0.000000000000000e+00

0.000000000000000e+00 0.000000000000000e+00 0.000000000000000e+00
0.000000000000000e+00 0.000000000000000e+00 0.000000000000000e+00
0.000000000000000e+00 0.000000000000000e+00 0.000000000000000e+00

0.000000000000000e+00 0.000000000000000e+00 0.000000000000000e+00
0.000000000000000e+00 0.000000000000000e+00 0.000000000000000e+00
0.000000000000000e+00 0.000000000000000e+00 0.000000000000000e+00

0.000000000000000e+00 0.000000000000000e+00 0.000000000000000e+00
0.000000000000000e+00 0.000000000000000e+00 0.000000000000000e+00
0.000000000000000e+00 0.000000000000000e+00 0.000000000000000e+00

0.000000000000000e+00 0.000000000000000e+00 0.000000000000000e+00
0.000000000000000e+00 0.000000000000000e+00 0.000000000000000e+00
0.000000000000000e+00 0.000000000000000e+00 0.000000000000000e+00

0.000000000000000e+00 0.000000000000000e+00 0.000000000000000e+00
0.000000000000000e+00 0.000000000000000e+00 0.000000000000000e+00
0.000000000000000e+00 0.000000000000000e+00 0.000000000000000e+00

0.000000000000000e+00 0.000000000000000e+00 0.000000000000000e+00
0.000000000000000e+00 0.000000000000000e+00 0.000000000000000e+00
0.000000000000000e+00 0.000000000000000e+00 0.000000000000000e+00

0.000000000000000e+00 0.000000000000000e+00 0.000000000000000e+00
0.000000000000000e+00 0.000000000000000e+00 0.000000000000000e+00
0.000000000000000e+00 0.000000000000000e+00 0.000000000000000e+00

0.000000000000000e+00 0.000000000000000e+00 0.000000000000000e+00
0.000000000000000e+00 0.000000000000000e+00 0.000000000000000e+00
0.000000000000000e+00 0.000000000000000e+00 0.000000000000000e+00

0.000000000000000e+00 0.000000000000000e+00 0.000000000000000e+00
0.000000000000000e+00 0.000000000000000e+00 0.000000000000000e+00
0.000000000000000e+00 0.000000000000000e+00 0.000000000000000e+00

0.000000000000000e+00 0.000000000000000e+00 0.000000000000000e+00
0.000000000000000e+00 0.000000000000000e+00 0.000000000000000e+00
0.000000000000000e+00 0.000000000000000e+00 0.000000000000000e+00

0.000000000000000e+00 0.000000000000000e+00 0.000000000000000e+00
0.000000000000000e+00 0.000000000000000e+00 0.000000000000000e+00
0.000000000000000e+00 0.000000000000000e+00 0.000000000000000e+00

0.000000000000000e+00 0.000000000000000e+00 0.000000000000000e+00
0.000000000000000e+00 0.000000000000000e+00 0.000000000000000e+00
0.000000000000000e+00 0.000000000000000e+00 0.000000000000000e+00

0.000000000000000e+00 0.000000000000000e+00 0.000000000000000e+00
0.000000000000000e+00 0.000000000000000e+00 0.000000000000000e+00
0.000000000000000e+00 0.000000000000000e+00 0.000000000000000e+00

0.000000000000000e+00 0.000000000000000e+00 0.000000000000000e+00
0.000000000000000e+00 0.000000000000000e+00 0.000000000000000e+00
0.000000000000000e+00 0.000000000000000e+00 0.000000000000000e+00

0.000000000000000e+00 0.000000000000000e+00 0.000000000000000e+00
0.000000000000000e+00 0.000000000000000e+00 0.000000000000000e+00
0.000000000000000e+00 0.000000000000000e+00 0.000000000000000e+00

0.000000000000000e+00 0.000000000000000e+00 0.000000000000000e+00
0.000000000000000e+00 0.000000000000000e+00 0.000000000000000e+00
0.000000000000000e+00 0.000000000000000e+00 0.000000000000000e+00

0.000000000000000e+00 0.000000000000000e+00 0.000000000000000e+00
0.000000000000000e+00 0.000000000000000e+00 0.000000000000000e+00
0.000000000000000e+00 0.000000000000000e+00 0.000000000000000e+00

0.000000000000000e+00 0.000000000000000e+00 0.000000000000000e+00
0.000000000000000e+00 0.000000000000000e+00 0.000000000000000e+00
0.000000000000000e+00 0.000000000000000e+00 0.000000000000000e+00

0.000000000000000e+00 0.000000000000000e+00 0.000000000000000e+00
0.000000000000000e+00 0.000000000000000e+00 0.000000000000000e+00
0.000000000000000e+00 0.000000000000000e+00 0.000000000000000e+00

0.000000000000000e+00 0.000000000000000e+00 0.000000000000000e+00
0.000000000000000e+00 0.000000000000000e+00 0.000000000000000e+00
0.000000000000000e+00 0.000000000000000e+00 0.000000000000000e+00

0.000000000000000e+00 0.000000000000000e+00 0.000000000000000e+00
0.000000000000000e+00 0.000000000000000e+00 0.000000000000000e+00
0.000000000000000e+00 0.000000000000000e+00 0.000000000000000e+00

0.000000000000000e+00 0.000000000000000e+00 0.000000000000000e+00
0.000000000000000e+00 0.000000000000000e+00 0.000000000000000e+00
0.000000000000000e+00 0.000000000000000e+00 0.000000000000000e+00

0.000000000000000e+00 0.000000000000000e+00 0.000000000000000e+00
0.000000000000000e+00 0.000000000000000e+00 0.000000000000000e+00
0.000000000000000e+00 0.000000000000000e+00 0.000000000000000e+00

0.000000000000000e+00 0.000000000000000e+00 0.000000000000000e+00
0.000000000000000e+00 0.000000000000000e+00 0.000000000000000e+00
0.000000000000000e+00 0.000000000000000e+00 0.000000000000000e+00

0.000000000000000e+00 0.000000000000000e+00 0.000000000000000e+00
0.000000000000000e+00 0.000000000000000e+00 0.000000000000000e+00
0.000000000000000e+00 0.000000000000000e+00 0.000000000000000e+00

0.000000000000000e+00 0.000000000000000e+00 0.000000000000000e+00
0.000000000000000e+00 0.000000000000000e+00 0.000000000000000e+00
0.000000000000000e+00 0.000000000000000e+00 0.000000000000000e+00

0.000000000000000e+00 0.000000000000000e+00 0.000000000000000e+00
0.000000000000000e+00 0.000000000000000e+00 0.000000000000000e+00
0.000000000000000e+00 0.000000000000000e+00 0.000000000000000e+00

0.000000000000000e+00 0.000000000000000e+00 0.000000000000000e+00
0.000000000000000e+00 0.000000000000000e+00 0.000000000000000e+00
0.000000000000000e+00 0.000000000000000e+00 0.000000000000000e+00

0.000000000000000e+00 0.000000000000000e+00 0.000000000000000e+00
0.000000000000000e+00 0.000000000000000e+00 0.000000000000000e+00
0.000000000000000e+00 0.000000000000000e+00 0.000000000000000e+00

0.000000000000000e+00 0.000000000000000e+00 0.000000000000000e+00
0.000000000000000e+00 0.000000000000000e+00 0.000000000000000e+00
0.000000000000000e+00 0.000000000000000e+00 0.000000000000000e+00

0.000000000000000e+00 0.000000000000000e+00 0.000000000000000e+00
0.000000000000000e+00 0.000000000000000e+00 0.000000000000000e+00
0.000000000000000e+00 0.000000000000000e+00 0.000000000000000e+00

0.000000000000000e+00 0.000000000000000e+00 0.000000000000000e+00
0.000000000000000e+00 0.000000000000000e+00 0.000000000000000e+00
0.000000000000000e+00 0.000000000000000e+00 0.000000000000000e+00

0.000000000000000e+00 0.000000000000000e+00 0.000000000000000e+00
0.000000000000000e+00 0.000000000000000e+00 0.000000000000000e+00
0.000000000000000e+00 0.000000000000000e+00 0.000000000000000e+00

0.000000000000000e+00 0.000000000000000e+00 0.000000000000000e+00
0.000000000000000e+00 0.000000000000000e+00 0.000000000000000e+00
0.000000000000000e+00 0.000000000000000e+00 0.000000000000000e+00

0.000000000000000e+00 0.000000000000000e+00 0.000000000000000e+00
0.000000000000000e+00 0.000000000000000e+00 0.000000000000000e+00
0.000000000000000e+00 0.000000000000000e+00 0.000000000000000e+00

0.000000000000000e+00 0.000000000000000e+00 0.000000000000000e+00
0.000000000000000e+00 0.000000000000000e+00 0.000000000000000e+00
0.000000000000000e+00 0.000000000000000e+00 0.000000000000000e+00

0.000000000000000e+00 0.000000000000000e+00 0.000000000000000e+00
0.000000000000000e+00 0.000000000000000e+00 0.000000000000000e+00
0.000000000000000e+00 0.000000000000000e+00 0.000000000000000e+00

0.000000000000000e+00 0.000000000000000e+00 0.000000000000000e+00
0.000000000000000e+00 0.000000000000000e+00 0.000000000000000e+00
0.000000000000000e+00 0.000000000000000e+00 0.000000000000000e+00

0.000000000000000e+00 0.000000000000000e+00 0.000000000000000e+00
0.000000000000000e+00 0.000000000000000e+00 0.000000000000000e+00
0.000000000000000e+00 0.000000000000000e+00 0.000000000000000e+00

0.000000000000000e+00 0.000000000000000e+00 0.000000000000000e+00
0.000000000000000e+00 0.000000000000000e+00 0.000000000000000e+00
0.000000000000000e+00 0.000000000000000e+00 0.000000000000000e+00

0.000000000000000e+00 0.000000000000000e+00 0.000000000000000e+00
0.000000000000000e+00 0.000000000000000e+00 0.000000000000000e+00
0.000000000000000e+00 0.000000000000000e+00 0.000000000000000e+00

0.000000000000000e+00 0.000000000000000e+00 0.000000000000000e+00
0.000000000000000e+00 0.000000000000000e+00 0.000000000000000e+00
0.000000000000000e+00 0.000000000000000e+00 0.000000000000000e+00

0.000000000000000e+00 0.000000000000000e+00 0.000000000000000e+00
0.000000000000000e+00 0.000000000000000e+00 0.000000000000000e+00
0.000000000000000e+00 0.000000000000000e+00 0.000000000000000e+00

0.000000000000000e+00 0.000000000000000e+00 0.000000000000000e+00
0.000000000000000e+00 0.000000000000000e+00 0.000000000000000e+00
0.000000000000000e+00 0.000000000000000e+00 0.000000000000000e+00

0.000000000000000e+00 0.000000000000000e+00 0.000000000000000e+00
0.000000000000000e+00 0.000000000000000e+00 0.000000000000000e+00
0.000000000000000e+00 0.000000000000000e+00 0.000000000000000e+00

0.000000000000000e+00 0.000000000000000e+00 0.000000000000000e+00
0.000000000000000e+00 0.000000000000000e+00 0.000000000000000e+00
0.000000000000000e+00 0.000000000000000e+00 0.000000000000000e+00

0.000000000000000e+00 0.000000000000000e+00 0.000000000000000e+00
0.000000000000000e+00 0.000000000000000e+00 0.000000000000000e+00
0.000000000000000e+00 0.000000000000000e+00 0.000000000000000e+00

0.000000000000000e+00 0.000000000000000e+00 0.000000000000000e+00
0.000000000000000e+00 0.000000000000000e+00 0.000000000000000e+00
0.000000000000000e+00 0.000000000000000e+00 0.000000000000000e+00

0.000000000000000e+00 0.000000000000000e+00 0.000000000000000e+00
0.000000000000000e+00 0.000000000000000e+00 0.000000000000000e+00
0.000000000000000e+00 0.000000000000000e+00 0.000000000000000e+00

0.000000000000000e+00 0.000000000000000e+00 0.000000000000000e+00
0.000000000000000e+00 0.000000000000000e+00 0.000000000000000e+00
0.000000000000000e+00 0.000000000000000e+00 0.000000000000000e+00

0.000000000000000e+00 0.000000000000000e+00 0.000000000000000e+00
0.000000000000000e+00 0.000000000000000e+00 0.000000000000000e+00
0.000000000000000e+00 0.000000000000000e+00 0.000000000000000e+00

0.000000000000000e+00 0.000000000000000e+00 0.000000000000000e+00
0.000000000000000e+00 0.000000000000000e+00 0.000000000000000e+00
0.000000000000000e+00 0.000000000000000e+00 0.000000000000000e+00

0.000000000000000e+00 0.000000000000000e+00 0.000000000000000e+00
0.000000000000000e+00 0.000000000000000e+00 0.000000000000000e+00
0.000000000000000e+00 0.000000000000000e+00 0.000000000000000e+00

0.000000000000000e+00 0.000000000000000e+00 0.000000000000000e+00
0.000000000000000e+00 0.000000000000000e+00 0.000000000000000e+00
0.000000000000000e+00 0.000000000000000e+00 0.000000000000000e+00

0.000000000000000e+00 0.000000000000000e+00 0.000000000000000e+00
0.000000000000000e+00 0.000000000000000e+00 0.000000000000000e+00
0.000000000000000e+00 0.000000000000000e+00 0.000000000000000e+00

0.000000000000000e+00 0.000000000000000e+00 0.000000000000000e+00
0.000000000000000e+00 0.000000000000000e+00 0.000000000000000e+00
0.000000000000000e+00 0.000000000000000e+00 0.000000000000000e+00

0.000000000000000e+00 0.000000000000000e+00 0.000000000000000e+00
0.000000000000000e+00 0.000000000000000e+00 0.000000000000000e+00
0.000000000000000e+00 0.000000000000000e+00 0.000000000000000e+00

0.000000000000000e+00 0.000000000000000e+00 0.000000000000000e+00
0.000000000000000e+00 0.000000000000000e+00 0.000000000000000e+00
0.000000000000000e+00 0.000000000000000e+00 0.000000000000000e+00

0.000000000000000e+00 0.000000000000000e+00 0.000000000000000e+00
0.000000000000000e+00 0.000000000000000e+00 0.000000000000000e+00
0.000000000000000e+00 0.000000000000000e+00 0.000000000000000e+00

0.000000000000000e+00 0.000000000000000e+00 0.000000000000000e+00
0.000000000000000e+00 0.000000000000000e+00 0.000000000000000e+00
0.000000000000000e+00 0.000000000000000e+00 0.000000000000000e+00

0.000000000000000e+00 0.000000000000000e+00 0.000000000000000e+00
0.000000000000000e+00 0.000000000000000e+00 0.000000000000000e+00
0.000000000000000e+00 0.000000000000000e+00 0.000000000000000e+00

0.000000000000000e+00 0.000000000000000e+00 0.000000000000000e+00
0.000000000000000e+00 0.000000000000000e+00 0.000000000000000e+00
0.000000000000000e+00 0.000000000000000e+00 0.000000000000000e+00

0.000000000000000e+00 0.000000000000000e+00 0.000000000000000e+00
0.000000000000000e+00 0.000000000000000e+00 0.000000000000000e+00
0.000000000000000e+00 0.000000000000000e+00 0.000000000000000e+00

0.000000000000000e+00 0.000000000000000e+00 0.000000000000000e+00
0.000000000000000e+00 0.000000000000000e+00 0.000000000000000e+00
0.000000000000000e+00 0.000000000000000e+00 0.000000000000000e+00

0.000000000000000e+00 0.000000000000000e+00 0.000000000000000e+00
0.000000000000000e+00 0.000000000000000e+00 0.000000000000000e+00
0.000000000000000e+00 0.000000000000000e+00 0.000000000000000e+00

0.000000000000000e+00 0.000000000000000e+00 0.000000000000000e+00
0.000000000000000e+00 0.000000000000000e+00 0.000000000000000e+00
0.000000000000000e+00 0.000000000000000e+00 0.000000000000000e+00

0.000000000000000e+00 0.000000000000000e+00 0.000000000000000e+00
0.000000000000000e+00 0.000000000000000e+00 0.000000000000000e+00
0.000000000000000e+00 0.000000000000000e+00 0.000000000000000e+00

0.000000000000000e+00 0.000000000000000e+00 0.000000000000000e+00
0.000000000000000e+00 0.000000000000000e+00 0.000000000000000e+00
0.000000000000000e+00 0.000000000000000e+00 0.000000000000000e+00

0.000000000000000e+00 0.000000000000000e+00 0.000000000000000e+00
0.000000000000000e+00 0.000000000000000e+00 0.000000000000000e+00
0.000000000000000e+00 0.000000000000000e+00 0.000000000000000e+00

0.000000000000000e+00 0.000000000000000e+00 0.000000000000000e+00
0.000000000000000e+00 0.000000000000000e+00 0.000000000000000e+00
0.000000000000000e+00 0.000000000000000e+00 0.000000000000000e+00

0.000000000000000e+00 0.000000000000000e+00 0.000000000000000e+00
0.000000000000000e+00 0.000000000000000e+00 0.000000000000000e+00
0.000000000000000e+00 0.000000000000000e+00 0.000000000000000e+00

0.000000000000000e+00 0.000000000000000e+00 0.000000000000000e+00
0.000000000000000e+00 0.000000000000000e+00 0.000000000000000e+00
0.000000000000000e+00 0.000000000000000e+00 0.000000000000000e+00

0.000000000000000e+00 0.000000000000000e+00 0.000000000000000e+00
0.000000000000000e+00 0.000000000000000e+00 0.000000000000000e+00
0.000000000000000e+00 0.000000000000000e+00 0.000000000000000e+00

0.000000000000000e+00 0.000000000000000e+00 0.000000000000000e+00
0.000000000000000e+00 0.000000000000000e+00 0.000000000000000e+00
0.000000000000000e+00 0.000000000000000e+00 0.000000000000000e+00

0.000000000000000e+00 0.000000000000000e+00 0.000000000000000e+00
0.000000000000000e+00 0.000000000000000e+00 0.000000000000000e+00
0.000000000000000e+00 0.000000000000000e+00 0.000000000000000e+00

0.000000000000000e+00 0.000000000000000e+00 0.000000000000000e+00
0.000000000000000e+00 0.000000000000000e+00 0.000000000000000e+00
0.000000000000000e+00 0.000000000000000e+00 0.000000000000000e+00

0.000000000000000e+00 0.000000000000000e+00 0.000000000000000e+00
0.000000000000000e+00 0.000000000000000e+00 0.000000000000000e+00
0.000000000000000e+00 0.000000000000000e+00 0.000000000000000e+00

0.000000000000000e+00 0.000000000000000e+00 0.000000000000000e+00
0.000000000000000e+00 0.000000000000000e+00 0.000000000000000e+00
0.000000000000000e+00 0.000000000000000e+00 0.000000000000000e+00

0.000000000000000e+00 0.000000000000000e+00 0.000000000000000e+00
0.000000000000000e+00 0.000000000000000e+00 0.000000000000000e+00
0.000000000000000e+00 0.000000000000000e+00 0.000000000000000e+00

0.000000000000000e+00 0.000000000000000e+00 0.000000000000000e+00
0.000000000000000e+00 0.000000000000000e+00 0.000000000000000e+00
0.000000000000000e+00 0.000000000000000e+00 0.000000000000000e+00

0.000000000000000e+00 0.000000000000000e+00 0.000000000000000e+00
0.000000000000000e+00 0.000000000000000e+00 0.000000000000000e+00
0.000000000000000e+00 0.000000000000000e+00 0.000000000000000e+00

0.000000000000000e+00 0.000000000000000e+00 0.000000000000000e+00
0.000000000000000e+00 0.000000000000000e+00 0.000000000000000e+00
0.000000000000000e+00 0.000000000000000e+00 0.000000000000000e+00

0.000000000000000e+00 0.000000000000000e+00 0.000000000000000e+00
0.000000000000000e+00 0.000000000000000e+00 0.000000000000000e+00
0.000000000000000e+00 0.000000000000000e+00 0.000000000000000e+00

0.000000000000000e+00 0.000000000000000e+00 0.000000000000000e+00
0.000000000000000e+00 0.000000000000000e+00 0.000000000000000e+00
0.000000000000000e+00 0.000000000000000e+00 0.000000000000000e+00

0.000000000000000e+00 0.000000000000000e+00 0.000000000000000e+00
0.000000000000000e+00 0.000000000000000e+00 0.000000000000000e+00
0.000000000000000e+00 0.000000000000000e+00 0.000000000000000e+00

0.000000000000000e+00 0.000000000000000e+00 0.000000000000000e+00
0.000000000000000e+00 0.000000000000000e+00 0.000000000000000e+00
0.000000000000000e+00 0.000000000000000e+00 0.000000000000000e+00

0.000000000000000e+00 0.000000000000000e+00 0.000000000000000e+00
0.000000000000000e+00 0.000000000000000e+00 0.000000000000000e+00
0.000000000000000e+00 0.000000000000000e+00 0.000000000000000e+00

0.000000000000000e+00 0.000000000000000e+00 0.000000000000000e+00
0.000000000000000e+00 0.000000000000000e+00 0.000000000000000e+00
0.000000000000000e+00 0.000000000000000e+00 0.000000000000000e+00

0.000000000000000e+00 0.000000000000000e+00 0.000000000000000e+00
0.000000000000000e+00 0.000000000000000e+00 0.000000000000000e+00
0.000000000000000e+00 0.000000000000000e+00 0.000000000000000e+00

0.000000000000000e+00 0.000000000000000e+00 0.000000000000000e+00
0.000000000000000e+00 0.000000000000000e+00 0.000000000000000e+00
0.000000000000000e+00 0.000000000000000e+00 0.000000000000000e+00

0.000000000000000e+00 0.000000000000000e+00 0.000000000000000e+00
0.000000000000000e+00 0.000000000000000e+00 0.000000000000000e+00
0.000000000000000e+00 0.000000000000000e+00 0.000000000000000e+00

0.000000000000000e+00 0.000000000000000e+00 0.000000000000000e+00
0.000000000000000e+00 0.000000000000000e+00 0.000000000000000e+00
0.000000000000000e+00 0.000000000000000e+00 0.000000000000000e+00

0.000000000000000e+00 0.000000000000000e+00 0.000000000000000e+00
0.000000000000000e+00 0.000000000000000e+00 0.000000000000000e+00
0.000000000000000e+00 0.000000000000000e+00 0.000000000000000e+00

0.000000000000000e+00 0.000000000000000e+00 0.000000000000000e+00
0.000000000000000e+00 0.000000000000000e+00 0.000000000000000e+00
0.000000000000000e+00 0.000000000000000e+00 0.000000000000000e+00

0.000000000000000e+00 0.000000000000000e+00 0.000000000000000e+00
0.000000000000000e+00 0.000000000000000e+00 0.000000000000000e+00
0.000000000000000e+00 0.000000000000000e+00 0.000000000000000e+00

0.000000000000000e+00 0.000000000000000e+00 0.000000000000000e+00
0.000000000000000e+00 0.000000000000000e+00 0.000000000000000e+00
0.000000000000000e+00 0.000000000000000e+00 0.000000000000000e+00

0.000000000000000e+00 0.000000000000000e+00 0.000000000000000e+00
0.000000000000000e+00 0.000000000000000e+00 0.000000000000000e+00
0.000000000000000e+00 0.000000000000000e+00 0.000000000000000e+00

0.000000000000000e+00 0.000000000000000e+00 0.000000000000000e+00
0.000000000000000e+00 0.000000000000000e+00 0.000000000000000e+00
0.000000000000000e+00 0.000000000000000e+00 0.000000000000000e+00

0.000000000000000e+00 0.000000000000000e+00 0.000000000000000e+00
0.000000000000000e+00 0.000000000000000e+00 0.000000000000000e+00
0.000000000000000e+00 0.000000000000000e+00 0.000000000000000e+00

0.000000000000000e+00 0.000000000000000e+00 0.000000000000000e+00
0.000000000000000e+00 0.000000000000000e+00 0.000000000000000e+00
0.000000000000000e+00 0.000000000000000e+00 0.000000000000000e+00

0.000000000000000e+00 0.000000000000000e+00 0.000000000000000e+00
0.000000000000000e+00 0.000000000000000e+00 0.000000000000000e+00
0.000000000000000e+00 0.000000000000000e+00 0.000000000000000e+00

0.000000000000000e+00 0.000000000000000e+00 0.000000000000000e+00
0.000000000000000e+00 0.000000000000000e+00 0.000000000000000e+00
0.000000000000000e+00 0.000000000000000e+00 0.000000000000000e+00

0.000000000000000e+00 0.000000000000000e+00 0.000000000000000e+00
0.000000000000000e+00 0.000000000000000e+00 0.000000000000000e+00
0.000000000000000e+00 0.000000000000000e+00 0.000000000000000e+00

0.000000000000000e+00 0.000000000000000e+00 0.000000000000000e+00
0.000000000000000e+00 0.000000000000000e+00 0.000000000000000e+00
0.000000000000000e+00 0.000000000000000e+00 0.000000000000000e+00

0.000000000000000e+00 0.000000000000000e+00 0.000000000000000e+00
0.000000000000000e+00 0.000000000000000e+00 0.000000000000000e+00
0.000000000000000e+00 0.000000000000000e+00 0.000000000000000e+00

0.000000000000000e+00 0.000000000000000e+00 0.000000000000000e+00
0.000000000000000e+00 0.000000000000000e+00 0.000000000000000e+00
0.000000000000000e+00 0.000000000000000e+00 0.000000000000000e+00

0.000000000000000e+00 0.000000000000000e+00 0.000000000000000e+00
0.000000000000000e+00 0.000000000000000e+00 0.000000000000000e+00
0.000000000000000e+00 0.000000000000000e+00 0.000000000000000e+00

0.000000000000000e+00 0.000000000000000e+00 0.000000000000000e+00
0.000000000000000e+00 0.000000000000000e+00 0.000000000000000e+00
0.000000000000000e+00 0.000000000000000e+00 0.000000000000000e+00

0.000000000000000e+00 0.000000000000000e+00 0.000000000000000e+00
0.000000000000000e+00 0.000000000000000e+00 0.000000000000000e+00
0.000000000000000e+00 0.000000000000000e+00 0.000000000000000e+00

0.000000000000000e+00 0.000000000000000e+00 0.000000000000000e+00
0.000000000000000e+00 0.000000000000000e+00 0.000000000000000e+00
0.000000000000000e+00 0.000000000000000e+00 0.000000000000000e+00

0.000000000000000e+00 0.000000000000000e+00 0.000000000000000e+00
0.000000000000000e+00 0.000000000000000e+00 0.000000000000000e+00
0.000000000000000e+00 0.000000000000000e+00 0.000000000000000e+00

0.000000000000000e+00 0.000000000000000e+00 0.000000000000000e+00
0.000000000000000e+00 0.000000000000000e+00 0.000000000000000e+00
0.000000000000000e+00 0.000000000000000e+00 0.000000000000000e+00

0.000000000000000e+00 0.000000000000000e+00 0.000000000000000e+00
0.000000000000000e+00 0.000000000000000e+00 0.000000000000000e+00
0.000000000000000e+00 0.000000000000000e+00 0.000000000000000e+00

0.000000000000000e+00 0.000000000000000e+00 0.000000000000000e+00
0.000000000000000e+00 0.000000000000000e+00 0.000000000000000e+00
0.000000000000000e+00 0.000000000000000e+00 0.000000000000000e+00

0.000000000000000e+00 0.000000000000000e+00 0.000000000000000e+00
0.000000000000000e+00 0.000000000000000e+00 0.000000000000000e+00
0.000000000000000e+00 0.000000000000000e+00 0.000000000000000e+00

0.000000000000000e+00 0.000000000000000e+00 0.000000000000000e+00
0.000000000000000e+00 0.000000000000000e+00 0.000000000000000e+00
0.000000000000000e+00 0.000000000000000e+00 0.000000000000000e+00

0.000000000000000e+00 0.000000000000000e+00 0.000000000000000e+00
0.000000000000000e+00 0.000000000000000e+00 0.000000000000000e+00
0.000000000000000e+00 0.000000000000000e+00 0.000000000000000e+00

0.000000000000000e+00 0.000000000000000e+00 0.000000000000000e+00
0.000000000000000e+00 0.000000000000000e+00 0.000000000000000e+00
0.000000000000000e+00 0.000000000000000e+00 0.000000000000000e+00

0.000000000000000e+00 0.000000000000000e+00 0.000000000000000e+00
0.000000000000000e+00 0.000000000000000e+00 0.000000000000000e+00
0.000000000000000e+00 0.000000000000000e+00 0.000000000000000e+00

0.000000000000000e+00 0.000000000000000e+00 0.000000000000000e+00
0.000000000000000e+00 0.000000000000000e+00 0.000000000000000e+00
0.000000000000000e+00 0.000000000000000e+00 0.000000000000000e+00

0.000000000000000e+00 0.000000000000000e+00 0.000000000000000e+00
0.000000000000000e+00 0.000000000000000e+00 0.000000000000000e+00
0.000000000000000e+00 0.000000000000000e+00 0.000000000000000e+00

0.000000000000000e+00 0.000000000000000e+00 0.000000000000000e+00
0.000000000000000e+00 0.000000000000000e+00 0.000000000000000e+00
0.000000000000000e+00 0.000000000000000e+00 0.000000000000000e+00

0.000000000000000e+00 0.000000000000000e+00 0.000000000000000e+00
0.000000000000000e+00 0.000000000000000e+00 0.000000000000000e+00
0.000000000000000e+00 0.000000000000000e+00 0.000000000000000e+00

0.000000000000000e+00 0.000000000000000e+00 0.000000000000000e+00
0.000000000000000e+00 0.000000000000000e+00 0.000000000000000e+00
0.000000000000000e+00 0.000000000000000e+00 0.000000000000000e+00

0.000000000000000e+00 0.000000000000000e+00 0.000000000000000e+00
0.000000000000000e+00 0.000000000000000e+00 0.000000000000000e+00
0.000000000000000e+00 0.000000000000000e+00 0.000000000000000e+00

0.000000000000000e+00 0.000000000000000e+00 0.000000000000000e+00
0.000000000000000e+00 0.000000000000000e+00 0.000000000000000e+00
0.000000000000000e+00 0.000000000000000e+00 0.000000000000000e+00

0.000000000000000e+00 0.000000000000000e+00 0.000000000000000e+00
0.000000000000000e+00 0.000000000000000e+00 0.000000000000000e+00
0.000000000000000e+00 0.000000000000000e+00 0.000000000000000e+00

0.000000000000000e+00 0.000000000000000e+00 0.000000000000000e+00
0.000000000000000e+00 0.000000000000000e+00 0.000000000000000e+00
0.000000000000000e+00 0.000000000000000e+00 0.000000000000000e+00

0.000000000000000e+00 0.000000000000000e+00 0.000000000000000e+00
0.000000000000000e+00 0.000000000000000e+00 0.000000000000000e+00
0.000000000000000e+00 0.000000000000000e+00 0.000000000000000e+00

0.000000000000000e+00 0.000000000000000e+00 0.000000000000000e+00
0.000000000000000e+00 0.000000000000000e+00 0.000000000000000e+00
0.000000000000000e+00 0.000000000000000e+00 0.000000000000000e+00

0.000000000000000e+00 0.000000000000000e+00 0.000000000000000e+00
0.000000000000000e+00 0.000000000000000e+00 0.000000000000000e+00
0.000000000000000e+00 0.000000000000000e+00 0.000000000000000e+00

0.000000000000000e+00 0.000000000000000e+00 0.000000000000000e+00
0.000000000000000e+00 0.000000000000000e+00 0.000000000000000e+00
0.000000000000000e+00 0.000000000000000e+00 0.000000000000000e+00

0.000000000000000e+00 0.000000000000000e+00 0.000000000000000e+00
0.000000000000000e+00 0.000000000000000e+00 0.000000000000000e+00
0.000000000000000e+00 0.000000000000000e+00 0.000000000000000e+00

0.000000000000000e+00 0.000000000000000e+00 0.000000000000000e+00
0.000000000000000e+00 0.000000000000000e+00 0.000000000000000e+00
0.000000000000000e+00 0.000000000000000e+00 0.000000000000000e+00

0.000000000000000e+00 0.000000000000000e+00 0.000000000000000e+00
0.000000000000000e+00 0.000000000000000e+00 0.000000000000000e+00
0.000000000000000e+00 0.000000000000000e+00 0.000000000000000e+00

0.000000000000000e+00 0.000000000000000e+00 0.000000000000000e+00
0.000000000000000e+00 0.000000000000000e+00 0.000000000000000e+00
0.000000000000000e+00 0.000000000000000e+00 0.000000000000000e+00

0.000000000000000e+00 0.000000000000000e+00 0.000000000000000e+00
0.000000000000000e+00 0.000000000000000e+00 0.000000000000000e+00
0.000000000000000e+00 0.000000000000000e+00 0.000000000000000e+00

0.000000000000000e+00 0.000000000000000e+00 0.000000000000000e+00
0.000000000000000e+00 0.000000000000000e+00 0.000000000000000e+00
0.000000000000000e+00 0.000000000000000e+00 0.000000000000000e+00

0.000000000000000e+00 0.000000000000000e+00 0.000000000000000e+00
0.000000000000000e+00 0.000000000000000e+00 0.000000000000000e+00
0.000000000000000e+00 0.000000000000000e+00 0.000000000000000e+00

0.000000000000000e+00 0.000000000000000e+00 0.000000000000000e+00
0.000000000000000e+00 0.000000000000000e+00 0.000000000000000e+00
0.000000000000000e+00 0.000000000000000e+00 0.000000000000000e+00

0.000000000000000e+00 0.000000000000000e+00 0.000000000000000e+00
0.000000000000000e+00 0.000000000000000e+00 0.000000000000000e+00
0.000000000000000e+00 0.000000000000000e+00 0.000000000000000e+00

0.000000000000000e+00 0.000000000000000e+00 0.000000000000000e+00
0.000000000000000e+00 0.000000000000000e+00 0.000000000000000e+00
0.000000000000000e+00 0.000000000000000e+00 0.000000000000000e+00

0.000000000000000e+00 0.000000000000000e+00 0.000000000000000e+00
0.000000000000000e+00 0.000000000000000e+00 0.000000000000000e+00
0.000000000000000e+00 0.000000000000000e+00 0.000000000000000e+00

0.000000000000000e+00 0.000000000000000e+00 0.000000000000000e+00
0.000000000000000e+00 0.000000000000000e+00 0.000000000000000e+00
0.000000000000000e+00 0.000000000000000e+00 0.000000000000000e+00

0.000000000000000e+00 0.000000000000000e+00 0.000000000000000e+00
0.000000000000000e+00 0.000000000000000e+00 0.000000000000000e+00
0.000000000000000e+00 0.000000000000000e+00 0.000000000000000e+00

0.000000000000000e+00 0.000000000000000e+00 0.000000000000000e+00
0.000000000000000e+00 0.000000000000000e+00 0.000000000000000e+00
0.000000000000000e+00 0.000000000000000e+00 0.000000000000000e+00

0.000000000000000e+00 0.000000000000000e+00 0.000000000000000e+00
0.000000000000000e+00 0.000000000000000e+00 0.000000000000000e+00
0.000000000000000e+00 0.000000000000000e+00 0.000000000000000e+00

0.000000000000000e+00 0.000000000000000e+00 0.000000000000000e+00
0.000000000000000e+00 0.000000000000000e+00 0.000000000000000e+00
0.000000000000000e+00 0.000000000000000e+00 0.000000000000000e+00

0.000000000000000e+00 0.000000000000000e+00 0.000000000000000e+00
0.000000000000000e+00 0.000000000000000e+00 0.000000000000000e+00
0.000000000000000e+00 0.000000000000000e+00 0.000000000000000e+00

0.000000000000000e+00 0.000000000000000e+00 0.000000000000000e+00
0.000000000000000e+00 0.000000000000000e+00 0.000000000000000e+00
0.000000000000000e+00 0.000000000000000e+00 0.000000000000000e+00

0.000000000000000e+00 0.000000000000000e+00 0.000000000000000e+00
0.000000000000000e+00 0.000000000000000e+00 0.000000000000000e+00
0.000000000000000e+00 0.000000000000000e+00 0.000000000000000e+00

0.000000000000000e+00 0.000000000000000e+00 0.000000000000000e+00
0.000000000000000e+00 0.000000000000000e+00 0.000000000000000e+00
0.000000000000000e+00 0.000000000000000e+00 0.000000000000000e+00

0.000000000000000e+00 0.000000000000000e+00 0.000000000000000e+00
0.000000000000000e+00 0.000000000000000e+00 0.000000000000000e+00
0.000000000000000e+00 0.000000000000000e+00 0.000000000000000e+00

0.000000000000000e+00 0.000000000000000e+00 0.000000000000000e+00
0.000000000000000e+00 0.000000000000000e+00 0.000000000000000e+00
0.000000000000000e+00 0.000000000000000e+00 0.000000000000000e+00

0.000000000000000e+00 0.000000000000000e+00 0.000000000000000e+00
0.000000000000000e+00 0.000000000000000e+00 0.000000000000000e+00
0.000000000000000e+00 0.000000000000000e+00 0.000000000000000e+00

0.000000000000000e+00 0.000000000000000e+00 0.000000000000000e+00
0.000000000000000e+00 0.000000000000000e+00 0.000000000000000e+00
0.000000000000000e+00 0.000000000000000e+00 0.000000000000000e+00

0.000000000000000e+00 0.000000000000000e+00 0.000000000000000e+00
0.000000000000000e+00 0.000000000000000e+00 0.000000000000000e+00
0.000000000000000e+00 0.000000000000000e+00 0.000000000000000e+00

0.000000000000000e+00 0.000000000000000e+00 0.000000000000000e+00
0.000000000000000e+00 0.000000000000000e+00 0.000000000000000e+00
0.000000000000000e+00 0.000000000000000e+00 0.000000000000000e+00

0.000000000000000e+00 0.000000000000000e+00 0.000000000000000e+00
0.000000000000000e+00 0.000000000000000e+00 0.000000000000000e+00
0.000000000000000e+00 0.000000000000000e+00 0.000000000000000e+00

0.000000000000000e+00 0.000000000000000e+00 0.000000000000000e+00
0.000000000000000e+00 0.000000000000000e+00 0.000000000000000e+00
0.000000000000000e+00 0.000000000000000e+00 0.000000000000000e+00

0.000000000000000e+00 0.000000000000000e+00 0.000000000000000e+00
0.000000000000000e+00 0.000000000000000e+00 0.000000000000000e+00
0.000000000000000e+00 0.000000000000000e+00 0.000000000000000e+00

0.000000000000000e+00 0.000000000000000e+00 0.000000000000000e+00
0.000000000000000e+00 0.000000000000000e+00 0.000000000000000e+00
0.000000000000000e+00 0.000000000000000e+00 0.000000000000000e+00

0.000000000000000e+00 0.000000000000000e+00 0.000000000000000e+00
0.000000000000000e+00 0.000000000000000e+00 0.000000000000000e+00
0.000000000000000e+00 0.000000000000000e+00 0.000000000000000e+00

0.000000000000000e+00 0.000000000000000e+00 0.000000000000000e+00
0.000000000000000e+00 0.000000000000000e+00 0.000000000000000e+00
0.000000000000000e+00 0.000000000000000e+00 0.000000000000000e+00

0.000000000000000e+00 0.000000000000000e+00 0.000000000000000e+00
0.000000000000000e+00 0.000000000000000e+00 0.000000000000000e+00
0.000000000000000e+00 0.000000000000000e+00 0.000000000000000e+00

0.000000000000000e+00 0.000000000000000e+00 0.000000000000000e+00
0.000000000000000e+00 0.000000000000000e+00 0.000000000000000e+00
0.000000000000000e+00 0.000000000000000e+00 0.000000000000000e+00

0.000000000000000e+00 0.000000000000000e+00 0.000000000000000e+00
0.000000000000000e+00 0.000000000000000e+00 0.000000000000000e+00
0.000000000000000e+00 0.000000000000000e+00 0.000000000000000e+00

0.000000000000000e+00 0.000000000000000e+00 0.000000000000000e+00
0.000000000000000e+00 0.000000000000000e+00 0.000000000000000e+00
0.000000000000000e+00 0.000000000000000e+00 0.000000000000000e+00

0.000000000000000e+00 0.000000000000000e+00 0.000000000000000e+00
0.000000000000000e+00 0.000000000000000e+00 0.000000000000000e+00
0.000000000000000e+00 0.000000000000000e+00 0.000000000000000e+00

0.000000000000000e+00 0.000000000000000e+00 0.000000000000000e+00
0.000000000000000e+00 0.000000000000000e+00 0.000000000000000e+00
0.000000000000000e+00 0.000000000000000e+00 0.000000000000000e+00

0.000000000000000e+00 0.000000000000000e+00 0.000000000000000e+00
0.000000000000000e+00 0.000000000000000e+00 0.000000000000000e+00
0.000000000000000e+00 0.000000000000000e+00 0.000000000000000e+00

0.000000000000000e+00 0.000000000000000e+00 0.000000000000000e+00
0.000000000000000e+00 0.000000000000000e+00 0.000000000000000e+00
0.000000000000000e+00 0.000000000000000e+00 0.000000000000000e+00

0.000000000000000e+00 0.000000000000000e+00 0.000000000000000e+00
0.000000000000000e+00 0.000000000000000e+00 0.000000000000000e+00
0.000000000000000e+00 0.000000000000000e+00 0.000000000000000e+00

0.000000000000000e+00 0.000000000000000e+00 0.000000000000000e+00
0.000000000000000e+00 0.000000000000000e+00 0.000000000000000e+00
0.000000000000000e+00 0.000000000000000e+00 0.000000000000000e+00

0.000000000000000e+00 0.000000000000000e+00 0.000000000000000e+00
0.000000000000000e+00 0.000000000000000e+00 0.000000000000000e+00
0.000000000000000e+00 0.000000000000000e+00 0.000000000000000e+00

0.000000000000000e+00 0.000000000000000e+00 0.000000000000000e+00
0.000000000000000e+00 0.000000000000000e+00 0.000000000000000e+00
0.000000000000000e+00 0.000000000000000e+00 0.000000000000000e+00

0.000000000000000e+00 0.000000000000000e+00 0.000000000000000e+00
0.000000000000000e+00 0.000000000000000e+00 0.000000000000000e+00
0.000000000000000e+00 0.000000000000000e+00 0.000000000000000e+00

0.000000000000000e+00 0.000000000000000e+00 0.000000000000000e+00
0.000000000000000e+00 0.000000000000000e+00 0.000000000000000e+00
0.000000000000000e+00 0.000000000000000e+00 0.000000000000000e+00

0.000000000000000e+00 0.000000000000000e+00 0.000000000000000e+00
0.000000000000000e+00 0.000000000000000e+00 0.000000000000000e+00
0.000000000000000e+00 0.000000000000000e+00 0.000000000000000e+00

0.000000000000000e+00 0.000000000000000e+00 0.000000000000000e+00
0.000000000000000e+00 0.000000000000000e+00 0.000000000000000e+00
0.000000000000000e+00 0.000000000000000e+00 0.000000000000000e+00

0.000000000000000e+00 0.000000000000000e+00 0.000000000000000e+00
0.000000000000000e+00 0.000000000000000e+00 0.000000000000000e+00
0.000000000000000e+00 0.000000000000000e+00 0.000000000000000e+00

0.000000000000000e+00 0.000000000000000e+00 0.000000000000000e+00
0.000000000000000e+00 0.000000000000000e+00 0.000000000000000e+00
0.000000000000000e+00 0.000000000000000e+00 0.000000000000000e+00

0.000000000000000e+00 0.000000000000000e+00 0.000000000000000e+00
0.000000000000000e+00 0.000000000000000e+00 0.000000000000000e+00
0.000000000000000e+00 0.000000000000000e+00 0.000000000000000e+00

0.000000000000000e+00 0.000000000000000e+00 0.000000000000000e+00
0.000000000000000e+00 0.000000000000000e+00 0.000000000000000e+00
0.000000000000000e+00 0.000000000000000e+00 0.000000000000000e+00

0.000000000000000e+00 0.000000000000000e+00 0.000000000000000e+00
0.000000000000000e+00 0.000000000000000e+00 0.000000000000000e+00
0.000000000000000e+00 0.000000000000000e+00 0.000000000000000e+00

0.000000000000000e+00 0.000000000000000e+00 0.000000000000000e+00
0.000000000000000e+00 0.000000000000000e+00 0.000000000000000e+00
0.000000000000000e+00 0.000000000000000e+00 0.000000000000000e+00

0.000000000000000e+00 0.000000000000000e+00 0.000000000000000e+00
0.000000000000000e+00 0.000000000000000e+00 0.000000000000000e+00
0.000000000000000e+00 0.000000000000000e+00 0.000000000000000e+00

0.000000000000000e+00 0.000000000000000e+00 0.000000000000000e+00
0.000000000000000e+00 0.000000000000000e+00 0.000000000000000e+00
0.000000000000000e+00 0.000000000000000e+00 0.000000000000000e+00

0.000000000000000e+00 0.000000000000000e+00 0.000000000000000e+00
0.000000000000000e+00 0.000000000000000e+00 0.000000000000000e+00
0.000000000000000e+00 0.000000000000000e+00 0.000000000000000e+00

0.000000000000000e+00 0.000000000000000e+00 0.000000000000000e+00
0.000000000000000e+00 0.000000000000000e+00 0.000000000000000e+00
0.000000000000000e+00 0.000000000000000e+00 0.000000000000000e+00

0.000000000000000e+00 0.000000000000000e+00 0.000000000000000e+00
0.000000000000000e+00 0.000000000000000e+00 0.000000000000000e+00
0.000000000000000e+00 0.000000000000000e+00 0.000000000000000e+00

0.000000000000000e+00 0.000000000000000e+00 0.000000000000000e+00
0.000000000000000e+00 0.000000000000000e+00 0.000000000000000e+00
0.000000000000000e+00 0.000000000000000e+00 0.000000000000000e+00

0.000000000000000e+00 0.000000000000000e+00 0.000000000000000e+00
0.000000000000000e+00 0.000000000000000e+00 0.000000000000000e+00
0.000000000000000e+00 0.000000000000000e+00 0.000000000000000e+00

0.000000000000000e+00 0.000000000000000e+00 0.000000000000000e+00
0.000000000000000e+00 0.000000000000000e+00 0.000000000000000e+00
0.000000000000000e+00 0.000000000000000e+00 0.000000000000000e+00

0.000000000000000e+00 0.000000000000000e+00 0.000000000000000e+00
0.000000000000000e+00 0.000000000000000e+00 0.000000000000000e+00
0.000000000000000e+00 0.000000000000000e+00 0.000000000000000e+00

0.000000000000000e+00 0.000000000000000e+00 0.000000000000000e+00
0.000000000000000e+00 0.000000000000000e+00 0.000000000000000e+00
0.000000000000000e+00 0.000000000000000e+00 0.000000000000000e+00

0.000000000000000e+00 0.000000000000000e+00 0.000000000000000e+00
0.000000000000000e+00 0.000000000000000e+00 0.000000000000000e+00
0.000000000000000e+00 0.000000000000000e+00 0.000000000000000e+00

0.000000000000000e+00 0.000000000000000e+00 0.000000000000000e+00
0.000000000000000e+00 0.000000000000000e+00 0.000000000000000e+00
0.000000000000000e+00 0.000000000000000e+00 0.000000000000000e+00

0.000000000000000e+00 0.000000000000000e+00 0.000000000000000e+00
0.000000000000000e+00 0.000000000000000e+00 0.000000000000000e+00
0.000000000000000e+00 0.000000000000000e+00 0.000000000000000e+00

0.000000000000000e+00 0.000000000000000e+00 0.000000000000000e+00
0.000000000000000e+00 0.000000000000000e+00 0.000000000000000e+00
0.000000000000000e+00 0.000000000000000e+00 0.000000000000000e+00

0.000000000000000e+00 0.000000000000000e+00 0.000000000000000e+00
0.000000000000000e+00 0.000000000000000e+00 0.000000000000000e+00
0.000000000000000e+00 0.000000000000000e+00 0.000000000000000e+00

0.000000000000000e+00 0.000000000000000e+00 0.000000000000000e+00
0.000000000000000e+00 0.000000000000000e+00 0.000000000000000e+00
0.000000000000000e+00 0.000000000000000e+00 0.000000000000000e+00

0.000000000000000e+00 0.000000000000000e+00 0.000000000000000e+00
0.000000000000000e+00 0.000000000000000e+00 0.000000000000000e+00
0.000000000000000e+00 0.000000000000000e+00 0.000000000000000e+00

0.000000000000000e+00 0.000000000000000e+00 0.000000000000000e+00
0.000000000000000e+00 0.000000000000000e+00 0.000000000000000e+00
0.000000000000000e+00 0.000000000000000e+00 0.000000000000000e+00

0.000000000000000e+00 0.000000000000000e+00 0.000000000000000e+00
0.000000000000000e+00 0.000000000000000e+00 0.000000000000000e+00
0.000000000000000e+00 0.000000000000000e+00 0.000000000000000e+00

0.000000000000000e+00 0.000000000000000e+00 0.000000000000000e+00
0.000000000000000e+00 0.000000000000000e+00 0.000000000000000e+00
0.000000000000000e+00 0.000000000000000e+00 0.000000000000000e+00

0.000000000000000e+00 0.000000000000000e+00 0.000000000000000e+00
0.000000000000000e+00 0.000000000000000e+00 0.000000000000000e+00
0.000000000000000e+00 0.000000000000000e+00 0.000000000000000e+00

0.000000000000000e+00 0.000000000000000e+00 0.000000000000000e+00
0.000000000000000e+00 0.000000000000000e+00 0.000000000000000e+00
0.000000000000000e+00 0.000000000000000e+00 0.000000000000000e+00

0.000000000000000e+00 0.000000000000000e+00 0.000000000000000e+00
0.000000000000000e+00 0.000000000000000e+00 0.000000000000000e+00
0.000000000000000e+00 0.000000000000000e+00 0.000000000000000e+00

0.000000000000000e+00 0.000000000000000e+00 0.000000000000000e+00
0.000000000000000e+00 0.000000000000000e+00 0.000000000000000e+00
0.000000000000000e+00 0.000000000000000e+00 0.000000000000000e+00

0.000000000000000e+00 0.000000000000000e+00 0.000000000000000e+00
0.000000000000000e+00 0.000000000000000e+00 0.000000000000000e+00
0.000000000000000e+00 0.000000000000000e+00 0.000000000000000e+00

0.000000000000000e+00 0.000000000000000e+00 0.000000000000000e+00
0.000000000000000e+00 0.000000000000000e+00 0.000000000000000e+00
0.000000000000000e+00 0.000000000000000e+00 0.000000000000000e+00

0.000000000000000e+00 0.000000000000000e+00 0.000000000000000e+00
0.000000000000000e+00 0.000000000000000e+00 0.000000000000000e+00
0.000000000000000e+00 0.000000000000000e+00 0.000000000000000e+00

0.000000000000000e+00 0.000000000000000e+00 0.000000000000000e+00
0.000000000000000e+00 0.000000000000000e+00 0.000000000000000e+00
0.000000000000000e+00 0.000000000000000e+00 0.000000000000000e+00

0.000000000000000e+00 0.000000000000000e+00 0.000000000000000e+00
0.000000000000000e+00 0.000000000000000e+00 0.000000000000000e+00
0.000000000000000e+00 0.000000000000000e+00 0.000000000000000e+00

0.000000000000000e+00 0.000000000000000e+00 0.000000000000000e+00
0.000000000000000e+00 0.000000000000000e+00 0.000000000000000e+00
0.000000000000000e+00 0.000000000000000e+00 0.000000000000000e+00

0.000000000000000e+00 0.000000000000000e+00 0.000000000000000e+00
0.000000000000000e+00 0.000000000000000e+00 0.000000000000000e+00
0.000000000000000e+00 0.000000000000000e+00 0.000000000000000e+00

0.000000000000000e+00 0.000000000000000e+00 0.000000000000000e+00
0.000000000000000e+00 0.000000000000000e+00 0.000000000000000e+00
0.000000000000000e+00 0.000000000000000e+00 0.000000000000000e+00

0.000000000000000e+00 0.000000000000000e+00 0.000000000000000e+00
0.000000000000000e+00 0.000000000000000e+00 0.000000000000000e+00
0.000000000000000e+00 0.000000000000000e+00 0.000000000000000e+00

0.000000000000000e+00 0.000000000000000e+00 0.000000000000000e+00
0.000000000000000e+00 0.000000000000000e+00 0.000000000000000e+00
0.000000000000000e+00 0.000000000000000e+00 0.000000000000000e+00

0.000000000000000e+00 0.000000000000000e+00 0.000000000000000e+00
0.000000000000000e+00 0.000000000000000e+00 0.000000000000000e+00
0.000000000000000e+00 0.000000000000000e+00 0.000000000000000e+00

0.000000000000000e+00 0.000000000000000e+00 0.000000000000000e+00
0.000000000000000e+00 0.000000000000000e+00 0.000000000000000e+00
0.000000000000000e+00 0.000000000000000e+00 0.000000000000000e+00

0.000000000000000e+00 0.000000000000000e+00 0.000000000000000e+00
0.000000000000000e+00 0.000000000000000e+00 0.000000000000000e+00
0.000000000000000e+00 0.000000000000000e+00 0.000000000000000e+00

0.000000000000000e+00 0.000000000000000e+00 0.000000000000000e+00
0.000000000000000e+00 0.000000000000000e+00 0.000000000000000e+00
0.000000000000000e+00 0.000000000000000e+00 0.000000000000000e+00

0.000000000000000e+00 0.000000000000000e+00 0.000000000000000e+00
0.000000000000000e+00 0.000000000000000e+00 0.000000000000000e+00
0.000000000000000e+00 0.000000000000000e+00 0.000000000000000e+00

0.000000000000000e+00 0.000000000000000e+00 0.000000000000000e+00
0.000000000000000e+00 0.000000000000000e+00 0.000000000000000e+00
0.000000000000000e+00 0.000000000000000e+00 0.000000000000000e+00

0.000000000000000e+00 0.000000000000000e+00 0.000000000000000e+00
0.000000000000000e+00 0.000000000000000e+00 0.000000000000000e+00
0.000000000000000e+00 0.000000000000000e+00 0.000000000000000e+00

0.000000000000000e+00 0.000000000000000e+00 0.000000000000000e+00
0.000000000000000e+00 0.000000000000000e+00 0.000000000000000e+00
0.000000000000000e+00 0.000000000000000e+00 0.000000000000000e+00

0.000000000000000e+00 0.000000000000000e+00 0.000000000000000e+00
0.000000000000000e+00 0.000000000000000e+00 0.000000000000000e+00
0.000000000000000e+00 0.000000000000000e+00 0.000000000000000e+00

0.000000000000000e+00 0.000000000000000e+00 0.000000000000000e+00
0.000000000000000e+00 0.000000000000000e+00 0.000000000000000e+00
0.000000000000000e+00 0.000000000000000e+00 0.000000000000000e+00

0.000000000000000e+00 0.000000000000000e+00 0.000000000000000e+00
0.000000000000000e+00 0.000000000000000e+00 0.000000000000000e+00
0.000000000000000e+00 0.000000000000000e+00 0.000000000000000e+00

0.000000000000000e+00 0.000000000000000e+00 0.000000000000000e+00
0.000000000000000e+00 0.000000000000000e+00 0.000000000000000e+00
0.000000000000000e+00 0.000000000000000e+00 0.000000000000000e+00

0.000000000000000e+00 0.000000000000000e+00 0.000000000000000e+00
0.000000000000000e+00 0.000000000000000e+00 0.000000000000000e+00
0.000000000000000e+00 0.000000000000000e+00 0.000000000000000e+00

0.000000000000000e+00 0.000000000000000e+00 0.000000000000000e+00
0.000000000000000e+00 0.000000000000000e+00 0.000000000000000e+00
0.000000000000000e+00 0.000000000000000e+00 0.000000000000000e+00

0.000000000000000e+00 0.000000000000000e+00 0.000000000000000e+00
0.000000000000000e+00 0.000000000000000e+00 0.000000000000000e+00
0.000000000000000e+00 0.000000000000000e+00 0.000000000000000e+00

0.000000000000000e+00 0.000000000000000e+00 0.000000000000000e+00
0.000000000000000e+00 0.000000000000000e+00 0.000000000000000e+00
0.000000000000000e+00 0.000000000000000e+00 0.000000000000000e+00

0.000000000000000e+00 0.000000000000000e+00 0.000000000000000e+00
0.000000000000000e+00 0.000000000000000e+00 0.000000000000000e+00
0.000000000000000e+00 0.000000000000000e+00 0.000000000000000e+00

0.000000000000000e+00 0.000000000000000e+00 0.000000000000000e+00
0.000000000000000e+00 0.000000000000000e+00 0.000000000000000e+00
0.000000000000000e+00 0.000000000000000e+00 0.000000000000000e+00

0.000000000000000e+00 0.000000000000000e+00 0.000000000000000e+00
0.000000000000000e+00 0.000000000000000e+00 0.000000000000000e+00
0.000000000000000e+00 0.000000000000000e+00 0.000000000000000e+00

0.000000000000000e+00 0.000000000000000e+00 0.000000000000000e+00
0.000000000000000e+00 0.000000000000000e+00 0.000000000000000e+00
0.000000000000000e+00 0.000000000000000e+00 0.000000000000000e+00

0.000000000000000e+00 0.000000000000000e+00 0.000000000000000e+00
0.000000000000000e+00 0.000000000000000e+00 0.000000000000000e+00
0.000000000000000e+00 0.000000000000000e+00 0.000000000000000e+00

0.000000000000000e+00 0.000000000000000e+00 0.000000000000000e+00
0.000000000000000e+00 0.000000000000000e+00 0.000000000000000e+00
0.000000000000000e+00 0.000000000000000e+00 0.000000000000000e+00

0.000000000000000e+00 0.000000000000000e+00 0.000000000000000e+00
0.000000000000000e+00 0.000000000000000e+00 0.000000000000000e+00
0.000000000000000e+00 0.000000000000000e+00 0.000000000000000e+00

0.000000000000000e+00 0.000000000000000e+00 0.000000000000000e+00
0.000000000000000e+00 0.000000000000000e+00 0.000000000000000e+00
0.000000000000000e+00 0.000000000000000e+00 0.000000000000000e+00

0.000000000000000e+00 0.000000000000000e+00 0.000000000000000e+00
0.000000000000000e+00 0.000000000000000e+00 0.000000000000000e+00
0.000000000000000e+00 0.000000000000000e+00 0.000000000000000e+00

0.000000000000000e+00 0.000000000000000e+00 0.000000000000000e+00
0.000000000000000e+00 0.000000000000000e+00 0.000000000000000e+00
0.000000000000000e+00 0.000000000000000e+00 0.000000000000000e+00

0.000000000000000e+00 0.000000000000000e+00 0.000000000000000e+00
0.000000000000000e+00 0.000000000000000e+00 0.000000000000000e+00
0.000000000000000e+00 0.000000000000000e+00 0.000000000000000e+00

0.000000000000000e+00 0.000000000000000e+00 0.000000000000000e+00
0.000000000000000e+00 0.000000000000000e+00 0.000000000000000e+00
0.000000000000000e+00 0.000000000000000e+00 0.000000000000000e+00

0.000000000000000e+00 0.000000000000000e+00 0.000000000000000e+00
0.000000000000000e+00 0.000000000000000e+00 0.000000000000000e+00
0.000000000000000e+00 0.000000000000000e+00 0.000000000000000e+00

0.000000000000000e+00 0.000000000000000e+00 0.000000000000000e+00
0.000000000000000e+00 0.000000000000000e+00 0.000000000000000e+00
0.000000000000000e+00 0.000000000000000e+00 0.000000000000000e+00

0.000000000000000e+00 0.000000000000000e+00 0.000000000000000e+00
0.000000000000000e+00 0.000000000000000e+00 0.000000000000000e+00
0.000000000000000e+00 0.000000000000000e+00 0.000000000000000e+00

0.000000000000000e+00 0.000000000000000e+00 0.000000000000000e+00
0.000000000000000e+00 0.000000000000000e+00 0.000000000000000e+00
0.000000000000000e+00 0.000000000000000e+00 0.000000000000000e+00

0.000000000000000e+00 0.000000000000000e+00 0.000000000000000e+00
0.000000000000000e+00 0.000000000000000e+00 0.000000000000000e+00
0.000000000000000e+00 0.000000000000000e+00 0.000000000000000e+00

0.000000000000000e+00 0.000000000000000e+00 0.000000000000000e+00
0.000000000000000e+00 0.000000000000000e+00 0.000000000000000e+00
0.000000000000000e+00 0.000000000000000e+00 0.000000000000000e+00

0.000000000000000e+00 0.000000000000000e+00 0.000000000000000e+00
0.000000000000000e+00 0.000000000000000e+00 0.000000000000000e+00
0.000000000000000e+00 0.000000000000000e+00 0.000000000000000e+00

0.000000000000000e+00 0.000000000000000e+00 0.000000000000000e+00
0.000000000000000e+00 0.000000000000000e+00 0.000000000000000e+00
0.000000000000000e+00 0.000000000000000e+00 0.000000000000000e+00

0.000000000000000e+00 0.000000000000000e+00 0.000000000000000e+00
0.000000000000000e+00 0.000000000000000e+00 0.000000000000000e+00
0.000000000000000e+00 0.000000000000000e+00 0.000000000000000e+00

0.000000000000000e+00 0.000000000000000e+00 0.000000000000000e+00
0.000000000000000e+00 0.000000000000000e+00 0.000000000000000e+00
0.000000000000000e+00 0.000000000000000e+00 0.000000000000000e+00

0.000000000000000e+00 0.000000000000000e+00 0.000000000000000e+00
0.000000000000000e+00 0.000000000000000e+00 0.000000000000000e+00
0.000000000000000e+00 0.000000000000000e+00 0.000000000000000e+00

0.000000000000000e+00 0.000000000000000e+00 0.000000000000000e+00
0.000000000000000e+00 0.000000000000000e+00 0.000000000000000e+00
0.000000000000000e+00 0.000000000000000e+00 0.000000000000000e+00

0.000000000000000e+00 0.000000000000000e+00 0.000000000000000e+00
0.000000000000000e+00 0.000000000000000e+00 0.000000000000000e+00
0.000000000000000e+00 0.000000000000000e+00 0.000000000000000e+00

0.000000000000000e+00 0.000000000000000e+00 0.000000000000000e+00
0.000000000000000e+00 0.000000000000000e+00 0.000000000000000e+00
0.000000000000000e+00 0.000000000000000e+00 0.000000000000000e+00

0.000000000000000e+00 0.000000000000000e+00 0.000000000000000e+00
0.000000000000000e+00 0.000000000000000e+00 0.000000000000000e+00
0.000000000000000e+00 0.000000000000000e+00 0.000000000000000e+00

0.000000000000000e+00 0.000000000000000e+00 0.000000000000000e+00
0.000000000000000e+00 0.000000000000000e+00 0.000000000000000e+00
0.000000000000000e+00 0.000000000000000e+00 0.000000000000000e+00

0.000000000000000e+00 0.000000000000000e+00 0.000000000000000e+00
0.000000000000000e+00 0.000000000000000e+00 0.000000000000000e+00
0.000000000000000e+00 0.000000000000000e+00 0.000000000000000e+00

0.000000000000000e+00 0.000000000000000e+00 0.000000000000000e+00
0.000000000000000e+00 0.000000000000000e+00 0.000000000000000e+00
0.000000000000000e+00 0.000000000000000e+00 0.000000000000000e+00

0.000000000000000e+00 0.000000000000000e+00 0.000000000000000e+00
0.000000000000000e+00 0.000000000000000e+00 0.000000000000000e+00
0.000000000000000e+00 0.000000000000000e+00 0.000000000000000e+00

0.000000000000000e+00 0.000000000000000e+00 0.000000000000000e+00
0.000000000000000e+00 0.000000000000000e+00 0.000000000000000e+00
0.000000000000000e+00 0.000000000000000e+00 0.000000000000000e+00

0.000000000000000e+00 0.000000000000000e+00 0.000000000000000e+00
0.000000000000000e+00 0.000000000000000e+00 0.000000000000000e+00
0.000000000000000e+00 0.000000000000000e+00 0.000000000000000e+00

0.000000000000000e+00 0.000000000000000e+00 0.000000000000000e+00
0.000000000000000e+00 0.000000000000000e+00 0.000000000000000e+00
0.000000000000000e+00 0.000000000000000e+00 0.000000000000000e+00

0.000000000000000e+00 0.000000000000000e+00 0.000000000000000e+00
0.000000000000000e+00 0.000000000000000e+00 0.000000000000000e+00
0.000000000000000e+00 0.000000000000000e+00 0.000000000000000e+00

0.000000000000000e+00 0.000000000000000e+00 0.000000000000000e+00
0.000000000000000e+00 0.000000000000000e+00 0.000000000000000e+00
0.000000000000000e+00 0.000000000000000e+00 0.000000000000000e+00

0.000000000000000e+00 0.000000000000000e+00 0.000000000000000e+00
0.000000000000000e+00 0.000000000000000e+00 0.000000000000000e+00
0.000000000000000e+00 0.000000000000000e+00 0.000000000000000e+00

0.000000000000000e+00 0.000000000000000e+00 0.000000000000000e+00
0.000000000000000e+00 0.000000000000000e+00 0.000000000000000e+00
0.000000000000000e+00 0.000000000000000e+00 0.000000000000000e+00

0.000000000000000e+00 0.000000000000000e+00 0.000000000000000e+00
0.000000000000000e+00 0.000000000000000e+00 0.000000000000000e+00
0.000000000000000e+00 0.000000000000000e+00 0.000000000000000e+00

0.000000000000000e+00 0.000000000000000e+00 0.000000000000000e+00
0.000000000000000e+00 0.000000000000000e+00 0.000000000000000e+00
0.000000000000000e+00 0.000000000000000e+00 0.000000000000000e+00

0.000000000000000e+00 0.000000000000000e+00 0.000000000000000e+00
0.000000000000000e+00 0.000000000000000e+00 0.000000000000000e+00
0.000000000000000e+00 0.000000000000000e+00 0.000000000000000e+00

0.000000000000000e+00 0.000000000000000e+00 0.000000000000000e+00
0.000000000000000e+00 0.000000000000000e+00 0.000000000000000e+00
0.000000000000000e+00 0.000000000000000e+00 0.000000000000000e+00

0.000000000000000e+00 0.000000000000000e+00 0.000000000000000e+00
0.000000000000000e+00 0.000000000000000e+00 0.000000000000000e+00
0.000000000000000e+00 0.000000000000000e+00 0.000000000000000e+00

0.000000000000000e+00 0.000000000000000e+00 0.000000000000000e+00
0.000000000000000e+00 0.000000000000000e+00 0.000000000000000e+00
0.000000000000000e+00 0.000000000000000e+00 0.000000000000000e+00

0.000000000000000e+00 0.000000000000000e+00 0.000000000000000e+00
0.000000000000000e+00 0.000000000000000e+00 0.000000000000000e+00
0.000000000000000e+00 0.000000000000000e+00 0.000000000000000e+00

0.000000000000000e+00 0.000000000000000e+00 0.000000000000000e+00
0.000000000000000e+00 0.000000000000000e+00 0.000000000000000e+00
0.000000000000000e+00 0.000000000000000e+00 0.000000000000000e+00

0.000000000000000e+00 0.000000000000000e+00 0.000000000000000e+00
0.000000000000000e+00 0.000000000000000e+00 0.000000000000000e+00
0.000000000000000e+00 0.000000000000000e+00 0.000000000000000e+00

0.000000000000000e+00 0.000000000000000e+00 0.000000000000000e+00
0.000000000000000e+00 0.000000000000000e+00 0.000000000000000e+00
0.000000000000000e+00 0.000000000000000e+00 0.000000000000000e+00

0.000000000000000e+00 0.000000000000000e+00 0.000000000000000e+00
0.000000000000000e+00 0.000000000000000e+00 0.000000000000000e+00
0.000000000000000e+00 0.000000000000000e+00 0.000000000000000e+00

0.000000000000000e+00 0.000000000000000e+00 0.000000000000000e+00
0.000000000000000e+00 0.000000000000000e+00 0.000000000000000e+00
0.000000000000000e+00 0.000000000000000e+00 0.000000000000000e+00

0.000000000000000e+00 0.000000000000000e+00 0.000000000000000e+00
0.000000000000000e+00 0.000000000000000e+00 0.000000000000000e+00
0.000000000000000e+00 0.000000000000000e+00 0.000000000000000e+00

0.000000000000000e+00 0.000000000000000e+00 0.000000000000000e+00
0.000000000000000e+00 0.000000000000000e+00 0.000000000000000e+00
0.000000000000000e+00 0.000000000000000e+00 0.000000000000000e+00

0.000000000000000e+00 0.000000000000000e+00 0.000000000000000e+00
0.000000000000000e+00 0.000000000000000e+00 0.000000000000000e+00
0.000000000000000e+00 0.000000000000000e+00 0.000000000000000e+00

0.000000000000000e+00 0.000000000000000e+00 0.000000000000000e+00
0.000000000000000e+00 0.000000000000000e+00 0.000000000000000e+00
0.000000000000000e+00 0.000000000000000e+00 0.000000000000000e+00

0.000000000000000e+00 0.000000000000000e+00 0.000000000000000e+00
0.000000000000000e+00 0.000000000000000e+00 0.000000000000000e+00
0.000000000000000e+00 0.000000000000000e+00 0.000000000000000e+00

0.000000000000000e+00 0.000000000000000e+00 0.000000000000000e+00
0.000000000000000e+00 0.000000000000000e+00 0.000000000000000e+00
0.000000000000000e+00 0.000000000000000e+00 0.000000000000000e+00

0.000000000000000e+00 0.000000000000000e+00 0.000000000000000e+00
0.000000000000000e+00 0.000000000000000e+00 0.000000000000000e+00
0.000000000000000e+00 0.000000000000000e+00 0.000000000000000e+00

0.000000000000000e+00 0.000000000000000e+00 0.000000000000000e+00
0.000000000000000e+00 0.000000000000000e+00 0.000000000000000e+00
0.000000000000000e+00 0.000000000000000e+00 0.000000000000000e+00

0.000000000000000e+00 0.000000000000000e+00 0.000000000000000e+00
0.000000000000000e+00 0.000000000000000e+00 0.000000000000000e+00
0.000000000000000e+00 0.000000000000000e+00 0.000000000000000e+00

0.000000000000000e+00 0.000000000000000e+00 0.000000000000000e+00
0.000000000000000e+00 0.000000000000000e+00 0.000000000000000e+00
0.000000000000000e+00 0.000000000000000e+00 0.000000000000000e+00

0.000000000000000e+00 0.000000000000000e+00 0.000000000000000e+00
0.000000000000000e+00 0.000000000000000e+00 0.000000000000000e+00
0.000000000000000e+00 0.000000000000000e+00 0.000000000000000e+00

0.000000000000000e+00 0.000000000000000e+00 0.000000000000000e+00
0.000000000000000e+00 0.000000000000000e+00 0.000000000000000e+00
0.000000000000000e+00 0.000000000000000e+00 0.000000000000000e+00

0.000000000000000e+00 0.000000000000000e+00 0.000000000000000e+00
0.000000000000000e+00 0.000000000000000e+00 0.000000000000000e+00
0.000000000000000e+00 0.000000000000000e+00 0.000000000000000e+00

0.000000000000000e+00 0.000000000000000e+00 0.000000000000000e+00
0.000000000000000e+00 0.000000000000000e+00 0.000000000000000e+00
0.000000000000000e+00 0.000000000000000e+00 0.000000000000000e+00

0.000000000000000e+00 0.000000000000000e+00 0.000000000000000e+00
0.000000000000000e+00 0.000000000000000e+00 0.000000000000000e+00
0.000000000000000e+00 0.000000000000000e+00 0.000000000000000e+00

0.000000000000000e+00 0.000000000000000e+00 0.000000000000000e+00
0.000000000000000e+00 0.000000000000000e+00 0.000000000000000e+00
0.000000000000000e+00 0.000000000000000e+00 0.000000000000000e+00

0.000000000000000e+00 0.000000000000000e+00 0.000000000000000e+00
0.000000000000000e+00 0.000000000000000e+00 0.000000000000000e+00
0.000000000000000e+00 0.000000000000000e+00 0.000000000000000e+00

0.000000000000000e+00 0.000000000000000e+00 0.000000000000000e+00
0.000000000000000e+00 0.000000000000000e+00 0.000000000000000e+00
0.000000000000000e+00 0.000000000000000e+00 0.000000000000000e+00

0.000000000000000e+00 0.000000000000000e+00 0.000000000000000e+00
0.000000000000000e+00 0.000000000000000e+00 0.000000000000000e+00
0.000000000000000e+00 0.000000000000000e+00 0.000000000000000e+00

0.000000000000000e+00 0.000000000000000e+00 0.000000000000000e+00
0.000000000000000e+00 0.000000000000000e+00 0.000000000000000e+00
0.000000000000000e+00 0.000000000000000e+00 0.000000000000000e+00

0.000000000000000e+00 0.000000000000000e+00 0.000000000000000e+00
0.000000000000000e+00 0.000000000000000e+00 0.000000000000000e+00
0.000000000000000e+00 0.000000000000000e+00 0.000000000000000e+00

0.000000000000000e+00 0.000000000000000e+00 0.000000000000000e+00
0.000000000000000e+00 0.000000000000000e+00 0.000000000000000e+00
0.000000000000000e+00 0.000000000000000e+00 0.000000000000000e+00

0.000000000000000e+00 0.000000000000000e+00 0.000000000000000e+00
0.000000000000000e+00 0.000000000000000e+00 0.000000000000000e+00
0.000000000000000e+00 0.000000000000000e+00 0.000000000000000e+00

0.000000000000000e+00 0.000000000000000e+00 0.000000000000000e+00
0.000000000000000e+00 0.000000000000000e+00 0.000000000000000e+00
0.000000000000000e+00 0.000000000000000e+00 0.000000000000000e+00

0.000000000000000e+00 0.000000000000000e+00 0.000000000000000e+00
0.000000000000000e+00 0.000000000000000e+00 0.000000000000000e+00
0.000000000000000e+00 0.000000000000000e+00 0.000000000000000e+00

0.000000000000000e+00 0.000000000000000e+00 0.000000000000000e+00
0.000000000000000e+00 0.000000000000000e+00 0.000000000000000e+00
0.000000000000000e+00 0.000000000000000e+00 0.000000000000000e+00

0.000000000000000e+00 0.000000000000000e+00 0.000000000000000e+00
0.000000000000000e+00 0.000000000000000e+00 0.000000000000000e+00
0.000000000000000e+00 0.000000000000000e+00 0.000000000000000e+00

0.000000000000000e+00 0.000000000000000e+00 0.000000000000000e+00
0.000000000000000e+00 0.000000000000000e+00 0.000000000000000e+00
0.000000000000000e+00 0.000000000000000e+00 0.000000000000000e+00

0.000000000000000e+00 0.000000000000000e+00 0.000000000000000e+00
0.000000000000000e+00 0.000000000000000e+00 0.000000000000000e+00
0.000000000000000e+00 0.000000000000000e+00 0.000000000000000e+00

0.000000000000000e+00 0.000000000000000e+00 0.000000000000000e+00
0.000000000000000e+00 0.000000000000000e+00 0.000000000000000e+00
0.000000000000000e+00 0.000000000000000e+00 0.000000000000000e+00

0.000000000000000e+00 0.000000000000000e+00 0.000000000000000e+00
0.000000000000000e+00 0.000000000000000e+00 0.000000000000000e+00
0.000000000000000e+00 0.000000000000000e+00 0.000000000000000e+00

0.000000000000000e+00 0.000000000000000e+00 0.000000000000000e+00
0.000000000000000e+00 0.000000000000000e+00 0.000000000000000e+00
0.000000000000000e+00 0.000000000000000e+00 0.000000000000000e+00

0.000000000000000e+00 0.000000000000000e+00 0.000000000000000e+00
0.000000000000000e+00 0.000000000000000e+00 0.000000000000000e+00
0.000000000000000e+00 0.000000000000000e+00 0.000000000000000e+00

0.000000000000000e+00 0.000000000000000e+00 0.000000000000000e+00
0.000000000000000e+00 0.000000000000000e+00 0.000000000000000e+00
0.000000000000000e+00 0.000000000000000e+00 0.000000000000000e+00

0.000000000000000e+00 0.000000000000000e+00 0.000000000000000e+00
0.000000000000000e+00 0.000000000000000e+00 0.000000000000000e+00
0.000000000000000e+00 0.000000000000000e+00 0.000000000000000e+00

0.000000000000000e+00 0.000000000000000e+00 0.000000000000000e+00
0.000000000000000e+00 0.000000000000000e+00 0.000000000000000e+00
0.000000000000000e+00 0.000000000000000e+00 0.000000000000000e+00

0.000000000000000e+00 0.000000000000000e+00 0.000000000000000e+00
0.000000000000000e+00 0.000000000000000e+00 0.000000000000000e+00
0.000000000000000e+00 0.000000000000000e+00 0.000000000000000e+00

0.000000000000000e+00 0.000000000000000e+00 0.000000000000000e+00
0.000000000000000e+00 0.000000000000000e+00 0.000000000000000e+00
0.000000000000000e+00 0.000000000000000e+00 0.000000000000000e+00

0.000000000000000e+00 0.000000000000000e+00 0.000000000000000e+00
0.000000000000000e+00 0.000000000000000e+00 0.000000000000000e+00
0.000000000000000e+00 0.000000000000000e+00 0.000000000000000e+00

0.000000000000000e+00 0.000000000000000e+00 0.000000000000000e+00
0.000000000000000e+00 0.000000000000000e+00 0.000000000000000e+00
0.000000000000000e+00 0.000000000000000e+00 0.000000000000000e+00

0.000000000000000e+00 0.000000000000000e+00 0.000000000000000e+00
0.000000000000000e+00 0.000000000000000e+00 0.000000000000000e+00
0.000000000000000e+00 0.000000000000000e+00 0.000000000000000e+00

0.000000000000000e+00 0.000000000000000e+00 0.000000000000000e+00
0.000000000000000e+00 0.000000000000000e+00 0.000000000000000e+00
0.000000000000000e+00 0.000000000000000e+00 0.000000000000000e+00

0.000000000000000e+00 0.000000000000000e+00 0.000000000000000e+00
0.000000000000000e+00 0.000000000000000e+00 0.000000000000000e+00
0.000000000000000e+00 0.000000000000000e+00 0.000000000000000e+00

0.000000000000000e+00 0.000000000000000e+00 0.000000000000000e+00
0.000000000000000e+00 0.000000000000000e+00 0.000000000000000e+00
0.000000000000000e+00 0.000000000000000e+00 0.000000000000000e+00

0.000000000000000e+00 0.000000000000000e+00 0.000000000000000e+00
0.000000000000000e+00 0.000000000000000e+00 0.000000000000000e+00
0.000000000000000e+00 0.000000000000000e+00 0.000000000000000e+00

0.000000000000000e+00 0.000000000000000e+00 0.000000000000000e+00
0.000000000000000e+00 0.000000000000000e+00 0.000000000000000e+00
0.000000000000000e+00 0.000000000000000e+00 0.000000000000000e+00

0.000000000000000e+00 0.000000000000000e+00 0.000000000000000e+00
0.000000000000000e+00 0.000000000000000e+00 0.000000000000000e+00
0.000000000000000e+00 0.000000000000000e+00 0.000000000000000e+00

0.000000000000000e+00 0.000000000000000e+00 0.000000000000000e+00
0.000000000000000e+00 0.000000000000000e+00 0.000000000000000e+00
0.000000000000000e+00 0.000000000000000e+00 0.000000000000000e+00

0.000000000000000e+00 0.000000000000000e+00 0.000000000000000e+00
0.000000000000000e+00 0.000000000000000e+00 0.000000000000000e+00
0.000000000000000e+00 0.000000000000000e+00 0.000000000000000e+00

0.000000000000000e+00 0.000000000000000e+00 0.000000000000000e+00
0.000000000000000e+00 0.000000000000000e+00 0.000000000000000e+00
0.000000000000000e+00 0.000000000000000e+00 0.000000000000000e+00

0.000000000000000e+00 0.000000000000000e+00 0.000000000000000e+00
0.000000000000000e+00 0.000000000000000e+00 0.000000000000000e+00
0.000000000000000e+00 0.000000000000000e+00 0.000000000000000e+00

0.000000000000000e+00 0.000000000000000e+00 0.000000000000000e+00
0.000000000000000e+00 0.000000000000000e+00 0.000000000000000e+00
0.000000000000000e+00 0.000000000000000e+00 0.000000000000000e+00

0.000000000000000e+00 0.000000000000000e+00 0.000000000000000e+00
0.000000000000000e+00 0.000000000000000e+00 0.000000000000000e+00
0.000000000000000e+00 0.000000000000000e+00 0.000000000000000e+00

0.000000000000000e+00 0.000000000000000e+00 0.000000000000000e+00
0.000000000000000e+00 0.000000000000000e+00 0.000000000000000e+00
0.000000000000000e+00 0.000000000000000e+00 0.000000000000000e+00

0.000000000000000e+00 0.000000000000000e+00 0.000000000000000e+00
0.000000000000000e+00 0.000000000000000e+00 0.000000000000000e+00
0.000000000000000e+00 0.000000000000000e+00 0.000000000000000e+00

0.000000000000000e+00 0.000000000000000e+00 0.000000000000000e+00
0.000000000000000e+00 0.000000000000000e+00 0.000000000000000e+00
0.000000000000000e+00 0.000000000000000e+00 0.000000000000000e+00

0.000000000000000e+00 0.000000000000000e+00 0.000000000000000e+00
0.000000000000000e+00 0.000000000000000e+00 0.000000000000000e+00
0.000000000000000e+00 0.000000000000000e+00 0.000000000000000e+00

0.000000000000000e+00 0.000000000000000e+00 0.000000000000000e+00
0.000000000000000e+00 0.000000000000000e+00 0.000000000000000e+00
0.000000000000000e+00 0.000000000000000e+00 0.000000000000000e+00

0.000000000000000e+00 0.000000000000000e+00 0.000000000000000e+00
0.000000000000000e+00 0.000000000000000e+00 0.000000000000000e+00
0.000000000000000e+00 0.000000000000000e+00 0.000000000000000e+00

0.000000000000000e+00 0.000000000000000e+00 0.000000000000000e+00
0.000000000000000e+00 0.000000000000000e+00 0.000000000000000e+00
0.000000000000000e+00 0.000000000000000e+00 0.000000000000000e+00

0.000000000000000e+00 0.000000000000000e+00 0.000000000000000e+00
0.000000000000000e+00 0.000000000000000e+00 0.000000000000000e+00
0.000000000000000e+00 0.000000000000000e+00 0.000000000000000e+00

0.000000000000000e+00 0.000000000000000e+00 0.000000000000000e+00
0.000000000000000e+00 0.000000000000000e+00 0.000000000000000e+00
0.000000000000000e+00 0.000000000000000e+00 0.000000000000000e+00

0.000000000000000e+00 0.000000000000000e+00 0.000000000000000e+00
0.000000000000000e+00 0.000000000000000e+00 0.000000000000000e+00
0.000000000000000e+00 0.000000000000000e+00 0.000000000000000e+00

0.000000000000000e+00 0.000000000000000e+00 0.000000000000000e+00
0.000000000000000e+00 0.000000000000000e+00 0.000000000000000e+00
0.000000000000000e+00 0.000000000000000e+00 0.000000000000000e+00

0.000000000000000e+00 0.000000000000000e+00 0.000000000000000e+00
0.000000000000000e+00 0.000000000000000e+00 0.000000000000000e+00
0.000000000000000e+00 0.000000000000000e+00 0.000000000000000e+00

0.000000000000000e+00 0.000000000000000e+00 0.000000000000000e+00
0.000000000000000e+00 0.000000000000000e+00 0.000000000000000e+00
0.000000000000000e+00 0.000000000000000e+00 0.000000000000000e+00

0.000000000000000e+00 0.000000000000000e+00 0.000000000000000e+00
0.000000000000000e+00 0.000000000000000e+00 0.000000000000000e+00
0.000000000000000e+00 0.000000000000000e+00 0.000000000000000e+00

0.000000000000000e+00 0.000000000000000e+00 0.000000000000000e+00
0.000000000000000e+00 0.000000000000000e+00 0.000000000000000e+00
0.000000000000000e+00 0.000000000000000e+00 0.000000000000000e+00

0.000000000000000e+00 0.000000000000000e+00 0.000000000000000e+00
0.000000000000000e+00 0.000000000000000e+00 0.000000000000000e+00
0.000000000000000e+00 0.000000000000000e+00 0.000000000000000e+00

0.000000000000000e+00 0.000000000000000e+00 0.000000000000000e+00
0.000000000000000e+00 0.000000000000000e+00 0.000000000000000e+00
0.000000000000000e+00 0.000000000000000e+00 0.000000000000000e+00

0.000000000000000e+00 0.000000000000000e+00 0.000000000000000e+00
0.000000000000000e+00 0.000000000000000e+00 0.000000000000000e+00
0.000000000000000e+00 0.000000000000000e+00 0.000000000000000e+00

0.000000000000000e+00 0.000000000000000e+00 0.000000000000000e+00
0.000000000000000e+00 0.000000000000000e+00 0.000000000000000e+00
0.000000000000000e+00 0.000000000000000e+00 0.000000000000000e+00

0.000000000000000e+00 0.000000000000000e+00 0.000000000000000e+00
0.000000000000000e+00 0.000000000000000e+00 0.000000000000000e+00
0.000000000000000e+00 0.000000000000000e+00 0.000000000000000e+00

0.000000000000000e+00 0.000000000000000e+00 0.000000000000000e+00
0.000000000000000e+00 0.000000000000000e+00 0.000000000000000e+00
0.000000000000000e+00 0.000000000000000e+00 0.000000000000000e+00

0.000000000000000e+00 0.000000000000000e+00 0.000000000000000e+00
0.000000000000000e+00 0.000000000000000e+00 0.000000000000000e+00
0.000000000000000e+00 0.000000000000000e+00 0.000000000000000e+00

0.000000000000000e+00 0.000000000000000e+00 0.000000000000000e+00
0.000000000000000e+00 0.000000000000000e+00 0.000000000000000e+00
0.000000000000000e+00 0.000000000000000e+00 0.000000000000000e+00

0.000000000000000e+00 0.000000000000000e+00 0.000000000000000e+00
0.000000000000000e+00 0.000000000000000e+00 0.000000000000000e+00
0.000000000000000e+00 0.000000000000000e+00 0.000000000000000e+00

0.000000000000000e+00 0.000000000000000e+00 0.000000000000000e+00
0.000000000000000e+00 0.000000000000000e+00 0.000000000000000e+00
0.000000000000000e+00 0.000000000000000e+00 0.000000000000000e+00

0.000000000000000e+00 0.000000000000000e+00 0.000000000000000e+00
0.000000000000000e+00 0.000000000000000e+00 0.000000000000000e+00
0.000000000000000e+00 0.000000000000000e+00 0.000000000000000e+00

0.000000000000000e+00 0.000000000000000e+00 0.000000000000000e+00
0.000000000000000e+00 0.000000000000000e+00 0.000000000000000e+00
0.000000000000000e+00 0.000000000000000e+00 0.000000000000000e+00

0.000000000000000e+00 0.000000000000000e+00 0.000000000000000e+00
0.000000000000000e+00 0.000000000000000e+00 0.000000000000000e+00
0.000000000000000e+00 0.000000000000000e+00 0.000000000000000e+00

0.000000000000000e+00 0.000000000000000e+00 0.000000000000000e+00
0.000000000000000e+00 0.000000000000000e+00 0.000000000000000e+00
0.000000000000000e+00 0.000000000000000e+00 0.000000000000000e+00

0.000000000000000e+00 0.000000000000000e+00 0.000000000000000e+00
0.000000000000000e+00 0.000000000000000e+00 0.000000000000000e+00
0.000000000000000e+00 0.000000000000000e+00 0.000000000000000e+00

0.000000000000000e+00 0.000000000000000e+00 0.000000000000000e+00
0.000000000000000e+00 0.000000000000000e+00 0.000000000000000e+00
0.000000000000000e+00 0.000000000000000e+00 0.000000000000000e+00

0.000000000000000e+00 0.000000000000000e+00 0.000000000000000e+00
0.000000000000000e+00 0.000000000000000e+00 0.000000000000000e+00
0.000000000000000e+00 0.000000000000000e+00 0.000000000000000e+00

0.000000000000000e+00 0.000000000000000e+00 0.000000000000000e+00
0.000000000000000e+00 0.000000000000000e+00 0.000000000000000e+00
0.000000000000000e+00 0.000000000000000e+00 0.000000000000000e+00

0.000000000000000e+00 0.000000000000000e+00 0.000000000000000e+00
0.000000000000000e+00 0.000000000000000e+00 0.000000000000000e+00
0.000000000000000e+00 0.000000000000000e+00 0.000000000000000e+00

0.000000000000000e+00 0.000000000000000e+00 0.000000000000000e+00
0.000000000000000e+00 0.000000000000000e+00 0.000000000000000e+00
0.000000000000000e+00 0.000000000000000e+00 0.000000000000000e+00

0.000000000000000e+00 0.000000000000000e+00 0.000000000000000e+00
0.000000000000000e+00 0.000000000000000e+00 0.000000000000000e+00
0.000000000000000e+00 0.000000000000000e+00 0.000000000000000e+00

0.000000000000000e+00 0.000000000000000e+00 0.000000000000000e+00
0.000000000000000e+00 0.000000000000000e+00 0.000000000000000e+00
0.000000000000000e+00 0.000000000000000e+00 0.000000000000000e+00

0.000000000000000e+00 0.000000000000000e+00 0.000000000000000e+00
0.000000000000000e+00 0.000000000000000e+00 0.000000000000000e+00
0.000000000000000e+00 0.000000000000000e+00 0.000000000000000e+00

0.000000000000000e+00 0.000000000000000e+00 0.000000000000000e+00
0.000000000000000e+00 0.000000000000000e+00 0.000000000000000e+00
0.000000000000000e+00 0.000000000000000e+00 0.000000000000000e+00

0.000000000000000e+00 0.000000000000000e+00 0.000000000000000e+00
0.000000000000000e+00 0.000000000000000e+00 0.000000000000000e+00
0.000000000000000e+00 0.000000000000000e+00 0.000000000000000e+00

0.000000000000000e+00 0.000000000000000e+00 0.000000000000000e+00
0.000000000000000e+00 0.000000000000000e+00 0.000000000000000e+00
0.000000000000000e+00 0.000000000000000e+00 0.000000000000000e+00

0.000000000000000e+00 0.000000000000000e+00 0.000000000000000e+00
0.000000000000000e+00 0.000000000000000e+00 0.000000000000000e+00
0.000000000000000e+00 0.000000000000000e+00 0.000000000000000e+00

0.000000000000000e+00 0.000000000000000e+00 0.000000000000000e+00
0.000000000000000e+00 0.000000000000000e+00 0.000000000000000e+00
0.000000000000000e+00 0.000000000000000e+00 0.000000000000000e+00

0.000000000000000e+00 0.000000000000000e+00 0.000000000000000e+00
0.000000000000000e+00 0.000000000000000e+00 0.000000000000000e+00
0.000000000000000e+00 0.000000000000000e+00 0.000000000000000e+00

0.000000000000000e+00 0.000000000000000e+00 0.000000000000000e+00
0.000000000000000e+00 0.000000000000000e+00 0.000000000000000e+00
0.000000000000000e+00 0.000000000000000e+00 0.000000000000000e+00

0.000000000000000e+00 0.000000000000000e+00 0.000000000000000e+00
0.000000000000000e+00 0.000000000000000e+00 0.000000000000000e+00
0.000000000000000e+00 0.000000000000000e+00 0.000000000000000e+00

0.000000000000000e+00 0.000000000000000e+00 0.000000000000000e+00
0.000000000000000e+00 0.000000000000000e+00 0.000000000000000e+00
0.000000000000000e+00 0.000000000000000e+00 0.000000000000000e+00

0.000000000000000e+00 0.000000000000000e+00 0.000000000000000e+00
0.000000000000000e+00 0.000000000000000e+00 0.000000000000000e+00
0.000000000000000e+00 0.000000000000000e+00 0.000000000000000e+00

0.000000000000000e+00 0.000000000000000e+00 0.000000000000000e+00
0.000000000000000e+00 0.000000000000000e+00 0.000000000000000e+00
0.000000000000000e+00 0.000000000000000e+00 0.000000000000000e+00

0.000000000000000e+00 0.000000000000000e+00 0.000000000000000e+00
0.000000000000000e+00 0.000000000000000e+00 0.000000000000000e+00
0.000000000000000e+00 0.000000000000000e+00 0.000000000000000e+00

0.000000000000000e+00 0.000000000000000e+00 0.000000000000000e+00
0.000000000000000e+00 0.000000000000000e+00 0.000000000000000e+00
0.000000000000000e+00 0.000000000000000e+00 0.000000000000000e+00

0.000000000000000e+00 0.000000000000000e+00 0.000000000000000e+00
0.000000000000000e+00 0.000000000000000e+00 0.000000000000000e+00
0.000000000000000e+00 0.000000000000000e+00 0.000000000000000e+00

0.000000000000000e+00 0.000000000000000e+00 0.000000000000000e+00
0.000000000000000e+00 0.000000000000000e+00 0.000000000000000e+00
0.000000000000000e+00 0.000000000000000e+00 0.000000000000000e+00

0.000000000000000e+00 0.000000000000000e+00 0.000000000000000e+00
0.000000000000000e+00 0.000000000000000e+00 0.000000000000000e+00
0.000000000000000e+00 0.000000000000000e+00 0.000000000000000e+00

0.000000000000000e+00 0.000000000000000e+00 0.000000000000000e+00
0.000000000000000e+00 0.000000000000000e+00 0.000000000000000e+00
0.000000000000000e+00 0.000000000000000e+00 0.000000000000000e+00

0.000000000000000e+00 0.000000000000000e+00 0.000000000000000e+00
0.000000000000000e+00 0.000000000000000e+00 0.000000000000000e+00
0.000000000000000e+00 0.000000000000000e+00 0.000000000000000e+00

0.000000000000000e+00 0.000000000000000e+00 0.000000000000000e+00
0.000000000000000e+00 0.000000000000000e+00 0.000000000000000e+00
0.000000000000000e+00 0.000000000000000e+00 0.000000000000000e+00

0.000000000000000e+00 0.000000000000000e+00 0.000000000000000e+00
0.000000000000000e+00 0.000000000000000e+00 0.000000000000000e+00
0.000000000000000e+00 0.000000000000000e+00 0.000000000000000e+00

0.000000000000000e+00 0.000000000000000e+00 0.000000000000000e+00
0.000000000000000e+00 0.000000000000000e+00 0.000000000000000e+00
0.000000000000000e+00 0.000000000000000e+00 0.000000000000000e+00

0.000000000000000e+00 0.000000000000000e+00 0.000000000000000e+00
0.000000000000000e+00 0.000000000000000e+00 0.000000000000000e+00
0.000000000000000e+00 0.000000000000000e+00 0.000000000000000e+00

0.000000000000000e+00 0.000000000000000e+00 0.000000000000000e+00
0.000000000000000e+00 0.000000000000000e+00 0.000000000000000e+00
0.000000000000000e+00 0.000000000000000e+00 0.000000000000000e+00

0.000000000000000e+00 0.000000000000000e+00 0.000000000000000e+00
0.000000000000000e+00 0.000000000000000e+00 0.000000000000000e+00
0.000000000000000e+00 0.000000000000000e+00 0.000000000000000e+00

0.000000000000000e+00 0.000000000000000e+00 0.000000000000000e+00
0.000000000000000e+00 0.000000000000000e+00 0.000000000000000e+00
0.000000000000000e+00 0.000000000000000e+00 0.000000000000000e+00

0.000000000000000e+00 0.000000000000000e+00 0.000000000000000e+00
0.000000000000000e+00 0.000000000000000e+00 0.000000000000000e+00
0.000000000000000e+00 0.000000000000000e+00 0.000000000000000e+00

0.000000000000000e+00 0.000000000000000e+00 0.000000000000000e+00
0.000000000000000e+00 0.000000000000000e+00 0.000000000000000e+00
0.000000000000000e+00 0.000000000000000e+00 0.000000000000000e+00

0.000000000000000e+00 0.000000000000000e+00 0.000000000000000e+00
0.000000000000000e+00 0.000000000000000e+00 0.000000000000000e+00
0.000000000000000e+00 0.000000000000000e+00 0.000000000000000e+00

0.000000000000000e+00 0.000000000000000e+00 0.000000000000000e+00
0.000000000000000e+00 0.000000000000000e+00 0.000000000000000e+00
0.000000000000000e+00 0.000000000000000e+00 0.000000000000000e+00

0.000000000000000e+00 0.000000000000000e+00 0.000000000000000e+00
0.000000000000000e+00 0.000000000000000e+00 0.000000000000000e+00
0.000000000000000e+00 0.000000000000000e+00 0.000000000000000e+00

0.000000000000000e+00 0.000000000000000e+00 0.000000000000000e+00
0.000000000000000e+00 0.000000000000000e+00 0.000000000000000e+00
0.000000000000000e+00 0.000000000000000e+00 0.000000000000000e+00

0.000000000000000e+00 0.000000000000000e+00 0.000000000000000e+00
0.000000000000000e+00 0.000000000000000e+00 0.000000000000000e+00
0.000000000000000e+00 0.000000000000000e+00 0.000000000000000e+00

0.000000000000000e+00 0.000000000000000e+00 0.000000000000000e+00
0.000000000000000e+00 0.000000000000000e+00 0.000000000000000e+00
0.000000000000000e+00 0.000000000000000e+00 0.000000000000000e+00

0.000000000000000e+00 0.000000000000000e+00 0.000000000000000e+00
0.000000000000000e+00 0.000000000000000e+00 0.000000000000000e+00
0.000000000000000e+00 0.000000000000000e+00 0.000000000000000e+00

0.000000000000000e+00 0.000000000000000e+00 0.000000000000000e+00
0.000000000000000e+00 0.000000000000000e+00 0.000000000000000e+00
0.000000000000000e+00 0.000000000000000e+00 0.000000000000000e+00

0.000000000000000e+00 0.000000000000000e+00 0.000000000000000e+00
0.000000000000000e+00 0.000000000000000e+00 0.000000000000000e+00
0.000000000000000e+00 0.000000000000000e+00 0.000000000000000e+00

0.000000000000000e+00 0.000000000000000e+00 0.000000000000000e+00
0.000000000000000e+00 0.000000000000000e+00 0.000000000000000e+00
0.000000000000000e+00 0.000000000000000e+00 0.000000000000000e+00

0.000000000000000e+00 0.000000000000000e+00 0.000000000000000e+00
0.000000000000000e+00 0.000000000000000e+00 0.000000000000000e+00
0.000000000000000e+00 0.000000000000000e+00 0.000000000000000e+00

0.000000000000000e+00 0.000000000000000e+00 0.000000000000000e+00
0.000000000000000e+00 0.000000000000000e+00 0.000000000000000e+00
0.000000000000000e+00 0.000000000000000e+00 0.000000000000000e+00

0.000000000000000e+00 0.000000000000000e+00 0.000000000000000e+00
0.000000000000000e+00 0.000000000000000e+00 0.000000000000000e+00
0.000000000000000e+00 0.000000000000000e+00 0.000000000000000e+00

0.000000000000000e+00 0.000000000000000e+00 0.000000000000000e+00
0.000000000000000e+00 0.000000000000000e+00 0.000000000000000e+00
0.000000000000000e+00 0.000000000000000e+00 0.000000000000000e+00

0.000000000000000e+00 0.000000000000000e+00 0.000000000000000e+00
0.000000000000000e+00 0.000000000000000e+00 0.000000000000000e+00
0.000000000000000e+00 0.000000000000000e+00 0.000000000000000e+00

0.000000000000000e+00 0.000000000000000e+00 0.000000000000000e+00
0.000000000000000e+00 0.000000000000000e+00 0.000000000000000e+00
0.000000000000000e+00 0.000000000000000e+00 0.000000000000000e+00

0.000000000000000e+00 0.000000000000000e+00 0.000000000000000e+00
0.000000000000000e+00 0.000000000000000e+00 0.000000000000000e+00
0.000000000000000e+00 0.000000000000000e+00 0.000000000000000e+00

0.000000000000000e+00 0.000000000000000e+00 0.000000000000000e+00
0.000000000000000e+00 0.000000000000000e+00 0.000000000000000e+00
0.000000000000000e+00 0.000000000000000e+00 0.000000000000000e+00

0.000000000000000e+00 0.000000000000000e+00 0.000000000000000e+00
0.000000000000000e+00 0.000000000000000e+00 0.000000000000000e+00
0.000000000000000e+00 0.000000000000000e+00 0.000000000000000e+00

0.000000000000000e+00 0.000000000000000e+00 0.000000000000000e+00
0.000000000000000e+00 0.000000000000000e+00 0.000000000000000e+00
0.000000000000000e+00 0.000000000000000e+00 0.000000000000000e+00

0.000000000000000e+00 0.000000000000000e+00 0.000000000000000e+00
0.000000000000000e+00 0.000000000000000e+00 0.000000000000000e+00
0.000000000000000e+00 0.000000000000000e+00 0.000000000000000e+00

0.000000000000000e+00 0.000000000000000e+00 0.000000000000000e+00
0.000000000000000e+00 0.000000000000000e+00 0.000000000000000e+00
0.000000000000000e+00 0.000000000000000e+00 0.000000000000000e+00

0.000000000000000e+00 0.000000000000000e+00 0.000000000000000e+00
0.000000000000000e+00 0.000000000000000e+00 0.000000000000000e+00
0.000000000000000e+00 0.000000000000000e+00 0.000000000000000e+00

0.000000000000000e+00 0.000000000000000e+00 0.000000000000000e+00
0.000000000000000e+00 0.000000000000000e+00 0.000000000000000e+00
0.000000000000000e+00 0.000000000000000e+00 0.000000000000000e+00

0.000000000000000e+00 0.000000000000000e+00 0.000000000000000e+00
0.000000000000000e+00 0.000000000000000e+00 0.000000000000000e+00
0.000000000000000e+00 0.000000000000000e+00 0.000000000000000e+00

0.000000000000000e+00 0.000000000000000e+00 0.000000000000000e+00
0.000000000000000e+00 0.000000000000000e+00 0.000000000000000e+00
0.000000000000000e+00 0.000000000000000e+00 0.000000000000000e+00

0.000000000000000e+00 0.000000000000000e+00 0.000000000000000e+00
0.000000000000000e+00 0.000000000000000e+00 0.000000000000000e+00
0.000000000000000e+00 0.000000000000000e+00 0.000000000000000e+00

0.000000000000000e+00 0.000000000000000e+00 0.000000000000000e+00
0.000000000000000e+00 0.000000000000000e+00 0.000000000000000e+00
0.000000000000000e+00 0.000000000000000e+00 0.000000000000000e+00

0.000000000000000e+00 0.000000000000000e+00 0.000000000000000e+00
0.000000000000000e+00 0.000000000000000e+00 0.000000000000000e+00
0.000000000000000e+00 0.000000000000000e+00 0.000000000000000e+00

0.000000000000000e+00 0.000000000000000e+00 0.000000000000000e+00
0.000000000000000e+00 0.000000000000000e+00 0.000000000000000e+00
0.000000000000000e+00 0.000000000000000e+00 0.000000000000000e+00

0.000000000000000e+00 0.000000000000000e+00 0.000000000000000e+00
0.000000000000000e+00 0.000000000000000e+00 0.000000000000000e+00
0.000000000000000e+00 0.000000000000000e+00 0.000000000000000e+00

0.000000000000000e+00 0.000000000000000e+00 0.000000000000000e+00
0.000000000000000e+00 0.000000000000000e+00 0.000000000000000e+00
0.000000000000000e+00 0.000000000000000e+00 0.000000000000000e+00

0.000000000000000e+00 0.000000000000000e+00 0.000000000000000e+00
0.000000000000000e+00 0.000000000000000e+00 0.000000000000000e+00
0.000000000000000e+00 0.000000000000000e+00 0.000000000000000e+00

0.000000000000000e+00 0.000000000000000e+00 0.000000000000000e+00
0.000000000000000e+00 0.000000000000000e+00 0.000000000000000e+00
0.000000000000000e+00 0.000000000000000e+00 0.000000000000000e+00

0.000000000000000e+00 0.000000000000000e+00 0.000000000000000e+00
0.000000000000000e+00 0.000000000000000e+00 0.000000000000000e+00
0.000000000000000e+00 0.000000000000000e+00 0.000000000000000e+00

0.000000000000000e+00 0.000000000000000e+00 0.000000000000000e+00
0.000000000000000e+00 0.000000000000000e+00 0.000000000000000e+00
0.000000000000000e+00 0.000000000000000e+00 0.000000000000000e+00

0.000000000000000e+00 0.000000000000000e+00 0.000000000000000e+00
0.000000000000000e+00 0.000000000000000e+00 0.000000000000000e+00
0.000000000000000e+00 0.000000000000000e+00 0.000000000000000e+00

0.000000000000000e+00 0.000000000000000e+00 0.000000000000000e+00
0.000000000000000e+00 0.000000000000000e+00 0.000000000000000e+00
0.000000000000000e+00 0.000000000000000e+00 0.000000000000000e+00

0.000000000000000e+00 0.000000000000000e+00 0.000000000000000e+00
0.000000000000000e+00 0.000000000000000e+00 0.000000000000000e+00
0.000000000000000e+00 0.000000000000000e+00 0.000000000000000e+00

0.000000000000000e+00 0.000000000000000e+00 0.000000000000000e+00
0.000000000000000e+00 0.000000000000000e+00 0.000000000000000e+00
0.000000000000000e+00 0.000000000000000e+00 0.000000000000000e+00

0.000000000000000e+00 0.000000000000000e+00 0.000000000000000e+00
0.000000000000000e+00 0.000000000000000e+00 0.000000000000000e+00
0.000000000000000e+00 0.000000000000000e+00 0.000000000000000e+00

0.000000000000000e+00 0.000000000000000e+00 0.000000000000000e+00
0.000000000000000e+00 0.000000000000000e+00 0.000000000000000e+00
0.000000000000000e+00 0.000000000000000e+00 0.000000000000000e+00

0.000000000000000e+00 0.000000000000000e+00 0.000000000000000e+00
0.000000000000000e+00 0.000000000000000e+00 0.000000000000000e+00
0.000000000000000e+00 0.000000000000000e+00 0.000000000000000e+00

0.000000000000000e+00 0.000000000000000e+00 0.000000000000000e+00
0.000000000000000e+00 0.000000000000000e+00 0.000000000000000e+00
0.000000000000000e+00 0.000000000000000e+00 0.000000000000000e+00

0.000000000000000e+00 0.000000000000000e+00 0.000000000000000e+00
0.000000000000000e+00 0.000000000000000e+00 0.000000000000000e+00
0.000000000000000e+00 0.000000000000000e+00 0.000000000000000e+00

0.000000000000000e+00 0.000000000000000e+00 0.000000000000000e+00
0.000000000000000e+00 0.000000000000000e+00 0.000000000000000e+00
0.000000000000000e+00 0.000000000000000e+00 0.000000000000000e+00

0.000000000000000e+00 0.000000000000000e+00 0.000000000000000e+00
0.000000000000000e+00 0.000000000000000e+00 0.000000000000000e+00
0.000000000000000e+00 0.000000000000000e+00 0.000000000000000e+00

0.000000000000000e+00 0.000000000000000e+00 0.000000000000000e+00
0.000000000000000e+00 0.000000000000000e+00 0.000000000000000e+00
0.000000000000000e+00 0.000000000000000e+00 0.000000000000000e+00

0.000000000000000e+00 0.000000000000000e+00 0.000000000000000e+00
0.000000000000000e+00 0.000000000000000e+00 0.000000000000000e+00
0.000000000000000e+00 0.000000000000000e+00 0.000000000000000e+00

0.000000000000000e+00 0.000000000000000e+00 0.000000000000000e+00
0.000000000000000e+00 0.000000000000000e+00 0.000000000000000e+00
0.000000000000000e+00 0.000000000000000e+00 0.000000000000000e+00

0.000000000000000e+00 0.000000000000000e+00 0.000000000000000e+00
0.000000000000000e+00 0.000000000000000e+00 0.000000000000000e+00
0.000000000000000e+00 0.000000000000000e+00 0.000000000000000e+00

0.000000000000000e+00 0.000000000000000e+00 0.000000000000000e+00
0.000000000000000e+00 0.000000000000000e+00 0.000000000000000e+00
0.000000000000000e+00 0.000000000000000e+00 0.000000000000000e+00

0.000000000000000e+00 0.000000000000000e+00 0.000000000000000e+00
0.000000000000000e+00 0.000000000000000e+00 0.000000000000000e+00
0.000000000000000e+00 0.000000000000000e+00 0.000000000000000e+00

0.000000000000000e+00 0.000000000000000e+00 0.000000000000000e+00
0.000000000000000e+00 0.000000000000000e+00 0.000000000000000e+00
0.000000000000000e+00 0.000000000000000e+00 0.000000000000000e+00

0.000000000000000e+00 0.000000000000000e+00 0.000000000000000e+00
0.000000000000000e+00 0.000000000000000e+00 0.000000000000000e+00
0.000000000000000e+00 0.000000000000000e+00 0.000000000000000e+00

0.000000000000000e+00 0.000000000000000e+00 0.000000000000000e+00
0.000000000000000e+00 0.000000000000000e+00 0.000000000000000e+00
0.000000000000000e+00 0.000000000000000e+00 0.000000000000000e+00

0.000000000000000e+00 0.000000000000000e+00 0.000000000000000e+00
0.000000000000000e+00 0.000000000000000e+00 0.000000000000000e+00
0.000000000000000e+00 0.000000000000000e+00 0.000000000000000e+00

0.000000000000000e+00 0.000000000000000e+00 0.000000000000000e+00
0.000000000000000e+00 0.000000000000000e+00 0.000000000000000e+00
0.000000000000000e+00 0.000000000000000e+00 0.000000000000000e+00

0.000000000000000e+00 0.000000000000000e+00 0.000000000000000e+00
0.000000000000000e+00 0.000000000000000e+00 0.000000000000000e+00
0.000000000000000e+00 0.000000000000000e+00 0.000000000000000e+00

0.000000000000000e+00 0.000000000000000e+00 0.000000000000000e+00
0.000000000000000e+00 0.000000000000000e+00 0.000000000000000e+00
0.000000000000000e+00 0.000000000000000e+00 0.000000000000000e+00

0.000000000000000e+00 0.000000000000000e+00 0.000000000000000e+00
0.000000000000000e+00 0.000000000000000e+00 0.000000000000000e+00
0.000000000000000e+00 0.000000000000000e+00 0.000000000000000e+00

0.000000000000000e+00 0.000000000000000e+00 0.000000000000000e+00
0.000000000000000e+00 0.000000000000000e+00 0.000000000000000e+00
0.000000000000000e+00 0.000000000000000e+00 0.000000000000000e+00

0.000000000000000e+00 0.000000000000000e+00 0.000000000000000e+00
0.000000000000000e+00 0.000000000000000e+00 0.000000000000000e+00
0.000000000000000e+00 0.000000000000000e+00 0.000000000000000e+00

0.000000000000000e+00 0.000000000000000e+00 0.000000000000000e+00
0.000000000000000e+00 0.000000000000000e+00 0.000000000000000e+00
0.000000000000000e+00 0.000000000000000e+00 0.000000000000000e+00

0.000000000000000e+00 0.000000000000000e+00 0.000000000000000e+00
0.000000000000000e+00 0.000000000000000e+00 0.000000000000000e+00
0.000000000000000e+00 0.000000000000000e+00 0.000000000000000e+00

0.000000000000000e+00 0.000000000000000e+00 0.000000000000000e+00
0.000000000000000e+00 0.000000000000000e+00 0.000000000000000e+00
0.000000000000000e+00 0.000000000000000e+00 0.000000000000000e+00

0.000000000000000e+00 0.000000000000000e+00 0.000000000000000e+00
0.000000000000000e+00 0.000000000000000e+00 0.000000000000000e+00
0.000000000000000e+00 0.000000000000000e+00 0.000000000000000e+00

0.000000000000000e+00 0.000000000000000e+00 0.000000000000000e+00
0.000000000000000e+00 0.000000000000000e+00 0.000000000000000e+00
0.000000000000000e+00 0.000000000000000e+00 0.000000000000000e+00

0.000000000000000e+00 0.000000000000000e+00 0.000000000000000e+00
0.000000000000000e+00 0.000000000000000e+00 0.000000000000000e+00
0.000000000000000e+00 0.000000000000000e+00 0.000000000000000e+00

0.000000000000000e+00 0.000000000000000e+00 0.000000000000000e+00
0.000000000000000e+00 0.000000000000000e+00 0.000000000000000e+00
0.000000000000000e+00 0.000000000000000e+00 0.000000000000000e+00

0.000000000000000e+00 0.000000000000000e+00 0.000000000000000e+00
0.000000000000000e+00 0.000000000000000e+00 0.000000000000000e+00
0.000000000000000e+00 0.000000000000000e+00 0.000000000000000e+00

0.000000000000000e+00 0.000000000000000e+00 0.000000000000000e+00
0.000000000000000e+00 0.000000000000000e+00 0.000000000000000e+00
0.000000000000000e+00 0.000000000000000e+00 0.000000000000000e+00

0.000000000000000e+00 0.000000000000000e+00 0.000000000000000e+00
0.000000000000000e+00 0.000000000000000e+00 0.000000000000000e+00
0.000000000000000e+00 0.000000000000000e+00 0.000000000000000e+00

0.000000000000000e+00 0.000000000000000e+00 0.000000000000000e+00
0.000000000000000e+00 0.000000000000000e+00 0.000000000000000e+00
0.000000000000000e+00 0.000000000000000e+00 0.000000000000000e+00

0.000000000000000e+00 0.000000000000000e+00 0.000000000000000e+00
0.000000000000000e+00 0.000000000000000e+00 0.000000000000000e+00
0.000000000000000e+00 0.000000000000000e+00 0.000000000000000e+00

0.000000000000000e+00 0.000000000000000e+00 0.000000000000000e+00
0.000000000000000e+00 0.000000000000000e+00 0.000000000000000e+00
0.000000000000000e+00 0.000000000000000e+00 0.000000000000000e+00

0.000000000000000e+00 0.000000000000000e+00 0.000000000000000e+00
0.000000000000000e+00 0.000000000000000e+00 0.000000000000000e+00
0.000000000000000e+00 0.000000000000000e+00 0.000000000000000e+00

0.000000000000000e+00 0.000000000000000e+00 0.000000000000000e+00
0.000000000000000e+00 0.000000000000000e+00 0.000000000000000e+00
0.000000000000000e+00 0.000000000000000e+00 0.000000000000000e+00

0.000000000000000e+00 0.000000000000000e+00 0.000000000000000e+00
0.000000000000000e+00 0.000000000000000e+00 0.000000000000000e+00
0.000000000000000e+00 0.000000000000000e+00 0.000000000000000e+00

0.000000000000000e+00 0.000000000000000e+00 0.000000000000000e+00
0.000000000000000e+00 0.000000000000000e+00 0.000000000000000e+00
0.000000000000000e+00 0.000000000000000e+00 0.000000000000000e+00

0.000000000000000e+00 0.000000000000000e+00 0.000000000000000e+00
0.000000000000000e+00 0.000000000000000e+00 0.000000000000000e+00
0.000000000000000e+00 0.000000000000000e+00 0.000000000000000e+00

0.000000000000000e+00 0.000000000000000e+00 0.000000000000000e+00
0.000000000000000e+00 0.000000000000000e+00 0.000000000000000e+00
0.000000000000000e+00 0.000000000000000e+00 0.000000000000000e+00

0.000000000000000e+00 0.000000000000000e+00 0.000000000000000e+00
0.000000000000000e+00 0.000000000000000e+00 0.000000000000000e+00
0.000000000000000e+00 0.000000000000000e+00 0.000000000000000e+00

0.000000000000000e+00 0.000000000000000e+00 0.000000000000000e+00
0.000000000000000e+00 0.000000000000000e+00 0.000000000000000e+00
0.000000000000000e+00 0.000000000000000e+00 0.000000000000000e+00

0.000000000000000e+00 0.000000000000000e+00 0.000000000000000e+00
0.000000000000000e+00 0.000000000000000e+00 0.000000000000000e+00
0.000000000000000e+00 0.000000000000000e+00 0.000000000000000e+00

0.000000000000000e+00 0.000000000000000e+00 0.000000000000000e+00
0.000000000000000e+00 0.000000000000000e+00 0.000000000000000e+00
0.000000000000000e+00 0.000000000000000e+00 0.000000000000000e+00

0.000000000000000e+00 0.000000000000000e+00 0.000000000000000e+00
0.000000000000000e+00 0.000000000000000e+00 0.000000000000000e+00
0.000000000000000e+00 0.000000000000000e+00 0.000000000000000e+00

0.000000000000000e+00 0.000000000000000e+00 0.000000000000000e+00
0.000000000000000e+00 0.000000000000000e+00 0.000000000000000e+00
0.000000000000000e+00 0.000000000000000e+00 0.000000000000000e+00

0.000000000000000e+00 0.000000000000000e+00 0.000000000000000e+00
0.000000000000000e+00 0.000000000000000e+00 0.000000000000000e+00
0.000000000000000e+00 0.000000000000000e+00 0.000000000000000e+00

0.000000000000000e+00 0.000000000000000e+00 0.000000000000000e+00
0.000000000000000e+00 0.000000000000000e+00 0.000000000000000e+00
0.000000000000000e+00 0.000000000000000e+00 0.000000000000000e+00

0.000000000000000e+00 0.000000000000000e+00 0.000000000000000e+00
0.000000000000000e+00 0.000000000000000e+00 0.000000000000000e+00
0.000000000000000e+00 0.000000000000000e+00 0.000000000000000e+00

0.000000000000000e+00 0.000000000000000e+00 0.000000000000000e+00
0.000000000000000e+00 0.000000000000000e+00 0.000000000000000e+00
0.000000000000000e+00 0.000000000000000e+00 0.000000000000000e+00

0.000000000000000e+00 0.000000000000000e+00 0.000000000000000e+00
0.000000000000000e+00 0.000000000000000e+00 0.000000000000000e+00
0.000000000000000e+00 0.000000000000000e+00 0.000000000000000e+00

0.000000000000000e+00 0.000000000000000e+00 0.000000000000000e+00
0.000000000000000e+00 0.000000000000000e+00 0.000000000000000e+00
0.000000000000000e+00 0.000000000000000e+00 0.000000000000000e+00

0.000000000000000e+00 0.000000000000000e+00 0.000000000000000e+00
0.000000000000000e+00 0.000000000000000e+00 0.000000000000000e+00
0.000000000000000e+00 0.000000000000000e+00 0.000000000000000e+00

0.000000000000000e+00 0.000000000000000e+00 0.000000000000000e+00
0.000000000000000e+00 0.000000000000000e+00 0.000000000000000e+00
0.000000000000000e+00 0.000000000000000e+00 0.000000000000000e+00

0.000000000000000e+00 0.000000000000000e+00 0.000000000000000e+00
0.000000000000000e+00 0.000000000000000e+00 0.000000000000000e+00
0.000000000000000e+00 0.000000000000000e+00 0.000000000000000e+00

0.000000000000000e+00 0.000000000000000e+00 0.000000000000000e+00
0.000000000000000e+00 0.000000000000000e+00 0.000000000000000e+00
0.000000000000000e+00 0.000000000000000e+00 0.000000000000000e+00

0.000000000000000e+00 0.000000000000000e+00 0.000000000000000e+00
0.000000000000000e+00 0.000000000000000e+00 0.000000000000000e+00
0.000000000000000e+00 0.000000000000000e+00 0.000000000000000e+00

0.000000000000000e+00 0.000000000000000e+00 0.000000000000000e+00
0.000000000000000e+00 0.000000000000000e+00 0.000000000000000e+00
0.000000000000000e+00 0.000000000000000e+00 0.000000000000000e+00

0.000000000000000e+00 0.000000000000000e+00 0.000000000000000e+00
0.000000000000000e+00 0.000000000000000e+00 0.000000000000000e+00
0.000000000000000e+00 0.000000000000000e+00 0.000000000000000e+00

0.000000000000000e+00 0.000000000000000e+00 0.000000000000000e+00
0.000000000000000e+00 0.000000000000000e+00 0.000000000000000e+00
0.000000000000000e+00 0.000000000000000e+00 0.000000000000000e+00

0.000000000000000e+00 0.000000000000000e+00 0.000000000000000e+00
0.000000000000000e+00 0.000000000000000e+00 0.000000000000000e+00
0.000000000000000e+00 0.000000000000000e+00 0.000000000000000e+00

0.000000000000000e+00 0.000000000000000e+00 0.000000000000000e+00
0.000000000000000e+00 0.000000000000000e+00 0.000000000000000e+00
0.000000000000000e+00 0.000000000000000e+00 0.000000000000000e+00

0.000000000000000e+00 0.000000000000000e+00 0.000000000000000e+00
0.000000000000000e+00 0.000000000000000e+00 0.000000000000000e+00
0.000000000000000e+00 0.000000000000000e+00 0.000000000000000e+00

0.000000000000000e+00 0.000000000000000e+00 0.000000000000000e+00
0.000000000000000e+00 0.000000000000000e+00 0.000000000000000e+00
0.000000000000000e+00 0.000000000000000e+00 0.000000000000000e+00

0.000000000000000e+00 0.000000000000000e+00 0.000000000000000e+00
0.000000000000000e+00 0.000000000000000e+00 0.000000000000000e+00
0.000000000000000e+00 0.000000000000000e+00 0.000000000000000e+00

0.000000000000000e+00 0.000000000000000e+00 0.000000000000000e+00
0.000000000000000e+00 0.000000000000000e+00 0.000000000000000e+00
0.000000000000000e+00 0.000000000000000e+00 0.000000000000000e+00

0.000000000000000e+00 0.000000000000000e+00 0.000000000000000e+00
0.000000000000000e+00 0.000000000000000e+00 0.000000000000000e+00
0.000000000000000e+00 0.000000000000000e+00 0.000000000000000e+00

0.000000000000000e+00 0.000000000000000e+00 0.000000000000000e+00
0.000000000000000e+00 0.000000000000000e+00 0.000000000000000e+00
0.000000000000000e+00 0.000000000000000e+00 0.000000000000000e+00

0.000000000000000e+00 0.000000000000000e+00 0.000000000000000e+00
0.000000000000000e+00 0.000000000000000e+00 0.000000000000000e+00
0.000000000000000e+00 0.000000000000000e+00 0.000000000000000e+00

0.000000000000000e+00 0.000000000000000e+00 0.000000000000000e+00
0.000000000000000e+00 0.000000000000000e+00 0.000000000000000e+00
0.000000000000000e+00 0.000000000000000e+00 0.000000000000000e+00

0.000000000000000e+00 0.000000000000000e+00 0.000000000000000e+00
0.000000000000000e+00 0.000000000000000e+00 0.000000000000000e+00
0.000000000000000e+00 0.000000000000000e+00 0.000000000000000e+00

0.000000000000000e+00 0.000000000000000e+00 0.000000000000000e+00
0.000000000000000e+00 0.000000000000000e+00 0.000000000000000e+00
0.000000000000000e+00 0.000000000000000e+00 0.000000000000000e+00

0.000000000000000e+00 0.000000000000000e+00 0.000000000000000e+00
0.000000000000000e+00 0.000000000000000e+00 0.000000000000000e+00
0.000000000000000e+00 0.000000000000000e+00 0.000000000000000e+00

0.000000000000000e+00 0.000000000000000e+00 0.000000000000000e+00
0.000000000000000e+00 0.000000000000000e+00 0.000000000000000e+00
0.000000000000000e+00 0.000000000000000e+00 0.000000000000000e+00

0.000000000000000e+00 0.000000000000000e+00 0.000000000000000e+00
0.000000000000000e+00 0.000000000000000e+00 0.000000000000000e+00
0.000000000000000e+00 0.000000000000000e+00 0.000000000000000e+00

0.000000000000000e+00 0.000000000000000e+00 0.000000000000000e+00
0.000000000000000e+00 0.000000000000000e+00 0.000000000000000e+00
0.000000000000000e+00 0.000000000000000e+00 0.000000000000000e+00

0.000000000000000e+00 0.000000000000000e+00 0.000000000000000e+00
0.000000000000000e+00 0.000000000000000e+00 0.000000000000000e+00
0.000000000000000e+00 0.000000000000000e+00 0.000000000000000e+00

0.000000000000000e+00 0.000000000000000e+00 0.000000000000000e+00
0.000000000000000e+00 0.000000000000000e+00 0.000000000000000e+00
0.000000000000000e+00 0.000000000000000e+00 0.000000000000000e+00

0.000000000000000e+00 0.000000000000000e+00 0.000000000000000e+00
0.000000000000000e+00 0.000000000000000e+00 0.000000000000000e+00
0.000000000000000e+00 0.000000000000000e+00 0.000000000000000e+00

0.000000000000000e+00 0.000000000000000e+00 0.000000000000000e+00
0.000000000000000e+00 0.000000000000000e+00 0.000000000000000e+00
0.000000000000000e+00 0.000000000000000e+00 0.000000000000000e+00

0.000000000000000e+00 0.000000000000000e+00 0.000000000000000e+00
0.000000000000000e+00 0.000000000000000e+00 0.000000000000000e+00
0.000000000000000e+00 0.000000000000000e+00 0.000000000000000e+00

0.000000000000000e+00 0.000000000000000e+00 0.000000000000000e+00
0.000000000000000e+00 0.000000000000000e+00 0.000000000000000e+00
0.000000000000000e+00 0.000000000000000e+00 0.000000000000000e+00

0.000000000000000e+00 0.000000000000000e+00 0.000000000000000e+00
0.000000000000000e+00 0.000000000000000e+00 0.000000000000000e+00
0.000000000000000e+00 0.000000000000000e+00 0.000000000000000e+00

0.000000000000000e+00 0.000000000000000e+00 0.000000000000000e+00
0.000000000000000e+00 0.000000000000000e+00 0.000000000000000e+00
0.000000000000000e+00 0.000000000000000e+00 0.000000000000000e+00

0.000000000000000e+00 0.000000000000000e+00 0.000000000000000e+00
0.000000000000000e+00 0.000000000000000e+00 0.000000000000000e+00
0.000000000000000e+00 0.000000000000000e+00 0.000000000000000e+00

0.000000000000000e+00 0.000000000000000e+00 0.000000000000000e+00
0.000000000000000e+00 0.000000000000000e+00 0.000000000000000e+00
0.000000000000000e+00 0.000000000000000e+00 0.000000000000000e+00

0.000000000000000e+00 0.000000000000000e+00 0.000000000000000e+00
0.000000000000000e+00 0.000000000000000e+00 0.000000000000000e+00
0.000000000000000e+00 0.000000000000000e+00 0.000000000000000e+00

0.000000000000000e+00 0.000000000000000e+00 0.000000000000000e+00
0.000000000000000e+00 0.000000000000000e+00 0.000000000000000e+00
0.000000000000000e+00 0.000000000000000e+00 0.000000000000000e+00

0.000000000000000e+00 0.000000000000000e+00 0.000000000000000e+00
0.000000000000000e+00 0.000000000000000e+00 0.000000000000000e+00
0.000000000000000e+00 0.000000000000000e+00 0.000000000000000e+00

0.000000000000000e+00 0.000000000000000e+00 0.000000000000000e+00
0.000000000000000e+00 0.000000000000000e+00 0.000000000000000e+00
0.000000000000000e+00 0.000000000000000e+00 0.000000000000000e+00

0.000000000000000e+00 0.000000000000000e+00 0.000000000000000e+00
0.000000000000000e+00 0.000000000000000e+00 0.000000000000000e+00
0.000000000000000e+00 0.000000000000000e+00 0.000000000000000e+00

0.000000000000000e+00 0.000000000000000e+00 0.000000000000000e+00
0.000000000000000e+00 0.000000000000000e+00 0.000000000000000e+00
0.000000000000000e+00 0.000000000000000e+00 0.000000000000000e+00

0.000000000000000e+00 0.000000000000000e+00 0.000000000000000e+00
0.000000000000000e+00 0.000000000000000e+00 0.000000000000000e+00
0.000000000000000e+00 0.000000000000000e+00 0.000000000000000e+00

0.000000000000000e+00 0.000000000000000e+00 0.000000000000000e+00
0.000000000000000e+00 0.000000000000000e+00 0.000000000000000e+00
0.000000000000000e+00 0.000000000000000e+00 0.000000000000000e+00

0.000000000000000e+00 0.000000000000000e+00 0.000000000000000e+00
0.000000000000000e+00 0.000000000000000e+00 0.000000000000000e+00
0.000000000000000e+00 0.000000000000000e+00 0.000000000000000e+00

0.000000000000000e+00 0.000000000000000e+00 0.000000000000000e+00
0.000000000000000e+00 0.000000000000000e+00 0.000000000000000e+00
0.000000000000000e+00 0.000000000000000e+00 0.000000000000000e+00

0.000000000000000e+00 0.000000000000000e+00 0.000000000000000e+00
0.000000000000000e+00 0.000000000000000e+00 0.000000000000000e+00
0.000000000000000e+00 0.000000000000000e+00 0.000000000000000e+00

0.000000000000000e+00 0.000000000000000e+00 0.000000000000000e+00
0.000000000000000e+00 0.000000000000000e+00 0.000000000000000e+00
0.000000000000000e+00 0.000000000000000e+00 0.000000000000000e+00

0.000000000000000e+00 0.000000000000000e+00 0.000000000000000e+00
0.000000000000000e+00 0.000000000000000e+00 0.000000000000000e+00
0.000000000000000e+00 0.000000000000000e+00 0.000000000000000e+00

0.000000000000000e+00 0.000000000000000e+00 0.000000000000000e+00
0.000000000000000e+00 0.000000000000000e+00 0.000000000000000e+00
0.000000000000000e+00 0.000000000000000e+00 0.000000000000000e+00

0.000000000000000e+00 0.000000000000000e+00 0.000000000000000e+00
0.000000000000000e+00 0.000000000000000e+00 0.000000000000000e+00
0.000000000000000e+00 0.000000000000000e+00 0.000000000000000e+00

0.000000000000000e+00 0.000000000000000e+00 0.000000000000000e+00
0.000000000000000e+00 0.000000000000000e+00 0.000000000000000e+00
0.000000000000000e+00 0.000000000000000e+00 0.000000000000000e+00

0.000000000000000e+00 0.000000000000000e+00 0.000000000000000e+00
0.000000000000000e+00 0.000000000000000e+00 0.000000000000000e+00
0.000000000000000e+00 0.000000000000000e+00 0.000000000000000e+00

0.000000000000000e+00 0.000000000000000e+00 0.000000000000000e+00
0.000000000000000e+00 0.000000000000000e+00 0.000000000000000e+00
0.000000000000000e+00 0.000000000000000e+00 0.000000000000000e+00

0.000000000000000e+00 0.000000000000000e+00 0.000000000000000e+00
0.000000000000000e+00 0.000000000000000e+00 0.000000000000000e+00
0.000000000000000e+00 0.000000000000000e+00 0.000000000000000e+00

0.000000000000000e+00 0.000000000000000e+00 0.000000000000000e+00
0.000000000000000e+00 0.000000000000000e+00 0.000000000000000e+00
0.000000000000000e+00 0.000000000000000e+00 0.000000000000000e+00

0.000000000000000e+00 0.000000000000000e+00 0.000000000000000e+00
0.000000000000000e+00 0.000000000000000e+00 0.000000000000000e+00
0.000000000000000e+00 0.000000000000000e+00 0.000000000000000e+00

0.000000000000000e+00 0.000000000000000e+00 0.000000000000000e+00
0.000000000000000e+00 0.000000000000000e+00 0.000000000000000e+00
0.000000000000000e+00 0.000000000000000e+00 0.000000000000000e+00

0.000000000000000e+00 0.000000000000000e+00 0.000000000000000e+00
0.000000000000000e+00 0.000000000000000e+00 0.000000000000000e+00
0.000000000000000e+00 0.000000000000000e+00 0.000000000000000e+00

0.000000000000000e+00 0.000000000000000e+00 0.000000000000000e+00
0.000000000000000e+00 0.000000000000000e+00 0.000000000000000e+00
0.000000000000000e+00 0.000000000000000e+00 0.000000000000000e+00

0.000000000000000e+00 0.000000000000000e+00 0.000000000000000e+00
0.000000000000000e+00 0.000000000000000e+00 0.000000000000000e+00
0.000000000000000e+00 0.000000000000000e+00 0.000000000000000e+00

0.000000000000000e+00 0.000000000000000e+00 0.000000000000000e+00
0.000000000000000e+00 0.000000000000000e+00 0.000000000000000e+00
0.000000000000000e+00 0.000000000000000e+00 0.000000000000000e+00

0.000000000000000e+00 0.000000000000000e+00 0.000000000000000e+00
0.000000000000000e+00 0.000000000000000e+00 0.000000000000000e+00
0.000000000000000e+00 0.000000000000000e+00 0.000000000000000e+00

0.000000000000000e+00 0.000000000000000e+00 0.000000000000000e+00
0.000000000000000e+00 0.000000000000000e+00 0.000000000000000e+00
0.000000000000000e+00 0.000000000000000e+00 0.000000000000000e+00

0.000000000000000e+00 0.000000000000000e+00 0.000000000000000e+00
0.000000000000000e+00 0.000000000000000e+00 0.000000000000000e+00
0.000000000000000e+00 0.000000000000000e+00 0.000000000000000e+00

0.000000000000000e+00 0.000000000000000e+00 0.000000000000000e+00
0.000000000000000e+00 0.000000000000000e+00 0.000000000000000e+00
0.000000000000000e+00 0.000000000000000e+00 0.000000000000000e+00

0.000000000000000e+00 0.000000000000000e+00 0.000000000000000e+00
0.000000000000000e+00 0.000000000000000e+00 0.000000000000000e+00
0.000000000000000e+00 0.000000000000000e+00 0.000000000000000e+00

0.000000000000000e+00 0.000000000000000e+00 0.000000000000000e+00
0.000000000000000e+00 0.000000000000000e+00 0.000000000000000e+00
0.000000000000000e+00 0.000000000000000e+00 0.000000000000000e+00

0.000000000000000e+00 0.000000000000000e+00 0.000000000000000e+00
0.000000000000000e+00 0.000000000000000e+00 0.000000000000000e+00
0.000000000000000e+00 0.000000000000000e+00 0.000000000000000e+00

0.000000000000000e+00 0.000000000000000e+00 0.000000000000000e+00
0.000000000000000e+00 0.000000000000000e+00 0.000000000000000e+00
0.000000000000000e+00 0.000000000000000e+00 0.000000000000000e+00

0.000000000000000e+00 0.000000000000000e+00 0.000000000000000e+00
0.000000000000000e+00 0.000000000000000e+00 0.000000000000000e+00
0.000000000000000e+00 0.000000000000000e+00 0.000000000000000e+00

0.000000000000000e+00 0.000000000000000e+00 0.000000000000000e+00
0.000000000000000e+00 0.000000000000000e+00 0.000000000000000e+00
0.000000000000000e+00 0.000000000000000e+00 0.000000000000000e+00

0.000000000000000e+00 0.000000000000000e+00 0.000000000000000e+00
0.000000000000000e+00 0.000000000000000e+00 0.000000000000000e+00
0.000000000000000e+00 0.000000000000000e+00 0.000000000000000e+00

0.000000000000000e+00 0.000000000000000e+00 0.000000000000000e+00
0.000000000000000e+00 0.000000000000000e+00 0.000000000000000e+00
0.000000000000000e+00 0.000000000000000e+00 0.000000000000000e+00

0.000000000000000e+00 0.000000000000000e+00 0.000000000000000e+00
0.000000000000000e+00 0.000000000000000e+00 0.000000000000000e+00
0.000000000000000e+00 0.000000000000000e+00 0.000000000000000e+00

0.000000000000000e+00 0.000000000000000e+00 0.000000000000000e+00
0.000000000000000e+00 0.000000000000000e+00 0.000000000000000e+00
0.000000000000000e+00 0.000000000000000e+00 0.000000000000000e+00

0.000000000000000e+00 0.000000000000000e+00 0.000000000000000e+00
0.000000000000000e+00 0.000000000000000e+00 0.000000000000000e+00
0.000000000000000e+00 0.000000000000000e+00 0.000000000000000e+00

0.000000000000000e+00 0.000000000000000e+00 0.000000000000000e+00
0.000000000000000e+00 0.000000000000000e+00 0.000000000000000e+00
0.000000000000000e+00 0.000000000000000e+00 0.000000000000000e+00

0.000000000000000e+00 0.000000000000000e+00 0.000000000000000e+00
0.000000000000000e+00 0.000000000000000e+00 0.000000000000000e+00
0.000000000000000e+00 0.000000000000000e+00 0.000000000000000e+00

0.000000000000000e+00 0.000000000000000e+00 0.000000000000000e+00
0.000000000000000e+00 0.000000000000000e+00 0.000000000000000e+00
0.000000000000000e+00 0.000000000000000e+00 0.000000000000000e+00

0.000000000000000e+00 0.000000000000000e+00 0.000000000000000e+00
0.000000000000000e+00 0.000000000000000e+00 0.000000000000000e+00
0.000000000000000e+00 0.000000000000000e+00 0.000000000000000e+00

0.000000000000000e+00 0.000000000000000e+00 0.000000000000000e+00
0.000000000000000e+00 0.000000000000000e+00 0.000000000000000e+00
0.000000000000000e+00 0.000000000000000e+00 0.000000000000000e+00

0.000000000000000e+00 0.000000000000000e+00 0.000000000000000e+00
0.000000000000000e+00 0.000000000000000e+00 0.000000000000000e+00
0.000000000000000e+00 0.000000000000000e+00 0.000000000000000e+00

0.000000000000000e+00 0.000000000000000e+00 0.000000000000000e+00
0.000000000000000e+00 0.000000000000000e+00 0.000000000000000e+00
0.000000000000000e+00 0.000000000000000e+00 0.000000000000000e+00

0.000000000000000e+00 0.000000000000000e+00 0.000000000000000e+00
0.000000000000000e+00 0.000000000000000e+00 0.000000000000000e+00
0.000000000000000e+00 0.000000000000000e+00 0.000000000000000e+00

0.000000000000000e+00 0.000000000000000e+00 0.000000000000000e+00
0.000000000000000e+00 0.000000000000000e+00 0.000000000000000e+00
0.000000000000000e+00 0.000000000000000e+00 0.000000000000000e+00

0.000000000000000e+00 0.000000000000000e+00 0.000000000000000e+00
0.000000000000000e+00 0.000000000000000e+00 0.000000000000000e+00
0.000000000000000e+00 0.000000000000000e+00 0.000000000000000e+00

0.000000000000000e+00 0.000000000000000e+00 0.000000000000000e+00
0.000000000000000e+00 0.000000000000000e+00 0.000000000000000e+00
0.000000000000000e+00 0.000000000000000e+00 0.000000000000000e+00

0.000000000000000e+00 0.000000000000000e+00 0.000000000000000e+00
0.000000000000000e+00 0.000000000000000e+00 0.000000000000000e+00
0.000000000000000e+00 0.000000000000000e+00 0.000000000000000e+00

0.000000000000000e+00 0.000000000000000e+00 0.000000000000000e+00
0.000000000000000e+00 0.000000000000000e+00 0.000000000000000e+00
0.000000000000000e+00 0.000000000000000e+00 0.000000000000000e+00

0.000000000000000e+00 0.000000000000000e+00 0.000000000000000e+00
0.000000000000000e+00 0.000000000000000e+00 0.000000000000000e+00
0.000000000000000e+00 0.000000000000000e+00 0.000000000000000e+00

0.000000000000000e+00 0.000000000000000e+00 0.000000000000000e+00
0.000000000000000e+00 0.000000000000000e+00 0.000000000000000e+00
0.000000000000000e+00 0.000000000000000e+00 0.000000000000000e+00

0.000000000000000e+00 0.000000000000000e+00 0.000000000000000e+00
0.000000000000000e+00 0.000000000000000e+00 0.000000000000000e+00
0.000000000000000e+00 0.000000000000000e+00 0.000000000000000e+00

0.000000000000000e+00 0.000000000000000e+00 0.000000000000000e+00
0.000000000000000e+00 0.000000000000000e+00 0.000000000000000e+00
0.000000000000000e+00 0.000000000000000e+00 0.000000000000000e+00

0.000000000000000e+00 0.000000000000000e+00 0.000000000000000e+00
0.000000000000000e+00 0.000000000000000e+00 0.000000000000000e+00
0.000000000000000e+00 0.000000000000000e+00 0.000000000000000e+00

0.000000000000000e+00 0.000000000000000e+00 0.000000000000000e+00
0.000000000000000e+00 0.000000000000000e+00 0.000000000000000e+00
0.000000000000000e+00 0.000000000000000e+00 0.000000000000000e+00

0.000000000000000e+00 0.000000000000000e+00 0.000000000000000e+00
0.000000000000000e+00 0.000000000000000e+00 0.000000000000000e+00
0.000000000000000e+00 0.000000000000000e+00 0.000000000000000e+00

0.000000000000000e+00 0.000000000000000e+00 0.000000000000000e+00
0.000000000000000e+00 0.000000000000000e+00 0.000000000000000e+00
0.000000000000000e+00 0.000000000000000e+00 0.000000000000000e+00

0.000000000000000e+00 0.000000000000000e+00 0.000000000000000e+00
0.000000000000000e+00 0.000000000000000e+00 0.000000000000000e+00
0.000000000000000e+00 0.000000000000000e+00 0.000000000000000e+00

0.000000000000000e+00 0.000000000000000e+00 0.000000000000000e+00
0.000000000000000e+00 0.000000000000000e+00 0.000000000000000e+00
0.000000000000000e+00 0.000000000000000e+00 0.000000000000000e+00

0.000000000000000e+00 0.000000000000000e+00 0.000000000000000e+00
0.000000000000000e+00 0.000000000000000e+00 0.000000000000000e+00
0.000000000000000e+00 0.000000000000000e+00 0.000000000000000e+00

0.000000000000000e+00 0.000000000000000e+00 0.000000000000000e+00
0.000000000000000e+00 0.000000000000000e+00 0.000000000000000e+00
0.000000000000000e+00 0.000000000000000e+00 0.000000000000000e+00

0.000000000000000e+00 0.000000000000000e+00 0.000000000000000e+00
0.000000000000000e+00 0.000000000000000e+00 0.000000000000000e+00
0.000000000000000e+00 0.000000000000000e+00 0.000000000000000e+00

0.000000000000000e+00 0.000000000000000e+00 0.000000000000000e+00
0.000000000000000e+00 0.000000000000000e+00 0.000000000000000e+00
0.000000000000000e+00 0.000000000000000e+00 0.000000000000000e+00

0.000000000000000e+00 0.000000000000000e+00 0.000000000000000e+00
0.000000000000000e+00 0.000000000000000e+00 0.000000000000000e+00
0.000000000000000e+00 0.000000000000000e+00 0.000000000000000e+00

0.000000000000000e+00 0.000000000000000e+00 0.000000000000000e+00
0.000000000000000e+00 0.000000000000000e+00 0.000000000000000e+00
0.000000000000000e+00 0.000000000000000e+00 0.000000000000000e+00

0.000000000000000e+00 0.000000000000000e+00 0.000000000000000e+00
0.000000000000000e+00 0.000000000000000e+00 0.000000000000000e+00
0.000000000000000e+00 0.000000000000000e+00 0.000000000000000e+00

0.000000000000000e+00 0.000000000000000e+00 0.000000000000000e+00
0.000000000000000e+00 0.000000000000000e+00 0.000000000000000e+00
0.000000000000000e+00 0.000000000000000e+00 0.000000000000000e+00

0.000000000000000e+00 0.000000000000000e+00 0.000000000000000e+00
0.000000000000000e+00 0.000000000000000e+00 0.000000000000000e+00
0.000000000000000e+00 0.000000000000000e+00 0.000000000000000e+00

0.000000000000000e+00 0.000000000000000e+00 0.000000000000000e+00
0.000000000000000e+00 0.000000000000000e+00 0.000000000000000e+00
0.000000000000000e+00 0.000000000000000e+00 0.000000000000000e+00

0.000000000000000e+00 0.000000000000000e+00 0.000000000000000e+00
0.000000000000000e+00 0.000000000000000e+00 0.000000000000000e+00
0.000000000000000e+00 0.000000000000000e+00 0.000000000000000e+00

0.000000000000000e+00 0.000000000000000e+00 0.000000000000000e+00
0.000000000000000e+00 0.000000000000000e+00 0.000000000000000e+00
0.000000000000000e+00 0.000000000000000e+00 0.000000000000000e+00

0.000000000000000e+00 0.000000000000000e+00 0.000000000000000e+00
0.000000000000000e+00 0.000000000000000e+00 0.000000000000000e+00
0.000000000000000e+00 0.000000000000000e+00 0.000000000000000e+00

0.000000000000000e+00 0.000000000000000e+00 0.000000000000000e+00
0.000000000000000e+00 0.000000000000000e+00 0.000000000000000e+00
0.000000000000000e+00 0.000000000000000e+00 0.000000000000000e+00

0.000000000000000e+00 0.000000000000000e+00 0.000000000000000e+00
0.000000000000000e+00 0.000000000000000e+00 0.000000000000000e+00
0.000000000000000e+00 0.000000000000000e+00 0.000000000000000e+00

0.000000000000000e+00 0.000000000000000e+00 0.000000000000000e+00
0.000000000000000e+00 0.000000000000000e+00 0.000000000000000e+00
0.000000000000000e+00 0.000000000000000e+00 0.000000000000000e+00

0.000000000000000e+00 0.000000000000000e+00 0.000000000000000e+00
0.000000000000000e+00 0.000000000000000e+00 0.000000000000000e+00
0.000000000000000e+00 0.000000000000000e+00 0.000000000000000e+00

0.000000000000000e+00 0.000000000000000e+00 0.000000000000000e+00
0.000000000000000e+00 0.000000000000000e+00 0.000000000000000e+00
0.000000000000000e+00 0.000000000000000e+00 0.000000000000000e+00

0.000000000000000e+00 0.000000000000000e+00 0.000000000000000e+00
0.000000000000000e+00 0.000000000000000e+00 0.000000000000000e+00
0.000000000000000e+00 0.000000000000000e+00 0.000000000000000e+00

0.000000000000000e+00 0.000000000000000e+00 0.000000000000000e+00
0.000000000000000e+00 0.000000000000000e+00 0.000000000000000e+00
0.000000000000000e+00 0.000000000000000e+00 0.000000000000000e+00

0.000000000000000e+00 0.000000000000000e+00 0.000000000000000e+00
0.000000000000000e+00 0.000000000000000e+00 0.000000000000000e+00
0.000000000000000e+00 0.000000000000000e+00 0.000000000000000e+00

0.000000000000000e+00 0.000000000000000e+00 0.000000000000000e+00
0.000000000000000e+00 0.000000000000000e+00 0.000000000000000e+00
0.000000000000000e+00 0.000000000000000e+00 0.000000000000000e+00

0.000000000000000e+00 0.000000000000000e+00 0.000000000000000e+00
0.000000000000000e+00 0.000000000000000e+00 0.000000000000000e+00
0.000000000000000e+00 0.000000000000000e+00 0.000000000000000e+00

0.000000000000000e+00 0.000000000000000e+00 0.000000000000000e+00
0.000000000000000e+00 0.000000000000000e+00 0.000000000000000e+00
0.000000000000000e+00 0.000000000000000e+00 0.000000000000000e+00

0.000000000000000e+00 0.000000000000000e+00 0.000000000000000e+00
0.000000000000000e+00 0.000000000000000e+00 0.000000000000000e+00
0.000000000000000e+00 0.000000000000000e+00 0.000000000000000e+00

0.000000000000000e+00 0.000000000000000e+00 0.000000000000000e+00
0.000000000000000e+00 0.000000000000000e+00 0.000000000000000e+00
0.000000000000000e+00 0.000000000000000e+00 0.000000000000000e+00

0.000000000000000e+00 0.000000000000000e+00 0.000000000000000e+00
0.000000000000000e+00 0.000000000000000e+00 0.000000000000000e+00
0.000000000000000e+00 0.000000000000000e+00 0.000000000000000e+00

0.000000000000000e+00 0.000000000000000e+00 0.000000000000000e+00
0.000000000000000e+00 0.000000000000000e+00 0.000000000000000e+00
0.000000000000000e+00 0.000000000000000e+00 0.000000000000000e+00

0.000000000000000e+00 0.000000000000000e+00 0.000000000000000e+00
0.000000000000000e+00 0.000000000000000e+00 0.000000000000000e+00
0.000000000000000e+00 0.000000000000000e+00 0.000000000000000e+00

0.000000000000000e+00 0.000000000000000e+00 0.000000000000000e+00
0.000000000000000e+00 0.000000000000000e+00 0.000000000000000e+00
0.000000000000000e+00 0.000000000000000e+00 0.000000000000000e+00

0.000000000000000e+00 0.000000000000000e+00 0.000000000000000e+00
0.000000000000000e+00 0.000000000000000e+00 0.000000000000000e+00
0.000000000000000e+00 0.000000000000000e+00 0.000000000000000e+00

0.000000000000000e+00 0.000000000000000e+00 0.000000000000000e+00
0.000000000000000e+00 0.000000000000000e+00 0.000000000000000e+00
0.000000000000000e+00 0.000000000000000e+00 0.000000000000000e+00

0.000000000000000e+00 0.000000000000000e+00 0.000000000000000e+00
0.000000000000000e+00 0.000000000000000e+00 0.000000000000000e+00
0.000000000000000e+00 0.000000000000000e+00 0.000000000000000e+00

0.000000000000000e+00 0.000000000000000e+00 0.000000000000000e+00
0.000000000000000e+00 0.000000000000000e+00 0.000000000000000e+00
0.000000000000000e+00 0.000000000000000e+00 0.000000000000000e+00

0.000000000000000e+00 0.000000000000000e+00 0.000000000000000e+00
0.000000000000000e+00 0.000000000000000e+00 0.000000000000000e+00
0.000000000000000e+00 0.000000000000000e+00 0.000000000000000e+00

0.000000000000000e+00 0.000000000000000e+00 0.000000000000000e+00
0.000000000000000e+00 0.000000000000000e+00 0.000000000000000e+00
0.000000000000000e+00 0.000000000000000e+00 0.000000000000000e+00

0.000000000000000e+00 0.000000000000000e+00 0.000000000000000e+00
0.000000000000000e+00 0.000000000000000e+00 0.000000000000000e+00
0.000000000000000e+00 0.000000000000000e+00 0.000000000000000e+00

0.000000000000000e+00 0.000000000000000e+00 0.000000000000000e+00
0.000000000000000e+00 0.000000000000000e+00 0.000000000000000e+00
0.000000000000000e+00 0.000000000000000e+00 0.000000000000000e+00

0.000000000000000e+00 0.000000000000000e+00 0.000000000000000e+00
0.000000000000000e+00 0.000000000000000e+00 0.000000000000000e+00
0.000000000000000e+00 0.000000000000000e+00 0.000000000000000e+00

0.000000000000000e+00 0.000000000000000e+00 0.000000000000000e+00
0.000000000000000e+00 0.000000000000000e+00 0.000000000000000e+00
0.000000000000000e+00 0.000000000000000e+00 0.000000000000000e+00

0.000000000000000e+00 0.000000000000000e+00 0.000000000000000e+00
0.000000000000000e+00 0.000000000000000e+00 0.000000000000000e+00
0.000000000000000e+00 0.000000000000000e+00 0.000000000000000e+00

0.000000000000000e+00 0.000000000000000e+00 0.000000000000000e+00
0.000000000000000e+00 0.000000000000000e+00 0.000000000000000e+00
0.000000000000000e+00 0.000000000000000e+00 0.000000000000000e+00

0.000000000000000e+00 0.000000000000000e+00 0.000000000000000e+00
0.000000000000000e+00 0.000000000000000e+00 0.000000000000000e+00
0.000000000000000e+00 0.000000000000000e+00 0.000000000000000e+00

0.000000000000000e+00 0.000000000000000e+00 0.000000000000000e+00
0.000000000000000e+00 0.000000000000000e+00 0.000000000000000e+00
0.000000000000000e+00 0.000000000000000e+00 0.000000000000000e+00

0.000000000000000e+00 0.000000000000000e+00 0.000000000000000e+00
0.000000000000000e+00 0.000000000000000e+00 0.000000000000000e+00
0.000000000000000e+00 0.000000000000000e+00 0.000000000000000e+00

0.000000000000000e+00 0.000000000000000e+00 0.000000000000000e+00
0.000000000000000e+00 0.000000000000000e+00 0.000000000000000e+00
0.000000000000000e+00 0.000000000000000e+00 0.000000000000000e+00

0.000000000000000e+00 0.000000000000000e+00 0.000000000000000e+00
0.000000000000000e+00 0.000000000000000e+00 0.000000000000000e+00
0.000000000000000e+00 0.000000000000000e+00 0.000000000000000e+00

0.000000000000000e+00 0.000000000000000e+00 0.000000000000000e+00
0.000000000000000e+00 0.000000000000000e+00 0.000000000000000e+00
0.000000000000000e+00 0.000000000000000e+00 0.000000000000000e+00

0.000000000000000e+00 0.000000000000000e+00 0.000000000000000e+00
0.000000000000000e+00 0.000000000000000e+00 0.000000000000000e+00
0.000000000000000e+00 0.000000000000000e+00 0.000000000000000e+00

0.000000000000000e+00 0.000000000000000e+00 0.000000000000000e+00
0.000000000000000e+00 0.000000000000000e+00 0.000000000000000e+00
0.000000000000000e+00 0.000000000000000e+00 0.000000000000000e+00

0.000000000000000e+00 0.000000000000000e+00 0.000000000000000e+00
0.000000000000000e+00 0.000000000000000e+00 0.000000000000000e+00
0.000000000000000e+00 0.000000000000000e+00 0.000000000000000e+00

0.000000000000000e+00 0.000000000000000e+00 0.000000000000000e+00
0.000000000000000e+00 0.000000000000000e+00 0.000000000000000e+00
0.000000000000000e+00 0.000000000000000e+00 0.000000000000000e+00

0.000000000000000e+00 0.000000000000000e+00 0.000000000000000e+00
0.000000000000000e+00 0.000000000000000e+00 0.000000000000000e+00
0.000000000000000e+00 0.000000000000000e+00 0.000000000000000e+00

0.000000000000000e+00 0.000000000000000e+00 0.000000000000000e+00
0.000000000000000e+00 0.000000000000000e+00 0.000000000000000e+00
0.000000000000000e+00 0.000000000000000e+00 0.000000000000000e+00

0.000000000000000e+00 0.000000000000000e+00 0.000000000000000e+00
0.000000000000000e+00 0.000000000000000e+00 0.000000000000000e+00
0.000000000000000e+00 0.000000000000000e+00 0.000000000000000e+00

0.000000000000000e+00 0.000000000000000e+00 0.000000000000000e+00
0.000000000000000e+00 0.000000000000000e+00 0.000000000000000e+00
0.000000000000000e+00 0.000000000000000e+00 0.000000000000000e+00

0.000000000000000e+00 0.000000000000000e+00 0.000000000000000e+00
0.000000000000000e+00 0.000000000000000e+00 0.000000000000000e+00
0.000000000000000e+00 0.000000000000000e+00 0.000000000000000e+00

0.000000000000000e+00 0.000000000000000e+00 0.000000000000000e+00
0.000000000000000e+00 0.000000000000000e+00 0.000000000000000e+00
0.000000000000000e+00 0.000000000000000e+00 0.000000000000000e+00

0.000000000000000e+00 0.000000000000000e+00 0.000000000000000e+00
0.000000000000000e+00 0.000000000000000e+00 0.000000000000000e+00
0.000000000000000e+00 0.000000000000000e+00 0.000000000000000e+00

0.000000000000000e+00 0.000000000000000e+00 0.000000000000000e+00
0.000000000000000e+00 0.000000000000000e+00 0.000000000000000e+00
0.000000000000000e+00 0.000000000000000e+00 0.000000000000000e+00

0.000000000000000e+00 0.000000000000000e+00 0.000000000000000e+00
0.000000000000000e+00 0.000000000000000e+00 0.000000000000000e+00
0.000000000000000e+00 0.000000000000000e+00 0.000000000000000e+00

0.000000000000000e+00 0.000000000000000e+00 0.000000000000000e+00
0.000000000000000e+00 0.000000000000000e+00 0.000000000000000e+00
0.000000000000000e+00 0.000000000000000e+00 0.000000000000000e+00

0.000000000000000e+00 0.000000000000000e+00 0.000000000000000e+00
0.000000000000000e+00 0.000000000000000e+00 0.000000000000000e+00
0.000000000000000e+00 0.000000000000000e+00 0.000000000000000e+00

0.000000000000000e+00 0.000000000000000e+00 0.000000000000000e+00
0.000000000000000e+00 0.000000000000000e+00 0.000000000000000e+00
0.000000000000000e+00 0.000000000000000e+00 0.000000000000000e+00

0.000000000000000e+00 0.000000000000000e+00 0.000000000000000e+00
0.000000000000000e+00 0.000000000000000e+00 0.000000000000000e+00
0.000000000000000e+00 0.000000000000000e+00 0.000000000000000e+00

0.000000000000000e+00 0.000000000000000e+00 0.000000000000000e+00
0.000000000000000e+00 0.000000000000000e+00 0.000000000000000e+00
0.000000000000000e+00 0.000000000000000e+00 0.000000000000000e+00

0.000000000000000e+00 0.000000000000000e+00 0.000000000000000e+00
0.000000000000000e+00 0.000000000000000e+00 0.000000000000000e+00
0.000000000000000e+00 0.000000000000000e+00 0.000000000000000e+00

0.000000000000000e+00 0.000000000000000e+00 0.000000000000000e+00
0.000000000000000e+00 0.000000000000000e+00 0.000000000000000e+00
0.000000000000000e+00 0.000000000000000e+00 0.000000000000000e+00

0.000000000000000e+00 0.000000000000000e+00 0.000000000000000e+00
0.000000000000000e+00 0.000000000000000e+00 0.000000000000000e+00
0.000000000000000e+00 0.000000000000000e+00 0.000000000000000e+00

0.000000000000000e+00 0.000000000000000e+00 0.000000000000000e+00
0.000000000000000e+00 0.000000000000000e+00 0.000000000000000e+00
0.000000000000000e+00 0.000000000000000e+00 0.000000000000000e+00

0.000000000000000e+00 0.000000000000000e+00 0.000000000000000e+00
0.000000000000000e+00 0.000000000000000e+00 0.000000000000000e+00
0.000000000000000e+00 0.000000000000000e+00 0.000000000000000e+00

0.000000000000000e+00 0.000000000000000e+00 0.000000000000000e+00
0.000000000000000e+00 0.000000000000000e+00 0.000000000000000e+00
0.000000000000000e+00 0.000000000000000e+00 0.000000000000000e+00

0.000000000000000e+00 0.000000000000000e+00 0.000000000000000e+00
0.000000000000000e+00 0.000000000000000e+00 0.000000000000000e+00
0.000000000000000e+00 0.000000000000000e+00 0.000000000000000e+00

0.000000000000000e+00 0.000000000000000e+00 0.000000000000000e+00
0.000000000000000e+00 0.000000000000000e+00 0.000000000000000e+00
0.000000000000000e+00 0.000000000000000e+00 0.000000000000000e+00

0.000000000000000e+00 0.000000000000000e+00 0.000000000000000e+00
0.000000000000000e+00 0.000000000000000e+00 0.000000000000000e+00
0.000000000000000e+00 0.000000000000000e+00 0.000000000000000e+00

0.000000000000000e+00 0.000000000000000e+00 0.000000000000000e+00
0.000000000000000e+00 0.000000000000000e+00 0.000000000000000e+00
0.000000000000000e+00 0.000000000000000e+00 0.000000000000000e+00

0.000000000000000e+00 0.000000000000000e+00 0.000000000000000e+00
0.000000000000000e+00 0.000000000000000e+00 0.000000000000000e+00
0.000000000000000e+00 0.000000000000000e+00 0.000000000000000e+00

0.000000000000000e+00 0.000000000000000e+00 0.000000000000000e+00
0.000000000000000e+00 0.000000000000000e+00 0.000000000000000e+00
0.000000000000000e+00 0.000000000000000e+00 0.000000000000000e+00

0.000000000000000e+00 0.000000000000000e+00 0.000000000000000e+00
0.000000000000000e+00 0.000000000000000e+00 0.000000000000000e+00
0.000000000000000e+00 0.000000000000000e+00 0.000000000000000e+00

0.000000000000000e+00 0.000000000000000e+00 0.000000000000000e+00
0.000000000000000e+00 0.000000000000000e+00 0.000000000000000e+00
0.000000000000000e+00 0.000000000000000e+00 0.000000000000000e+00

0.000000000000000e+00 0.000000000000000e+00 0.000000000000000e+00
0.000000000000000e+00 0.000000000000000e+00 0.000000000000000e+00
0.000000000000000e+00 0.000000000000000e+00 0.000000000000000e+00

0.000000000000000e+00 0.000000000000000e+00 0.000000000000000e+00
0.000000000000000e+00 0.000000000000000e+00 0.000000000000000e+00
0.000000000000000e+00 0.000000000000000e+00 0.000000000000000e+00

0.000000000000000e+00 0.000000000000000e+00 0.000000000000000e+00
0.000000000000000e+00 0.000000000000000e+00 0.000000000000000e+00
0.000000000000000e+00 0.000000000000000e+00 0.000000000000000e+00

0.000000000000000e+00 0.000000000000000e+00 0.000000000000000e+00
0.000000000000000e+00 0.000000000000000e+00 0.000000000000000e+00
0.000000000000000e+00 0.000000000000000e+00 0.000000000000000e+00

0.000000000000000e+00 0.000000000000000e+00 0.000000000000000e+00
0.000000000000000e+00 0.000000000000000e+00 0.000000000000000e+00
0.000000000000000e+00 0.000000000000000e+00 0.000000000000000e+00

0.000000000000000e+00 0.000000000000000e+00 0.000000000000000e+00
0.000000000000000e+00 0.000000000000000e+00 0.000000000000000e+00
0.000000000000000e+00 0.000000000000000e+00 0.000000000000000e+00

0.000000000000000e+00 0.000000000000000e+00 0.000000000000000e+00
0.000000000000000e+00 0.000000000000000e+00 0.000000000000000e+00
0.000000000000000e+00 0.000000000000000e+00 0.000000000000000e+00

0.000000000000000e+00 0.000000000000000e+00 0.000000000000000e+00
0.000000000000000e+00 0.000000000000000e+00 0.000000000000000e+00
0.000000000000000e+00 0.000000000000000e+00 0.000000000000000e+00

0.000000000000000e+00 0.000000000000000e+00 0.000000000000000e+00
0.000000000000000e+00 0.000000000000000e+00 0.000000000000000e+00
0.000000000000000e+00 0.000000000000000e+00 0.000000000000000e+00

0.000000000000000e+00 0.000000000000000e+00 0.000000000000000e+00
0.000000000000000e+00 0.000000000000000e+00 0.000000000000000e+00
0.000000000000000e+00 0.000000000000000e+00 0.000000000000000e+00

0.000000000000000e+00 0.000000000000000e+00 0.000000000000000e+00
0.000000000000000e+00 0.000000000000000e+00 0.000000000000000e+00
0.000000000000000e+00 0.000000000000000e+00 0.000000000000000e+00

0.000000000000000e+00 0.000000000000000e+00 0.000000000000000e+00
0.000000000000000e+00 0.000000000000000e+00 0.000000000000000e+00
0.000000000000000e+00 0.000000000000000e+00 0.000000000000000e+00

0.000000000000000e+00 0.000000000000000e+00 0.000000000000000e+00
0.000000000000000e+00 0.000000000000000e+00 0.000000000000000e+00
0.000000000000000e+00 0.000000000000000e+00 0.000000000000000e+00

0.000000000000000e+00 0.000000000000000e+00 0.000000000000000e+00
0.000000000000000e+00 0.000000000000000e+00 0.000000000000000e+00
0.000000000000000e+00 0.000000000000000e+00 0.000000000000000e+00

0.000000000000000e+00 0.000000000000000e+00 0.000000000000000e+00
0.000000000000000e+00 0.000000000000000e+00 0.000000000000000e+00
0.000000000000000e+00 0.000000000000000e+00 0.000000000000000e+00

0.000000000000000e+00 0.000000000000000e+00 0.000000000000000e+00
0.000000000000000e+00 0.000000000000000e+00 0.000000000000000e+00
0.000000000000000e+00 0.000000000000000e+00 0.000000000000000e+00

0.000000000000000e+00 0.000000000000000e+00 0.000000000000000e+00
0.000000000000000e+00 0.000000000000000e+00 0.000000000000000e+00
0.000000000000000e+00 0.000000000000000e+00 0.000000000000000e+00

0.000000000000000e+00 0.000000000000000e+00 0.000000000000000e+00
0.000000000000000e+00 0.000000000000000e+00 0.000000000000000e+00
0.000000000000000e+00 0.000000000000000e+00 0.000000000000000e+00

0.000000000000000e+00 0.000000000000000e+00 0.000000000000000e+00
0.000000000000000e+00 0.000000000000000e+00 0.000000000000000e+00
0.000000000000000e+00 0.000000000000000e+00 0.000000000000000e+00

0.000000000000000e+00 0.000000000000000e+00 0.000000000000000e+00
0.000000000000000e+00 0.000000000000000e+00 0.000000000000000e+00
0.000000000000000e+00 0.000000000000000e+00 0.000000000000000e+00

0.000000000000000e+00 0.000000000000000e+00 0.000000000000000e+00
0.000000000000000e+00 0.000000000000000e+00 0.000000000000000e+00
0.000000000000000e+00 0.000000000000000e+00 0.000000000000000e+00

0.000000000000000e+00 0.000000000000000e+00 0.000000000000000e+00
0.000000000000000e+00 0.000000000000000e+00 0.000000000000000e+00
0.000000000000000e+00 0.000000000000000e+00 0.000000000000000e+00

0.000000000000000e+00 0.000000000000000e+00 0.000000000000000e+00
0.000000000000000e+00 0.000000000000000e+00 0.000000000000000e+00
0.000000000000000e+00 0.000000000000000e+00 0.000000000000000e+00

0.000000000000000e+00 0.000000000000000e+00 0.000000000000000e+00
0.000000000000000e+00 0.000000000000000e+00 0.000000000000000e+00
0.000000000000000e+00 0.000000000000000e+00 0.000000000000000e+00

0.000000000000000e+00 0.000000000000000e+00 0.000000000000000e+00
0.000000000000000e+00 0.000000000000000e+00 0.000000000000000e+00
0.000000000000000e+00 0.000000000000000e+00 0.000000000000000e+00

0.000000000000000e+00 0.000000000000000e+00 0.000000000000000e+00
0.000000000000000e+00 0.000000000000000e+00 0.000000000000000e+00
0.000000000000000e+00 0.000000000000000e+00 0.000000000000000e+00

0.000000000000000e+00 0.000000000000000e+00 0.000000000000000e+00
0.000000000000000e+00 0.000000000000000e+00 0.000000000000000e+00
0.000000000000000e+00 0.000000000000000e+00 0.000000000000000e+00

0.000000000000000e+00 0.000000000000000e+00 0.000000000000000e+00
0.000000000000000e+00 0.000000000000000e+00 0.000000000000000e+00
0.000000000000000e+00 0.000000000000000e+00 0.000000000000000e+00

0.000000000000000e+00 0.000000000000000e+00 0.000000000000000e+00
0.000000000000000e+00 0.000000000000000e+00 0.000000000000000e+00
0.000000000000000e+00 0.000000000000000e+00 0.000000000000000e+00

0.000000000000000e+00 0.000000000000000e+00 0.000000000000000e+00
0.000000000000000e+00 0.000000000000000e+00 0.000000000000000e+00
0.000000000000000e+00 0.000000000000000e+00 0.000000000000000e+00

0.000000000000000e+00 0.000000000000000e+00 0.000000000000000e+00
0.000000000000000e+00 0.000000000000000e+00 0.000000000000000e+00
0.000000000000000e+00 0.000000000000000e+00 0.000000000000000e+00

0.000000000000000e+00 0.000000000000000e+00 0.000000000000000e+00
0.000000000000000e+00 0.000000000000000e+00 0.000000000000000e+00
0.000000000000000e+00 0.000000000000000e+00 0.000000000000000e+00

0.000000000000000e+00 0.000000000000000e+00 0.000000000000000e+00
0.000000000000000e+00 0.000000000000000e+00 0.000000000000000e+00
0.000000000000000e+00 0.000000000000000e+00 0.000000000000000e+00

0.000000000000000e+00 0.000000000000000e+00 0.000000000000000e+00
0.000000000000000e+00 0.000000000000000e+00 0.000000000000000e+00
0.000000000000000e+00 0.000000000000000e+00 0.000000000000000e+00

0.000000000000000e+00 0.000000000000000e+00 0.000000000000000e+00
0.000000000000000e+00 0.000000000000000e+00 0.000000000000000e+00
0.000000000000000e+00 0.000000000000000e+00 0.000000000000000e+00

0.000000000000000e+00 0.000000000000000e+00 0.000000000000000e+00
0.000000000000000e+00 0.000000000000000e+00 0.000000000000000e+00
0.000000000000000e+00 0.000000000000000e+00 0.000000000000000e+00

0.000000000000000e+00 0.000000000000000e+00 0.000000000000000e+00
0.000000000000000e+00 0.000000000000000e+00 0.000000000000000e+00
0.000000000000000e+00 0.000000000000000e+00 0.000000000000000e+00

0.000000000000000e+00 0.000000000000000e+00 0.000000000000000e+00
0.000000000000000e+00 0.000000000000000e+00 0.000000000000000e+00
0.000000000000000e+00 0.000000000000000e+00 0.000000000000000e+00

0.000000000000000e+00 0.000000000000000e+00 0.000000000000000e+00
0.000000000000000e+00 0.000000000000000e+00 0.000000000000000e+00
0.000000000000000e+00 0.000000000000000e+00 0.000000000000000e+00

0.000000000000000e+00 0.000000000000000e+00 0.000000000000000e+00
0.000000000000000e+00 0.000000000000000e+00 0.000000000000000e+00
0.000000000000000e+00 0.000000000000000e+00 0.000000000000000e+00

0.000000000000000e+00 0.000000000000000e+00 0.000000000000000e+00
0.000000000000000e+00 0.000000000000000e+00 0.000000000000000e+00
0.000000000000000e+00 0.000000000000000e+00 0.000000000000000e+00

0.000000000000000e+00 0.000000000000000e+00 0.000000000000000e+00
0.000000000000000e+00 0.000000000000000e+00 0.000000000000000e+00
0.000000000000000e+00 0.000000000000000e+00 0.000000000000000e+00

0.000000000000000e+00 0.000000000000000e+00 0.000000000000000e+00
0.000000000000000e+00 0.000000000000000e+00 0.000000000000000e+00
0.000000000000000e+00 0.000000000000000e+00 0.000000000000000e+00

0.000000000000000e+00 0.000000000000000e+00 0.000000000000000e+00
0.000000000000000e+00 0.000000000000000e+00 0.000000000000000e+00
0.000000000000000e+00 0.000000000000000e+00 0.000000000000000e+00

0.000000000000000e+00 0.000000000000000e+00 0.000000000000000e+00
0.000000000000000e+00 0.000000000000000e+00 0.000000000000000e+00
0.000000000000000e+00 0.000000000000000e+00 0.000000000000000e+00

0.000000000000000e+00 0.000000000000000e+00 0.000000000000000e+00
0.000000000000000e+00 0.000000000000000e+00 0.000000000000000e+00
0.000000000000000e+00 0.000000000000000e+00 0.000000000000000e+00

0.000000000000000e+00 0.000000000000000e+00 0.000000000000000e+00
0.000000000000000e+00 0.000000000000000e+00 0.000000000000000e+00
0.000000000000000e+00 0.000000000000000e+00 0.000000000000000e+00

0.000000000000000e+00 0.000000000000000e+00 0.000000000000000e+00
0.000000000000000e+00 0.000000000000000e+00 0.000000000000000e+00
0.000000000000000e+00 0.000000000000000e+00 0.000000000000000e+00

0.000000000000000e+00 0.000000000000000e+00 0.000000000000000e+00
0.000000000000000e+00 0.000000000000000e+00 0.000000000000000e+00
0.000000000000000e+00 0.000000000000000e+00 0.000000000000000e+00

0.000000000000000e+00 0.000000000000000e+00 0.000000000000000e+00
0.000000000000000e+00 0.000000000000000e+00 0.000000000000000e+00
0.000000000000000e+00 0.000000000000000e+00 0.000000000000000e+00

0.000000000000000e+00 0.000000000000000e+00 0.000000000000000e+00
0.000000000000000e+00 0.000000000000000e+00 0.000000000000000e+00
0.000000000000000e+00 0.000000000000000e+00 0.000000000000000e+00

0.000000000000000e+00 0.000000000000000e+00 0.000000000000000e+00
0.000000000000000e+00 0.000000000000000e+00 0.000000000000000e+00
0.000000000000000e+00 0.000000000000000e+00 0.000000000000000e+00

0.000000000000000e+00 0.000000000000000e+00 0.000000000000000e+00
0.000000000000000e+00 0.000000000000000e+00 0.000000000000000e+00
0.000000000000000e+00 0.000000000000000e+00 0.000000000000000e+00

0.000000000000000e+00 0.000000000000000e+00 0.000000000000000e+00
0.000000000000000e+00 0.000000000000000e+00 0.000000000000000e+00
0.000000000000000e+00 0.000000000000000e+00 0.000000000000000e+00

0.000000000000000e+00 0.000000000000000e+00 0.000000000000000e+00
0.000000000000000e+00 0.000000000000000e+00 0.000000000000000e+00
0.000000000000000e+00 0.000000000000000e+00 0.000000000000000e+00

0.000000000000000e+00 0.000000000000000e+00 0.000000000000000e+00
0.000000000000000e+00 0.000000000000000e+00 0.000000000000000e+00
0.000000000000000e+00 0.000000000000000e+00 0.000000000000000e+00

0.000000000000000e+00 0.000000000000000e+00 0.000000000000000e+00
0.000000000000000e+00 0.000000000000000e+00 0.000000000000000e+00
0.000000000000000e+00 0.000000000000000e+00 0.000000000000000e+00

0.000000000000000e+00 0.000000000000000e+00 0.000000000000000e+00
0.000000000000000e+00 0.000000000000000e+00 0.000000000000000e+00
0.000000000000000e+00 0.000000000000000e+00 0.000000000000000e+00

0.000000000000000e+00 0.000000000000000e+00 0.000000000000000e+00
0.000000000000000e+00 0.000000000000000e+00 0.000000000000000e+00
0.000000000000000e+00 0.000000000000000e+00 0.000000000000000e+00

0.000000000000000e+00 0.000000000000000e+00 0.000000000000000e+00
0.000000000000000e+00 0.000000000000000e+00 0.000000000000000e+00
0.000000000000000e+00 0.000000000000000e+00 0.000000000000000e+00

0.000000000000000e+00 0.000000000000000e+00 0.000000000000000e+00
0.000000000000000e+00 0.000000000000000e+00 0.000000000000000e+00
0.000000000000000e+00 0.000000000000000e+00 0.000000000000000e+00

0.000000000000000e+00 0.000000000000000e+00 0.000000000000000e+00
0.000000000000000e+00 0.000000000000000e+00 0.000000000000000e+00
0.000000000000000e+00 0.000000000000000e+00 0.000000000000000e+00

0.000000000000000e+00 0.000000000000000e+00 0.000000000000000e+00
0.000000000000000e+00 0.000000000000000e+00 0.000000000000000e+00
0.000000000000000e+00 0.000000000000000e+00 0.000000000000000e+00

0.000000000000000e+00 0.000000000000000e+00 0.000000000000000e+00
0.000000000000000e+00 0.000000000000000e+00 0.000000000000000e+00
0.000000000000000e+00 0.000000000000000e+00 0.000000000000000e+00

0.000000000000000e+00 0.000000000000000e+00 0.000000000000000e+00
0.000000000000000e+00 0.000000000000000e+00 0.000000000000000e+00
0.000000000000000e+00 0.000000000000000e+00 0.000000000000000e+00

0.000000000000000e+00 0.000000000000000e+00 0.000000000000000e+00
0.000000000000000e+00 0.000000000000000e+00 0.000000000000000e+00
0.000000000000000e+00 0.000000000000000e+00 0.000000000000000e+00

0.000000000000000e+00 0.000000000000000e+00 0.000000000000000e+00
0.000000000000000e+00 0.000000000000000e+00 0.000000000000000e+00
0.000000000000000e+00 0.000000000000000e+00 0.000000000000000e+00

0.000000000000000e+00 0.000000000000000e+00 0.000000000000000e+00
0.000000000000000e+00 0.000000000000000e+00 0.000000000000000e+00
0.000000000000000e+00 0.000000000000000e+00 0.000000000000000e+00

0.000000000000000e+00 0.000000000000000e+00 0.000000000000000e+00
0.000000000000000e+00 0.000000000000000e+00 0.000000000000000e+00
0.000000000000000e+00 0.000000000000000e+00 0.000000000000000e+00

0.000000000000000e+00 0.000000000000000e+00 0.000000000000000e+00
0.000000000000000e+00 0.000000000000000e+00 0.000000000000000e+00
0.000000000000000e+00 0.000000000000000e+00 0.000000000000000e+00

0.000000000000000e+00 0.000000000000000e+00 0.000000000000000e+00
0.000000000000000e+00 0.000000000000000e+00 0.000000000000000e+00
0.000000000000000e+00 0.000000000000000e+00 0.000000000000000e+00

0.000000000000000e+00 0.000000000000000e+00 0.000000000000000e+00
0.000000000000000e+00 0.000000000000000e+00 0.000000000000000e+00
0.000000000000000e+00 0.000000000000000e+00 0.000000000000000e+00

0.000000000000000e+00 0.000000000000000e+00 0.000000000000000e+00
0.000000000000000e+00 0.000000000000000e+00 0.000000000000000e+00
0.000000000000000e+00 0.000000000000000e+00 0.000000000000000e+00

0.000000000000000e+00 0.000000000000000e+00 0.000000000000000e+00
0.000000000000000e+00 0.000000000000000e+00 0.000000000000000e+00
0.000000000000000e+00 0.000000000000000e+00 0.000000000000000e+00

0.000000000000000e+00 0.000000000000000e+00 0.000000000000000e+00
0.000000000000000e+00 0.000000000000000e+00 0.000000000000000e+00
0.000000000000000e+00 0.000000000000000e+00 0.000000000000000e+00

0.000000000000000e+00 0.000000000000000e+00 0.000000000000000e+00
0.000000000000000e+00 0.000000000000000e+00 0.000000000000000e+00
0.000000000000000e+00 0.000000000000000e+00 0.000000000000000e+00

0.000000000000000e+00 0.000000000000000e+00 0.000000000000000e+00
0.000000000000000e+00 0.000000000000000e+00 0.000000000000000e+00
0.000000000000000e+00 0.000000000000000e+00 0.000000000000000e+00

0.000000000000000e+00 0.000000000000000e+00 0.000000000000000e+00
0.000000000000000e+00 0.000000000000000e+00 0.000000000000000e+00
0.000000000000000e+00 0.000000000000000e+00 0.000000000000000e+00

0.000000000000000e+00 0.000000000000000e+00 0.000000000000000e+00
0.000000000000000e+00 0.000000000000000e+00 0.000000000000000e+00
0.000000000000000e+00 0.000000000000000e+00 0.000000000000000e+00

0.000000000000000e+00 0.000000000000000e+00 0.000000000000000e+00
0.000000000000000e+00 0.000000000000000e+00 0.000000000000000e+00
0.000000000000000e+00 0.000000000000000e+00 0.000000000000000e+00

0.000000000000000e+00 0.000000000000000e+00 0.000000000000000e+00
0.000000000000000e+00 0.000000000000000e+00 0.000000000000000e+00
0.000000000000000e+00 0.000000000000000e+00 0.000000000000000e+00

0.000000000000000e+00 0.000000000000000e+00 0.000000000000000e+00
0.000000000000000e+00 0.000000000000000e+00 0.000000000000000e+00
0.000000000000000e+00 0.000000000000000e+00 0.000000000000000e+00

0.000000000000000e+00 0.000000000000000e+00 0.000000000000000e+00
0.000000000000000e+00 0.000000000000000e+00 0.000000000000000e+00
0.000000000000000e+00 0.000000000000000e+00 0.000000000000000e+00

0.000000000000000e+00 0.000000000000000e+00 0.000000000000000e+00
0.000000000000000e+00 0.000000000000000e+00 0.000000000000000e+00
0.000000000000000e+00 0.000000000000000e+00 0.000000000000000e+00

0.000000000000000e+00 0.000000000000000e+00 0.000000000000000e+00
0.000000000000000e+00 0.000000000000000e+00 0.000000000000000e+00
0.000000000000000e+00 0.000000000000000e+00 0.000000000000000e+00

0.000000000000000e+00 0.000000000000000e+00 0.000000000000000e+00
0.000000000000000e+00 0.000000000000000e+00 0.000000000000000e+00
0.000000000000000e+00 0.000000000000000e+00 0.000000000000000e+00

0.000000000000000e+00 0.000000000000000e+00 0.000000000000000e+00
0.000000000000000e+00 0.000000000000000e+00 0.000000000000000e+00
0.000000000000000e+00 0.000000000000000e+00 0.000000000000000e+00

0.000000000000000e+00 0.000000000000000e+00 0.000000000000000e+00
0.000000000000000e+00 0.000000000000000e+00 0.000000000000000e+00
0.000000000000000e+00 0.000000000000000e+00 0.000000000000000e+00

0.000000000000000e+00 0.000000000000000e+00 0.000000000000000e+00
0.000000000000000e+00 0.000000000000000e+00 0.000000000000000e+00
0.000000000000000e+00 0.000000000000000e+00 0.000000000000000e+00

0.000000000000000e+00 0.000000000000000e+00 0.000000000000000e+00
0.000000000000000e+00 0.000000000000000e+00 0.000000000000000e+00
0.000000000000000e+00 0.000000000000000e+00 0.000000000000000e+00

0.000000000000000e+00 0.000000000000000e+00 0.000000000000000e+00
0.000000000000000e+00 0.000000000000000e+00 0.000000000000000e+00
0.000000000000000e+00 0.000000000000000e+00 0.000000000000000e+00

0.000000000000000e+00 0.000000000000000e+00 0.000000000000000e+00
0.000000000000000e+00 0.000000000000000e+00 0.000000000000000e+00
0.000000000000000e+00 0.000000000000000e+00 0.000000000000000e+00

0.000000000000000e+00 0.000000000000000e+00 0.000000000000000e+00
0.000000000000000e+00 0.000000000000000e+00 0.000000000000000e+00
0.000000000000000e+00 0.000000000000000e+00 0.000000000000000e+00

 1.080793570106656e-17  3.742193724253156e-20 -9.899713679661739e-01
 3.742193724253156e-20  1.248771047332891e-17  4.395868913690230e-01
-9.899713679661739e-01  4.395868913690230e-01  7.533929646442941e-18

 1.165713304161122e-17 -1.087981524869869e-19 -1.023023449590207e+00
-1.087981524869869e-19  1.446610322487186e-17  3.913396372122283e-01
-1.023023449590207e+00  3.913396372122283e-01  1.017909531609933e-17

 1.123537790309281e-17 -1.091307654358624e-19 -9.999423647411666e-01
-1.091307654358624e-19  1.529326636824393e-17  3.584628428486504e-01
-9.999423647411666e-01  3.584628428486504e-01  9.317294575327002e-18

 1.129722533221128e-17  1.294944780359746e-19 -1.008546742341532e+00
 1.294944780359746e-19  1.719134545415181e-17  3.129664170458660e-01
-1.008546742341532e+00  3.129664170458660e-01  9.621437200193607e-18

 1.003885820250765e-17 -1.456376016348942e-19 -9.585175361403152e-01
-1.456376016348942e-19  1.148241783375140e-17  4.861207768225776e-01
-9.585175361403152e-01  4.861207768225776e-01  4.917139757569533e-18

 1.041466214479559e-17 -7.689012849708999e-20 -9.817308065227289e-01
-7.689012849708999e-20  1.089791668908609e-17  5.123454398574950e-01
-9.817308065227289e-01  5.123454398574950e-01  5.624424148808370e-18

 1.234956916300020e-17 -6.554309806604070e-20 -1.063833856939642e+00
-6.554309806604070e-20  1.536763844037215e-17  3.725381723930435e-01
-1.063833856939642e+00  3.725381723930435e-01  1.174395787737239e-17

 1.138919661466857e-17 -1.925568188866701e-20 -1.032892427947871e+00
-1.925568188866701e-20  1.413023765675290e-17  4.099124577774018e-01
-1.032892427947871e+00  4.099124577774018e-01  8.812260513960415e-18

 1.161227048459759e-17 -4.568927918370192e-20 -1.048674919306721e+00
-4.568927918370192e-20  1.379218791190837e-17  4.217112382483530e-01
-1.048674919306721e+00  4.217112382483530e-01  9.279460669105198e-18

 1.162609020024181e-17 -6.651480441045078e-20 -1.051633863310300e+00
-6.651480441045078e-20  1.419000546184145e-17  4.304157596124625e-01
-1.051633863310300e+00  4.304157596124625e-01  9.205384104535201e-18

 1.169687308817641e-17 -8.908605914040545e-20 -1.056249811040565e+00
-8.908605914040545e-20  1.390405302692512e-17  4.303222961924474e-01
-1.056249811040565e+00  4.303222961924474e-01  9.410419919144384e-18

 1.151684203713363e-17 -1.105320507808420e-19 -1.049474574567451e+00
-1.105320507808420e-19  1.398004706688801e-17  4.300705000755526e-01
-1.049474574567451e+00  4.300705000755526e-01  8.961236643793149e-18

 1.179493741553647e-17 -1.221367860914143e-19 -1.061986140284238e+00
-1.221367860914143e-19  1.424979828119330e-17  4.304322879987152e-01
-1.061986140284238e+00  4.304322879987152e-01  9.722432728089732e-18

 1.213342420106954e-17 -1.069538277532817e-19 -1.074867383625820e+00
-1.069538277532817e-19  1.497043519791009e-17  4.245239603644825e-01
-1.074867383625820e+00  4.245239603644825e-01  1.065660089714207e-17

 1.203780646859867e-17 -8.097705324374105e-20 -1.070071568027418e+00
-8.097705324374105e-20  1.470226968098877e-17  4.260862446235252e-01
-1.070071568027418e+00  4.260862446235252e-01  1.033938545398460e-17

 1.204634886673414e-17 -7.785545870012747e-20 -1.069714322377824e+00
-7.785545870012747e-20  1.446335727825179e-17  4.202889808989420e-01
-1.069714322377824e+00  4.202889808989420e-01  1.043917036137825e-17

 1.216751210055708e-17 -8.347148192676138e-20 -1.073338723481358e+00
-8.347148192676138e-20  1.466107083125932e-17  4.097041456636109e-01
-1.073338723481358e+00  4.097041456636109e-01  1.086081261570728e-17

 1.127230448514157e-17 -4.105919409234373e-20 -1.037139565391639e+00
-4.105919409234373e-20  1.322968287082305e-17  4.528718867016887e-01
-1.037139565391639e+00  4.528718867016887e-01  8.102855693617036e-18

 1.234310223613241e-17 -9.211685446376534e-20 -1.076265994110976e+00
-9.211685446376534e-20  1.458597829000705e-17  4.060048700424878e-01
-1.076265994110976e+00  4.060048700424878e-01  1.145350972061115e-17

 1.233845138058188e-17 -1.035674428044852e-19 -1.073370264012193e+00
-1.035674428044852e-19  1.458450491167244e-17  3.995597931226552e-01
-1.073370264012193e+00  3.995597931226552e-01  1.156453468486495e-17

 1.117702545113878e-17 -1.068008361424101e-19 -1.020909293596979e+00
-1.068008361424101e-19  1.368335026796435e-17  4.170993435667821e-01
-1.020909293596979e+00  4.170993435667821e-01  8.444273049750904e-18

 1.093477940761428e-17 -1.103021814562286e-19 -1.005698403648238e+00
-1.103021814562286e-19  1.341543008728836e-17  4.164287816721908e-01
-1.005698403648238e+00  4.164287816721908e-01  7.921868585306161e-18

 1.071956131852140e-17 -7.276188264195073e-20 -9.946243800718770e-01
-7.276188264195073e-20  1.271716389181275e-17  4.317815500537032e-01
-9.946243800718770e-01  4.317815500537032e-01  7.267018881623261e-18

 1.120762284253198e-17 -9.331874368276675e-20 -1.010742703864521e+00
-9.331874368276675e-20  1.331940975373719e-17  4.045601668543326e-01
-1.010742703864521e+00  4.045601668543326e-01  8.922349823851348e-18

 1.085166014392474e-17 -5.810052109591453e-20 -9.931838588445108e-01
-5.810052109591453e-20  1.257721267484758e-17  4.189271346143676e-01
-9.931838588445108e-01  4.189271346143676e-01  7.931347128102699e-18

 1.079999177992260e-17 -7.912041115770649e-20 -9.852501838350057e-01
-7.912041115770649e-20  1.300038327289915e-17  4.050778565159669e-01
-9.852501838350057e-01  4.050778565159669e-01  8.036126301873410e-18

 1.042322810189993e-17 -4.684321703371466e-20 -9.644731790426361e-01
-4.684321703371466e-20  1.216039275623843e-17  4.152535439778637e-01
-9.644731790426361e-01  4.152535439778637e-01  7.127286514204200e-18

 9.964935221160909e-18 -2.907541338868983e-20 -9.425184050493544e-01
-2.907541338868983e-20  1.131417268327202e-17  4.252300982846666e-01
-9.425184050493544e-01  4.252300982846666e-01  5.968632551065963e-18

 9.494421495573418e-18 -3.833405849726141e-20 -9.204644923326786e-01
-3.833405849726141e-20  1.112376171789553e-17  4.293870017228800e-01
-9.204644923326786e-01  4.293870017228800e-01  4.805086476665390e-18

 8.861628266650163e-18 -1.256087009935057e-19 -8.885535977480623e-01
-1.256087009935057e-19  1.192132885675037e-17  3.997848382068558e-01
-8.885535977480623e-01  3.997848382068558e-01  3.449421136283233e-18

 1.173985454486727e-17 -4.565246694088463e-20 -1.006318928532272e+00
-4.565246694088463e-20  1.660243109085983e-17  2.772946183888768e-01
-1.006318928532272e+00  2.772946183888768e-01  1.230985862923451e-17

 9.178879539878382e-18 -3.900848522050708e-20 -9.043110848962089e-01
-3.900848522050708e-20  1.193129075402176e-17  3.955399134231892e-01
-9.043110848962089e-01  3.955399134231892e-01  4.320598987841768e-18

 9.704118442125842e-18 -1.203393600848240e-19 -9.291345217740338e-01
-1.203393600848240e-19  1.110875467511183e-17  4.325304800355192e-01
-9.291345217740338e-01  4.325304800355192e-01  5.375336243639296e-18

 1.037919213665590e-17 -9.957311396163603e-20 -9.629416347608832e-01
-9.957311396163603e-20  1.216396089612484e-17  4.113270298771532e-01
-9.629416347608832e-01  4.113270298771532e-01  7.154186340401163e-18

 1.050001705409866e-17 -1.126748562212721e-19 -9.709624228727941e-01
-1.126748562212721e-19  1.209617175171064e-17  4.177323678167015e-01
-9.709624228727941e-01  4.177323678167015e-01  7.284690080891609e-18

 1.089330949476972e-17 -9.845948201917897e-20 -9.908798052967470e-01
-9.845948201917897e-20  1.293147040235512e-17  4.020419679916181e-01
-9.908798052967470e-01  4.020419679916181e-01  8.443267292476032e-18

 1.074913557153751e-17 -9.868746582648525e-20 -9.865431540532471e-01
-9.868746582648525e-20  1.253595603874479e-17  4.137798951332926e-01
-9.865431540532471e-01  4.137798951332926e-01  7.808143936082984e-18

 1.105914803083833e-17 -9.297059336042880e-20 -1.002336687303130e+00
-9.297059336042880e-20  1.322347081733652e-17  3.977782546091157e-01
-1.002336687303130e+00  3.977782546091157e-01  8.837440534053577e-18

 1.091496725961766e-17 -9.636668198118906e-20 -9.972965054553760e-01
-9.636668198118906e-20  1.304384371248988e-17  4.109200659966583e-01
-9.972965054553760e-01  4.109200659966583e-01  8.235502095896284e-18

 1.102020111426779e-17 -9.571639374193004e-20 -1.003895163842404e+00
-9.571639374193004e-20  1.322575791102721e-17  4.043059981284995e-01
-1.003895163842404e+00  4.043059981284995e-01  8.659390654523454e-18

 1.058530112948334e-17 -9.387152859009887e-20 -9.869084844729045e-01
-9.387152859009887e-20  1.249080572171003e-17  4.192315362479339e-01
-9.869084844729045e-01  4.192315362479339e-01  7.334043471385692e-18

 1.075194679544987e-17 -9.102428652240903e-20 -9.949135310592686e-01
-9.102428652240903e-20  1.320219460912611e-17  4.096698807249390e-01
-9.949135310592686e-01  4.096698807249390e-01  7.867571746052946e-18

 1.084725252871625e-17 -9.585334417816588e-20 -1.000356581916103e+00
-9.585334417816588e-20  1.286796000817006e-17  4.126359698493759e-01
-1.000356581916103e+00  4.126359698493759e-01  8.123480757159663e-18

 1.124085678886585e-17 -9.773940355845300e-20 -1.017222768023457e+00
-9.773940355845300e-20  1.348201677840616e-17  4.066682941875691e-01
-1.017222768023457e+00  4.066682941875691e-01  9.203079912114810e-18

 1.121626513807395e-17 -8.589040600385544e-20 -1.016280836501590e+00
-8.589040600385544e-20  1.362675177983201e-17  4.063429098551259e-01
-1.016280836501590e+00  4.063429098551259e-01  9.109527550446857e-18

 1.077785157479447e-17 -9.526504595535150e-20 -1.000004182387758e+00
-9.526504595535150e-20  1.322537966454095e-17  4.127359635197596e-01
-1.000004182387758e+00  4.127359635197596e-01  7.943236430786986e-18

 1.077328073324377e-17 -9.868954791561709e-20 -1.001098195249560e+00
-9.868954791561709e-20  1.284759556821563e-17  4.180344507701960e-01
-1.001098195249560e+00  4.180344507701960e-01  7.902696288538722e-18

 1.101681783445019e-17 -9.839649098281827e-20 -1.011765254769145e+00
-9.839649098281827e-20  1.311401092087136e-17  4.149415561727071e-01
-1.011765254769145e+00  4.149415561727071e-01  8.540998677777192e-18

 1.111130133667694e-17 -9.630194936468980e-20 -1.016852731396961e+00
-9.630194936468980e-20  1.337996242476832e-17  4.118556797587757e-01
-1.016852731396961e+00  4.118556797587757e-01  8.882097684943096e-18

 1.090631301527835e-17 -8.854989682284613e-20 -1.009092202860689e+00
-8.854989682284613e-20  1.312505017606382e-17  4.165824307031996e-01
-1.009092202860689e+00  4.165824307031996e-01  8.285707422063897e-18

 1.104803159116762e-17 -8.788109683755645e-20 -1.015616897563567e+00
-8.788109683755645e-20  1.351580717709101e-17  4.110678499837247e-01
-1.015616897563567e+00  4.110678499837247e-01  8.723561112678668e-18

 1.124839566729492e-17 -8.177407202415257e-20 -1.025043480677252e+00
-8.177407202415257e-20  1.331097599853528e-17  4.116033200047026e-01
-1.025043480677252e+00  4.116033200047026e-01  9.283704043307788e-18

 1.112427454223277e-17 -6.870411208089386e-20 -1.018986448533608e+00
-6.870411208089386e-20  1.337536203838180e-17  4.119140841755936e-01
-1.018986448533608e+00  4.119140841755936e-01  8.855832573043951e-18

 1.078784288796719e-17 -7.267204258220566e-20 -1.006699649402650e+00
-7.267204258220566e-20  1.303406110290327e-17  4.213492444344372e-01
-1.006699649402650e+00  4.213492444344372e-01  7.964676518610594e-18

 1.094027389295045e-17 -6.521501859991044e-20 -1.013273706888564e+00
-6.521501859991044e-20  1.313912265046694e-17  4.165637914044953e-01
-1.013273706888564e+00  4.165637914044953e-01  8.447253181410037e-18

 1.105336157112154e-17 -6.031292068382625e-20 -1.017918145492360e+00
-6.031292068382625e-20  1.314765994749763e-17  4.123681430079664e-01
-1.017918145492360e+00  4.123681430079664e-01  8.696305397952810e-18

 1.111961855071579e-17 -5.461392972526367e-20 -1.022764327729462e+00
-5.461392972526367e-20  1.341615238157760e-17  4.087367536375553e-01
-1.022764327729462e+00  4.087367536375553e-01  8.988406272261605e-18

 1.120854300932701e-17 -4.505699720512706e-20 -1.028525592571962e+00
-4.505699720512706e-20  1.314038577928720e-17  4.175613492527570e-01
-1.028525592571962e+00  4.175613492527570e-01  9.160853270390796e-18

 1.098901742666908e-17 -3.695291243000217e-20 -1.020303506858632e+00
-3.695291243000217e-20  1.296929261369970e-17  4.218801463876859e-01
-1.020303506858632e+00  4.218801463876859e-01  8.507671682642077e-18

 1.107772062431675e-17 -5.139059643870358e-20 -1.023926476564824e+00
-5.139059643870358e-20  1.365307803407330e-17  4.071273963784744e-01
-1.023926476564824e+00  4.071273963784744e-01  8.901301756842696e-18

 1.119579871814436e-17 -4.650349514158624e-20 -1.028693933699892e+00
-4.650349514158624e-20  1.348310224224046e-17  4.041682766038565e-01
-1.028693933699892e+00  4.041682766038565e-01  9.182362621007280e-18

 1.087456929909203e-17 -4.851797022702916e-20 -1.018219024383538e+00
-4.851797022702916e-20  1.255528247025761e-17  4.264098383361227e-01
-1.018219024383538e+00  4.264098383361227e-01  8.234702499230216e-18

 1.107386416581811e-17 -5.134461310944858e-20 -1.026694715065575e+00
-5.134461310944858e-20  1.286235224988248e-17  4.207430704296419e-01
-1.026694715065575e+00  4.207430704296419e-01  8.773513451076072e-18

 1.099982668240044e-17 -6.455936211435745e-20 -1.024846564210685e+00
-6.455936211435745e-20  1.286546060366355e-17  4.186281059726806e-01
-1.024846564210685e+00  4.186281059726806e-01  8.717468802150673e-18

 1.055590214827796e-17 -6.851448834083640e-20 -1.006770309864895e+00
-6.851448834083640e-20  1.210390033799392e-17  4.341308400481043e-01
-1.006770309864895e+00  4.341308400481043e-01  7.439050854743892e-18

 1.052788546537159e-17 -8.654419046939865e-20 -1.005581175550835e+00
-8.654419046939865e-20  1.220749325391336e-17  4.266263933614726e-01
-1.005581175550835e+00  4.266263933614726e-01  7.495615461511444e-18

 1.043749362176774e-17 -1.094391155466903e-19 -1.001643335445716e+00
-1.094391155466903e-19  1.279232463432322e-17  4.164382152653550e-01
-1.001643335445716e+00  4.164382152653550e-01  7.397463404889200e-18

 1.123925230963584e-17 -1.064592819800409e-19 -1.034178358281822e+00
-1.064592819800409e-19  1.362344938163057e-17  3.938036577578898e-01
-1.034178358281822e+00  3.938036577578898e-01  9.824399687633056e-18

 1.077423642686342e-17 -1.199592409621484e-19 -1.016324261794133e+00
-1.199592409621484e-19  1.243310774120323e-17  4.234100666345395e-01
-1.016324261794133e+00  4.234100666345395e-01  8.331199063534507e-18

 1.062617273781165e-17 -1.373113834098594e-19 -1.010220949198857e+00
-1.373113834098594e-19  1.211359389570860e-17  4.300688403602170e-01
-1.010220949198857e+00  4.300688403602170e-01  7.947661631003378e-18

 1.047256074887261e-17 -1.498398452972833e-19 -1.002955188386831e+00
-1.498398452972833e-19  1.236694606749349e-17  4.271901776824915e-01
-1.002955188386831e+00  4.271901776824915e-01  7.633764385490988e-18

 1.041765903339670e-17 -1.500431567690204e-19 -9.995833635860817e-01
-1.500431567690204e-19  1.230951853905826e-17  4.269284280877024e-01
-9.995833635860817e-01  4.269284280877024e-01  7.503395486161187e-18

 1.078995567057271e-17 -1.441688595202691e-19 -1.014276528070300e+00
-1.441688595202691e-19  1.318407909309470e-17  4.019846868108113e-01
-1.014276528070300e+00  4.019846868108113e-01  8.788683616381261e-18

 1.065467959773661e-17 -1.659765097933181e-19 -1.008366961112569e+00
-1.659765097933181e-19  1.224861758154446e-17  4.279568418485234e-01
-1.008366961112569e+00  4.279568418485234e-01  8.255694184886423e-18

 1.087259578692093e-17 -1.500325856202887e-19 -1.015693634818431e+00
-1.500325856202887e-19  1.248712534614797e-17  4.211534012467485e-01
-1.015693634818431e+00  4.211534012467485e-01  8.997564887934434e-18

 1.068673122947142e-17 -1.335207487163929e-19 -1.003771016253130e+00
-1.335207487163929e-19  1.246907103155880e-17  4.145158349797551e-01
-1.003771016253130e+00  4.145158349797551e-01  8.683156971068703e-18

 9.807864698942905e-18 -1.036056750140372e-19 -9.654036154036691e-01
-1.036056750140372e-19  1.097578195908027e-17  4.412410314891343e-01
-9.654036154036691e-01  4.412410314891343e-01  6.229531244974017e-18

 9.737077973361525e-18 -1.317356479535037e-19 -9.590714385989773e-01
-1.317356479535037e-19  1.166525836330538e-17  4.218610764814239e-01
-9.590714385989773e-01  4.218610764814239e-01  6.345287569934510e-18

 9.539953360616566e-18 -1.298413056090836e-19 -9.476829094061371e-01
-1.298413056090836e-19  1.250211775011690e-17  3.946012464632605e-01
-9.476829094061371e-01  3.946012464632605e-01  6.144594471043877e-18

 1.041837027049007e-17 -8.218691021151014e-20 -9.837773031664960e-01
-8.218691021151014e-20  1.333719798859799e-17  3.696434957949605e-01
-9.837773031664960e-01  3.696434957949605e-01  8.786467564476791e-18

 9.403886413005235e-18 -1.092846618619799e-19 -9.431823184213649e-01
-1.092846618619799e-19  1.113269409360797e-17  4.258170059160083e-01
-9.431823184213649e-01  4.258170059160083e-01  5.540275767532506e-18

 9.856187040914773e-18 -1.044414040416694e-19 -9.641108607293118e-01
-1.044414040416694e-19  1.162567009011995e-17  4.224512957396819e-01
-9.641108607293118e-01  4.224512957396819e-01  6.780465515429257e-18

 1.010359756334384e-17 -8.412596422590199e-20 -9.782616009383660e-01
-8.412596422590199e-20  1.200371020194431e-17  4.147384337306732e-01
-9.782616009383660e-01  4.147384337306732e-01  7.410429329678682e-18

 1.025168925706966e-17 -8.617956545678734e-20 -9.871254163398262e-01
-8.617956545678734e-20  1.194234567064937e-17  4.191813459136509e-01
-9.871254163398262e-01  4.191813459136509e-01  7.698698150620473e-18

 1.038063220987034e-17 -7.053953241776043e-20 -9.962105044646806e-01
-7.053953241776043e-20  1.203252677136336e-17  4.177016687379806e-01
-9.962105044646806e-01  4.177016687379806e-01  8.025470209536906e-18

 1.052141417179731e-17 -5.126916904944084e-20 -1.004849753090334e+00
-5.126916904944084e-20  1.231109698314868e-17  4.112909780413164e-01
-1.004849753090334e+00  4.112909780413164e-01  8.331505393995222e-18

 1.064947770382636e-17 -5.107572134390665e-20 -1.014920699404150e+00
-5.107572134390665e-20  1.262416229156498e-17  4.053794794787774e-01
-1.014920699404150e+00  4.053794794787774e-01  8.735416081707996e-18

 1.054145819573782e-17 -6.118644385678462e-20 -1.014836748000023e+00
-6.118644385678462e-20  1.230079623301424e-17  4.209485942329759e-01
-1.014836748000023e+00  4.209485942329759e-01  8.184842897560475e-18

 1.078140943576640e-17 -7.630306519591771e-20 -1.031703047387010e+00
-7.630306519591771e-20  1.264613842068210e-17  4.143566139055547e-01
-1.031703047387010e+00  4.143566139055547e-01  8.940137435882313e-18

 1.093355763864567e-17 -9.961822738241663e-20 -1.042324522415071e+00
-9.961822738241663e-20  1.259364081116467e-17  4.165182958142212e-01
-1.042324522415071e+00  4.165182958142212e-01  9.298092424007084e-18

 1.100899291782273e-17 -1.283551237335819e-19 -1.049201216899750e+00
-1.283551237335819e-19  1.294751502446995e-17  4.201425711986052e-01
-1.049201216899750e+00  4.201425711986052e-01  9.538007558077208e-18

 1.079604102667782e-17 -1.595869675716043e-19 -1.042784185416980e+00
-1.595869675716043e-19  1.241969662731943e-17  4.357244466082068e-01
-1.042784185416980e+00  4.357244466082068e-01  8.930367008318360e-18

 1.079071577594462e-17 -1.695513801354992e-19 -1.041309976172751e+00
-1.695513801354992e-19  1.226250023211359e-17  4.303642725599995e-01
-1.041309976172751e+00  4.303642725599995e-01  8.993460270302345e-18

 1.088590420833411e-17 -1.766180082312554e-19 -1.045236757695461e+00
-1.766180082312554e-19  1.312402693302639e-17  4.192164407301381e-01
-1.045236757695461e+00  4.192164407301381e-01  9.478539752448363e-18

 1.063898339732415e-17 -2.098909098812887e-19 -1.024269201182153e+00
-2.098909098812887e-19  1.236382505291048e-17  4.248283896337368e-01
-1.024269201182153e+00  4.248283896337368e-01  8.589065039619778e-18

 9.263222574380618e-18  9.424256539946201e-20 -1.017140383818794e+00
 9.424256539946201e-20  1.231393234833839e-17  4.240882141542917e-01
-1.017140383818794e+00  4.240882141542917e-01  8.424336930201987e-18

 1.172569052477462e-17 -4.760092029651868e-19 -1.013500347356278e+00
-4.760092029651868e-19  1.243000602146160e-17  4.209255084595008e-01
-1.013500347356278e+00  4.209255084595008e-01  8.389589971046947e-18

 6.696101419028067e-18  6.682527965443640e-19 -1.009719792543275e+00
 6.682527965443640e-19  1.189111465123359e-17  4.189521118438764e-01
-1.009719792543275e+00  4.189521118438764e-01  8.281714476210146e-18

 1.867488136344902e-17 -2.116193039010806e-18 -1.004766142799349e+00
-2.116193039010806e-18  1.229360115479543e-17  4.174467155976263e-01
-1.004766142799349e+00  4.174467155976263e-01  8.135312360653093e-18

 1.860070303909558e-17 -2.120683632991835e-18 -1.000679684697444e+00
-2.120683632991835e-18  1.223824731000367e-17  4.154662423892724e-01
-1.000679684697444e+00  4.154662423892724e-01  8.031183426524251e-18

-1.075822334537091e-17  4.660443461570824e-18 -1.000017732889498e+00
 4.660443461570824e-18  1.085780055157605e-17  4.132794131337478e-01
-1.000017732889498e+00  4.132794131337478e-01  8.125282243304815e-18

 1.662356658349498e-17 -1.705288848260731e-18 -9.966317840650656e-01
-1.705288848260731e-18  1.192649395220344e-17  4.162529101867387e-01
-9.966317840650656e-01  4.162529101867387e-01  7.977635928858566e-18

 9.938336121812098e-18 -1.975277197707222e-19 -9.888235348809037e-01
-1.975277197707222e-19  1.174181010277480e-17  4.137383469674500e-01
-9.888235348809037e-01  4.137383469674500e-01  7.853035924316786e-18

 9.755076100187762e-18 -1.925424396584741e-19 -9.757317108936189e-01
-1.925424396584741e-19  1.133953904317626e-17  4.122651320746501e-01
-9.757317108936189e-01  4.122651320746501e-01  7.539949153840437e-18

 9.604781721442475e-18 -1.568903400462182e-19 -9.680335316558389e-01
-1.568903400462182e-19  1.140513839487501e-17  4.062499411194751e-01
-9.680335316558389e-01  4.062499411194751e-01  7.453818674794874e-18

 9.504205178724846e-18 -1.273076181850296e-19 -9.635545384363389e-01
-1.273076181850296e-19  1.136439600835782e-17  4.041122787233076e-01
-9.635545384363389e-01  4.041122787233076e-01  7.317939374338863e-18

 9.437415876970386e-18 -1.061762733563530e-19 -9.604817038521144e-01
-1.061762733563530e-19  1.117155079584370e-17  4.028676572413599e-01
-9.604817038521144e-01  4.028676572413599e-01  7.189214299829505e-18

 9.538899043294190e-18 -8.530556551855904e-20 -9.661835674221101e-01
-8.530556551855904e-20  1.130252870394134e-17  3.965023432216577e-01
-9.661835674221101e-01  3.965023432216577e-01  7.536754107503703e-18

 9.618156566478180e-18 -7.480849543915692e-20 -9.724233243213630e-01
-7.480849543915692e-20  1.130011277338690e-17  3.975985223223286e-01
-9.724233243213630e-01  3.975985223223286e-01  7.768002573813937e-18

 9.559975495045519e-18 -7.108932788369713e-20 -9.737604436322471e-01
-7.108932788369713e-20  1.090505282669863e-17  4.076254925876433e-01
-9.737604436322471e-01  4.076254925876433e-01  7.509813754541376e-18

 9.923946702842145e-18 -8.406345038776385e-20 -9.904073557196438e-01
-8.406345038776385e-20  1.156649012475536e-17  3.831213681583944e-01
-9.904073557196438e-01  3.831213681583944e-01  8.766593945114244e-18

 9.853177140871528e-18 -9.355624220329855e-20 -9.895318816559554e-01
-9.355624220329855e-20  1.170728403998591e-17  3.864139049291655e-01
-9.895318816559554e-01  3.864139049291655e-01  8.608647850114111e-18

 9.121140643244501e-18 -8.799043829388365e-20 -9.617551865599654e-01
-8.799043829388365e-20  1.012473627691495e-17  4.237450977891002e-01
-9.617551865599654e-01  4.237450977891002e-01  6.444468306247941e-18

 9.506405547687981e-18 -1.175162686210793e-19 -9.762335962454058e-01
-1.175162686210793e-19  1.108029530286422e-17  3.930164481458961e-01
-9.762335962454058e-01  3.930164481458961e-01  7.807238527896693e-18

 9.408120043363756e-18 -1.203680831757277e-19 -9.730485791039374e-01
-1.203680831757277e-19  1.142877345831485e-17  3.848877270855440e-01
-9.730485791039374e-01  3.848877270855440e-01  7.681462890433537e-18

 9.095992630617060e-18 -1.136597316794296e-19 -9.626053444398888e-01
-1.136597316794296e-19  1.047863008510221e-17  4.039916348752380e-01
-9.626053444398888e-01  4.039916348752380e-01  6.805843162479049e-18

 9.559024175314220e-18 -1.201842901375278e-19 -9.841114448006448e-01
-1.201842901375278e-19  1.070858552143265e-17  4.043930748579519e-01
-9.841114448006448e-01  4.043930748579519e-01  8.051911020682129e-18

 9.404895319678019e-18 -1.187170285528321e-19 -9.805404178905437e-01
-1.187170285528321e-19  1.010064546079332e-17  4.212870814887281e-01
-9.805404178905437e-01  4.212870814887281e-01  7.661762525636125e-18

 9.202011187628060e-18 -1.128416313761947e-19 -9.718683829021237e-01
-1.128416313761947e-19  1.039613090722579e-17  4.139587602546159e-01
-9.718683829021237e-01  4.139587602546159e-01  7.160541821170549e-18

 9.383114101554597e-18 -1.161773799404415e-19 -9.798873345456379e-01
-1.161773799404415e-19  1.156871179906932e-17  3.785823534493653e-01
-9.798873345456379e-01  3.785823534493653e-01  8.097845031037208e-18

 9.295142005228040e-18 -9.772841788619528e-20 -9.770402523168851e-01
-9.772841788619528e-20  1.127877948742303e-17  3.867330237900643e-01
-9.770402523168851e-01  3.867330237900643e-01  7.778098720330293e-18

 9.210114320164515e-18 -1.088421739967384e-19 -9.769110278508075e-01
-1.088421739967384e-19  1.039768440446671e-17  4.092413981656494e-01
-9.769110278508075e-01  4.092413981656494e-01  7.535401144801308e-18

 9.193797701256974e-18 -9.842150685205130e-20 -9.781688009336719e-01
-9.842150685205130e-20  1.043588221767181e-17  4.088903442985106e-01
-9.781688009336719e-01  4.088903442985106e-01  7.530033841461577e-18

 9.320956608701365e-18 -9.611957540361273e-20 -9.853190829972365e-01
-9.611957540361273e-20  1.086486460454635e-17  3.946417599135867e-01
-9.853190829972365e-01  3.946417599135867e-01  8.058497081435767e-18

 9.277648027340072e-18 -8.826135038518865e-20 -9.866566900207114e-01
-8.826135038518865e-20  1.031167919398734e-17  3.975206314967142e-01
-9.866566900207114e-01  3.975206314967142e-01  8.039582163616090e-18

 9.230448595916826e-18 -8.570296199425603e-20 -9.883716480494413e-01
-8.570296199425603e-20  1.031748431720473e-17  3.969046392479401e-01
-9.883716480494413e-01  3.969046392479401e-01  8.065389489378025e-18

 9.104005680658738e-18 -8.932997608266793e-20 -9.860614049669013e-01
-8.932997608266793e-20  1.027913793972357e-17  3.967666359380138e-01
-9.860614049669013e-01  3.967666359380138e-01  7.848496672123797e-18

 9.075513873189044e-18 -9.202535859800679e-20 -9.866766052275904e-01
-9.202535859800679e-20  1.007253491637125e-17  4.009667663276087e-01
-9.866766052275904e-01  4.009667663276087e-01  7.779359569700190e-18

 9.133129657902576e-18 -9.798862194233680e-20 -9.915548669534217e-01
-9.798862194233680e-20  1.022320024560498e-17  3.969794181398296e-01
-9.915548669534217e-01  3.969794181398296e-01  8.113233076109075e-18

 8.992513906785074e-18 -1.046774200086072e-19 -9.881189644615586e-01
-1.046774200086072e-19  9.854713075676507e-18  4.025136621807954e-01
-9.881189644615586e-01  4.025136621807954e-01  7.809407094753099e-18

 8.904659678426634e-18 -1.275342719530747e-19 -9.864324636374201e-01
-1.275342719530747e-19  9.923213621943783e-18  3.996424588871363e-01
-9.864324636374201e-01  3.996424588871363e-01  7.815611625218962e-18

 8.717104388825513e-18 -1.437978252507111e-19 -9.796737053462248e-01
-1.437978252507111e-19  9.418505133150212e-18  4.063927267936869e-01
-9.796737053462248e-01  4.063927267936869e-01  7.498500746112251e-18

 8.082811946557646e-18 -1.404572259898798e-19 -9.546996018331454e-01
-1.404572259898798e-19  8.130665862988586e-18  4.275475194238206e-01
-9.546996018331454e-01  4.275475194238206e-01  5.863999769996320e-18

 7.791101980888757e-18 -1.695680594932316e-19 -9.422760183846982e-01
-1.695680594932316e-19  8.182143705793315e-18  4.232467791103238e-01
-9.422760183846982e-01  4.232467791103238e-01  5.333456427430114e-18

 7.483383765096090e-18 -2.331778501419430e-19 -9.279244489705973e-01
-2.331778501419430e-19  9.109485642863990e-18  3.919153183848338e-01
-9.279244489705973e-01  3.919153183848338e-01  5.017665576320533e-18

 9.429676034163407e-18 -1.934747652673773e-19 -1.007877329982756e+00
-1.934747652673773e-19  1.199307005436312e-17  3.132269316122434e-01
-1.007877329982756e+00  3.132269316122434e-01  1.111300982004372e-17

 7.591500735809116e-18 -2.085825452636025e-19 -9.352067374398998e-01
-2.085825452636025e-19  8.766171949786269e-18  3.964789146229313e-01
-9.352067374398998e-01  3.964789146229313e-01  5.497172737925612e-18

 7.732126526597374e-18 -2.694028846386695e-19 -9.438480812019470e-01
-2.694028846386695e-19  7.980112426052923e-18  4.240250384475899e-01
-9.438480812019470e-01  4.240250384475899e-01  5.884156261976447e-18

 7.933768487391078e-18 -2.679626072309074e-19 -9.551277439282834e-01
-2.679626072309074e-19  8.348094067271315e-18  4.133097601529720e-01
-9.551277439282834e-01  4.133097601529720e-01  6.699207818731752e-18

 7.993462657940549e-18 -2.721394195646765e-19 -9.582341051375596e-01
-2.721394195646765e-19  8.350111639539461e-18  4.114867826047678e-01
-9.582341051375596e-01  4.114867826047678e-01  6.975022320081476e-18

 7.993921684271473e-18 -2.474995131830711e-19 -9.598904000294579e-01
-2.474995131830711e-19  8.452975533746329e-18  4.045978169472462e-01
-9.598904000294579e-01  4.045978169472462e-01  7.268398042764107e-18

 7.738228872986220e-18 -2.254014480588545e-19 -9.500903281481351e-01
-2.254014480588545e-19  8.304035112728537e-18  4.066847149866130e-01
-9.500903281481351e-01  4.066847149866130e-01  6.708578670666721e-18

 7.617892477192931e-18 -1.948605832255029e-19 -9.472410800857259e-01
-1.948605832255029e-19  8.449706712929402e-18  3.967145032752924e-01
-9.472410800857259e-01  3.967145032752924e-01  6.672902779002164e-18

 7.757129336470913e-18 -1.726200299692641e-19 -9.550463859727161e-01
-1.726200299692641e-19  8.521210597000404e-18  3.914837768022624e-01
-9.550463859727161e-01  3.914837768022624e-01  7.188642562559752e-18

 7.722963867622748e-18 -1.614592775949614e-19 -9.579792600518851e-01
-1.614592775949614e-19  8.427433077591079e-18  3.983437605175750e-01
-9.579792600518851e-01  3.983437605175750e-01  7.141577910808858e-18

 7.882561307366718e-18 -1.286306008800136e-19 -9.705297371047863e-01
-1.286306008800136e-19  7.998774888000138e-18  3.991940903240718e-01
-9.705297371047863e-01  3.991940903240718e-01  7.599648704207750e-18

 7.715630293262414e-18 -1.323498645707087e-19 -9.677966469878094e-01
-1.323498645707087e-19  7.952334735018662e-18  4.019353306249783e-01
-9.677966469878094e-01  4.019353306249783e-01  7.246639066510110e-18

 7.591707503054848e-18 -1.271752174459129e-19 -9.701951234053949e-01
-1.271752174459129e-19  7.954638321746506e-18  3.960989803396056e-01
-9.701951234053949e-01  3.960989803396056e-01  7.060379405530206e-18

 7.581182491201541e-18 -1.292993242604013e-19 -9.789284025474883e-01
-1.292993242604013e-19  7.380356621484216e-18  4.058100634331732e-01
-9.789284025474883e-01  4.058100634331732e-01  7.057608062807601e-18

 7.447805881390800e-18 -1.467889486569603e-19 -9.835653835561809e-01
-1.467889486569603e-19  7.438856513760700e-18  4.227037928971831e-01
-9.835653835561809e-01  4.227037928971831e-01  6.736515269906324e-18

 7.137951100990522e-18 -1.406298550150459e-19 -9.780782825103123e-01
-1.406298550150459e-19  7.182113328457674e-18  4.218740906361541e-01
-9.780782825103123e-01  4.218740906361541e-01  5.960778176485841e-18

 6.990911223964721e-18 -8.646957570772792e-20 -9.827688226935536e-01
-8.646957570772792e-20  8.108915775597498e-18  3.971186759407327e-01
-9.827688226935536e-01  3.971186759407327e-01  5.755681878554702e-18

 9.039914265688968e-18  1.788719377791242e-19 -1.084596960192377e+00
 1.788719377791242e-19  1.143292489983090e-17  3.056663147396180e-01
-1.084596960192377e+00  3.056663147396180e-01  1.180760351352893e-17

 9.059498153327402e-18 -8.303472468509012e-20 -1.099753358218221e+00
-8.303472468509012e-20  9.539638762120455e-18  3.904802526154810e-01
-1.099753358218221e+00  3.904802526154810e-01  1.120089225011201e-17

 1.322850481185100e-17  4.298786518477351e-19 -1.315921257017399e+00
 4.298786518477351e-19  1.014557907528170e-17  3.913798149326577e-01
-1.315921257017399e+00  3.913798149326577e-01  2.299810689099586e-17

-4.009054930143537e-19  3.124425402191654e-18 -8.528921907085890e-01
 3.124425402191654e-18 -8.200531023062636e-18  7.832661010171857e-01
-8.528921907085890e-01  7.832661010171857e-01 -1.044471665794449e-17

 4.703346570754452e-18  1.258904197146970e-18 -9.897312408849706e-01
 1.258904197146970e-18  2.703717105632837e-18  5.018736068560932e-01
-9.897312408849706e-01  5.018736068560932e-01  2.235222131072365e-18

 1.102041832474215e-17 -2.855132782338546e-18 -1.126370536439920e+00
-2.855132782338546e-18  1.817502844992881e-17  1.906704869603363e-01
-1.126370536439920e+00  1.906704869603363e-01  1.461140676685846e-17

 3.739949320177116e-18 -8.832415620941984e-19 -8.897034390174196e-01
-8.832415620941984e-19  6.232743535714454e-18  4.207394152928667e-01
-8.897034390174196e-01  4.207394152928667e-01 -1.959367621688281e-18

 1.830560646673947e-18 -1.489295125183233e-18 -8.167067975130895e-01
-1.489295125183233e-18 -2.321203956801730e-18  6.871211640174866e-01
-8.167067975130895e-01  6.871211640174866e-01 -7.169600238983141e-18

 7.664421911627214e-18 -6.772782005352692e-19 -1.086398910866019e+00
-6.772782005352692e-19  4.641229443298735e-18  4.857723981046650e-01
-1.086398910866019e+00  4.857723981046650e-01  9.662281997212710e-18

 6.330828502348757e-18 -4.975478833504752e-19 -1.044627379518987e+00
-4.975478833504752e-19  3.157549288710891e-18  5.130630132527906e-01
-1.044627379518987e+00  5.130630132527906e-01  6.183443410167300e-18

 6.355630917015100e-18 -5.887902400608054e-19 -1.044147615961566e+00
-5.887902400608054e-19  6.579773158015394e-18  4.031478841316573e-01
-1.044147615961566e+00  4.031478841316573e-01  7.544142522132630e-18

 5.855286289167024e-18 -5.727401272075696e-19 -1.037556860128342e+00
-5.727401272075696e-19  4.803752082060009e-18  4.437922157531429e-01
-1.037556860128342e+00  4.437922157531429e-01  6.432872191460681e-18

 7.891701702413851e-18 -4.677368954532703e-19 -1.147367562831016e+00
-4.677368954532703e-19  7.459370736727155e-18  3.729446303119219e-01
-1.147367562831016e+00  3.729446303119219e-01  1.300766542119625e-17

 7.764618706823511e-18 -6.906098303804943e-19 -1.152383099302152e+00
-6.906098303804943e-19  4.881834596440243e-18  4.384416806116370e-01
-1.152383099302152e+00  4.384416806116370e-01  1.282570357723000e-17

 2.368183951581016e-18 -9.654412284768879e-19 -9.345572661471532e-01
-9.654412284768879e-19 -4.118948667672512e-18  6.938344469391222e-01
-9.345572661471532e-01  6.938344469391222e-01 -3.248605637898459e-18

 6.828684436850396e-18 -6.431163556185644e-19 -1.127401552981510e+00
-6.431163556185644e-19  2.439061163379193e-18  4.914303036554579e-01
-1.127401552981510e+00  4.914303036554579e-01  1.077522768976010e-17

 6.151236805790421e-18 -9.749569852778140e-19 -1.093109856386718e+00
-9.749569852778140e-19  5.266192072003248e-18  4.019453929301157e-01
-1.093109856386718e+00  4.019453929301157e-01  1.031621115736092e-17

 1.837924685243624e-17 -1.668767381243892e-18 -1.016990778698883e+00
-1.668767381243892e-18  2.704925772699534e-18  4.316666092786351e-01
-1.016990778698883e+00  4.316666092786351e-01  5.620319308842053e-18

 1.797927524728234e-17 -1.703508071616963e-18 -1.014085975229171e+00
-1.703508071616963e-18  8.475403890823007e-19  4.528330617450957e-01
-1.014085975229171e+00  4.528330617450957e-01  5.555427045483491e-18

 1.772014525782423e-17 -1.783114573898015e-18 -1.017377901917820e+00
-1.783114573898015e-18  1.780590518878805e-19  4.478662827536914e-01
-1.017377901917820e+00  4.478662827536914e-01  5.947923510982244e-18

 1.162313467145929e-18 -1.095186631966114e-18 -1.014589657291008e+00
-1.095186631966114e-18 -1.102351644524952e-18  4.429592125174885e-01
-1.014589657291008e+00  4.429592125174885e-01  5.807183281940195e-18

 1.871657182176950e-18 -1.265512910168791e-18 -1.015468488749099e+00
-1.265512910168791e-18 -2.123763247897284e-18  4.417675200715966e-01
-1.015468488749099e+00  4.417675200715966e-01  5.728247338318504e-18

 1.517597265971269e-18 -1.413200777330562e-18 -1.015158288207105e+00
-1.413200777330562e-18 -3.474517529848237e-18  4.426689398999941e-01
-1.015158288207105e+00  4.426689398999941e-01  5.434288399908733e-18

 9.377939613920587e-19 -1.528362005578569e-18 -1.019945620432020e+00
-1.528362005578569e-18 -4.503462676528032e-18  4.377714906485397e-01
-1.019945620432020e+00  4.377714906485397e-01  5.399825507628724e-18

 2.254635407062233e-19 -1.656613496704912e-18 -1.020214866371594e+00
-1.656613496704912e-18 -5.628262495881935e-18  4.462556731104834e-01
-1.020214866371594e+00  4.462556731104834e-01  4.819997582269301e-18

-9.902486478428211e-19 -1.901576792070120e-18 -1.029205105680448e+00
-1.901576792070120e-18 -7.245508295016297e-18  4.499620390924023e-01
-1.029205105680448e+00  4.499620390924023e-01  4.196479280971432e-18

-1.928357124378225e-18 -2.156451084393922e-18 -1.064127900591991e+00
-2.156451084393922e-18 -9.486524583607467e-18  4.562566209247899e-01
-1.064127900591991e+00  4.562566209247899e-01  4.947050478095863e-18

-3.026394092436650e-18 -2.105225553160727e-18 -1.107541394881131e+00
-2.105225553160727e-18 -1.020302946843311e-17  4.028961776529768e-01
-1.107541394881131e+00  4.028961776529768e-01  5.921978065228132e-18

 3.759717441684995e-19 -2.061661813972122e-18 -1.349121454490444e+00
-2.061661813972122e-18 -1.359470024294535e-17  4.793421856123586e-01
-1.349121454490444e+00  4.793421856123586e-01  1.963207129914884e-17

-2.293533834948446e-18 -1.563504752619266e-18 -1.314693166195100e+00
-1.563504752619266e-18 -1.782135883342420e-17  4.399841717236977e-01
-1.314693166195100e+00  4.399841717236977e-01  1.641545337352986e-17

-3.910712410472629e-18 -4.242961653249280e-18 -1.236552377851393e+00
-4.242961653249280e-18 -1.630000501128959e-17  3.428335090868584e-01
-1.236552377851393e+00  3.428335090868584e-01  1.479666645232379e-17

-1.111211963050299e-17 -4.003416463152065e-18 -1.010034167822026e+00
-4.003416463152065e-18 -2.669799763786220e-17  4.634994375436272e-01
-1.010034167822026e+00  4.634994375436272e-01 -2.688272432379961e-19

-1.624050622517664e-17 -5.687686257991465e-18 -8.644367257809445e-01
-5.687686257991465e-18 -3.220775647433405e-17  4.722223123552983e-01
-8.644367257809445e-01  4.722223123552983e-01 -7.970758159003382e-18

-1.175447556136826e-17 -8.524252982400522e-18 -1.095730960028975e+00
-8.524252982400522e-18 -2.159894373841719e-17  1.645926517878618e-01
-1.095730960028975e+00  1.645926517878618e-01  1.017277330221398e-17

-1.799591862002044e-17 -7.662219325347386e-18 -9.335110508473565e-01
-7.662219325347386e-18 -3.647898902881800e-17  4.054240428395343e-01
-9.335110508473565e-01  4.054240428395343e-01 -2.905399676693446e-18

-2.582343272202511e-17 -9.839179233170701e-18 -7.699179966458193e-01
-9.839179233170701e-18 -4.586456515758228e-17  5.045225061214029e-01
-7.699179966458193e-01  5.045225061214029e-01 -1.532259066387957e-17

-2.101543356544857e-17 -1.175267199118741e-17 -1.126353997517883e+00
-1.175267199118741e-17 -3.058283217413777e-17 -2.713043433795457e-02
-1.126353997517883e+00 -2.713043433795457e-02  3.011513348738248e-18

-2.604187194017125e-17 -9.850464609366343e-18 -1.008194841855446e+00
-9.850464609366343e-18 -4.281985801827615e-17  1.468478110335354e-01
-1.008194841855446e+00  1.468478110335354e-01 -1.029508566095232e-17

-2.438538304544305e-17 -1.140919823177097e-17 -1.085843107699270e+00
-1.140919823177097e-17 -5.525458937970872e-17  5.434239248616353e-01
-1.085843107699270e+00  5.434239248616353e-01  5.340211609566861e-18

-3.351475409786315e-17 -8.127261260760852e-18 -8.591076158089223e-01
-8.127261260760852e-18 -7.773785261326657e-17  1.002456540828114e+00
-8.591076158089223e-01  1.002456540828114e+00 -1.519373087247855e-17

-2.604056530462375e-17 -1.046915724232606e-17 -1.325895716753144e+00
-1.046915724232606e-17 -6.493077105969916e-17  4.494005609810655e-01
-1.325895716753144e+00  4.494005609810655e-01  1.124596480241375e-17

-4.504981500858015e-17 -2.025632576400927e-17 -9.374078450873067e-01
-2.025632576400927e-17 -7.862099611148839e-17  4.238099555493496e-01
-9.374078450873067e-01  4.238099555493496e-01 -1.443508726036742e-17

-5.749100468742333e-17 -2.541373095157658e-17 -9.836394134547809e-01
-2.541373095157658e-17 -1.047600353910171e-16  4.732749616923517e-01
-9.836394134547809e-01  4.732749616923517e-01 -1.645645406802697e-17

-6.190580820940572e-17 -3.067300661940976e-17 -1.231211115280460e+00
-3.067300661940976e-17 -1.138510106176618e-16  3.222050150959571e-01
-1.231211115280460e+00  3.222050150959571e-01 -2.527350394350167e-18

-6.777465270337477e-17 -3.209987107909550e-17 -1.151762894392427e+00
-3.209987107909550e-17 -1.241141599925452e-16  3.959279090215747e-01
-1.151762894392427e+00  3.959279090215747e-01 -9.680558071104267e-18

-7.995916787573034e-17 -3.513052717665840e-17 -9.524825851609682e-01
-3.513052717665840e-17 -1.427339828419324e-16  5.653192798383389e-01
-9.524825851609682e-01  5.653192798383389e-01 -2.692741945478319e-17

-1.037253485238471e-16 -4.975988101807889e-17 -9.679360369651628e-01
-4.975988101807889e-17 -1.673723617951867e-16  4.002870181541460e-01
-9.679360369651628e-01  4.002870181541460e-01 -3.299994366148442e-17

-1.119736437795277e-16 -6.239120629714159e-17 -1.656550931060444e+00
-6.239120629714159e-17 -1.768925214442508e-16 -1.210865951705876e-01
-1.656550931060444e+00 -1.210865951705876e-01 -1.140841820613528e-18

-1.282220905180885e-16 -5.169837215987598e-17 -1.005691197549819e+00
-5.169837215987598e-17 -2.292208649739522e-16  6.855530161501460e-01
-1.005691197549819e+00  6.855530161501460e-01 -3.803134690442067e-17

-1.418785814950095e-16 -5.044803571318672e-17 -8.899296639861235e-01
-5.044803571318672e-17 -2.687697540968438e-16  9.263714330200683e-01
-8.899296639861235e-01  9.263714330200683e-01 -4.911692618647617e-17

-1.627749362187041e-16 -7.801826322318265e-17 -1.208855457137743e+00
-7.801826322318265e-17 -2.755752997579263e-16  4.375861230948118e-01
-1.208855457137743e+00  4.375861230948118e-01 -3.754322111011216e-17

-1.909816988001901e-16 -1.009729440593059e-16 -1.177315352324453e+00
-1.009729440593059e-16 -2.823877709583166e-16  2.943276141153188e-01
-1.177315352324453e+00  2.943276141153188e-01 -4.426814755769043e-17

-2.063597729321628e-16 -1.124720680995200e-16 -1.208132579913057e+00
-1.124720680995200e-16 -2.910771564679585e-16  2.194425247279039e-01
-1.208132579913057e+00  2.194425247279039e-01 -4.564080986547748e-17

-2.210611494977383e-16 -1.161309974926113e-16 -1.028522166079161e+00
-1.161309974926113e-16 -3.143763068310918e-16  3.610212751445545e-01
-1.028522166079161e+00  3.610212751445545e-01 -6.222778087484886e-17

-2.498706339189742e-16 -1.291399468158932e-16 -9.858327660511301e-01
-1.291399468158932e-16 -3.546575105965742e-16  4.516972890866434e-01
-9.858327660511301e-01  4.516972890866434e-01 -7.403678621767400e-17

-2.755080653109211e-16 -1.404452305052678e-16 -9.313992227291351e-01
-1.404452305052678e-16 -3.914222650430749e-16  5.440225754809552e-01
-9.313992227291351e-01  5.440225754809552e-01 -8.560409210762053e-17

-3.187279046329929e-16 -1.658761024219174e-16 -1.025828826147862e+00
-1.658761024219174e-16 -4.280489738194034e-16  4.738446842002806e-01
-1.025828826147862e+00  4.738446842002806e-01 -9.133721529006054e-17

-4.092078908049221e-16 -2.161475602394676e-16 -1.002579539004973e+00
-2.161475602394676e-16 -4.871740942768981e-16  4.358948199679635e-01
-1.002579539004973e+00  4.358948199679635e-01 -1.169134577380056e-16

-4.819620329329313e-16 -2.563412373011056e-16 -1.030450498843114e+00
-2.563412373011056e-16 -5.263952396390865e-16  3.728164373132982e-01
-1.030450498843114e+00  3.728164373132982e-01 -1.343232941595143e-16

-6.062518097220079e-16 -3.132059204864856e-16 -9.686651243597539e-01
-3.132059204864856e-16 -6.211498619987790e-16  4.407615989395763e-01
-9.686651243597539e-01  4.407615989395763e-01 -1.736639083176812e-16

-8.910201795018623e-16 -4.310996805615844e-16 -9.965491052816102e-01
-4.310996805615844e-16 -8.000325140666006e-16  4.413983417264186e-01
-9.965491052816102e-01  4.413983417264186e-01 -2.530372573720181e-16

-1.326304839146415e-15 -5.761023858293800e-16 -1.009583066263983e+00
-5.761023858293800e-16 -1.018769707307764e-15  4.398995267934245e-01
-1.009583066263983e+00  4.398995267934245e-01 -3.794909662858304e-16

-2.008426210450836e-15 -7.367798008522120e-16 -1.044981203059292e+00
-7.367798008522120e-16 -1.250231159812062e-15  3.938044056201382e-01
-1.044981203059292e+00  3.938044056201382e-01 -5.882432511924609e-16

-2.604033933511942e-15 -8.122593306488273e-16 -1.042443378117935e+00
-8.122593306488273e-16 -1.481243451694630e-15  4.215212739924798e-01
-1.042443378117935e+00  4.215212739924798e-01 -7.849893940232933e-16

-3.341057359223295e-15 -8.446538321769870e-16 -1.025156820314644e+00
-8.446538321769870e-16 -1.766999543212470e-15  4.680401727951214e-01
-1.025156820314644e+00  4.680401727951214e-01 -1.045706983579482e-15

-4.726207709652259e-15 -7.492551038111226e-16 -1.034919499448225e+00
-7.492551038111226e-16 -2.051855891315586e-15  4.429671247842258e-01
-1.034919499448225e+00  4.429671247842258e-01 -1.612060770742537e-15

-6.952561446954523e-15 -4.618332869589147e-16 -1.035983511074259e+00
-4.618332869589147e-16 -2.296323478682563e-15  3.986045635723978e-01
-1.035983511074259e+00  3.986045635723978e-01 -2.656308279332151e-15

-9.642614792720828e-15  1.425198066887787e-16 -1.021781611019724e+00
 1.425198066887787e-16 -2.730775972301328e-15  4.071900359997087e-01
-1.021781611019724e+00  4.071900359997087e-01 -4.084067046233478e-15

-1.419256307546806e-14  1.454495796818211e-15 -9.906309234618587e-01
 1.454495796818211e-15 -3.263470975696465e-15  4.431252146258723e-01
-9.906309234618587e-01  4.431252146258723e-01 -6.651484326745175e-15

 1.662787266494072e-14  2.562850410958707e-14 -1.000960119207468e+00
 2.562850410958707e-14  3.033771917147437e-14  4.269545872137399e-01
-1.000960119207468e+00  4.269545872137399e-01 -1.692572251218314e-15

-6.435781737189994e-13 -1.541466384710891e-13 -1.008885674210693e+00
-1.541466384710891e-13 -2.779590140196743e-13  4.281057759903142e-01
-1.008885674210693e+00  4.281057759903142e-01 -2.106858356303628e-13

 1.988770215800024e-14  3.902307551220543e-15 -1.018846312664261e+00
 3.902307551220543e-15  2.254342852154437e-14  4.219127113757363e-01
-1.018846312664261e+00  4.219127113757363e-01 -4.047585311733146e-15

-7.335102188713481e-15 -1.171065471114213e-14 -1.017132146626520e+00
-1.171065471114213e-14 -7.371258746617791e-16  4.195755768724616e-01
-1.017132146626520e+00  4.195755768724616e-01 -8.235177387524372e-15

-6.499395996388728e-13 -1.509599886757476e-13 -1.016321979199975e+00
-1.509599886757476e-13 -3.232522376970186e-13  4.229808151354605e-01
-1.016321979199975e+00  4.229808151354605e-01 -1.586879774180872e-13

-4.019422943214960e-15 -8.978860615756116e-15 -1.015216378648202e+00
-8.978860615756116e-15  5.611674206030443e-16  4.221989252485298e-01
-1.015216378648202e+00  4.221989252485298e-01 -4.512316759574730e-15

-3.136120058695518e-15 -7.101323391869152e-15 -1.014269759423854e+00
-7.101323391869152e-15  1.255351738582501e-15  4.219431884996652e-01
-1.014269759423854e+00  4.219431884996652e-01 -3.314874851528827e-15

-2.606370670939707e-15 -4.449303424231821e-15 -1.015001717788869e+00
-4.449303424231821e-15  1.493575287912252e-15  4.212455262106402e-01
-1.015001717788869e+00  4.212455262106402e-01 -2.023731490579507e-15

-1.913922990221399e-15 -2.071696313759670e-15 -1.014429709379595e+00
-2.071696313759670e-15  1.159373203979456e-15  4.227711726136556e-01
-1.014429709379595e+00  4.227711726136556e-01 -1.070129802817180e-15

-1.375793612315928e-15 -9.983308599829070e-16 -1.014130518412423e+00
-9.983308599829070e-16  7.266984285315444e-16  4.231793464505075e-01
-1.014130518412423e+00  4.231793464505075e-01 -6.352209210796055e-16

-9.590428914471233e-16 -4.723344386729087e-16 -1.015457240919771e+00
-4.723344386729087e-16  4.057115627563525e-16  4.244685819096296e-01
-1.015457240919771e+00  4.244685819096296e-01 -3.918400366180674e-16

-6.616325728472501e-16 -2.205105996258220e-16 -1.018225953152291e+00
-2.205105996258220e-16  2.070483149731544e-16  4.264902930462859e-01
-1.018225953152291e+00  4.264902930462859e-01 -2.495035423023284e-16

-4.645947695107521e-16 -1.045285251394754e-16 -1.018184705585318e+00
-1.045285251394754e-16  9.738630240310803e-17  4.302634744958165e-01
-1.018184705585318e+00  4.302634744958165e-01 -1.661810765491706e-16

-3.469842697230921e-16 -5.555550243785194e-17 -1.015822389567800e+00
-5.555550243785194e-17  4.457182841446047e-17  4.263574997668541e-01
-1.015822389567800e+00  4.263574997668541e-01 -1.202035862690044e-16

-2.317950357863358e-16 -2.755331005347200e-17 -1.020526032810947e+00
-2.755331005347200e-17  2.835449515997462e-17  4.378389973207451e-01
-1.020526032810947e+00  4.378389973207451e-01 -9.115329198271046e-17

-2.035183673293840e-16 -1.334492238647625e-17 -1.028905050709932e+00
-1.334492238647625e-17 -8.037375764092403e-18  4.245425377647901e-01
-1.028905050709932e+00  4.245425377647901e-01 -6.598518986306547e-17

-1.701821880580502e-16 -7.139676973307100e-18 -1.030570020453622e+00
-7.139676973307100e-18 -1.234388736857523e-17  4.325646092117679e-01
-1.030570020453622e+00  4.325646092117679e-01 -5.406211238145480e-17

-1.407700141126088e-16 -2.928010788644545e-18 -1.030216443968736e+00
-2.928010788644545e-18 -2.376741883905002e-17  4.465398182935478e-01
-1.030216443968736e+00  4.465398182935478e-01 -4.381206883415675e-17

-1.128526038008548e-16  1.144583368534981e-19 -1.037594306356730e+00
 1.144583368534981e-19 -1.506402239968107e-17  4.314082070936905e-01
-1.037594306356730e+00  4.314082070936905e-01 -3.364486943511240e-17

-9.384344274989031e-17  1.416642902964733e-18 -1.046609401748826e+00
 1.416642902964733e-18 -2.388838950035534e-17  4.467210514960402e-01
-1.046609401748826e+00  4.467210514960402e-01 -2.681087039773087e-17

-7.718513845915822e-17  2.208645206553583e-18 -1.066658779263112e+00
 2.208645206553583e-18 -1.484607461547342e-17  4.301653701451273e-01
-1.066658779263112e+00  4.301653701451273e-01 -2.009938845912110e-17

-6.547675504385146e-17  2.476788964481100e-18 -1.059046900554673e+00
 2.476788964481100e-18 -1.509709329235673e-17  4.622157205118288e-01
-1.059046900554673e+00  4.622157205118288e-01 -1.708556790928364e-17

-5.706833559717416e-17  2.547922479007161e-18 -1.075326491197958e+00
 2.547922479007161e-18 -1.626840465819362e-17  4.287115270949279e-01
-1.075326491197958e+00  4.287115270949279e-01 -1.332123067291749e-17

-4.275119829406824e-17  2.324215706989001e-18 -1.164541485390538e+00
 2.324215706989001e-18 -1.274884790060777e-17  4.014085267433101e-01
-1.164541485390538e+00  4.014085267433101e-01 -4.149661719932422e-18

-3.846552006212508e-17  1.898957104999575e-18 -1.076306320511300e+00
 1.898957104999575e-18 -1.047827014666238e-17  6.094430418546491e-01
-1.076306320511300e+00  6.094430418546491e-01 -1.000617569255551e-17

-3.238812892656683e-17  2.209640393666516e-18 -1.207161270670279e+00
 2.209640393666516e-18 -1.282652907781298e-17  4.700070837337387e-01
-1.207161270670279e+00  4.700070837337387e-01  5.661548028291826e-19

-2.780180416142855e-17  1.996316631879755e-18 -1.127932157310593e+00
 1.996316631879755e-18 -8.720734763506351e-18  3.958926709095230e-01
-1.127932157310593e+00  3.958926709095230e-01 -8.072029518491240e-20

-2.465909670902670e-17  2.135140361377341e-18 -1.044502913661294e+00
 2.135140361377341e-18 -9.692714025977305e-18  4.296985428497855e-01
-1.044502913661294e+00  4.296985428497855e-01 -2.978621595365978e-18

-2.170947478854735e-17  2.101495925733298e-18 -1.020888425679645e+00
 2.101495925733298e-18 -7.759436890896140e-18  4.183070581358184e-01
-1.020888425679645e+00  4.183070581358184e-01 -2.319913131080846e-18

-2.024369516080249e-17  2.184236337831626e-18 -9.462305568203601e-01
 2.184236337831626e-18 -1.107959239347985e-17  4.788525831929549e-01
-9.462305568203601e-01  4.788525831929549e-01 -6.148443236389669e-18

-1.729075632269619e-17  1.981701295267174e-18 -9.768806724068229e-01
 1.981701295267174e-18 -6.200749690188703e-18  4.144892120315803e-01
-9.768806724068229e-01  4.144892120315803e-01 -2.146043243352451e-18

-1.523244861447030e-17  1.840090837704362e-18 -9.983275841694039e-01
 1.840090837704362e-18 -3.600343050626888e-18  3.581213701045196e-01
-9.983275841694039e-01  3.581213701045196e-01  5.702422227979888e-19

-1.465700892387596e-17  1.817067318238663e-18 -9.482732541938390e-01
 1.817067318238663e-18 -5.338579621203629e-18  4.373819150015905e-01
-9.482732541938390e-01  4.373819150015905e-01 -3.085421947654313e-18

-1.136385119695524e-17  1.636085184071966e-18 -1.005715301992127e+00
 1.636085184071966e-18 -4.917478972162098e-18  4.304603595381372e-01
-1.005715301992127e+00  4.304603595381372e-01  1.196048687038827e-18

-8.082237325987497e-18  1.402910935709105e-18 -1.017484578483464e+00
 1.402910935709105e-18 -2.461578049607855e-18  4.101782892962492e-01
-1.017484578483464e+00  4.101782892962492e-01  3.018536080853336e-18

-7.154689763750461e-18  1.313162813047712e-18 -9.770242151451788e-01
 1.313162813047712e-18 -3.459326662022280e-18  4.583274853952309e-01
-9.770242151451788e-01  4.583274853952309e-01  6.974856649443084e-19

-6.141383306999619e-18  1.185088980604464e-18 -9.648852244907140e-01
 1.185088980604464e-18 -9.668062168150817e-19  4.207987800135782e-01
-9.648852244907140e-01  4.207987800135782e-01  1.083866587191134e-18

-4.106014160140722e-18  1.047662804316227e-18 -9.823624258096267e-01
 1.047662804316227e-18  6.971112812304716e-19  4.170956563031541e-01
-9.823624258096267e-01  4.170956563031541e-01  2.915876889430593e-18

-1.858154602799728e-18  9.465713542845871e-19 -1.018525579738778e+00
 9.465713542845871e-19  8.546543138068151e-19  4.241605466485885e-01
-1.018525579738778e+00  4.241605466485885e-01  5.701341072477109e-18

-3.791897201773178e-18  1.046539793965167e-18 -9.065184806318554e-01
 1.046539793965167e-18 -7.991193910453343e-19  4.776775050958222e-01
-9.065184806318554e-01  4.776775050958222e-01 -2.009690923786840e-18

 4.269818068146708e-20  9.319589807147004e-19 -1.035434719469464e+00
 9.319589807147004e-19  6.697433897994321e-18  2.950428134502379e-01
-1.035434719469464e+00  2.950428134502379e-01  8.432836991590774e-18

 2.722740733019814e-18  1.038136654184089e-18 -1.133820848948689e+00
 1.038136654184089e-18  9.104067750215184e-18  2.175906187739420e-01
-1.133820848948689e+00  2.175906187739420e-01  1.518240234695627e-17

-4.873324428623320e-18  3.968758604880751e-19 -8.075042116360199e-01
 3.968758604880751e-19 -4.206225375358839e-18  5.686829805494727e-01
-8.075042116360199e-01  5.686829805494727e-01 -8.502276126466292e-18

 1.277554651842989e-18  5.782336063368837e-19 -1.041393403399611e+00
 5.782336063368837e-19  2.604030563341943e-18  4.132251494662957e-01
-1.041393403399611e+00  4.132251494662957e-01  6.813270160374936e-18

 1.839187033321627e-18  4.520332914792204e-19 -1.040469067568360e+00
 4.520332914792204e-19  3.517380544298815e-18  4.581476461741805e-01
-1.040469067568360e+00  4.581476461741805e-01  5.960896773435009e-18

 2.349832318071783e-18  4.168835194927717e-19 -1.048428766728392e+00
 4.168835194927717e-19  2.644761893585439e-18  4.611581689768250e-01
-1.048428766728392e+00  4.611581689768250e-01  6.495430023830467e-18

 3.051596165627391e-18  3.481103838179089e-19 -1.048194977848073e+00
 3.481103838179089e-19  4.944022920498823e-18  4.093674292265219e-01
-1.048194977848073e+00  4.093674292265219e-01  7.645475657544677e-18

 2.609533214683960e-18  3.159135673219699e-19 -1.001680911296077e+00
 3.159135673219699e-19  4.052266730088712e-18  4.315180915160170e-01
-1.001680911296077e+00  4.315180915160170e-01  5.253639859058991e-18

 3.094907783081626e-18  2.862348440024747e-19 -1.002322686119027e+00
 2.862348440024747e-19  5.554510704180079e-18  4.081601522390294e-01
-1.002322686119027e+00  4.081601522390294e-01  6.052865778238609e-18

 3.024248206480962e-18  2.672773283961573e-19 -9.850404940966774e-01
 2.672773283961573e-19  4.664318160805822e-18  4.128030372785122e-01
-9.850404940966774e-01  4.128030372785122e-01  5.180031488064469e-18

 3.687006866560195e-18  2.616952399162893e-19 -9.889644519275315e-01
 2.616952399162893e-19  6.298065464209195e-18  4.151649323491945e-01
-9.889644519275315e-01  4.151649323491945e-01  5.705592679249224e-18

 4.302480078306147e-18  1.975788906673376e-19 -9.986684977340288e-01
 1.975788906673376e-19  5.638462795746832e-18  4.320331542767653e-01
-9.986684977340288e-01  4.320331542767653e-01  6.229869899676499e-18

 4.661528932428930e-18  1.922148042980629e-19 -1.003427497591665e+00
 1.922148042980629e-19  5.870014750116608e-18  4.313832336778231e-01
-1.003427497591665e+00  4.313832336778231e-01  6.616049211349880e-18

 5.070476457060206e-18  1.762934833639041e-19 -1.006094546299761e+00
 1.762934833639041e-19  7.097858087329925e-18  4.017036094510609e-01
-1.006094546299761e+00  4.017036094510609e-01  7.195040844173449e-18

 5.226193800207908e-18  1.565973866155435e-19 -1.000649428105559e+00
 1.565973866155435e-19  7.074336263469851e-18  4.071687666861039e-01
-1.000649428105559e+00  4.071687666861039e-01  6.895191847078043e-18

 5.164775773799637e-18  1.475894780488726e-19 -9.910223874744889e-01
 1.475894780488726e-19  6.930299930165862e-18  4.198222637673293e-01
-9.910223874744889e-01  4.198222637673293e-01  6.220551348156195e-18

 5.552493382538172e-18  1.344044139014413e-19 -1.002041037189910e+00
 1.344044139014413e-19  7.052422408323995e-18  4.106644209785196e-01
-1.002041037189910e+00  4.106644209785196e-01  7.032666465961274e-18

 5.789414341647515e-18  1.233103883946926e-19 -1.001392000031454e+00
 1.233103883946926e-19  7.379541076180063e-18  4.117804774311277e-01
-1.001392000031454e+00  4.117804774311277e-01  7.069719248294962e-18

 6.143458700838692e-18  1.090736539874430e-19 -1.007033975896512e+00
 1.090736539874430e-19  7.939175107331748e-18  4.024780239169226e-01
-1.007033975896512e+00  4.024780239169226e-01  7.611921168486796e-18

 6.234885881839797e-18  9.157660368758352e-20 -1.005543272047630e+00
 9.157660368758352e-20  7.445612149544434e-18  4.047359725427451e-01
-1.005543272047630e+00  4.047359725427451e-01  7.510029991715244e-18

 6.385716642257380e-18  7.345864793433126e-20 -1.002087793953487e+00
 7.345864793433126e-20  7.464299279702355e-18  4.044875642559455e-01
-1.002087793953487e+00  4.044875642559455e-01  7.395946585786179e-18

 6.387378270995333e-18  7.021983320454433e-20 -9.944704145791539e-01
 7.021983320454433e-20  7.628256041099209e-18  4.164396292493225e-01
-9.944704145791539e-01  4.164396292493225e-01  6.842680800011683e-18

 6.483472317552406e-18  5.659649308372327e-20 -9.909646559245636e-01
 5.659649308372327e-20  8.407598459878602e-18  4.091248400299848e-01
-9.909646559245636e-01  4.091248400299848e-01  6.830964585854506e-18

 6.522131375674055e-18  3.686673066963213e-20 -9.838131129213290e-01
 3.686673066963213e-20  8.411965196880156e-18  4.148572086779850e-01
-9.838131129213290e-01  4.148572086779850e-01  6.396613034483967e-18

 6.962776517164320e-18  1.567298799467329e-20 -9.960737889756376e-01
 1.567298799467329e-20  8.158972939707136e-18  4.079221744766087e-01
-9.960737889756376e-01  4.079221744766087e-01  7.280622355172335e-18

 7.176936391425259e-18  1.772504959584369e-20 -1.000801015449182e+00
 1.772504959584369e-20  9.154394859329108e-18  4.064532433615544e-01
-1.000801015449182e+00  4.064532433615544e-01  7.644443392440166e-18

 6.984127596843154e-18  5.686096585774065e-21 -9.875370616014214e-01
 5.686096585774065e-21  8.253218712492930e-18  4.211333305194584e-01
-9.875370616014214e-01  4.211333305194584e-01  6.672601257745166e-18

 7.356062159671836e-18 -1.459768311278033e-20 -9.951951052413038e-01
-1.459768311278033e-20  9.081827824712947e-18  3.963071129629364e-01
-9.951951052413038e-01  3.963071129629364e-01  7.525103318983713e-18

 7.441925693673545e-18 -1.661282357446105e-20 -9.923286355712072e-01
-1.661282357446105e-20  8.422055818738599e-18  4.177320074349901e-01
-9.923286355712072e-01  4.177320074349901e-01  7.238704933769664e-18

 8.504225028675579e-18 -3.265186739177485e-20 -1.028187768245785e+00
-3.265186739177485e-20  1.076083111258113e-17  3.695890389653649e-01
-1.028187768245785e+00  3.695890389653649e-01  1.014072780334101e-17

 8.087150014128021e-18 -2.600906188419158e-20 -1.008621451445891e+00
-2.600906188419158e-20  1.031337883467553e-17  3.851304025280757e-01
-1.008621451445891e+00  3.851304025280757e-01  8.799539328059102e-18

 7.553788326560628e-18 -2.567858804490159e-20 -9.831603299891990e-01
-2.567858804490159e-20  9.588682861976891e-18  4.063777341565310e-01
-9.831603299891990e-01  4.063777341565310e-01  6.946042589236425e-18

 7.877362738694249e-18 -2.188183918734278e-20 -9.923066106505047e-01
-2.188183918734278e-20  1.027378615404780e-17  4.010032519888635e-01
-9.923066106505047e-01  4.010032519888635e-01  7.612337484153524e-18

 8.216556413339968e-18 -3.304359472658349e-20 -1.001842221974396e+00
-3.304359472658349e-20  9.946620461662496e-18  3.989737352993905e-01
-1.001842221974396e+00  3.989737352993905e-01  8.303447561983021e-18

 8.349816747309637e-18 -3.115599501689119e-20 -1.003729117636741e+00
-3.115599501689119e-20  1.038567887312935e-17  3.914543132826014e-01
-1.003729117636741e+00  3.914543132826014e-01  8.544812259787084e-18

 8.117944911317077e-18 -4.464635420169964e-20 -9.913227569397859e-01
-4.464635420169964e-20  9.470196253538466e-18  3.996209193908210e-01
-9.913227569397859e-01  3.996209193908210e-01  7.666585661478056e-18

 7.838026564924713e-18 -4.825964565086313e-20 -9.759737029931796e-01
-4.825964565086313e-20  9.175716462248610e-18  4.082547785740911e-01
-9.759737029931796e-01  4.082547785740911e-01  6.621080095707973e-18

 7.975282628185928e-18 -4.824898076845475e-20 -9.794955684249783e-01
-4.824898076845475e-20  9.742195567285387e-18  4.014612844417728e-01
-9.794955684249783e-01  4.014612844417728e-01  6.913103915805850e-18

 8.373527039656868e-18 -5.919205350325502e-20 -9.920025706905867e-01
-5.919205350325502e-20  9.993881356639951e-18  3.952242662020704e-01
-9.920025706905867e-01  3.952242662020704e-01  7.839336568867689e-18

 8.998499844220087e-18 -5.496708283428611e-20 -1.013218194280360e+00
-5.496708283428611e-20  1.094122220667909e-17  3.849118516013324e-01
-1.013218194280360e+00  3.849118516013324e-01  9.361165629288410e-18

 8.904903782676784e-18 -5.357139883559979e-20 -1.008015077506331e+00
-5.357139883559979e-20  1.055032996297242e-17  3.914052798679064e-01
-1.008015077506331e+00  3.914052798679064e-01  9.003521371826900e-18

 8.683795369740987e-18 -7.441095788093758e-20 -9.940064227991466e-01
-7.441095788093758e-20  1.025732816184559e-17  3.871489696003204e-01
-9.940064227991466e-01  3.871489696003204e-01  8.316860382212019e-18

 8.732576447451053e-18 -8.957802737374490e-20 -9.900779937142409e-01
-8.957802737374490e-20  1.063509371062570e-17  3.812095630100962e-01
-9.900779937142409e-01  3.812095630100962e-01  8.367202795873802e-18

 8.352657582931126e-18 -6.866339100210515e-20 -9.704265502103266e-01
-6.866339100210515e-20  9.328191618084669e-18  4.052421220733420e-01
-9.704265502103266e-01  4.052421220733420e-01  7.027352979606069e-18

 8.928410595503593e-18 -1.029796639541870e-19 -9.873900528705919e-01
-1.029796639541870e-19  1.105485571679167e-17  3.696759908463708e-01
-9.873900528705919e-01  3.696759908463708e-01  8.849778353454633e-18

 9.066506079050615e-18 -7.499101804287797e-20 -9.870977431319072e-01
-7.499101804287797e-20  1.056719843963522e-17  3.729104911823310e-01
-9.870977431319072e-01  3.729104911823310e-01  9.079625841980665e-18

 8.332374947913655e-18  5.316347715881662e-20 -9.553697103546949e-01
 5.316347715881662e-20  8.727973339635921e-18  4.139976285066457e-01
-9.553697103546949e-01  4.139976285066457e-01  6.877153818976709e-18

 8.033848217527919e-18  1.477947425009634e-21 -9.334862808043219e-01
 1.477947425009634e-21  8.617597468307505e-18  4.033431473791029e-01
-9.334862808043219e-01  4.033431473791029e-01  6.170544119894602e-18

 7.199288990912722e-18 -1.439900338331933e-19 -8.857320611667645e-01
-1.439900338331933e-19  8.684087782417976e-18  3.914224116059088e-01
-8.857320611667645e-01  3.914224116059088e-01  4.176753911696614e-18

 9.589021890560142e-18 -1.618473964302685e-19 -9.744670656146276e-01
-1.618473964302685e-19  1.240244684898623e-17  2.956712013116076e-01
-9.744670656146276e-01  2.956712013116076e-01  1.163245983417082e-17

 6.788643528136024e-18  7.959876175177451e-20 -8.621366152052263e-01
 7.959876175177451e-20  6.502304596232656e-18  4.358185342766554e-01
-8.621366152052263e-01  4.358185342766554e-01  2.989517251916215e-18

 5.154650565240726e-18 -6.750603284545296e-20 -7.836434302405803e-01
-6.750603284545296e-20  5.968751760773631e-18  4.401424825581136e-01
-7.836434302405803e-01  4.401424825581136e-01 -1.387723793652875e-18

 1.017893593818994e-17 -2.444483746134782e-19 -9.809534155755418e-01
-2.444483746134782e-19  1.732668260848717e-17  1.589503158908100e-01
-9.809534155755418e-01  1.589503158908100e-01  1.397797355339353e-17

 5.248571937923033e-18  1.905646258786944e-19 -7.904181743767628e-01
 1.905646258786944e-19  9.439338339226566e-18  3.431551878125728e-01
-7.904181743767628e-01  3.431551878125728e-01 -9.340778379449759e-19

 6.145014540872191e-18 -1.748913986349497e-19 -8.230853902614436e-01
-1.748913986349497e-19  7.053707809412492e-18  4.323130573104237e-01
-8.230853902614436e-01  4.323130573104237e-01  8.654653888982810e-19

 6.415735139619919e-18 -5.309767537985149e-19 -8.320931420057852e-01
-5.309767537985149e-19  5.572870566667922e-18  4.938941350046175e-01
-8.320931420057852e-01  4.938941350046175e-01  1.058167921746030e-18

 8.393560152027432e-18 -3.251835735108689e-19 -9.242996361959858e-01
-3.251835735108689e-19  8.545560778578635e-18  4.229376912170258e-01
-9.242996361959858e-01  4.229376912170258e-01  6.455121446997799e-18

 9.470311952690696e-18 -1.518707932026221e-19 -9.764314134173433e-01
-1.518707932026221e-19  1.095796291450077e-17  3.690634287030699e-01
-9.764314134173433e-01  3.690634287030699e-01  9.303741079160621e-18

 9.303442587825007e-18 -1.738149404131305e-19 -9.740390078525694e-01
-1.738149404131305e-19  1.066932189423329e-17  3.884938981162581e-01
-9.740390078525694e-01  3.884938981162581e-01  8.396235857814815e-18

 9.335858257443082e-18 -1.612780000794043e-19 -9.788114510894248e-01
-1.612780000794043e-19  1.069050794010316e-17  3.968610531772581e-01
-9.788114510894248e-01  3.968610531772581e-01  8.107710317688853e-18

 9.936752104421154e-18 -1.124530951568411e-19 -1.007263677733326e+00
-1.124530951568411e-19  1.237194216336349e-17  3.664023444110738e-01
-1.007263677733326e+00  3.664023444110738e-01  9.851964144809261e-18

 9.897058809643865e-18 -1.227999647644175e-19 -1.005730827493291e+00
-1.227999647644175e-19  1.181262486414581e-17  3.801966164239546e-01
-1.005730827493291e+00  3.801966164239546e-01  9.401843030167368e-18

 9.857351841972051e-18 -1.351531356640347e-19 -1.005625064239753e+00
-1.351531356640347e-19  1.198925347426079e-17  3.855448326670929e-01
-1.005625064239753e+00  3.855448326670929e-01  9.211490404138737e-18

 9.626372113153630e-18 -1.356845681479718e-19 -9.952984134218356e-01
-1.356845681479718e-19  1.174286099572691e-17  3.853402561429059e-01
-9.952984134218356e-01  3.853402561429059e-01  8.437682941374545e-18

 9.353471165306366e-18 -1.437215405601994e-19 -9.840552026797103e-01
-1.437215405601994e-19  1.132046310436362e-17  3.987014062864163e-01
-9.840552026797103e-01  3.987014062864163e-01  7.501846002312719e-18

 9.975440756025227e-18 -1.415559588105436e-19 -1.008585577380804e+00
-1.415559588105436e-19  1.213738548086184e-17  3.773909379560218e-01
-1.008585577380804e+00  3.773909379560218e-01  9.299986024742242e-18

 9.977402262846245e-18 -1.438665421093598e-19 -1.005343063266489e+00
-1.438665421093598e-19  1.214232485032521e-17  3.831314990046836e-01
-1.005343063266489e+00  3.831314990046836e-01  9.098862381750577e-18

 9.905901182118331e-18 -1.468978082567534e-19 -9.980318744017229e-01
-1.468978082567534e-19  1.200283951257231e-17  3.856200757270492e-01
-9.980318744017229e-01  3.856200757270492e-01  8.775309894277231e-18

 1.003193824107269e-17 -1.471031124259025e-19 -9.999644796003370e-01
-1.471031124259025e-19  1.200393503817835e-17  3.853462975379613e-01
-9.999644796003370e-01  3.853462975379613e-01  9.032884308743860e-18

 1.013789216510011e-17 -1.343634122036333e-19 -1.001401705388900e+00
-1.343634122036333e-19  1.236437001132548e-17  3.819016027454023e-01
-1.001401705388900e+00  3.819016027454023e-01  9.383871930280522e-18

 1.017908399666522e-17 -1.160659066138083e-19 -9.984718346243872e-01
-1.160659066138083e-19  1.158899441344807e-17  3.865779942363916e-01
-9.984718346243872e-01  3.865779942363916e-01  9.409867626418463e-18

 9.443933679186355e-18 -2.929482919631415e-21 -9.666627769398604e-01
-2.929482919631415e-21  1.022714863763021e-17  4.136745678932656e-01
-9.666627769398604e-01  4.136745678932656e-01  7.392890844904503e-18

 8.965452723424432e-18 -9.933928355651908e-20 -9.373949531637115e-01
-9.933928355651908e-20  1.049764732613867e-17  4.008080919976028e-01
-9.373949531637115e-01  4.008080919976028e-01  6.293915147373825e-18

 7.916626423746824e-18 -2.257339220498664e-19 -8.836022861998056e-01
-2.257339220498664e-19  1.049285973988246e-17  3.910980541844387e-01
-8.836022861998056e-01  3.910980541844387e-01  3.712771070604654e-18

 1.028306458674253e-17 -1.733593482221556e-19 -9.761280258026162e-01
-1.733593482221556e-19  1.421601807532581e-17  2.940611572448709e-01
-9.761280258026162e-01  2.940611572448709e-01  1.104802367004241e-17

 8.284730113061406e-18 -1.075773170649097e-19 -8.960307375605545e-01
-1.075773170649097e-19  9.285594600235612e-18  4.101706783792003e-01
-8.960307375605545e-01  4.101706783792003e-01  4.774959147221068e-18

 7.729483533032751e-18 -1.429643905432160e-19 -8.707375366639751e-01
-1.429643905432160e-19  9.246669025785133e-18  4.126737209498000e-01
-8.707375366639751e-01  4.126737209498000e-01  3.383604772301110e-18

 1.129533227275887e-17 -2.447126290508355e-19 -1.001899521329815e+00
-2.447126290508355e-19  1.632476881335919e-17  2.342472813227456e-01
-1.001899521329815e+00  2.342472813227456e-01  1.371716234634961e-17

 5.438613991950165e-18  2.261354480207872e-19 -8.492612052311959e-01
 2.261354480207872e-19  1.037343143098375e-17  3.790101673755955e-01
-8.492612052311959e-01  3.790101673755955e-01  1.703320519311118e-18

 2.492011689905647e-18  7.446636906594257e-19 -9.253127436642192e-01
 7.446636906594257e-19  1.038638301267724e-17  3.978655318294336e-01
-9.253127436642192e-01  3.978655318294336e-01  6.027831869193546e-18

 4.843261291276527e-17 -5.857823323877779e-18 -9.663334131717680e-01
-5.857823323877779e-18  1.153707632537010e-17  4.171863591000600e-01
-9.663334131717680e-01  4.171863591000600e-01  8.074205009418782e-18

-8.053541043550669e-17  1.287877873595733e-17 -1.000274755216960e+00
 1.287877873595733e-17  9.863612249475515e-18  3.970369895352242e-01
-1.000274755216960e+00  3.970369895352242e-01  9.810499190498531e-18

 9.932124768593628e-18 -3.689577462054112e-20 -1.015631653317647e+00
-3.689577462054112e-20  1.259680513934033e-17  3.780720904398165e-01
-1.015631653317647e+00  3.780720904398165e-01  1.056534791001765e-17

 9.176977150992340e-19  1.287791993577212e-18 -1.013568233421073e+00
 1.287791993577212e-18  1.271557698464883e-17  3.687893714384881e-01
-1.013568233421073e+00  3.687893714384881e-01  1.035914174247743e-17

 1.464455245261675e-17 -7.269603238906158e-19 -1.005705006058341e+00
-7.269603238906158e-19  1.340490413312341e-17  3.646994741086792e-01
-1.005705006058341e+00  3.646994741086792e-01  9.954404930802920e-18

 1.005630198926738e-17 -5.808530185875633e-20 -1.005339935938940e+00
-5.808530185875633e-20  1.337191083966830e-17  3.572240109295584e-01
-1.005339935938940e+00  3.572240109295584e-01  1.015867963216754e-17

 1.084036583046373e-17 -1.628891557488146e-19 -9.985564783183788e-01
-1.628891557488146e-19  1.249038338391725e-17  3.726751978685464e-01
-9.985564783183788e-01  3.726751978685464e-01  9.865175623107269e-18

 1.004404589368670e-17 -5.099650516741280e-20 -9.685303730853866e-01
-5.099650516741280e-20  1.125236570260015e-17  4.032088040429997e-01
-9.685303730853866e-01  4.032088040429997e-01  7.916851549252111e-18

 1.012301132994606e-17 -3.350803465356653e-20 -9.684623767362122e-01
-3.350803465356653e-20  1.115347736734243e-17  3.874784493946652e-01
-9.684623767362122e-01  3.874784493946652e-01  8.583784555444498e-18

 8.751910914822481e-18 -1.542722836165583e-19 -9.007079711199558e-01
-1.542722836165583e-19  1.065044853899649e-17  3.937832724899844e-01
-9.007079711199558e-01  3.937832724899844e-01  5.177135377018231e-18

 9.684122792963379e-18 -3.851510618047649e-19 -9.277990041220532e-01
-3.851510618047649e-19  1.271842427919146e-17  3.387769387258451e-01
-9.277990041220532e-01  3.387769387258451e-01  8.342117895631464e-18

 7.128160590415744e-18 -1.920439952890629e-19 -8.224538837422223e-01
-1.920439952890629e-19  9.015432111186480e-18  4.155256921706098e-01
-8.224538837422223e-01  4.155256921706098e-01  9.768591030421188e-19

 7.754004731227598e-18 -3.028974013838909e-20 -8.480120558722449e-01
-3.028974013838909e-20  1.174291673858317e-17  3.348467697589207e-01
-8.480120558722449e-01  3.348467697589207e-01  3.218834543526791e-18

 7.790229891352900e-18 -1.103757228944676e-20 -8.528967610264613e-01
-1.103757228944676e-20  1.036809967567730e-17  3.761059473718041e-01
-8.528967610264613e-01  3.761059473718041e-01  2.777009325255309e-18

 7.793405798544947e-18 -3.925817602545727e-19 -8.490568680311515e-01
-3.925817602545727e-19  7.986601554238223e-18  4.632405118625129e-01
-8.490568680311515e-01  4.632405118625129e-01  2.144307460724288e-18

 9.472143705309779e-18 -3.055693032288995e-19 -9.245206466740069e-01
-3.055693032288995e-19  9.897331845182754e-18  4.230262014172310e-01
-9.245206466740069e-01  4.230262014172310e-01  6.709565026382308e-18

 9.586846233933390e-18 -2.098553413842069e-19 -9.337725961717591e-01
-2.098553413842069e-19  1.083602898568159e-17  4.019085068402028e-01
-9.337725961717591e-01  4.019085068402028e-01  6.805256391796606e-18

 1.065795733164079e-17 -1.220947564363059e-19 -9.821814747083408e-01
-1.220947564363059e-19  1.345935342551638e-17  3.352646080939057e-01
-9.821814747083408e-01  3.352646080939057e-01  1.011118959323636e-17

 1.000097028580647e-17 -1.830784460738084e-19 -9.555228525905196e-01
-1.830784460738084e-19  1.140208604770744e-17  3.935667169663511e-01
-9.555228525905196e-01  3.935667169663511e-01  7.709920274616605e-18

 1.036302257914474e-17 -1.555313507129313e-19 -9.724262103045803e-01
-1.555313507129313e-19  1.154460544472041e-17  3.964276193287906e-01
-9.724262103045803e-01  3.964276193287906e-01  8.682706194114136e-18

 1.080828269837499e-17 -1.429933286684109e-19 -9.890680987781661e-01
-1.429933286684109e-19  1.256812570928821e-17  3.689638332666796e-01
-9.890680987781661e-01  3.689638332666796e-01  1.013648116324635e-17

 9.919151753325165e-18 -8.281370708978236e-20 -9.526025122642825e-01
-8.281370708978236e-20  1.109712841265420e-17  4.015899585724849e-01
-9.526025122642825e-01  4.015899585724849e-01  7.558639842828790e-18

 8.696883769974405e-18 -2.113765061208103e-19 -8.942695590167631e-01
-2.113765061208103e-19  1.132069740014397e-17  3.893477853036504e-01
-8.942695590167631e-01  3.893477853036504e-01  4.477569375618891e-18

 1.133739555575322e-17 -3.057901298362286e-19 -9.972120351189691e-01
-3.057901298362286e-19  1.676748931045243e-17  2.521597376384629e-01
-9.972120351189691e-01  2.521597376384629e-01  1.283123355873429e-17

 8.064871343745262e-18 -1.072959479052754e-19 -8.693069036081547e-01
-1.072959479052754e-19  1.160829368714322e-17  3.774876981688928e-01
-8.693069036081547e-01  3.774876981688928e-01  2.809570699662802e-18

 8.904078748230851e-18 -1.662872188614285e-19 -9.057478610907649e-01
-1.662872188614285e-19  1.089263903863231e-17  4.098892141873749e-01
-9.057478610907649e-01  4.098892141873749e-01  4.661727973495306e-18

 9.930930963823340e-18 -2.417955845319362e-19 -9.524673428548435e-01
-2.417955845319362e-19  1.127114340545023e-17  4.150656433254895e-01
-9.524673428548435e-01  4.150656433254895e-01  7.251133612805256e-18

 1.038684245407253e-17 -1.897478130877459e-19 -9.766312752453317e-01
-1.897478130877459e-19  1.206522393466980e-17  4.002567003057175e-01
-9.766312752453317e-01  4.002567003057175e-01  8.284990545815067e-18

 1.065400329041659e-17 -1.533510698983590e-19 -9.910350213307448e-01
-1.533510698983590e-19  1.305416596668247e-17  3.813841166915694e-01
-9.910350213307448e-01  3.813841166915694e-01  9.042687634791256e-18

 1.042771485396705e-17 -1.589882748493970e-19 -9.839612544461264e-01
-1.589882748493970e-19  1.243909197592245e-17  4.000416930762890e-01
-9.839612544461264e-01  4.000416930762890e-01  8.170208683671897e-18

 1.058559479729079e-17 -1.430873340667955e-19 -9.917054517254547e-01
-1.430873340667955e-19  1.312255908266374e-17  3.903007668038336e-01
-9.917054517254547e-01  3.903007668038336e-01  8.568901510880824e-18

 1.052623226235542e-17 -1.417389624790632e-19 -9.913729203460373e-01
-1.417389624790632e-19  1.300279694050206e-17  3.968872344257443e-01
-9.913729203460373e-01  3.968872344257443e-01  8.294971853807692e-18

 1.063781109475996e-17 -1.432908707639487e-19 -9.965534369877338e-01
-1.432908707639487e-19  1.288141987051123e-17  3.945425043667485e-01
-9.965534369877338e-01  3.945425043667485e-01  8.542654166004834e-18

 1.064270900610857e-17 -1.460120402645030e-19 -9.980434679597410e-01
-1.460120402645030e-19  1.292147473650760e-17  4.006125964871212e-01
-9.980434679597410e-01  4.006125964871212e-01  8.472922179863208e-18

 1.058262650158631e-17 -1.451106499143015e-19 -9.958971634636663e-01
-1.451106499143015e-19  1.286754129506869e-17  4.026930476294138e-01
-9.958971634636663e-01  4.026930476294138e-01  8.225879643965391e-18

 1.045166526950781e-17 -1.435472296569052e-19 -9.912238675544588e-01
-1.435472296569052e-19  1.302171878037343e-17  4.062462552417019e-01
-9.912238675544588e-01  4.062462552417019e-01  7.777388770728220e-18

 1.087279637060725e-17 -1.423307572738844e-19 -1.008474621852755e+00
-1.423307572738844e-19  1.337850874653413e-17  3.936662486098750e-01
-1.008474621852755e+00  3.936662486098750e-01  8.987273786263249e-18

 1.062747342414234e-17 -1.501188359433454e-19 -9.995001698680039e-01
-1.501188359433454e-19  1.285615473660499e-17  4.119011348416081e-01
-9.995001698680039e-01  4.119011348416081e-01  8.125628041534028e-18

 1.056530031844093e-17 -1.503099396348256e-19 -9.964449159987144e-01
-1.503099396348256e-19  1.272580254106143e-17  4.179025250099929e-01
-9.964449159987144e-01  4.179025250099929e-01  7.774770900774838e-18

 1.091016760040256e-17 -1.440974438738619e-19 -1.011550133136909e+00
-1.440974438738619e-19  1.352113484480115e-17  3.979383848258128e-01
-1.011550133136909e+00  3.979383848258128e-01  8.904116316925929e-18

 1.091306960785478e-17 -1.437378905846274e-19 -1.011805849089946e+00
-1.437378905846274e-19  1.320651757531694e-17  4.075331045348304e-01
-1.011805849089946e+00  4.075331045348304e-01  8.730332511277327e-18

 1.096062293763401e-17 -1.446249202153031e-19 -1.014380298879648e+00
-1.446249202153031e-19  1.317322962075999e-17  4.094667708979872e-01
-1.014380298879648e+00  4.094667708979872e-01  8.857789212937004e-18

 1.091042729805073e-17 -1.371086145526430e-19 -1.011834217810385e+00
-1.371086145526430e-19  1.333818672138098e-17  4.120502427882447e-01
-1.011834217810385e+00  4.120502427882447e-01  8.637597233083109e-18

 1.091053768398773e-17 -1.385158280597882e-19 -1.010982820768354e+00
-1.385158280597882e-19  1.365352326732124e-17  4.021644114492701e-01
-1.010982820768354e+00  4.021644114492701e-01  8.720371869662938e-18

 1.164134290942032e-17 -1.279728115783861e-19 -1.039072924815253e+00
-1.279728115783861e-19  1.468931995588562e-17  3.742894451477338e-01
-1.039072924815253e+00  3.742894451477338e-01  1.083407916679659e-17

 1.089262340728447e-17 -1.274689833375603e-19 -1.009459560792889e+00
-1.274689833375603e-19  1.285637382126317e-17  4.201618396521491e-01
-1.009459560792889e+00  4.201618396521491e-01  8.469569521215276e-18

 1.092084812194727e-17 -1.199417718505075e-19 -1.009594308970389e+00
-1.199417718505075e-19  1.284760582076218e-17  4.177903526012399e-01
-1.009594308970389e+00  4.177903526012399e-01  8.559595745483689e-18

 1.115605627302871e-17 -1.399854958900342e-19 -1.016181079441051e+00
-1.399854958900342e-19  1.378711416499994e-17  3.914086950409161e-01
-1.016181079441051e+00  3.914086950409161e-01  9.425518995008282e-18

 1.066454105946379e-17 -1.285335988679484e-19 -9.921823506077365e-01
-1.285335988679484e-19  1.341180456276928e-17  3.990823295835697e-01
-9.921823506077365e-01  3.990823295835697e-01  8.041410136801909e-18

 1.137748765702829e-17 -1.067575603752860e-19 -1.019835578131917e+00
-1.067575603752860e-19  1.347677638407499e-17  3.970137430320887e-01
-1.019835578131917e+00  3.970137430320887e-01  9.940358141273703e-18

 1.197749867529561e-17  3.430573559018296e-19 -1.049585196292863e+00
 3.430573559018296e-19  1.222178066286234e-17  4.087370053221642e-01
-1.049585196292863e+00  4.087370053221642e-01  1.189298422803933e-17

 1.491573850775996e-18  1.629741557936158e-18 -6.439961623225237e-01
 1.629741557936158e-18 -1.835549558339059e-19  6.501176530024332e-01
-6.439961623225237e-01  6.501176530024332e-01 -1.665972772764815e-17

 1.002957774380021e-17 -8.720598047252152e-19 -9.235932495118293e-01
-8.720598047252152e-19  1.611058957685611e-17  3.182507707748538e-01
-9.235932495118293e-01  3.182507707748538e-01  7.046158491162887e-18

 1.844255264199196e-17 -8.733293802820138e-19 -1.261265703412263e+00
-8.733293802820138e-19  2.933546522911313e-17 -2.568342069454913e-02
-1.261265703412263e+00 -2.568342069454913e-02  3.022455364584988e-17

 6.142957084151357e-18 -4.174167643643767e-19 -7.733163111493286e-01
-4.174167643643767e-19  1.194186736154766e-17  3.979236842584787e-01
-7.733163111493286e-01  3.979236842584787e-01 -3.626757692882102e-18

 7.839205552708749e-18 -5.838174785558218e-19 -8.473086402703794e-01
-5.838174785558218e-19  8.033089138271201e-18  5.193471347407800e-01
-8.473086402703794e-01  5.193471347407800e-01  5.422686120915927e-19

 1.037257848788031e-17 -2.209634932258786e-19 -9.672460116688401e-01
-2.209634932258786e-19  1.075050101041181e-17  4.557776024715475e-01
-9.672460116688401e-01  4.557776024715475e-01  7.132614552767417e-18

 1.059720398125014e-17 -5.925114029839971e-20 -9.849723331328194e-01
-5.925114029839971e-20  1.293744025861307e-17  4.042827553835704e-01
-9.849723331328194e-01  4.042827553835704e-01  7.744079961110674e-18

 1.086878141940549e-17 -4.609620006300596e-20 -1.003863249792441e+00
-4.609620006300596e-20  1.326197702627589e-17  4.098699639862043e-01
-1.003863249792441e+00  4.098699639862043e-01  8.160387899722094e-18

 1.151627623214957e-17 -5.828993629633838e-20 -1.038836857553013e+00
-5.828993629633838e-20  1.363725838187356e-17  4.180323919204910e-01
-1.038836857553013e+00  4.180323919204910e-01  9.579873109328008e-18

 1.203078910120327e-17 -1.785589130416053e-20 -1.065892613365411e+00
-1.785589130416053e-20  1.438063362601291e-17  4.041480667822762e-01
-1.065892613365411e+00  4.041480667822762e-01  1.082829953942585e-17

 1.224669943680298e-17 -2.337428189709348e-20 -1.082903823097654e+00
-2.337428189709348e-20  1.435768366401978e-17  4.197500687176162e-01
-1.082903823097654e+00  4.197500687176162e-01  1.113218810087260e-17

 1.206308855098928e-17 -8.776131263857442e-21 -1.082118003708550e+00
-8.776131263857442e-21  1.372825869464689e-17  4.395390701005875e-01
-1.082118003708550e+00  4.395390701005875e-01  1.029991963438502e-17

 1.238410226910721e-17 -9.573347351485073e-21 -1.099746166136755e+00
-9.573347351485073e-21  1.437214796018170e-17  4.256541243717718e-01
-1.099746166136755e+00  4.256541243717718e-01  1.124537038184449e-17

 1.198060629366234e-17 -6.507233784742347e-20 -1.090366693996200e+00
-6.507233784742347e-20  1.416678210525962e-17  4.353835925061489e-01
-1.090366693996200e+00  4.353835925061489e-01  1.005587589164655e-17

 1.177092819008161e-17 -1.478953529452781e-19 -1.087601484718873e+00
-1.478953529452781e-19  1.382560289929077e-17  4.526657255420310e-01
-1.087601484718873e+00  4.526657255420310e-01  9.402881738458072e-18

 1.171364488992742e-17 -2.281440108796304e-19 -1.085952495045675e+00
-2.281440108796304e-19  1.365420260840167e-17  4.610738209837337e-01
-1.085952495045675e+00  4.610738209837337e-01  9.262340617955770e-18

 1.165507655019896e-17 -2.774663856483768e-19 -1.081158741680708e+00
-2.774663856483768e-19  1.366423881125777e-17  4.571093114301780e-01
-1.081158741680708e+00  4.571093114301780e-01  9.230088850111950e-18

 1.157657227595496e-17 -3.139402085467970e-19 -1.075583356787962e+00
-3.139402085467970e-19  1.364342010022858e-17  4.627493259823969e-01
-1.075583356787962e+00  4.627493259823969e-01  9.066925478966774e-18

 1.171953075191400e-17 -3.280084697192270e-19 -1.077630794147727e+00
-3.280084697192270e-19  1.408039921460358e-17  4.519189461605044e-01
-1.077630794147727e+00  4.519189461605044e-01  9.613475187212188e-18

 1.174314446387434e-17 -3.449314400159771e-19 -1.073432835406664e+00
-3.449314400159771e-19  1.380497514461857e-17  4.539535857853015e-01
-1.073432835406664e+00  4.539535857853015e-01  9.754825955718525e-18

 1.173202194286913e-17 -3.429839204747025e-19 -1.067074271820403e+00
-3.429839204747025e-19  1.343551869689376e-17  4.613600601241932e-01
-1.067074271820403e+00  4.613600601241932e-01  9.765060761182770e-18

 1.021666106786854e-17 -3.105466827816321e-19 -1.001656961536329e+00
-3.105466827816321e-19  1.145192025326169e-17  5.033828199703174e-01
-1.001656961536329e+00  5.033828199703174e-01  5.294569444241045e-18

 1.161226004256143e-17 -3.031137795951854e-19 -1.053327128926222e+00
-3.031137795951854e-19  1.451746251525106e-17  4.241860262288314e-01
-1.053327128926222e+00  4.241860262288314e-01  9.814894457488124e-18

 1.076571161952027e-17 -2.972715959779067e-19 -1.013019862649299e+00
-2.972715959779067e-19  1.289301998658045e-17  4.548652904602850e-01
-1.013019862649299e+00  4.548652904602850e-01  7.347515199656226e-18

 1.130140171982450e-17 -2.763402471630471e-19 -1.030022281359849e+00
-2.763402471630471e-19  1.379499119993488e-17  4.261156497033893e-01
-1.030022281359849e+00  4.261156497033893e-01  9.086247242719435e-18

 1.158319033276679e-17 -2.776443273720907e-19 -1.037748152778682e+00
-2.776443273720907e-19  1.417226570724665e-17  4.164461348584812e-01
-1.037748152778682e+00  4.164461348584812e-01  9.985340728251159e-18

 1.059741460567935e-17 -2.457289493620765e-19 -9.931377724591954e-01
-2.457289493620765e-19  1.330178779571070e-17  4.280933237605822e-01
-9.931377724591954e-01  4.280933237605822e-01  7.236954079191656e-18

 1.110705705807549e-17 -2.503930363583665e-19 -1.011557911258202e+00
-2.503930363583665e-19  1.354293175310341e-17  4.170729936334417e-01
-1.011557911258202e+00  4.170729936334417e-01  8.705611950202440e-18

 1.088921544048639e-17 -2.541031900456611e-19 -9.978076553844049e-01
-2.541031900456611e-19  1.326427988920601e-17  4.168029189217194e-01
-9.978076553844049e-01  4.168029189217194e-01  8.178762963113842e-18

 1.096594248141631e-17 -2.643338674429084e-19 -9.952595413032359e-01
-2.643338674429084e-19  1.357148331754252e-17  4.062023705671042e-01
-9.952595413032359e-01  4.062023705671042e-01  8.517936197135999e-18

 1.194259199735427e-17 -2.349112601406708e-19 -1.028545526201091e+00
-2.349112601406708e-19  1.496663876362041e-17  3.670817165414718e-01
-1.028545526201091e+00  3.670817165414718e-01  1.151210496282843e-17

 9.823450918191438e-18 -6.086782678069964e-20 -9.374184801498604e-01
-6.086782678069964e-20  1.049033352115445e-17  4.680900931579147e-01
-9.374184801498604e-01  4.680900931579147e-01  5.175816468789035e-18

 1.045982863368402e-17  2.091756226714183e-20 -9.567395697433982e-01
 2.091756226714183e-20  1.083198016264922e-17  4.417703482973138e-01
-9.567395697433982e-01  4.417703482973138e-01  7.456213495865453e-18

 8.637229330453806e-18 -9.576437207660431e-20 -8.698599387526996e-01
-9.576437207660431e-20  1.035575452577005e-17  4.427268761630124e-01
-8.698599387526996e-01  4.427268761630124e-01  2.756626668277585e-18

 7.245786903544420e-18 -2.994852485764749e-19 -8.016580228799964e-01
-2.994852485764749e-19  1.023721858660374e-17  4.364351478739331e-01
-8.016580228799964e-01  4.364351478739331e-01 -8.072967849877847e-19

 1.259089261091210e-17 -6.369893041339781e-19 -1.008193299317047e+00
-6.369893041339781e-19  1.967806978404461e-17  2.034424343303012e-01
-1.008193299317047e+00  2.034424343303012e-01  1.556348012499569e-17

 7.397687932819906e-18 -6.006769394879922e-20 -8.089084664757087e-01
-6.006769394879922e-20  1.210233381554413e-17  3.694032930829083e-01
-8.089084664757087e-01  3.694032930829083e-01  1.329743413396182e-19

 8.271804331802456e-18 -2.111532932962886e-19 -8.457667628658879e-01
-2.111532932962886e-19  9.996215626119754e-18  4.431606552721700e-01
-8.457667628658879e-01  4.431606552721700e-01  1.929109284033990e-18

 1.004926192190332e-17 -2.582585174485296e-19 -9.263792776703255e-01
-2.582585174485296e-19  1.126711089371565e-17  4.277776690928657e-01
-9.263792776703255e-01  4.277776690928657e-01  6.530080759640464e-18

 1.071571957560760e-17 -1.355931205130759e-19 -9.667705127236416e-01
-1.355931205130759e-19  1.327782230018896e-17  3.926178113089231e-01
-9.667705127236416e-01  3.926178113089231e-01  8.089924129361538e-18

 1.115583853807566e-17 -1.321224710421211e-19 -9.944065392789992e-01
-1.321224710421211e-19  1.392249687595745e-17  3.903956935549942e-01
-9.944065392789992e-01  3.903956935549942e-01  9.042106017572796e-18

 1.076114242454060e-17 -1.573199659978220e-19 -9.826036500667885e-01
-1.573199659978220e-19  1.299052602734841e-17  4.248035232196345e-01
-9.826036500667885e-01  4.248035232196345e-01  7.547901201370000e-18

 1.129419305141516e-17 -1.271780872703362e-19 -1.005742222635277e+00
-1.271780872703362e-19  1.407305348418171e-17  3.899327909123149e-01
-1.005742222635277e+00  3.899327909123149e-01  9.210257024924703e-18

 1.148604512376631e-17 -1.216253425234363e-19 -1.027774739506095e+00
-1.216253425234363e-19  1.315289934939787e-17  4.173175494879420e-01
-1.027774739506095e+00  4.173175494879420e-01  9.048120977888781e-18

 1.012090981956513e-17 -1.166246873535606e-19 -9.681224756809690e-01
-1.166246873535606e-19  1.063518139866879e-17  4.127652951981093e-01
-9.681224756809690e-01  4.127652951981093e-01  5.479530133699281e-18

 1.106669845764166e-17 -3.166380515470208e-21 -1.015953965737852e+00
-3.166380515470208e-21  1.460830873707654e-17  4.805433277283622e-01
-1.015953965737852e+00  4.805433277283622e-01  7.318154208046517e-18

 1.153457849525214e-17 -5.492509656195522e-20 -1.031369281424321e+00
-5.492509656195522e-20  1.610606684983873e-17  4.512489448049551e-01
-1.031369281424321e+00  4.512489448049551e-01  8.760743613877180e-18

 1.197124735568634e-17 -2.388572025016445e-20 -1.045835275690794e+00
-2.388572025016445e-20  1.548916038121586e-17  3.924925891470855e-01
-1.045835275690794e+00  3.924925891470855e-01  1.051031159412360e-17

 1.140381879529468e-17 -5.478920178287727e-20 -1.018213260454594e+00
-5.478920178287727e-20  1.677592676745291e-17  4.149517809602928e-01
-1.018213260454594e+00  4.149517809602928e-01  8.944321228582482e-18

 1.126061549883608e-17 -9.123198137403264e-20 -1.011049289779987e+00
-9.123198137403264e-20  8.920593474818368e-18  4.314785009860862e-01
-1.011049289779987e+00  4.314785009860862e-01  8.457078072431233e-18

 1.129629394210596e-17 -1.351137779224092e-19 -1.013297808046446e+00
-1.351137779224092e-19  1.692249761047850e-17  4.286088073822246e-01
-1.013297808046446e+00  4.286088073822246e-01  8.708167185226609e-18

 1.130044249066895e-17 -1.466771590878027e-19 -1.015448364633724e+00
-1.466771590878027e-19  2.244378495205614e-17  4.250769911003285e-01
-1.015448364633724e+00  4.250769911003285e-01  8.780951617669353e-18

 1.122815579002170e-17 -1.903050255500289e-19 -1.015875656011039e+00
-1.903050255500289e-19  1.705660926997650e-17  4.336595458753016e-01
-1.015875656011039e+00  4.336595458753016e-01  8.514539603917556e-18

 1.127346086428259e-17 -2.073236904980601e-19 -1.021558820788619e+00
-2.073236904980601e-19  8.722770068404399e-18  4.377700348274456e-01
-1.021558820788619e+00  4.377700348274456e-01  8.564846818115547e-18

 1.129704611960943e-17 -2.274227703794842e-19 -1.025289386784882e+00
-2.274227703794842e-19  9.087824404696598e-18  4.441082930270225e-01
-1.025289386784882e+00  4.441082930270225e-01  8.555887679330683e-18

 1.132787840762767e-17 -2.434384782425419e-19 -1.030355859247604e+00
-2.434384782425419e-19  1.039125398154897e-17  4.445886511286798e-01
-1.030355859247604e+00  4.445886511286798e-01  8.626535148965322e-18

 1.133341309008107e-17 -2.768097522338345e-19 -1.035364468289371e+00
-2.768097522338345e-19  1.904748075388410e-17  4.588116891949696e-01
-1.035364468289371e+00  4.588116891949696e-01  8.511111314393123e-18

 1.145664145226952e-17 -2.969313921784739e-19 -1.046173826545512e+00
-2.969313921784739e-19  1.491856074883385e-17  4.572763877843606e-01
-1.046173826545512e+00  4.572763877843606e-01  8.800782058066244e-18

 1.149130234534058e-17 -3.158891537161053e-19 -1.054391875988236e+00
-3.158891537161053e-19  1.569858326217059e-17  4.645170193443334e-01
-1.054391875988236e+00  4.645170193443334e-01  8.748414890676356e-18

 1.190438957186161e-17 -3.389235169909277e-19 -1.075909417610310e+00
-3.389235169909277e-19  1.563731729161021e-17  4.672013820024348e-01
-1.075909417610310e+00  4.672013820024348e-01  9.791083397527165e-18

 1.187572973411710e-17 -3.573957211450731e-19 -1.079515621209422e+00
-3.573957211450731e-19  1.282764442470968e-17  4.827706705378412e-01
-1.079515621209422e+00  4.827706705378412e-01  9.547842543296538e-18

 1.164798353596444e-17 -3.746950466795965e-19 -1.075664330706644e+00
-3.746950466795965e-19  1.263023299033118e-17  4.954709793588475e-01
-1.075664330706644e+00  4.954709793588475e-01  8.734038833347314e-18

 1.167219316873588e-17 -3.118138026186692e-19 -1.081948278482560e+00
-3.118138026186692e-19  1.516839609109041e-17  4.770591943998660e-01
-1.081948278482560e+00  4.770591943998660e-01  8.826940690356561e-18

 1.183101238703525e-17 -2.734996418762160e-19 -1.092217130572360e+00
-2.734996418762160e-19  1.694957080271488e-17  4.627068916269605e-01
-1.092217130572360e+00  4.627068916269605e-01  9.204855232743867e-18

 1.176119709286463e-17 -2.232745202352199e-19 -1.092733349787262e+00
-2.232745202352199e-19  1.399373579855106e-17  5.018236218094919e-01
-1.092733349787262e+00  5.018236218094919e-01  8.598970137542350e-18

 1.189278830655082e-17 -1.781570448764330e-19 -1.096552712702744e+00
-1.781570448764330e-19  1.369756308715114e-17  4.927932602542773e-01
-1.096552712702744e+00  4.927932602542773e-01  9.006842922973382e-18

 1.172926839313336e-17 -1.000815923515289e-19 -1.082859002292572e+00
-1.000815923515289e-19  1.200347571468377e-17  4.623652924467136e-01
-1.082859002292572e+00  4.623652924467136e-01  8.747857278775095e-18

 1.204772539074091e-17 -6.585560774310572e-20 -1.094203329780354e+00
-6.585560774310572e-20  1.085972131052099e-17  4.746440542024934e-01
-1.094203329780354e+00  4.746440542024934e-01  9.536602000963735e-18

 1.187307453467261e-17 -5.733976256408220e-20 -1.086596018808609e+00
-5.733976256408220e-20  1.278272675724364e-17  4.897682048276645e-01
-1.086596018808609e+00  4.897682048276645e-01  8.973464881909919e-18

 1.214139891604916e-17 -5.468946785813030e-20 -1.093557961733326e+00
-5.468946785813030e-20  1.671750880510971e-17  4.457241123208780e-01
-1.093557961733326e+00  4.457241123208780e-01  1.007921130631604e-17

 1.219547060682970e-17 -5.490161070839210e-20 -1.094010646877877e+00
-5.490161070839210e-20  1.815457311483530e-17  4.409661397146952e-01
-1.094010646877877e+00  4.409661397146952e-01  1.028022546567384e-17

 1.209879848538727e-17 -4.757809515183310e-20 -1.090193428870815e+00
-4.757809515183310e-20  1.510652955102047e-17  4.634244230667353e-01
-1.090193428870815e+00  4.634244230667353e-01  9.912117374204446e-18

 1.119556923531176e-17 -7.340958512324486e-20 -1.052317428585754e+00
-7.340958512324486e-20  1.026211453265320e-17  5.011026058915952e-01
-1.052317428585754e+00  5.011026058915952e-01  7.193621461251442e-18

 1.187249271592946e-17 -6.872646340969721e-20 -1.077862394642167e+00
-6.872646340969721e-20  1.326375416307396e-17  4.413490196220911e-01
-1.077862394642167e+00  4.413490196220911e-01  9.533809069481146e-18

 1.182224541121935e-17 -6.116312106903288e-20 -1.076304803042786e+00
-6.116312106903288e-20  1.712987122573745e-17  4.499410868989686e-01
-1.076304803042786e+00  4.499410868989686e-01  9.368692449299997e-18

 1.200022477810536e-17 -5.519695689501043e-20 -1.085745222625426e+00
-5.519695689501043e-20  1.691975410647421e-17  4.593935057740984e-01
-1.085745222625426e+00  4.593935057740984e-01  9.759910300501109e-18

 1.231059755424867e-17 -6.792654401364969e-20 -1.099142771721787e+00
-6.792654401364969e-20  1.505011799509507e-17  4.429048681835157e-01
-1.099142771721787e+00  4.429048681835157e-01  1.071754774990401e-17

 1.283597103822846e-17 -1.022119569939781e-19 -1.121064607648530e+00
-1.022119569939781e-19  9.102705777149967e-18  4.574569977213048e-01
-1.121064607648530e+00  4.574569977213048e-01  1.205035613079855e-17

 1.084052299303716e-17 -2.636016746103539e-19 -1.036550086293840e+00
-2.636016746103539e-19  1.074995932842506e-17  5.558228939119876e-01
-1.036550086293840e+00  5.558228939119876e-01  6.047439434489212e-18

 9.629396804269960e-18 -2.383659493018716e-19 -9.844206130729849e-01
-2.383659493018716e-19  7.982442405836409e-18  5.466131274333853e-01
-9.844206130729849e-01  5.466131274333853e-01  2.874673018181835e-18

 1.394918010122738e-17  1.632965542722700e-19 -1.161773188812162e+00
 1.632965542722700e-19  1.871472994024389e-17  2.969739823091040e-01
-1.161773188812162e+00  2.969739823091040e-01  1.624041786744926e-17

 1.148494144157473e-17 -6.759498099244945e-20 -1.059089830903683e+00
-6.759498099244945e-20  1.226023822440761e-17  4.106167514725784e-01
-1.059089830903683e+00  4.106167514725784e-01  9.031410573058676e-18

 1.083870421153689e-17  8.017365680732303e-20 -1.049938667946915e+00
 8.017365680732303e-20  8.638948297180695e-18  5.090262438227743e-01
-1.049938667946915e+00  5.090262438227743e-01  7.188040834389377e-18

 6.772785513163549e-18  6.076375096086367e-19 -1.087877816895908e+00
 6.076375096086367e-19  1.293719860137457e-17  4.652450885666568e-01
-1.087877816895908e+00  4.652450885666568e-01  1.034729245632208e-17

 6.101329016861063e-18  6.209435770674733e-19 -1.056201453328728e+00
 6.209435770674733e-19  1.568818917732511e-17  4.431258998776662e-01
-1.056201453328728e+00  4.431258998776662e-01  8.754078123863584e-18

 2.019387279884610e-16 -2.378538910704179e-17 -1.045889245617059e+00
-2.378538910704179e-17  1.782070656808846e-17  4.579087183376283e-01
-1.045889245617059e+00  4.579087183376283e-01  8.102917973215030e-18

 1.649487592896451e-17 -7.085564853993782e-19 -1.066764430698373e+00
-7.085564853993782e-19  1.381070711568231e-17  4.368037968911911e-01
-1.066764430698373e+00  4.368037968911911e-01  9.423332590134013e-18

 9.534207053566237e-18  2.459580141652125e-19 -1.076048151553269e+00
 2.459580141652125e-19  1.114232271243911e-17  4.513112793057205e-01
-1.076048151553269e+00  4.513112793057205e-01  9.532716510016811e-18

 1.206424195536446e-17  1.152261878189537e-19 -1.116340351303760e+00
 1.152261878189537e-19  1.209566354231007e-17  4.438627113407593e-01
-1.116340351303760e+00  4.438627113407593e-01  1.200585821765144e-17

 1.174198324850228e-17 -1.639598851858712e-19 -1.069976776541629e+00
-1.639598851858712e-19  1.581282668477247e-17  5.068698434254121e-01
-1.069976776541629e+00  5.068698434254121e-01  8.246210365105380e-18

 1.143356174888739e-17 -1.352601675178661e-19 -1.062523886111324e+00
-1.352601675178661e-19  7.332442119566904e-18  5.154489769603103e-01
-1.062523886111324e+00  5.154489769603103e-01  7.900524616211151e-18

 6.143256776651833e-18  1.528309548446984e-18 -1.117310752721903e+00
 1.528309548446984e-18  1.454927554033792e-17  4.511455220659409e-01
-1.117310752721903e+00  4.511455220659409e-01  1.223362998259095e-17

 2.973379166259537e-17 -4.886947725689341e-18 -1.025889345228822e+00
-4.886947725689341e-18  1.772383645411261e-17  4.948503460195065e-01
-1.025889345228822e+00  4.948503460195065e-01  5.922110427833742e-18

 2.515306059811367e-17 -3.209596860940181e-18 -1.092041616110510e+00
-3.209596860940181e-18  1.543506743443186e-17  3.716852508832423e-01
-1.092041616110510e+00  3.716852508832423e-01  1.147756251540280e-17

-4.829830381833280e-17  1.484809603774771e-17 -1.056749930020441e+00
 1.484809603774771e-17  1.626184657775683e-17  4.215108302856309e-01
-1.056749930020441e+00  4.215108302856309e-01  9.017915365058100e-18

 1.157582634624296e-17 -7.118796562866097e-20 -1.056162506935078e+00
-7.118796562866097e-20  1.388411053980413e-17  4.787808230765930e-01
-1.056162506935078e+00  4.787808230765930e-01  8.413102142191305e-18

 1.179686533927671e-17 -9.912171197905036e-20 -1.061716895890862e+00
-9.912171197905036e-20  1.433860690172073e-17  4.385618114942341e-01
-1.061716895890862e+00  4.385618114942341e-01  9.332251017006379e-18

 1.149944596803388e-17 -7.617749463610789e-20 -1.052474801261787e+00
-7.617749463610789e-20  1.523671867089184e-17  4.443704507255483e-01
-1.052474801261787e+00  4.443704507255483e-01  8.838974392890153e-18

 1.144653175189299e-17 -5.309386121534836e-20 -1.055398758634113e+00
-5.309386121534836e-20  1.314385231872092e-17  4.389449813017793e-01
-1.055398758634113e+00  4.389449813017793e-01  9.096377705904942e-18

 1.166797935807432e-17 -6.732030101702381e-20 -1.064393657610263e+00
-6.732030101702381e-20  9.590539785491097e-18  4.248115870181174e-01
-1.064393657610263e+00  4.248115870181174e-01  9.838196674597926e-18

 1.224568304234363e-17 -7.037237480343600e-20 -1.088702904880733e+00
-7.037237480343600e-20  1.366267628731901e-17  4.347330649060094e-01
-1.088702904880733e+00  4.347330649060094e-01  1.131526476520979e-17

 1.010714258133252e-17 -1.067809057657677e-19 -1.002542213418359e+00
-1.067809057657677e-19  7.158841220054998e-18  5.280880623089274e-01
-1.002542213418359e+00  5.280880623089274e-01  4.825019486463081e-18

 1.079488544865789e-17 -8.320422115016864e-20 -1.028693446924013e+00
-8.320422115016864e-20  1.171751490518429e-17  4.777313056859636e-01
-1.028693446924013e+00  4.777313056859636e-01  7.134234182980051e-18

 1.436795348629493e-17  3.139967735334254e-20 -1.174074936474274e+00
 3.139967735334254e-20  1.974092807730889e-17  3.211623456403342e-01
-1.174074936474274e+00  3.211623456403342e-01  1.813575206125921e-17

 1.071728603301662e-17 -3.438334326653896e-20 -1.023725767947420e+00
-3.438334326653896e-20  1.244203736898203e-17  4.405283757634309e-01
-1.023725767947420e+00  4.405283757634309e-01  7.209462619966265e-18

 1.047630188803970e-17 -4.689795680064409e-20 -1.011921021967286e+00
-4.689795680064409e-20  8.683129076502921e-18  4.479058824767527e-01
-1.011921021967286e+00  4.479058824767527e-01  6.437521176530565e-18

 1.201731937705241e-17 -5.671573772458783e-20 -1.075156558993636e+00
-5.671573772458783e-20  1.374290609482576e-17  3.935324182723133e-01
-1.075156558993636e+00  3.935324182723133e-01  1.132092952166573e-17

 1.128111165273122e-17 -6.731699522703770e-20 -1.044901026587026e+00
-6.731699522703770e-20  1.430593669825352e-17  4.615763466287854e-01
-1.044901026587026e+00  4.615763466287854e-01  8.743147486580263e-18

 1.167728137619641e-17 -1.466870347566255e-19 -1.050738995764005e+00
-1.466870347566255e-19  1.236893392268942e-17  4.464184045238943e-01
-1.050738995764005e+00  4.464184045238943e-01  9.728570646650241e-18

 1.080410935288489e-17 -6.774225358569333e-20 -1.009057570701023e+00
-6.774225358569333e-20  1.135765819749872e-17  4.249343593844444e-01
-1.009057570701023e+00  4.249343593844444e-01  7.714901534767322e-18

-9.026122719241109e-18  5.011827346626184e-18 -9.859923115375043e-01
 5.011827346626184e-18  1.027970982196886e-17  4.332772428639653e-01
-9.859923115375043e-01  4.332772428639653e-01  6.722258142757445e-18

-9.084621136245879e-18  4.740561540983656e-18 -9.760603269387602e-01
 4.740561540983656e-18  1.015507756902548e-17  4.775619587014313e-01
-9.760603269387602e-01  4.775619587014313e-01  6.702451516627613e-18

 2.245204431111957e-16 -6.030197787357213e-17 -6.522287655367667e-01
-6.030197787357213e-17  1.888789753569416e-17  7.175714545849059e-01
-6.522287655367667e-01  7.175714545849059e-01 -1.232495428324877e-17

-7.473629112594002e-17  1.845725348678950e-17 -6.341150216711174e-01
 1.845725348678950e-17  6.461847841456393e-18  5.490007810579542e-01
-6.341150216711174e-01  5.490007810579542e-01 -1.286251784651996e-17

-1.134039056693007e-17  7.302285176147375e-18 -1.398163742193729e+00
 7.302285176147375e-18  2.928492192090721e-17 -7.672097027149198e-02
-1.398163742193729e+00 -7.672097027149198e-02  3.174620186564819e-17

-1.223568424824047e-17  4.777658133759128e-18 -1.025639491197543e+00
 4.777658133759128e-18  1.600264730179066e-17  3.482579739687485e-01
-1.025639491197543e+00  3.482579739687485e-01  1.012778832684208e-17

 4.877315920454735e-18  2.352359081044671e-18 -7.574102898771394e-01
 2.352359081044671e-18 -1.964597645086627e-18  7.692404215587818e-01
-7.574102898771394e-01  7.692404215587818e-01 -1.176683412300772e-17

 5.710146710939674e-18  1.806160668208821e-18 -1.005610310800400e+00
 1.806160668208821e-18 -2.883834298063169e-18  6.790846858368018e-01
-1.005610310800400e+00  6.790846858368018e-01  4.181063329385184e-18

 1.442148255814642e-17  1.109788303474183e-18 -1.261853794548206e+00
 1.109788303474183e-18  1.391967898064929e-17  3.622732937409369e-01
-1.261853794548206e+00  3.622732937409369e-01  2.178874443960082e-17

 2.082427777277463e-17  5.928812830665128e-19 -1.416309340949657e+00
 5.928812830665128e-19  2.367093055291978e-17  1.190132432230437e-01
-1.416309340949657e+00  1.190132432230437e-01  3.278678804292827e-17

 1.188599816635710e-17  4.075768297881390e-20 -1.078895154280565e+00
 4.075768297881390e-20  1.327139583456685e-17  4.047773113246080e-01
-1.078895154280565e+00  4.047773113246080e-01  9.783819966565810e-18

 1.154385293847222e-17 -9.183930485277405e-20 -1.075073809781761e+00
-9.183930485277405e-20  1.564510993641579e-17  4.457878151389877e-01
-1.075073809781761e+00  4.457878151389877e-01  9.726776433393403e-18

 1.160296477742253e-17 -1.225810012333369e-19 -1.076111910523353e+00
-1.225810012333369e-19  1.431905357427440e-17  4.389251835357778e-01
-1.076111910523353e+00  4.389251835357778e-01  1.010837217338153e-17

 1.130980793870885e-17 -1.081975254171195e-19 -1.062050982052626e+00
-1.081975254171195e-19  1.495799873966372e-17  4.300642954492004e-01
-1.062050982052626e+00  4.300642954492004e-01  9.493636298154541e-18

 1.133252179251665e-17 -1.192234959857139e-19 -1.064124961993671e+00
-1.192234959857139e-19  1.017426516528947e-17  4.509980986237731e-01
-1.064124961993671e+00  4.509980986237731e-01  9.619499210626873e-18

 1.109007054670115e-17 -1.582672433252356e-19 -1.055602522960175e+00
-1.582672433252356e-19  1.417824835099036e-17  4.537965533549820e-01
-1.055602522960175e+00  4.537965533549820e-01  9.007086790112739e-18

 1.081593107197960e-17 -1.930542410802286e-19 -1.048486009369999e+00
-1.930542410802286e-19  1.754457233895802e-17  4.497480251748102e-01
-1.048486009369999e+00  4.497480251748102e-01  8.244083342957838e-18

 1.183212236128723e-17 -3.069420949473143e-19 -1.099341505386735e+00
-3.069420949473143e-19  1.454627002726315e-17  4.239969909722372e-01
-1.099341505386735e+00  4.239969909722372e-01  1.104689177407528e-17

 1.599364687736592e-17 -4.526171160633747e-19 -1.261283131775363e+00
-4.526171160633747e-19  1.530553242952753e-17  3.469473495259796e-01
-1.261283131775363e+00  3.469473495259796e-01  2.225917345227472e-17

 1.044759374177612e-17 -1.812630610504055e-19 -1.051587502267759e+00
-1.812630610504055e-19  1.221061271650380e-17  5.800925687966655e-01
-1.051587502267759e+00  5.800925687966655e-01  5.568370421229521e-18

 8.094129870677631e-18 -4.093170560976199e-19 -9.344363950061629e-01
-4.093170560976199e-19 -3.500158493942802e-18  7.162719337693968e-01
-9.344363950061629e-01  7.162719337693968e-01 -3.217807041712308e-18

 1.145807335094794e-17 -2.165782696907787e-20 -1.135352188921892e+00
-2.165782696907787e-20  1.438683572453018e-17  4.635541666017184e-01
-1.135352188921892e+00  4.635541666017184e-01  1.264870901124996e-17

-5.505949556994361e-18  3.420562064723040e-18 -1.099429163665268e+00
 3.420562064723040e-18  1.417818117444554e-17  3.788717775316594e-01
-1.099429163665268e+00  3.788717775316594e-01  1.107282562238579e-17

-5.353446741643928e-17  1.209138946374454e-17 -1.025034868352451e+00
 1.209138946374454e-17  1.233455703449456e-17  4.499364155534178e-01
-1.025034868352451e+00  4.499364155534178e-01  6.648878034819911e-18

-5.336689772318508e-17  1.206135459753645e-17 -1.027827609274618e+00
 1.206135459753645e-17  1.207570543118749e-17  4.554415677224545e-01
-1.027827609274618e+00  4.554415677224545e-01  7.204011990915533e-18

 1.349824972340299e-17 -6.597042450462987e-19 -1.039675457624218e+00
-6.597042450462987e-19  1.276146985787278e-17  4.540081221823865e-01
-1.039675457624218e+00  4.540081221823865e-01  8.121115604637162e-18

 9.989344096283555e-18  4.195887006862696e-20 -1.042744942195568e+00
 4.195887006862696e-20  1.298581459721456e-17  4.314023869518954e-01
-1.042744942195568e+00  4.314023869518954e-01  8.633171330456565e-18

 1.052831782060345e-17 -4.032729048625930e-20 -1.037331299372598e+00
-4.032729048625930e-20  1.665693904011180e-17  4.371508395038933e-01
-1.037331299372598e+00  4.371508395038933e-01  8.259653347475232e-18

 1.066712200601008e-17 -1.187788518760250e-19 -1.038754659151995e+00
-1.187788518760250e-19  1.065909598240546e-17  4.426488572346171e-01
-1.038754659151995e+00  4.426488572346171e-01  8.293056453312104e-18

 1.224143784184705e-17 -1.560049772986937e-19 -1.101059814921885e+00
-1.560049772986937e-19  1.389486329731656e-17  3.919428851672642e-01
-1.101059814921885e+00  3.919428851672642e-01  1.298510582027743e-17

 1.043579764140889e-17 -3.083143109478510e-19 -1.012454602222465e+00
-3.083143109478510e-19  1.269650807871354e-17  4.907496482106957e-01
-1.012454602222465e+00  4.907496482106957e-01  6.128687904352121e-18

 1.067915101104233e-17 -4.832859724912685e-19 -1.008965908543635e+00
-4.832859724912685e-19  1.364504823272489e-17  4.992623284333457e-01
-1.008965908543635e+00  4.992623284333457e-01  6.048634387798956e-18

 7.162309032230682e-18  1.600636675964083e-18 -1.047622302611116e+00
 1.600636675964083e-18  1.310639940619080e-17  3.907371403687956e-01
-1.047622302611116e+00  3.907371403687956e-01  9.732286579783310e-18

-2.691615264397157e-17  1.626930336744288e-17 -1.020616511829616e+00
 1.626930336744288e-17  6.772023697054643e-18  4.027149801082802e-01
-1.020616511829616e+00  4.027149801082802e-01  8.124236673151137e-18

-2.026222794537904e-16  9.357811318059362e-17 -1.009502993717651e+00
 9.357811318059362e-17 -2.861197281859022e-17  4.444710017127713e-01
-1.009502993717651e+00  4.444710017127713e-01  7.050760125805048e-18

-2.021774684905879e-16  9.354858588832209e-17 -1.027549995664930e+00
 9.354858588832209e-17 -2.719714899523800e-17  4.179724473270390e-01
-1.027549995664930e+00  4.179724473270390e-01  8.441735749496195e-18

 8.279054496548756e-18  1.255184680147025e-18 -1.064156757641104e+00
 1.255184680147025e-18  8.649696712066153e-18  4.255214247126107e-01
-1.064156757641104e+00  4.255214247126107e-01  1.058356689273554e-17

 1.080938777334655e-17  5.552941760403173e-20 -1.055445365309224e+00
 5.552941760403173e-20  1.698328979129915e-17  3.991035152666977e-01
-1.055445365309224e+00  3.991035152666977e-01  1.065341838844047e-17

 9.066678335571212e-18  1.954024044465079e-21 -9.770046779132028e-01
 1.954024044465079e-21  6.483215681094675e-18  4.442010741259675e-01
-9.770046779132028e-01  4.442010741259675e-01  5.406606999077751e-18

 9.645487889499849e-18 -1.542150925378497e-19 -9.864782516810982e-01
-1.542150925378497e-19  1.127411037073855e-17  4.405302325582295e-01
-9.864782516810982e-01  4.405302325582295e-01  6.284004779095375e-18

 1.147542201956741e-17  2.105682109845217e-20 -1.074013931822895e+00
 2.105682109845217e-20  1.131939081543215e-17  3.610189026843443e-01
-1.074013931822895e+00  3.610189026843443e-01  1.295260382827975e-17

 9.316707203634946e-18 -4.912153994810347e-20 -9.843332509504967e-01
-4.912153994810347e-20  1.180698125663245e-17  4.417252305093532e-01
-9.843332509504967e-01  4.417252305093532e-01  6.507106021908887e-18

 9.923138281083006e-18 -1.167378828625231e-19 -1.007237998338526e+00
-1.167378828625231e-19  1.171403562694466e-17  3.854096434077744e-01
-1.007237998338526e+00  3.854096434077744e-01  8.567357969621863e-18

 1.012716716518912e-17 -1.418959600486766e-19 -1.018757318846353e+00
-1.418959600486766e-19  1.235745922393562e-17  3.950089467278246e-01
-1.018757318846353e+00  3.950089467278246e-01  9.113631461409806e-18

 9.834642985940824e-18 -6.087623976595592e-20 -1.013738055034670e+00
-6.087623976595592e-20  1.037711793494692e-17  4.532725364669236e-01
-1.013738055034670e+00  4.532725364669236e-01  7.818411246028723e-18

 1.060248954724268e-17 -1.391853214805461e-19 -1.047102424076836e+00
-1.391853214805461e-19  1.450523468120416e-17  4.293282646851974e-01
-1.047102424076836e+00  4.293282646851974e-01  1.020844248659511e-17

 1.021343197219366e-17 -1.671915437033859e-19 -1.031413541805343e+00
-1.671915437033859e-19  1.475810146695439e-17  4.205054240508015e-01
-1.031413541805343e+00  4.205054240508015e-01  9.366411703406043e-18

 9.449458393707168e-18 -1.866785895316202e-19 -1.001407851144783e+00
-1.866785895316202e-19  1.402083678622683e-17  4.340683715761030e-01
-1.001407851144783e+00  4.340683715761030e-01  7.567254422134788e-18

 8.272557577093620e-18 -2.197479929226893e-19 -9.549896592332432e-01
-2.197479929226893e-19  8.724207348102916e-18  4.631426678280586e-01
-9.549896592332432e-01  4.631426678280586e-01  4.470700187391899e-18

 9.226670960627166e-18 -1.957235640974773e-19 -9.956096028365843e-01
-1.957235640974773e-19  1.175104760780414e-17  3.833288052029756e-01
-9.956096028365843e-01  3.833288052029756e-01  7.726856822678445e-18

 8.900983205229782e-18 -2.968679589879435e-19 -9.831348619612446e-01
-2.968679589879435e-19  1.539082331669122e-17  3.974406759643696e-01
-9.831348619612446e-01  3.974406759643696e-01  6.692601232057794e-18

 9.578245037109447e-18 -3.582520204411603e-19 -1.015826015735681e+00
-3.582520204411603e-19  1.099191809943693e-17  4.112662615625713e-01
-1.015826015735681e+00  4.112662615625713e-01  8.367250807719741e-18

 8.823691165198374e-18 -1.160260970201882e-20 -1.002165994841604e+00
-1.160260970201882e-20  1.003198666033069e-17  5.196334889602263e-01
-1.002165994841604e+00  5.196334889602263e-01  5.438612445935402e-18

 8.300066501566200e-18 -1.404070364981601e-19 -9.821924398612774e-01
-1.404070364981601e-19  7.424840213190534e-18  5.472862351655547e-01
-9.821924398612774e-01  5.472862351655547e-01  3.780250313391523e-18

 1.159852286107504e-17 -6.843848318757141e-21 -1.117379484538528e+00
-6.843848318757141e-21  1.430303353096166e-17  3.368563726836648e-01
-1.117379484538528e+00  3.368563726836648e-01  1.433772837756344e-17

 9.393440052458092e-18 -1.207032509419704e-19 -1.027727495414013e+00
-1.207032509419704e-19  1.352285036914511e-17  4.203028658964605e-01
-1.027727495414013e+00  4.203028658964605e-01  7.862845518124615e-18

 9.525810426683000e-18 -1.198190256439449e-19 -1.036901534375069e+00
-1.198190256439449e-19  1.204314613752482e-17  4.443187396877588e-01
-1.036901534375069e+00  4.443187396877588e-01  8.186788985743121e-18

 9.681968705174661e-18 -1.294798784934194e-19 -1.046171473496524e+00
-1.294798784934194e-19  1.270721923842001e-17  4.320298042395700e-01
-1.046171473496524e+00  4.320298042395700e-01  8.790533328244965e-18

 9.696987653534933e-18 -1.326801646411509e-19 -1.051815058703939e+00
-1.326801646411509e-19  4.197685337373196e-18  4.332061005066635e-01
-1.051815058703939e+00  4.332061005066635e-01  9.009896254821825e-18

 9.724926453591495e-18 -1.373408281466107e-19 -1.057309711124870e+00
-1.373408281466107e-19  1.335061886593265e-17  4.395900029103531e-01
-1.057309711124870e+00  4.395900029103531e-01  9.178376824516997e-18

 9.634945863061810e-18 -1.478349091798693e-19 -1.056734576260981e+00
-1.478349091798693e-19  1.754594850055082e-17  4.438231555965739e-01
-1.056734576260981e+00  4.438231555965739e-01  9.056802485973810e-18

 9.640964274678631e-18 -1.623237934903108e-19 -1.060713865201300e+00
-1.623237934903108e-19  1.339486278528904e-17  4.300976578982018e-01
-1.060713865201300e+00  4.300976578982018e-01  9.378663044809850e-18

 8.915053104508942e-18 -1.939694064775953e-19 -1.036516651465229e+00
-1.939694064775953e-19  1.550422312782328e-17  4.734212451361105e-01
-1.036516651465229e+00  4.734212451361105e-01  7.267823031206835e-18

 9.097389647085668e-18 -1.837403091853013e-19 -1.045942543598946e+00
-1.837403091853013e-19  7.881343756257796e-18  4.569938160063679e-01
-1.045942543598946e+00  4.569938160063679e-01  7.906420976253002e-18

 9.301956485095700e-18 -2.010532418600287e-19 -1.062456074228790e+00
-2.010532418600287e-19  1.276217357940993e-17  4.409515139812553e-01
-1.062456074228790e+00  4.409515139812553e-01  8.853362269716416e-18

 9.648265525641422e-18 -2.224488621907672e-19 -1.086657696703161e+00
-2.224488621907672e-19  1.244547703380052e-17  4.484253744314352e-01
-1.086657696703161e+00  4.484253744314352e-01  9.881584564073836e-18

 9.704232247648773e-18 -2.569806707566137e-19 -1.095668866982950e+00
-2.569806707566137e-19  1.200635867841867e-17  4.646462284349628e-01
-1.095668866982950e+00  4.646462284349628e-01  1.011521093018776e-17

 9.263750095703398e-18 -2.454663030171835e-19 -1.081653381937402e+00
-2.454663030171835e-19  7.403582533672800e-18  4.640057499593403e-01
-1.081653381937402e+00  4.640057499593403e-01  9.102359441562303e-18

 8.882952195208840e-18 -1.641016868390347e-19 -1.068669090341357e+00
-1.641016868390347e-19  1.405879837147335e-17  4.417753087965898e-01
-1.068669090341357e+00  4.417753087965898e-01  8.503826996976047e-18

 8.532009602038229e-18 -1.694365354078282e-19 -1.056673807410213e+00
-1.694365354078282e-19  1.011576001895723e-17  4.480896218401430e-01
-1.056673807410213e+00  4.480896218401430e-01  7.832456699917005e-18

 8.642207407707276e-18 -1.543065656228721e-19 -1.064259068452022e+00
-1.543065656228721e-19  9.786648066066242e-18  4.562481286199006e-01
-1.064259068452022e+00  4.562481286199006e-01  8.369823273518073e-18

 8.139637310891842e-18 -1.108068017564327e-19 -1.044394734055280e+00
-1.108068017564327e-19  5.934597231992934e-18  4.512625019702423e-01
-1.044394734055280e+00  4.512625019702423e-01  7.542244693462381e-18

 7.387433795199979e-18 -7.135257637622534e-20 -1.013940046710682e+00
-7.135257637622534e-20  5.991433482164603e-18  4.617422799864539e-01
-1.013940046710682e+00  4.617422799864539e-01  6.040914022441376e-18

 7.240632879886136e-18 -4.813747931238523e-20 -1.009417553404463e+00
-4.813747931238523e-20  8.726186750831614e-18  4.434712292247972e-01
-1.009417553404463e+00  4.434712292247972e-01  6.145265020718856e-18

 7.178523678631223e-18 -4.981740579144131e-20 -1.009041234043585e+00
-4.981740579144131e-20  1.121504695203149e-17  4.177007740701690e-01
-1.009041234043585e+00  4.177007740701690e-01  6.493273241947976e-18

 7.279813178866741e-18 -1.377149748513312e-20 -1.017478820187392e+00
-1.377149748513312e-20  1.046739969398316e-17  4.426292873575223e-01
-1.017478820187392e+00  4.426292873575223e-01  6.764135293998645e-18

 7.272770294977470e-18  2.799576332725061e-20 -1.022375386664909e+00
 2.799576332725061e-20  9.941873824646986e-18  4.651816812301288e-01
-1.022375386664909e+00  4.651816812301288e-01  6.744144842723676e-18

 7.278648551484603e-18 -4.678950936169848e-21 -1.027090380229855e+00
-4.678950936169848e-21  8.319599686748984e-18  4.362264773242984e-01
-1.027090380229855e+00  4.362264773242984e-01  7.345886803441065e-18

 6.650710604810610e-18  1.912377962385693e-21 -1.007253379859530e+00
 1.912377962385693e-21  6.036867004456765e-18  4.366358471979182e-01
-1.007253379859530e+00  4.366358471979182e-01  6.012002033625469e-18

 6.738849811086630e-18  1.497070170449998e-20 -1.015363048047173e+00
 1.497070170449998e-20  9.183066840806761e-18  4.403696719276970e-01
-1.015363048047173e+00  4.403696719276970e-01  6.477418533257215e-18

 7.361287869462281e-18  8.654227080391521e-21 -1.045731072115197e+00
 8.654227080391521e-21  8.616609399207989e-18  4.177268124609296e-01
-1.045731072115197e+00  4.177268124609296e-01  8.610058391839358e-18

 6.582140066031649e-18  3.846460378946747e-20 -1.021316031520580e+00
 3.846460378946747e-20  6.379239507370965e-18  4.475577897309599e-01
-1.021316031520580e+00  4.475577897309599e-01  6.554575728044757e-18

 6.481692350555624e-18  4.036268140995956e-20 -1.025454398237294e+00
 4.036268140995956e-20  8.532939806319523e-18  4.309505374992827e-01
-1.025454398237294e+00  4.309505374992827e-01  6.950339570540898e-18

 6.195211662795014e-18  5.001349129189958e-20 -1.022517425014809e+00
 5.001349129189958e-20  8.475098509698737e-18  4.285596293135895e-01
-1.022517425014809e+00  4.285596293135895e-01  6.704792935159799e-18

 6.085203819818798e-18  7.343752184257786e-20 -1.032816883129573e+00
 7.343752184257786e-20  8.211493307538060e-18  4.307630945134908e-01
-1.032816883129573e+00  4.307630945134908e-01  7.130876062172997e-18

 6.232229235812214e-18  7.635962017026484e-20 -1.050683667395163e+00
 7.635962017026484e-20  4.627520769020875e-18  4.155605155639275e-01
-1.050683667395163e+00  4.155605155639275e-01  8.241067441014665e-18

 5.968018933165304e-18  8.951077437310339e-20 -1.051909831718971e+00
 8.951077437310339e-20  1.000267844619321e-17  4.274163636456072e-01
-1.051909831718971e+00  4.274163636456072e-01  8.018530612237500e-18

 5.907067446292645e-18  3.169822994346836e-20 -1.053431588508612e+00
 3.169822994346836e-20  8.514167622365371e-18  4.281389246587701e-01
-1.053431588508612e+00  4.281389246587701e-01  8.019912836932514e-18

 5.064921971602744e-18  4.257217853467732e-19 -1.064225470961295e+00
 4.257217853467732e-19  1.418857825998972e-17  4.126685386330732e-01
-1.064225470961295e+00  4.126685386330732e-01  8.871258071540221e-18

 1.315355751526268e-17 -3.786813821217082e-18 -1.039194570440954e+00
-3.786813821217082e-18  1.209394956025102e-17  4.213657711659210e-01
-1.039194570440954e+00  4.213657711659210e-01  7.261859441839685e-18

-1.242757515184399e-17  7.834083771007201e-18 -1.030275337608170e+00
 7.834083771007201e-18  1.802914548427064e-17  4.077788286467496e-01
-1.030275337608170e+00  4.077788286467496e-01  6.863150335210448e-18

-1.241707307421785e-17  7.860641727751866e-18 -1.050343731266203e+00
 7.860641727751866e-18  1.739761375443182e-17  4.198544126962181e-01
-1.050343731266203e+00  4.198544126962181e-01  7.808287654621187e-18

 4.012620859003015e-18 -3.848516176245185e-20 -1.058619979875373e+00
-3.848516176245185e-20  1.615550711922524e-17  4.296057533975282e-01
-1.058619979875373e+00  4.296057533975282e-01  8.288199926479121e-18

 2.384941624149821e-18  7.221523147098099e-20 -1.016302861730987e+00
 7.221523147098099e-20  9.365081081367814e-18  3.837452259697448e-01
-1.016302861730987e+00  3.837452259697448e-01  6.069413204945089e-18

 1.822287222398366e-18  1.199551314749427e-20 -1.014696326568393e+00
 1.199551314749427e-20  1.390444972232761e-17  3.971429235680293e-01
-1.014696326568393e+00  3.971429235680293e-01  5.812377326801158e-18

 1.792991351798160e-18  8.217015348606246e-20 -1.046051917694714e+00
 8.217015348606246e-20  3.899106075329056e-18  4.455186739001962e-01
-1.046051917694714e+00  4.455186739001962e-01  6.868658648387143e-18

 1.274634717600796e-18  2.278057082272736e-20 -1.048178494643230e+00
 2.278057082272736e-20 -2.635720094811036e-19  4.141330812081249e-01
-1.048178494643230e+00  4.141330812081249e-01  7.197800417430811e-18

-4.419262319617192e-19  3.091230083460159e-20 -1.018909200972184e+00
 3.091230083460159e-20  7.211114409070222e-18  3.996951729876401e-01
-1.018909200972184e+00  3.996951729876401e-01  5.196159564548043e-18

-1.111964663772007e-18  3.474686670911889e-20 -1.027865960202771e+00
 3.474686670911889e-20 -9.215448331586324e-18  4.286521991022093e-01
-1.027865960202771e+00  4.286521991022093e-01  5.089772267303440e-18

-1.405434365159891e-18 -1.653986303724341e-21 -1.051882001747253e+00
-1.653986303724341e-21  1.187353251400069e-18  4.312821438631366e-01
-1.051882001747253e+00  4.312821438631366e-01  6.310834187239742e-18

-2.580549063168207e-18  5.620218680522558e-20 -1.043349794688058e+00
 5.620218680522558e-20  2.815607290758865e-18  4.065973269361136e-01
-1.043349794688058e+00  4.065973269361136e-01  5.638143982906638e-18

-3.881398110020714e-18  8.710155527539738e-20 -1.025394335908285e+00
 8.710155527539738e-20  1.592451134439621e-18  4.168599801937396e-01
-1.025394335908285e+00  4.168599801937396e-01  4.329136736054987e-18

-5.399046597575029e-18  1.393094140242954e-19 -1.011817498376752e+00
 1.393094140242954e-19  5.014988833071979e-19  4.199658166519039e-01
-1.011817498376752e+00  4.199658166519039e-01  3.332082460482005e-18

-6.824959971093357e-18  2.195042010305565e-19 -1.002772589989790e+00
 2.195042010305565e-19  6.887263370591007e-18  4.159186548444465e-01
-1.002772589989790e+00  4.159186548444465e-01  2.711130808623288e-18

-8.919983171216130e-18  1.964269159004929e-19 -9.693087355807762e-01
 1.964269159004929e-19 -2.160037391228818e-19  4.512931643256290e-01
-9.693087355807762e-01  4.512931643256290e-01  3.901568729340062e-19

-1.024963616372182e-17  4.087370895877782e-19 -9.646586989179821e-01
 4.087370895877782e-19 -9.451393087928659e-19  4.203170367046619e-01
-9.646586989179821e-01  4.203170367046619e-01  1.616763471142436e-19

-1.162196130254030e-17  5.445094450300272e-19 -9.519502873035411e-01
 5.445094450300272e-19 -2.985375341932395e-18  4.071103024302498e-01
-9.519502873035411e-01  4.071103024302498e-01 -6.832088221494631e-19

-1.491790518731252e-17  5.775020478437514e-19 -8.895802211618833e-01
 5.775020478437514e-19 -4.729096286324911e-18  4.480342083377938e-01
-8.895802211618833e-01  4.480342083377938e-01 -5.245249895334694e-18

-1.627641977988865e-17  5.811040564063425e-19 -9.223171058255222e-01
 5.811040564063425e-19 -4.347186102039117e-18  3.774712759597451e-01
-9.223171058255222e-01  3.774712759597451e-01 -3.138434470652252e-18

-1.867342235501795e-17  6.955681111793595e-19 -9.372285415229951e-01
 6.955681111793595e-19 -9.094234431700245e-18  4.820602119019338e-01
-9.372285415229951e-01  4.820602119019338e-01 -4.625275214298508e-18

-2.120014206771234e-17  6.827666974569826e-19 -9.460102552556107e-01
 6.827666974569826e-19 -7.767873805397448e-18  4.475476421628913e-01
-9.460102552556107e-01  4.475476421628913e-01 -5.007253102406312e-18

-2.518356620181709e-17  6.690698962238072e-19 -9.465821524343251e-01
 6.690698962238072e-19 -6.893807695309444e-18  4.028528714003433e-01
-9.465821524343251e-01  4.028528714003433e-01 -6.444404412571860e-18

-2.811079578466106e-17  7.804896031107422e-19 -9.644364071169502e-01
 7.804896031107422e-19 -1.510437762322762e-17  4.739500139932058e-01
-9.644364071169502e-01  4.739500139932058e-01 -8.046645655487930e-18

-2.922619061300071e-17  6.180960016760175e-19 -1.042217049916268e+00
 6.180960016760175e-19 -5.375594791104892e-18  4.299825068267102e-01
-1.042217049916268e+00  4.299825068267102e-01 -3.903182875605483e-18

-3.543874872700947e-17  4.728550153137160e-19 -1.039022834386887e+00
 4.728550153137160e-19 -9.528282682278161e-18  4.166559014330659e-01
-1.039022834386887e+00  4.166559014330659e-01 -6.577815225340218e-18

-4.315753137384909e-17  3.179046788351990e-19 -1.033046002689912e+00
 3.179046788351990e-19 -1.004815579598128e-17  4.176445410972212e-01
-1.033046002689912e+00  4.176445410972212e-01 -9.914800552238435e-18

-5.440135444514551e-17 -1.002809175070760e-19 -1.038541958099873e+00
-1.002809175070760e-19 -1.291787977790771e-17  4.231439340074849e-01
-1.038541958099873e+00  4.231439340074849e-01 -1.389187580557833e-17

-6.398553355477237e-17 -5.230462296074118e-19 -1.034593659024337e+00
-5.230462296074118e-19 -1.325928807788129e-17  4.270225248750766e-01
-1.034593659024337e+00  4.270225248750766e-01 -1.772505318386500e-17

-7.090981801528356e-17 -9.581702554923995e-19 -1.033130045712482e+00
-9.581702554923995e-19 -1.444265169112644e-17  4.322489744805725e-01
-1.033130045712482e+00  4.322489744805725e-01 -2.035573334500250e-17

-8.336744212713732e-17 -1.905953446864109e-18 -1.038028691312923e+00
-1.905953446864109e-18 -1.571999330846791e-17  4.282720996733828e-01
-1.038028691312923e+00  4.282720996733828e-01 -2.449399804707348e-17

-9.964768523620911e-17 -3.385893701973443e-18 -1.027911276391894e+00
-3.385893701973443e-18 -1.600722244211791e-17  4.194184117890636e-01
-1.027911276391894e+00  4.194184117890636e-01 -3.071757652404388e-17

-1.251198403357365e-16 -6.624106928407058e-18 -1.018957275212663e+00
-6.624106928407058e-18 -2.051306033170560e-17  4.286456384951853e-01
-1.018957275212663e+00  4.286456384951853e-01 -4.004828381716413e-17

-1.627220730293854e-16 -1.283297553193109e-17 -9.567946979946352e-01
-1.283297553193109e-17 -7.484686668684812e-18  4.375842993787110e-01
-9.567946979946352e-01  4.375842993787110e-01 -5.659106569923848e-17

-2.097761288401795e-16 -2.281839771259254e-17 -8.155391591122403e-01
-2.281839771259254e-17 -8.048298198010678e-18  5.024444030809899e-01
-8.155391591122403e-01  5.024444030809899e-01 -8.192621640092637e-17

-2.304344810984032e-16 -3.067315027993926e-17 -1.015826673535130e+00
-3.067315027993926e-17  3.479491591572365e-18  2.615347689394766e-01
-1.015826673535130e+00  2.615347689394766e-01 -7.674080477385078e-17

-2.572561725500495e-16 -3.770392596944632e-17 -9.498497951552887e-01
-3.770392596944632e-17  7.813739066707229e-18  3.264225743478674e-01
-9.498497951552887e-01  3.264225743478674e-01 -9.110762819453754e-17

-3.041983258682656e-16 -4.873903902277512e-17 -8.784685097676240e-01
-4.873903902277512e-17  9.372448996350417e-18  4.693067175735324e-01
-8.784685097676240e-01  4.693067175735324e-01 -1.153133854457598e-16

-3.797787001543178e-16 -6.996446084451338e-17 -1.071765268387994e+00
-6.996446084451338e-17  3.948262845165490e-17  4.026226832800229e-01
-1.071765268387994e+00  4.026226832800229e-01 -1.335962558215296e-16

-5.058154047510534e-16 -9.523941081126139e-17 -1.310336464569399e+00
-9.523941081126139e-17  1.530905733542136e-16  3.748444585938335e-01
-1.310336464569399e+00  3.748444585938335e-01 -1.772844119111981e-16

-6.473433042478308e-16 -1.346558903503194e-16 -1.073702020088006e+00
-1.346558903503194e-16  1.995808022258637e-16  7.125076097209495e-01
-1.073702020088006e+00  7.125076097209495e-01 -2.343000897826076e-16

-7.407351105047599e-16 -2.029576143324637e-16 -1.233863273756399e+00
-2.029576143324637e-16  2.425047784458921e-16  4.453740255134845e-01
-1.233863273756399e+00  4.453740255134845e-01 -2.640660369437604e-16

-8.480835879229002e-16 -2.988481362011992e-16 -1.243957755978157e+00
-2.988481362011992e-16  3.064119327716825e-16  2.638725714288493e-01
-1.243957755978157e+00  2.638725714288493e-01 -3.164260969687891e-16

-9.804973987709793e-16 -4.039264366381111e-16 -9.818741257513146e-01
-4.039264366381111e-16  3.363650042200460e-16  4.480644394918921e-01
-9.818741257513146e-01  4.480644394918921e-01 -3.990782898596071e-16

-1.181147470497304e-15 -6.737781815287414e-16 -1.003131870016474e+00
-6.737781815287414e-16  5.530592242154828e-16  3.574411531005313e-01
-1.003131870016474e+00  3.574411531005313e-01 -5.341436190300695e-16

-1.645950991961918e-15 -1.196723856966180e-15 -9.718089443945803e-01
-1.196723856966180e-15  7.691136373731457e-16  4.485615470441753e-01
-9.718089443945803e-01  4.485615470441753e-01 -7.746418572117510e-16

-2.042425222969062e-15 -1.788676670368511e-15 -9.854866858411496e-01
-1.788676670368511e-15  1.057194195740177e-15  4.659238073301096e-01
-9.854866858411496e-01  4.659238073301096e-01 -1.036374928522516e-15

-2.669510589823532e-15 -3.071784297299837e-15 -1.011469901780052e+00
-3.071784297299837e-15  1.424221655733049e-15  4.476001828052620e-01
-1.011469901780052e+00  4.476001828052620e-01 -1.569919819407374e-15

-4.146897326308793e-15 -7.133404141727411e-15 -1.020902976206298e+00
-7.133404141727411e-15  1.528790322962794e-15  4.361509850810446e-01
-1.020902976206298e+00  4.361509850810446e-01 -3.399895782891446e-15

-7.698374988822919e-15 -1.278556136273588e-14 -1.032454065627051e+00
-1.278556136273588e-14  2.760520753085167e-16  4.405045675703988e-01
-1.032454065627051e+00  4.405045675703988e-01 -7.484413021575162e-15

-7.866647718773372e-15 -9.625022211001056e-15 -1.036181713509476e+00
-9.625022211001056e-15  9.149945361017769e-15  4.354679176877850e-01
-1.036181713509476e+00  4.354679176877850e-01 -1.304578065866912e-14

 1.228480886469811e-13  3.042003034445657e-14 -1.039610892048160e+00
 3.042003034445657e-14  7.387345238609011e-14  4.356860097956210e-01
-1.039610892048160e+00  4.356860097956210e-01  2.736002050991993e-14

-6.219961830473176e-13 -1.374046717542503e-13 -1.042958868527778e+00
-1.374046717542503e-13 -3.058219052966547e-13  4.394471127679900e-01
-1.042958868527778e+00  4.394471127679900e-01 -1.512310554512447e-13

-1.049568348939584e-14  1.884741501297586e-14 -1.033074034254466e+00
 1.884741501297586e-14  2.061888422313092e-14  4.432951737301560e-01
-1.033074034254466e+00  4.432951737301560e-01 -1.029089826863215e-14

-6.581184247241406e-13 -1.348642104506994e-13 -1.043798300030813e+00
-1.348642104506994e-13 -3.066078395163972e-13  4.488092788652518e-01
-1.043798300030813e+00  4.488092788652518e-01 -1.635842289867673e-13

-1.620227799040626e-14  2.553119348557984e-16 -1.034308213527468e+00
 2.553119348557984e-16 -3.638035557703207e-15  4.198076041887717e-01
-1.034308213527468e+00  4.198076041887717e-01 -6.952418893170910e-15

-1.026142318159996e-14 -8.570466372639449e-16 -1.107169802919356e+00
-8.570466372639449e-16 -3.549677650104900e-15  3.783982658290961e-01
-1.107169802919356e+00  3.783982658290961e-01 -3.907908329686723e-15

-7.388877264610285e-15 -1.147517468452312e-15 -1.123452795917063e+00
-1.147517468452312e-15 -3.580943457791875e-15  4.294547652319682e-01
-1.123452795917063e+00  4.294547652319682e-01 -2.569924558907453e-15

-5.030499449373410e-15 -1.192415884494477e-15 -1.083872535936066e+00
-1.192415884494477e-15 -3.186962203698114e-15  5.310486889230769e-01
-1.083872535936066e+00  5.310486889230769e-01 -1.641297075649731e-15

-4.307418999922911e-15 -1.157845574200644e-15 -1.005202408935671e+00
-1.157845574200644e-15 -2.887382965529794e-15  5.815392710709336e-01
-1.005202408935671e+00  5.815392710709336e-01 -1.368582635689235e-15

-3.608532551632604e-15 -1.140474874823431e-15 -1.135422860297062e+00
-1.140474874823431e-15 -2.307697588139404e-15  4.213123818033939e-01
-1.135422860297062e+00  4.213123818033939e-01 -1.168711682766132e-15

-2.908466337481486e-15 -1.060514182837264e-15 -1.103549499290133e+00
-1.060514182837264e-15 -1.851652025012836e-15  3.870370752386814e-01
-1.103549499290133e+00  3.870370752386814e-01 -8.956097503874299e-16

-2.273514301224076e-15 -9.277153443999497e-16 -1.021858380167255e+00
-9.277153443999497e-16 -1.500234992488059e-15  4.280923167019279e-01
-1.021858380167255e+00  4.280923167019279e-01 -6.926841464995159e-16

-1.493163086782599e-15 -7.044966777352229e-16 -9.528976776454621e-01
-7.044966777352229e-16 -1.082628094663351e-15  4.647150678389574e-01
-9.528976776454621e-01  4.647150678389574e-01 -4.521028231701049e-16

-1.068087398533342e-15 -5.439151551371341e-16 -9.582339385896897e-01
-5.439151551371341e-16 -7.187809953127000e-16  3.706364653523851e-01
-9.582339385896897e-01  3.706364653523851e-01 -3.206297037841115e-16

-9.739540591473475e-16 -5.077057987567751e-16 -1.057284826464882e+00
-5.077057987567751e-16 -7.143398100942276e-16  2.545071268016699e-01
-1.057284826464882e+00  2.545071268016699e-01 -2.847905864124791e-16

-8.531078764871525e-16 -4.494645866643799e-16 -8.829311863793534e-01
-4.494645866643799e-16 -6.255654642869470e-16  3.995157937385126e-01
-8.829311863793534e-01  3.995157937385126e-01 -2.606202758306132e-16

-6.002268944162045e-16 -3.214309380271214e-16 -9.284134516820709e-01
-3.214309380271214e-16 -5.987183508553671e-16  4.578572523378464e-01
-9.284134516820709e-01  4.578572523378464e-01 -1.856271257526284e-16

-4.094631108650661e-16 -2.147460732655396e-16 -1.001860274208015e+00
-2.147460732655396e-16 -4.882985540385693e-16  4.444185057317603e-01
-1.001860274208015e+00  4.444185057317603e-01 -1.264652398933419e-16

-3.142834645304495e-16 -1.610381525227460e-16 -1.005479111611419e+00
-1.610381525227460e-16 -4.007767765167141e-16  4.340440063305760e-01
-1.005479111611419e+00  4.340440063305760e-01 -9.784745979356535e-17

-2.667108076875773e-16 -1.330976725012748e-16 -9.904468828697172e-01
-1.330976725012748e-16 -3.672537147000702e-16  4.534213701830599e-01
-9.904468828697172e-01  4.534213701830599e-01 -8.470370345515319e-17

-2.282618280342036e-16 -1.124114930736276e-16 -1.016795113563674e+00
-1.124114930736276e-16 -3.163478879117435e-16  4.133669577208323e-01
-1.016795113563674e+00  4.133669577208323e-01 -7.081713160186727e-17

-1.919495846493127e-16 -9.061413613545438e-17 -9.921677947015065e-01
-9.061413613545438e-17 -2.943179142155137e-16  4.410599716815199e-01
-9.921677947015065e-01  4.410599716815199e-01 -6.142219997784774e-17

-1.624135618440173e-16 -7.494757388904885e-17 -1.047189369157637e+00
-7.494757388904885e-17 -2.586878792260628e-16  3.856906908830632e-01
-1.047189369157637e+00  3.856906908830632e-01 -4.832947757086836e-17

-1.384310758375727e-16 -5.891296133667436e-17 -1.046345365875289e+00
-5.891296133667436e-17 -2.224324299255939e-16  4.494511660438708e-01
-1.046345365875289e+00  4.494511660438708e-01 -4.198837106430615e-17

-1.137454267312748e-16 -4.581604618992760e-17 -1.067499877809944e+00
-4.581604618992760e-17 -1.748266230287186e-16  4.261717139150945e-01
-1.067499877809944e+00  4.261717139150945e-01 -3.245541255676378e-17

-9.723329324285053e-17 -3.829927822559183e-17 -1.039333261374789e+00
-3.829927822559183e-17 -1.555953347860486e-16  4.216603760355986e-01
-1.039333261374789e+00  4.216603760355986e-01 -2.828753321201268e-17

-8.497088358264797e-17 -3.204967277957091e-17 -1.014504133501722e+00
-3.204967277957091e-17 -1.281200981583866e-16  4.340208168505594e-01
-1.014504133501722e+00  4.340208168505594e-01 -2.552841161741829e-17

-7.232821927815327e-17 -2.570194681997968e-17 -1.003152110564997e+00
-2.570194681997968e-17 -1.288519971194663e-16  4.699301906664634e-01
-1.003152110564997e+00  4.699301906664634e-01 -2.240606091504948e-17

-6.323152631651528e-17 -2.156537297490165e-17 -1.017152738450232e+00
-2.156537297490165e-17 -1.065580331703929e-16  4.636309442444329e-01
-1.017152738450232e+00  4.636309442444329e-01 -1.865557743249386e-17

-5.703491638853991e-17 -1.906204915996078e-17 -9.670752131632506e-01
-1.906204915996078e-17 -1.028755515247962e-16  4.758520808320406e-01
-9.670752131632506e-01  4.758520808320406e-01 -1.973594456952093e-17

-4.526588734038071e-17 -1.840498174716033e-17 -1.211283794644914e+00
-1.840498174716033e-17 -7.894302112196325e-17  3.003577041386877e-01
-1.211283794644914e+00  3.003577041386877e-01 -5.545497576257421e-19

-4.252912120090163e-17 -1.055821643061400e-17 -1.187603579972477e+00
-1.055821643061400e-17 -8.168054187547990e-17  5.117924600975103e-01
-1.187603579972477e+00  5.117924600975103e-01 -5.484261474856693e-18

-4.077907744504309e-17 -6.727590739755723e-18 -1.098171655861575e+00
-6.727590739755723e-18 -8.466712054891439e-17  7.495940562895612e-01
-1.098171655861575e+00  7.495940562895612e-01 -1.192112649025051e-17

-2.852665763218428e-17 -9.239326757978247e-18 -1.311160560898331e+00
-9.239326757978247e-18 -6.200860820738529e-17  3.531138414121733e-01
-1.311160560898331e+00  3.531138414121733e-01  5.086952889730497e-18

-9.130688761171877e-18 -1.147165297327035e-17 -1.140596836443655e+00
-1.147165297327035e-17 -5.360279666949346e-17  4.762572644028922e-01
-1.140596836443655e+00  4.762572644028922e-01 -3.462232831126839e-18

 6.841409040587324e-17 -2.072060652931667e-17 -1.149950664008347e+00
-2.072060652931667e-17 -4.498466152476378e-17  4.348927756029433e-01
-1.149950664008347e+00  4.348927756029433e-01 -4.927488917049629e-19

-4.494502525100787e-17 -4.013356021962907e-18 -1.058443322233550e+00
-4.013356021962907e-18 -4.543540026974813e-17  5.648984621179831e-01
-1.058443322233550e+00  5.648984621179831e-01 -7.095807519669126e-18

-1.982018149963103e-17 -6.545063339539565e-18 -1.152055310916980e+00
-6.545063339539565e-18 -3.812415657843645e-17  4.863749317907825e-01
-1.152055310916980e+00  4.863749317907825e-01  4.675681225758570e-19

-1.483920873992058e-17 -6.251565717762717e-18 -1.107773325525463e+00
-6.251565717762717e-18 -3.749093336548046e-17  5.680696430215615e-01
-1.107773325525463e+00  5.680696430215615e-01 -2.384651527381773e-18

-1.826346049891007e-17 -5.313549369255529e-18 -1.063971427081059e+00
-5.313549369255529e-18 -3.499039985943022e-17  6.173798122862733e-01
-1.063971427081059e+00  6.173798122862733e-01 -4.884405691741712e-18

-1.323922786503498e-17 -5.244830857847579e-18 -1.167491803556242e+00
-5.244830857847579e-18 -2.841125150223438e-17  4.502577099644149e-01
-1.167491803556242e+00  4.502577099644149e-01  4.571523803285555e-18

-1.314210494650389e-17 -4.932475266171408e-18 -1.071606688056918e+00
-4.932475266171408e-18 -2.327363078758462e-17  4.419931841811292e-01
-1.071606688056918e+00  4.419931841811292e-01  2.164899150939789e-20

-1.204996231662524e-17 -4.541586925590027e-18 -1.030311777596510e+00
-4.541586925590027e-18 -1.994060579894628e-17  4.499639321262415e-01
-1.030311777596510e+00  4.499639321262415e-01 -1.039986001991125e-18

-1.084417222713596e-17 -4.067018295904204e-18 -1.017913802333201e+00
-4.067018295904204e-18 -2.004909679642647e-17  4.870665099080738e-01
-1.017913802333201e+00  4.870665099080738e-01 -1.314167066869525e-18

-8.176260577129093e-18 -3.714014615912592e-18 -1.065383081622920e+00
-3.714014615912592e-18 -2.184165446484301e-17  4.451382018172738e-01
-1.065383081622920e+00  4.451382018172738e-01  3.045171805362870e-18

-6.405735462541533e-18 -3.164808705602075e-18 -1.055471434053153e+00
-3.164808705602075e-18 -1.844119706260813e-17  4.526177708914530e-01
-1.055471434053153e+00  4.526177708914530e-01  3.412044743474150e-18

-6.229774327828675e-18 -2.851457115919444e-18 -1.001689293659639e+00
-2.851457115919444e-18 -1.746894922254780e-17  4.697902194514291e-01
-1.001689293659639e+00  4.697902194514291e-01  5.918347401147031e-19

-5.069194441330648e-18 -2.704810538006722e-18 -1.019500459252790e+00
-2.704810538006722e-18 -1.584693801074481e-17  4.386210668829013e-01
-1.019500459252790e+00  4.386210668829013e-01  2.510520822119108e-18

-3.729993401968119e-18 -2.579974347722186e-18 -1.048172398306754e+00
-2.579974347722186e-18 -1.370541180323682e-17  4.022591799407551e-01
-1.048172398306754e+00  4.022591799407551e-01  5.079948975577406e-18

-3.756205981190584e-18 -2.263914419489110e-18 -1.008142284852272e+00
-2.263914419489110e-18 -9.671952060861797e-18  4.539877880778925e-01
-1.008142284852272e+00  4.539877880778925e-01  2.392431787279531e-18

-2.604071908890077e-18 -2.073709550234029e-18 -1.021539613820867e+00
-2.073709550234029e-18 -1.096360001439295e-17  4.338886218509841e-01
-1.021539613820867e+00  4.338886218509841e-01  3.874991947333777e-18

-1.931185763176078e-18 -1.865941665757910e-18 -1.013325582133413e+00
-1.865941665757910e-18 -9.515839152307185e-18  4.300575133106589e-01
-1.013325582133413e+00  4.300575133106589e-01  3.887153091939046e-18

-6.964076165649473e-19 -1.632420026036490e-18 -1.021789843308665e+00
-1.632420026036490e-18 -7.359490524402949e-18  4.128810523200940e-01
-1.021789843308665e+00  4.128810523200940e-01  5.264951338511278e-18

-6.435698323524121e-19 -1.401007430523829e-18 -9.973748090871301e-01
-1.401007430523829e-18 -4.338270309045421e-18  4.493734205490126e-01
-9.973748090871301e-01  4.493734205490126e-01  3.645178250513860e-18

 3.690561103467225e-19 -1.327284282773914e-18 -1.015680146106478e+00
-1.327284282773914e-18 -4.298669665807797e-18  4.236578294053081e-01
-1.015680146106478e+00  4.236578294053081e-01  5.483603291340204e-18

 5.928599003492920e-19 -1.222488860312708e-18 -9.997474001408214e-01
-1.222488860312708e-18 -3.849039980940241e-18  4.354393851615847e-01
-9.997474001408214e-01  4.354393851615847e-01  4.697556624734615e-18

 1.119447503626882e-18 -1.192648324787455e-18 -9.996726770537627e-01
-1.192648324787455e-18  1.392029453941819e-18  4.132718776016119e-01
-9.996726770537627e-01  4.132718776016119e-01  5.130670473396775e-18

 2.040390607650044e-18 -1.160611879714997e-18 -1.018959545961135e+00
-1.160611879714997e-18 -1.144916781752438e-18  4.022126119445958e-01
-1.018959545961135e+00  4.022126119445958e-01  6.419701236836637e-18

 3.810417785483022e-18 -1.075524161828675e-18 -1.080355079791456e+00
-1.075524161828675e-18 -6.222816535612905e-19  4.027868306497255e-01
-1.080355079791456e+00  4.027868306497255e-01  9.992519397143504e-18

 1.861482506434440e-18 -8.859291950731357e-19 -9.964027266239546e-01
-8.859291950731357e-19 -4.972522189139845e-18  5.634970653621713e-01
-9.964027266239546e-01  5.634970653621713e-01  2.330870927550574e-18

 1.572114588705493e-18 -9.945596128555557e-19 -9.767002892055950e-01
-9.945596128555557e-19 -2.050226796444238e-18  5.837015083487681e-01
-9.767002892055950e-01  5.837015083487681e-01  8.932248144049546e-19

 5.209460292980651e-18 -8.968762366639837e-19 -1.114148966786858e+00
-8.968762366639837e-19  7.776945896874872e-19  4.014009976890615e-01
-1.114148966786858e+00  4.014009976890615e-01  1.124094882832994e-17

 4.384975673677828e-18 -9.369920121236666e-19 -1.061269129400976e+00
-9.369920121236666e-19  5.364249333761525e-18  4.310995901376845e-01
-1.061269129400976e+00  4.310995901376845e-01  7.688634477169825e-18

 4.477278890430559e-18 -9.595644201578350e-19 -1.053253429934024e+00
-9.595644201578350e-19  6.986580910842690e-18  4.533966156073174e-01
-1.053253429934024e+00  4.533966156073174e-01  6.929759402130555e-18

 4.724325487099011e-18 -9.871931029922503e-19 -1.053302524208175e+00
-9.871931029922503e-19 -1.525721420369175e-19  4.818755798510690e-01
-1.053302524208175e+00  4.818755798510690e-01  6.498845988008187e-18

 5.541189012529813e-18 -8.983998289471218e-19 -1.075409499588702e+00
-8.983998289471218e-19  4.153902183568149e-18  4.656838492948567e-01
-1.075409499588702e+00  4.656838492948567e-01  7.589636765550039e-18

 6.040854251498299e-18 -7.966568484059051e-19 -1.086348533361452e+00
-7.966568484059051e-19 -1.074458161338282e-18  4.721804313709766e-01
-1.086348533361452e+00  4.721804313709766e-01  8.129322583541130e-18

 1.282414127055198e-17 -2.021691863802810e-18 -1.065126097336783e+00
-2.021691863802810e-18  1.430271236263878e-17  4.544193903753718e-01
-1.065126097336783e+00  4.544193903753718e-01  7.400327111937205e-18

-3.850610872133634e-17  8.623010111052323e-18 -1.056894565749918e+00
 8.623010111052323e-18  1.133715615670511e-18  4.536804518290107e-01
-1.056894565749918e+00  4.536804518290107e-01  7.793190681717449e-18

-3.864689641622216e-17  8.640024326068009e-18 -1.034092427675269e+00
 8.640024326068009e-18  9.009419997532010e-19  4.608647505080927e-01
-1.034092427675269e+00  4.608647505080927e-01  7.009773257299842e-18

 7.187567356926576e-18 -6.673550069670428e-19 -1.022775798234845e+00
-6.673550069670428e-19  7.427922536896574e-18  4.382094278065232e-01
-1.022775798234845e+00  4.382094278065232e-01  6.883000043221144e-18

 5.288234132181962e-18 -2.894154641709460e-19 -1.007336581269695e+00
-2.894154641709460e-19 -6.953756533785972e-18  4.524687722603273e-01
-1.007336581269695e+00  4.524687722603273e-01  6.189928446922361e-18

 4.811254238700646e-18 -2.970721636860339e-19 -9.906645828147321e-01
-2.970721636860339e-19  3.815388284550676e-17  4.571341771432389e-01
-9.906645828147321e-01  4.571341771432389e-01  5.335776299629702e-18

 1.147105018516121e-18  4.480994162843336e-19 -1.003056143290216e+00
 4.480994162843336e-19 -1.148202213072219e-17  4.178289526470857e-01
-1.003056143290216e+00  4.178289526470857e-01  6.483347171175473e-18

 7.132806080984010e-17 -1.092230391431130e-17 -1.009129556802316e+00
-1.092230391431130e-17 -3.052030309496687e-18  4.474289763589049e-01
-1.009129556802316e+00  4.474289763589049e-01  6.376753112442046e-18

 7.213543181564754e-17 -1.086454915392509e-17 -1.040577650688479e+00
-1.086454915392509e-17 -3.789320487136562e-18  4.792287818088964e-01
-1.040577650688479e+00  4.792287818088964e-01  7.828852876136199e-18

 1.192692935800182e-17 -9.924122370349572e-19 -1.042648822151074e+00
-9.924122370349572e-19  3.676159488560259e-19  4.479137048218715e-01
-1.042648822151074e+00  4.479137048218715e-01  8.355233865153468e-18

 8.676208130245170e-18 -5.265196337033944e-19 -1.014739576800324e+00
-5.265196337033944e-19  2.470568660872455e-17  4.469592104273465e-01
-1.014739576800324e+00  4.469592104273465e-01  6.946232716877382e-18

 6.458089904368698e-18 -3.827306320342569e-19 -9.574052049969018e-01
-3.827306320342569e-19 -1.617801866887433e-17  4.796689807853564e-01
-9.574052049969018e-01  4.796689807853564e-01  3.605442030729233e-18

 4.474434701520904e-18 -6.424755343758858e-19 -8.702720338680476e-01
-6.424755343758858e-19  1.355986190701971e-17  4.912576416488910e-01
-8.702720338680476e-01  4.912576416488910e-01 -1.679678171497582e-18

 1.340270560364204e-17 -1.603310895848322e-18 -1.198373188816256e+00
-1.603310895848322e-18 -6.427395046168569e-19  1.711724591437064e-01
-1.198373188816256e+00  1.711724591437064e-01  2.290927793609562e-17

 1.068682348780640e-17 -1.190675677057570e-18 -1.102019974636724e+00
-1.190675677057570e-18  2.996639520851161e-17  3.132271633610767e-01
-1.102019974636724e+00  3.132271633610767e-01  1.507465115285757e-17

-2.441604022979726e-18  1.085444817682627e-18 -6.288173144392407e-01
 1.085444817682627e-18  1.357959282740088e-17  7.202375155546381e-01
-6.288173144392407e-01  7.202375155546381e-01 -2.138382954416483e-17

 6.101606292266883e-18  1.014268064572983e-18 -9.780191564790737e-01
 1.014268064572983e-18 -5.000639202734162e-19  5.502395469005839e-01
-9.780191564790737e-01  5.502395469005839e-01  2.101237792513829e-18

 9.796052157572445e-18  2.407223181106033e-19 -1.111850876198908e+00
 2.407223181106033e-19 -1.606768090239887e-18  4.733568755442576e-01
-1.111850876198908e+00  4.733568755442576e-01  1.136913075365691e-17

 1.079729698503090e-17 -8.667197769007199e-20 -1.144847149792696e+00
-8.667197769007199e-20  1.074939895691635e-17  4.051605445166923e-01
-1.144847149792696e+00  4.051605445166923e-01  1.433491157005222e-17

 9.700108736746133e-18 -2.254958900973658e-19 -1.092352630531649e+00
-2.254958900973658e-19  2.215907906262523e-17  4.299214089025734e-01
-1.092352630531649e+00  4.299214089025734e-01  1.064287838797388e-17

 8.553740820002548e-18  5.286279343448923e-20 -1.080624906629243e+00
 5.286279343448923e-20 -2.586323221190432e-18  4.300550425938194e-01
-1.080624906629243e+00  4.300550425938194e-01  1.000594368984891e-17

 8.148287488784593e-18  3.497474591355469e-20 -1.060559394926090e+00
 3.497474591355469e-20 -4.019364472595392e-18  4.709290813024337e-01
-1.060559394926090e+00  4.709290813024337e-01  8.503455960435132e-18

 8.247535852967303e-18 -8.958345069429384e-22 -1.049265641465014e+00
-8.958345069429384e-22  2.939697881997163e-18  4.322602503511553e-01
-1.049265641465014e+00  4.322602503511553e-01  8.163093152951059e-18

-5.596741728509048e-17  1.906696912070243e-17 -1.042441850611293e+00
 1.906696912070243e-17  7.441359015686497e-18  4.416481065184800e-01
-1.042441850611293e+00  4.416481065184800e-01  7.558026057611136e-18

 3.579339285785902e-17 -7.962871020454756e-18 -1.088723181233704e+00
-7.962871020454756e-18  1.595593513396197e-17  4.577397251486514e-01
-1.088723181233704e+00  4.577397251486514e-01  9.763589956305139e-18

-5.174292485246968e-18  4.434266290828630e-18 -1.112142818440150e+00
 4.434266290828630e-18  7.500101851526210e-18  4.679419296108576e-01
-1.112142818440150e+00  4.679419296108576e-01  1.072047275024114e-17

 1.259342893653377e-17 -8.976008113155017e-19 -1.116708292879896e+00
-8.976008113155017e-19  1.628171563988224e-18  4.903381978179063e-01
-1.116708292879896e+00  4.903381978179063e-01  1.073290782330046e-17

 7.710201294188802e-18 -5.916318321322424e-20 -1.039149657071341e+00
-5.916318321322424e-20  1.536434688874198e-17  5.482926314237652e-01
-1.039149657071341e+00  5.482926314237652e-01  5.137271407672096e-18

 9.112939744772846e-18  3.166271241086338e-19 -1.126053390102377e+00
 3.166271241086338e-19  1.267711319586897e-17  4.303494660771840e-01
-1.126053390102377e+00  4.303494660771840e-01  1.185045799682320e-17

 1.208849670593005e-17 -1.530934368843168e-20 -1.189636374270919e+00
-1.530934368843168e-20  6.945002239241318e-18  3.486253136474760e-01
-1.189636374270919e+00  3.486253136474760e-01  1.671377627940822e-17

 9.382176904807814e-18 -2.004466565110269e-19 -1.064075817321343e+00
-2.004466565110269e-19  8.449736131256623e-18  4.783190393323747e-01
-1.064075817321343e+00  4.783190393323747e-01  7.324327985346803e-18

 9.801746773317717e-18 -1.703033279238145e-19 -1.084449931953432e+00
-1.703033279238145e-19  1.543928330383051e-17  4.751915914824769e-01
-1.084449931953432e+00  4.751915914824769e-01  8.726454856915214e-18

 9.833197727202334e-18 -1.519533449410966e-19 -1.082909524095646e+00
-1.519533449410966e-19  1.122850732984835e-17  4.765206441963343e-01
-1.082909524095646e+00  4.765206441963343e-01  8.609276015232294e-18

 9.756932583486274e-18 -1.124311319111759e-19 -1.076561202521781e+00
-1.124311319111759e-19  1.131222431779768e-17  4.693082794582272e-01
-1.076561202521781e+00  4.693082794582272e-01  8.320204415565783e-18

 9.738524588561698e-18 -4.372055031088052e-20 -1.069534578970279e+00
-4.372055031088052e-20  4.605723122454345e-18  4.696282674258368e-01
-1.069534578970279e+00  4.696282674258368e-01  8.072328789928514e-18

 9.925037056127390e-18 -9.328296590314547e-22 -1.070829303054129e+00
-9.328296590314547e-22  1.014047909029060e-17  4.628818945976944e-01
-1.070829303054129e+00  4.628818945976944e-01  8.510761825281089e-18

 9.982589296964762e-18  2.346094628595000e-20 -1.067670326879277e+00
 2.346094628595000e-20  1.320790652804473e-17  4.638943199121000e-01
-1.067670326879277e+00  4.638943199121000e-01  8.545226033964238e-18

 1.016369018521562e-17  7.208442943873926e-21 -1.072472125054906e+00
 7.208442943873926e-21  3.099918503121405e-18  4.649530250849921e-01
-1.072472125054906e+00  4.649530250849921e-01  8.871511075674831e-18

 1.010849221709242e-17  6.296185590523395e-21 -1.070559473012795e+00
 6.296185590523395e-21  9.459331980010306e-18  4.691936728852338e-01
-1.070559473012795e+00  4.691936728852338e-01  8.656948886459300e-18

 1.010894473732021e-17 -8.343288362368307e-21 -1.070772067612087e+00
-8.343288362368307e-21  1.466861976877043e-17  4.705342658773944e-01
-1.070772067612087e+00  4.705342658773944e-01  8.579585498303481e-18

 1.067059289032793e-17 -4.228859145727617e-20 -1.095150984261431e+00
-4.228859145727617e-20  1.214601013227506e-17  4.547493874311821e-01
-1.095150984261431e+00  4.547493874311821e-01  1.019204800143779e-17

 9.822267537041910e-18 -3.274532304873721e-20 -1.064475636293184e+00
-3.274532304873721e-20  7.795847961136012e-18  4.933960012654645e-01
-1.064475636293184e+00  4.933960012654645e-01  7.416445854142761e-18

 1.052800444224606e-17 -7.201177877276036e-20 -1.095792488489538e+00
-7.201177877276036e-20  1.938227087515766e-17  4.686733923760848e-01
-1.095792488489538e+00  4.686733923760848e-01  9.420956799626781e-18

 1.088040898795644e-17 -1.164235738877658e-19 -1.114668039057643e+00
-1.164235738877658e-19  1.093131724643789e-17  4.615865346013484e-01
-1.114668039057643e+00  4.615865346013484e-01  1.022551662641103e-17

 1.091040808852424e-17 -1.081334348412244e-19 -1.121440931410067e+00
-1.081334348412244e-19  1.843651432043304e-17  4.720401902272914e-01
-1.121440931410067e+00  4.720401902272914e-01  9.927071665733932e-18

 1.280190626470187e-17 -1.765616839189136e-19 -1.211817797459683e+00
-1.765616839189136e-19  1.586306135933127e-17  4.429543770090494e-01
-1.211817797459683e+00  4.429543770090494e-01  1.474757123366282e-17

 1.300439582510003e-17 -1.763923581748365e-18 -1.211864195263259e+00
-1.763923581748365e-18  9.037004402644636e-18  7.346987414571650e-01
-1.211864195263259e+00  7.346987414571650e-01  1.575435360939059e-17

 8.557492386665042e-18 -1.703489629777643e-18 -1.010996462984502e+00
-1.703489629777643e-18  6.085694614297498e-18  7.243356274601320e-01
-1.010996462984502e+00  7.243356274601320e-01  3.854103504631864e-18

 1.653494029231495e-17  2.274529936868730e-18 -1.391958308934679e+00
 2.274529936868730e-18  1.648393332653999e-17  1.425771493049070e-01
-1.391958308934679e+00  1.425771493049070e-01  2.208739856337748e-17

 8.476821425972574e-18  1.999705175764434e-19 -1.008508584373241e+00
 1.999705175764434e-19  1.125970545597685e-18  4.835209153550557e-01
-1.008508584373241e+00  4.835209153550557e-01  2.754464681370766e-18

 1.014038053448801e-17 -1.290426177170026e-19 -1.067293452831264e+00
-1.290426177170026e-19  1.303378756702817e-17  4.903879104439436e-01
-1.067293452831264e+00  4.903879104439436e-01  7.563480812420500e-18

 1.123606261821278e-17 -1.677925995699729e-19 -1.110644556915902e+00
-1.677925995699729e-19  1.048635064910437e-17  4.583522990957514e-01
-1.110644556915902e+00  4.583522990957514e-01  1.081257254287655e-17

 1.031614746292068e-17 -1.668273267423500e-19 -1.073246707425353e+00
-1.668273267423500e-19  1.454581147492848e-17  5.134060316732665e-01
-1.073246707425353e+00  5.134060316732665e-01  7.809525724970415e-18

 8.430999641219645e-18 -1.816201383123631e-19 -9.961160472606161e-01
-1.816201383123631e-19  3.425507851171589e-18  5.922988303855474e-01
-9.961160472606161e-01  5.922988303855474e-01  1.925748084094017e-18

 1.079413312039832e-17 -9.503127280829110e-20 -1.089611098962130e+00
-9.503127280829110e-20  1.771569829447120e-17  4.853881808541756e-01
-1.089611098962130e+00  4.853881808541756e-01  9.187207933921632e-18

 1.290040233043701e-17 -2.090975028831763e-20 -1.173736758899514e+00
-2.090975028831763e-20  9.037104394729387e-18  3.872937759761657e-01
-1.173736758899514e+00  3.872937759761657e-01  1.568169062270040e-17

 1.014827694116559e-17 -6.253547820989528e-20 -1.058078232207316e+00
-6.253547820989528e-20  1.862149750536051e-17  4.972145751072308e-01
-1.058078232207316e+00  4.972145751072308e-01  7.190490479980500e-18

 1.072156284992372e-17 -6.238772643711891e-20 -1.077834747142089e+00
-6.238772643711891e-20  8.575665533761518e-18  4.691240274218433e-01
-1.077834747142089e+00  4.691240274218433e-01  9.016936166724854e-18

 1.064981110803106e-17 -9.584292473825419e-20 -1.063992794284989e+00
-9.584292473825419e-20  3.250437453859924e-18  4.715094459390838e-01
-1.063992794284989e+00  4.715094459390838e-01  8.323233694569466e-18

 1.054357175292359e-17 -7.704956375786829e-20 -1.056939388561658e+00
-7.704956375786829e-20  3.287645110763539e-18  4.668601912295014e-01
-1.056939388561658e+00  4.668601912295014e-01  8.038826203482153e-18

 1.067916145145138e-17 -6.556662806983458e-20 -1.054718968406767e+00
-6.556662806983458e-20  8.111724836820384e-18  4.632139609380293e-01
-1.054718968406767e+00  4.632139609380293e-01  8.018971621231412e-18

 1.776945727035289e-17 -1.444141490094582e-18 -1.058448400811856e+00
-1.444141490094582e-18  1.054065932943170e-17  4.591842422646333e-01
-1.058448400811856e+00  4.591842422646333e-01  8.446493813265295e-18

 9.018493753727420e-18 -6.292508995917817e-19 -1.054962714365123e+00
-6.292508995917817e-19  1.443815939962851e-17  4.537917512255719e-01
-1.054962714365123e+00  4.537917512255719e-01  8.553681316057214e-18

-1.997246937862293e-17  5.816993788223551e-18 -1.043096375490143e+00
 5.816993788223551e-18  1.443052529760878e-17  4.532362294789840e-01
-1.043096375490143e+00  4.532362294789840e-01  7.987978475504778e-18

 1.131471106723834e-16 -3.063151081285833e-17 -1.062833792073249e+00
-3.063151081285833e-17  2.672216883622399e-17  4.312582176890725e-01
-1.062833792073249e+00  4.312582176890725e-01  9.588199916905828e-18

-1.177233070648482e-16  3.640402747413066e-17 -1.052361776891865e+00
 3.640402747413066e-17 -1.337884081875527e-18  4.432516774643306e-01
-1.052361776891865e+00  4.432516774643306e-01  8.771682878905874e-18

 5.622464657431128e-17 -1.280908900987735e-17 -1.062908976491077e+00
-1.280908900987735e-17  1.680503895959660e-17  4.390244465625069e-01
-1.062908976491077e+00  4.390244465625069e-01  9.469568027641219e-18

 1.384928653067883e-17 -5.413292466668099e-19 -1.077765338397351e+00
-5.413292466668099e-19  1.913644252062623e-17  4.279013406681302e-01
-1.077765338397351e+00  4.279013406681302e-01  1.054254732230880e-17

 1.958205346802413e-18  2.782341504387514e-18 -1.099683147555625e+00
 2.782341504387514e-18  1.227598656122564e-17  4.189425296205374e-01
-1.099683147555625e+00  4.189425296205374e-01  1.191791745753589e-17

 1.479042497969490e-17 -7.313099814222857e-19 -1.102571641385693e+00
-7.313099814222857e-19  1.856399211393217e-17  4.553424069464471e-01
-1.102571641385693e+00  4.553424069464471e-01  1.138324618609459e-17

 1.170169118776469e-17  2.130582477152551e-20 -1.093104430581557e+00
 2.130582477152551e-20  1.614576404964802e-17  4.868547306312018e-01
-1.093104430581557e+00  4.868547306312018e-01  1.032522128271677e-17

 1.210215314304037e-17 -8.126660210911414e-20 -1.115646556115005e+00
-8.126660210911414e-20  1.756132725475007e-17  4.325850081087710e-01
-1.115646556115005e+00  4.325850081087710e-01  1.232917409235732e-17

 1.213084250677888e-17 -2.786701653708503e-19 -1.119872992828599e+00
-2.786701653708503e-19  1.378455916870946e-17  4.789956352092036e-01
-1.119872992828599e+00  4.789956352092036e-01  1.199415118971435e-17

 1.138236274334959e-17 -2.722477702450662e-19 -1.093895198581670e+00
-2.722477702450662e-19  4.408607851134930e-18  4.726798697234340e-01
-1.093895198581670e+00  4.726798697234340e-01  9.978114607391891e-18

 1.099032207314753e-17 -2.829303509415659e-19 -1.084658471902998e+00
-2.829303509415659e-19  2.002523878878086e-17  4.932350585720853e-01
-1.084658471902998e+00  4.932350585720853e-01  8.654052448177581e-18

 1.261582522756975e-17 -2.249090869853836e-19 -1.153807964232266e+00
-2.249090869853836e-19  9.524128390445893e-18  4.356113883325421e-01
-1.153807964232266e+00  4.356113883325421e-01  1.325591239800583e-17

 1.103022494396529e-17 -1.974793345607320e-19 -1.088267976452158e+00
-1.974793345607320e-19  1.652379288330363e-17  4.928428258791510e-01
-1.088267976452158e+00  4.928428258791510e-01  8.310440566765973e-18

 8.521860553528457e-18 -2.382090716661446e-19 -9.867652889034473e-01
-2.382090716661446e-19  3.496012578072553e-18  5.927028587319865e-01
-9.867652889034473e-01  5.927028587319865e-01  6.282275254732677e-19

 1.180047801027674e-17 -1.536957654249959e-19 -1.117760683895624e+00
-1.536957654249959e-19  2.146317216309649e-17  4.691976374239979e-01
-1.117760683895624e+00  4.691976374239979e-01  1.057456666924052e-17

 1.186705449081764e-17 -1.255155367610527e-19 -1.115967503702972e+00
-1.255155367610527e-19  6.619881670099446e-18  4.423689080961187e-01
-1.115967503702972e+00  4.423689080961187e-01  1.084406063851165e-17

 1.163107040746866e-17 -1.295975047145293e-19 -1.102860321033347e+00
-1.295975047145293e-19  1.038735896796034e-17  4.896880105817047e-01
-1.102860321033347e+00  4.896880105817047e-01  9.822091926319722e-18

 1.136276022469718e-17 -1.960331298575830e-19 -1.083455937249950e+00
-1.960331298575830e-19  1.127736953407554e-17  5.119295293106397e-01
-1.083455937249950e+00  5.119295293106397e-01  9.030904313652923e-18

 1.057441472878349e-17  7.461829238722600e-21 -1.043425844515695e+00
 7.461829238722600e-21  1.300382176485153e-17  4.412896705991091e-01
-1.043425844515695e+00  4.412896705991091e-01  7.460152362037571e-18

 1.033205609034796e-17 -1.065876108421646e-19 -1.028220797392935e+00
-1.065876108421646e-19  3.391835052928511e-17  4.682941649301543e-01
-1.028220797392935e+00  4.682941649301543e-01  6.652509324819219e-18

 1.112984294568150e-17 -6.328932176009058e-20 -1.065967926289694e+00
-6.328932176009058e-20  8.514360376210181e-19  4.825554948019047e-01
-1.065967926289694e+00  4.825554948019047e-01  8.542062658736122e-18

 1.157200942005845e-17 -9.516043334241111e-20 -1.085846065276213e+00
-9.516043334241111e-20  3.117908578500763e-18  4.599781847269778e-01
-1.085846065276213e+00  4.599781847269778e-01  9.749072278066227e-18

 1.247943754760733e-17 -1.269547997246431e-19 -1.125105245728476e+00
-1.269547997246431e-19  2.054892467504899e-17  4.369631171511950e-01
-1.125105245728476e+00  4.369631171511950e-01  1.224469911149955e-17

 1.135187786376445e-17 -9.405177912534800e-20 -1.083699256604501e+00
-9.405177912534800e-20  1.596298765461529e-17  5.008921175300881e-01
-1.083699256604501e+00  5.008921175300881e-01  8.588030199068974e-18

 1.162190113799552e-17 -1.118334498272181e-19 -1.095246866454136e+00
-1.118334498272181e-19  1.235422357713237e-17  5.000451653730330e-01
-1.095246866454136e+00  5.000451653730330e-01  9.315127918368322e-18

 1.258775484712064e-17 -1.157040778351098e-19 -1.134674804245812e+00
-1.157040778351098e-19  1.359279819213314e-17  4.641522301968186e-01
-1.134674804245812e+00  4.641522301968186e-01  1.222573694115093e-17

 1.182063020297574e-17 -1.304154435988433e-19 -1.102945534018323e+00
-1.304154435988433e-19  1.768406534199010e-17  4.858420890060886e-01
-1.102945534018323e+00  4.858420890060886e-01  9.928736128355192e-18

 1.223349803992352e-17 -1.334722838252703e-19 -1.119760143776753e+00
-1.334722838252703e-19  1.561022666633649e-17  4.644961978131125e-01
-1.119760143776753e+00  4.644961978131125e-01  1.123022109189402e-17

 1.189119732426197e-17 -1.161634146739286e-19 -1.105347550333391e+00
-1.161634146739286e-19  1.443691256614866e-17  4.525802036651028e-01
-1.105347550333391e+00  4.525802036651028e-01  1.036479205469035e-17

 1.187926852965990e-17 -1.217777144047231e-19 -1.104680531321752e+00
-1.217777144047231e-19  1.613885448738324e-17  4.527591848984559e-01
-1.104680531321752e+00  4.527591848984559e-01  1.031955051059361e-17

 1.165082364277921e-17 -1.491387585297932e-19 -1.096118332323044e+00
-1.491387585297932e-19  2.112830024145689e-17  4.835443206510396e-01
-1.096118332323044e+00  4.835443206510396e-01  9.413455947070388e-18

 1.169792212172413e-17 -1.373353171033842e-19 -1.099050547987485e+00
-1.373353171033842e-19  2.104699600144084e-17  4.712404378932215e-01
-1.099050547987485e+00  4.712404378932215e-01  9.569484675232799e-18

 1.158489444853568e-17 -1.105030545071005e-19 -1.095567637113695e+00
-1.105030545071005e-19  1.362410839607376e-17  4.669333976421974e-01
-1.095567637113695e+00  4.669333976421974e-01  9.131594824414444e-18

 1.232421471767555e-17 -8.018896771380246e-20 -1.126567727753007e+00
-8.018896771380246e-20  1.062412462312595e-17  4.468222695356195e-01
-1.126567727753007e+00  4.468222695356195e-01  1.110375830079934e-17

 1.241623296021728e-17 -3.887277819688711e-20 -1.130182893929937e+00
-3.887277819688711e-20  1.151344716001714e-18  4.795859287565637e-01
-1.130182893929937e+00  4.795859287565637e-01  1.105171686242882e-17

 1.256717331051440e-17 -1.165552682142715e-19 -1.126124513505687e+00
-1.165552682142715e-19  6.880242970557039e-18  4.730853377892747e-01
-1.126124513505687e+00  4.730853377892747e-01  1.159325824846833e-17

 8.310865485778257e-18 -1.863098339058464e-19 -9.438013933856927e-01
-1.863098339058464e-19 -2.151570220608449e-18  5.758350685461209e-01
-9.438013933856927e-01  5.758350685461209e-01 -6.800193284650226e-19

 1.422802423150032e-17  2.463200684589853e-19 -1.183241200642350e+00
 2.463200684589853e-19  7.576564221687779e-18  3.083046890492521e-01
-1.183241200642350e+00  3.083046890492521e-01  1.733376480712128e-17

 1.494272580195799e-17  3.024871021844251e-19 -1.207880649819633e+00
 3.024871021844251e-19  1.967506085041722e-17  2.597179685600815e-01
-1.207880649819633e+00  2.597179685600815e-01  1.966675965871021e-17

 9.219120986228748e-18  2.690275180760013e-19 -9.692492353091435e-01
 2.690275180760013e-19  6.578322443170179e-19  5.002975248743391e-01
-9.692492353091435e-01  5.002975248743391e-01  2.289188771392385e-18

 1.098905105016178e-17  1.948818593147480e-19 -1.034229637701080e+00
 1.948818593147480e-19  1.388418229966473e-17  4.516041210271708e-01
-1.034229637701080e+00  4.516041210271708e-01  7.643012600597032e-18

 1.128214606362575e-17  1.631146578737806e-19 -1.035789888481311e+00
 1.631146578737806e-19  2.108432908320044e-17  4.108326526792886e-01
-1.035789888481311e+00  4.108326526792886e-01  8.832951542288236e-18

 1.149383943647621e-17  1.569593406582610e-19 -1.035502532021825e+00
 1.569593406582610e-19  3.400307620397586e-17  3.861060513698373e-01
-1.035502532021825e+00  3.861060513698373e-01  9.668383031019651e-18

 1.093018091633693e-17  1.959157624029379e-19 -1.003350480966830e+00
 1.959157624029379e-19  8.816884466197939e-18  4.127798765097543e-01
-1.003350480966830e+00  4.127798765097543e-01  8.090007362328497e-18

 1.106148444145676e-17  1.783416397345495e-19 -9.961551090580556e-01
 1.783416397345495e-19  1.345436807958400e-17  3.927726744762733e-01
-9.961551090580556e-01  3.927726744762733e-01  8.841276283732670e-18

 1.079137809832686e-17  1.231936510473056e-19 -9.732361941348405e-01
 1.231936510473056e-19  1.702426178669919e-17  4.027466126606460e-01
-9.732361941348405e-01  4.027466126606460e-01  8.308717951560475e-18

 9.648234032284711e-18  7.179533237022775e-20 -9.110063371635475e-01
 7.179533237022775e-20  7.219322575263902e-18  4.141604118280860e-01
-9.110063371635475e-01  4.141604118280860e-01  5.628684684710607e-18

 9.357422646346722e-18  2.518572940173604e-19 -8.940031154519413e-01
 2.518572940173604e-19 -6.277451144735635e-18  3.320840360153208e-01
-8.940031154519413e-01  3.320840360153208e-01  5.689207173008151e-18

 8.283699430448542e-18 -1.007398938436348e-20 -8.432012159501128e-01
-1.007398938436348e-20  9.335303104866611e-18  3.720022204443968e-01
-8.432012159501128e-01  3.720022204443968e-01  2.483878082558667e-18

 9.606651982827324e-18  1.493453267578977e-19 -9.055349570253082e-01
 1.493453267578977e-19  5.388113032582914e-18  4.005748927421502e-01
-9.055349570253082e-01  4.005748927421502e-01  5.645177616207877e-18

 1.058343193696795e-17  1.196953883086326e-19 -9.450275108810842e-01
 1.196953883086326e-19  9.187024348536996e-18  3.667760947762012e-01
-9.450275108810842e-01  3.667760947762012e-01  8.223511673000233e-18

 1.014003334943006e-17  1.577078986395855e-19 -9.208874319914508e-01
 1.577078986395855e-19  1.469526634499371e-18  3.743708575808283e-01
-9.208874319914508e-01  3.743708575808283e-01  6.877933145505657e-18

 1.021212134434759e-17  1.381697872835823e-19 -9.200369364977197e-01
 1.381697872835823e-19  1.277201637684239e-17  3.613202595848555e-01
-9.200369364977197e-01  3.613202595848555e-01  7.333067946072854e-18

 9.880212650646225e-18  1.443593259843613e-19 -9.000940417349307e-01
 1.443593259843613e-19  4.970041478431089e-18  3.645757095454854e-01
-9.000940417349307e-01  3.645757095454854e-01  6.572746310318798e-18

 1.014426210277078e-17  1.201397571888060e-19 -9.049572116175734e-01
 1.201397571888060e-19  1.085372398345825e-17  3.418303143770262e-01
-9.049572116175734e-01  3.418303143770262e-01  7.680435511019749e-18

 8.864239514024667e-18  1.013824290089336e-19 -8.489309342366901e-01
 1.013824290089336e-19  8.471238916609623e-18  3.938142533629891e-01
-8.489309342366901e-01  3.938142533629891e-01  3.931976624145767e-18

 8.484046635759320e-18  6.611606663828932e-20 -8.312596949931262e-01
 6.611606663828932e-20  1.311976265471941e-17  3.902359889057034e-01
-8.312596949931262e-01  3.902359889057034e-01  3.017553542179583e-18

 8.693464314493473e-18 -1.329392657584572e-19 -8.359350049273837e-01
-1.329392657584572e-19  1.131206494130636e-17  3.417892182789618e-01
-8.359350049273837e-01  3.417892182789618e-01  3.924722350475766e-18

 1.431463942906088e-17 -5.455093757997085e-19 -1.059691253769175e+00
-5.455093757997085e-19  2.089945532742315e-17  2.088590502687178e-01
-1.059691253769175e+00  2.088590502687178e-01  2.002474509627982e-17

 7.123178811941725e-18  3.153898612932154e-19 -7.876468651279351e-01
 3.153898612932154e-19  1.408676854758583e-17  4.769588750806465e-01
-7.876468651279351e-01  4.769588750806465e-01 -1.543014422603322e-18

 7.030456651064620e-18  3.976101140406778e-19 -7.892679693879511e-01
 3.976101140406778e-19  8.142022480870472e-18  5.039028259479843e-01
-7.892679693879511e-01  5.039028259479843e-01 -2.041115365279375e-18

 1.490340775765220e-17  9.405713477892318e-20 -1.105837053472846e+00
 9.405713477892318e-20  1.211549347976274e-17  2.223596583316697e-01
-1.105837053472846e+00  2.223596583316697e-01  2.153755002247390e-17

 1.183330400389208e-17 -1.186003407183396e-19 -9.776003870913568e-01
-1.186003407183396e-19  8.834938652093001e-18  3.324087833056625e-01
-9.776003870913568e-01  3.324087833056625e-01  1.224922419208804e-17

 7.719775336738723e-18 -1.396669133995951e-18 -7.827011397076107e-01
-1.396669133995951e-18 -1.910332824888469e-18  5.922782469696228e-01
-7.827011397076107e-01  5.922782469696228e-01  1.314543676852959e-18

 1.117026097527118e-17  3.561527283595710e-19 -9.560561328138469e-01
 3.561527283595710e-19  1.768978319155912e-17  2.751526356832586e-01
-9.560561328138469e-01  2.751526356832586e-01  1.061816771834169e-17

 1.643898132449600e-17  1.653179666559330e-18 -1.197344719410929e+00
 1.653179666559330e-18  1.004143870137195e-17 -3.219652028579322e-02
-1.197344719410929e+00 -3.219652028579322e-02  2.465507545563078e-17

 6.529050382517321e-18  1.798840955139949e-19 -7.623698952194605e-01
 1.798840955139949e-19  2.124888272759742e-18  3.891700085026552e-01
-7.623698952194605e-01  3.891700085026552e-01 -2.324590791752503e-18

 1.110382874336364e-17 -2.768272757636124e-19 -9.441449527676073e-01
-2.768272757636124e-19  1.658616452380240e-17  3.301313180435980e-01
-9.441449527676073e-01  3.301313180435980e-01  1.076215109591189e-17

 7.722279147548410e-18  1.100933490959811e-19 -8.167813784523976e-01
 1.100933490959811e-19 -3.602463312229942e-18  4.830134988060530e-01
-8.167813784523976e-01  4.830134988060530e-01  1.863026258427308e-19

 8.385360123471330e-18  3.663350348398508e-20 -8.509790928405646e-01
 3.663350348398508e-20 -1.101938520666746e-19  4.911587628348098e-01
-8.509790928405646e-01  4.911587628348098e-01  2.162703399250905e-18

 9.981849478685072e-18 -1.230938721290554e-19 -9.145220929742589e-01
-1.230938721290554e-19  6.812265462469731e-18  4.001652337066692e-01
-9.145220929742589e-01  4.001652337066692e-01  7.003477787843355e-18

 9.364762838092645e-18 -1.889837690641811e-19 -8.873593901190835e-01
-1.889837690641811e-19  1.878288188025739e-17  3.743137638949313e-01
-8.873593901190835e-01  3.743137638949313e-01  5.024380866415169e-18

 9.480723442135275e-18 -2.594297124684780e-19 -8.992283949883199e-01
-2.594297124684780e-19  2.045023541765140e-17  3.838946050533891e-01
-8.992283949883199e-01  3.838946050533891e-01  5.172440766260574e-18

 5.275592967146864e-18  7.214514684686407e-19 -9.115459307520960e-01
 7.214514684686407e-19  1.061750960490076e-17  4.342570531567995e-01
-9.115459307520960e-01  4.342570531567995e-01  4.618576555259399e-18

 3.650592951708444e-17 -5.343659246214601e-18 -9.460354608354243e-01
-5.343659246214601e-18  8.285529074327703e-18  4.258359539445455e-01
-9.460354608354243e-01  4.258359539445455e-01  6.386354895931435e-18

-2.280242090013855e-17  6.466122664595141e-18 -9.645353406233848e-01
 6.466122664595141e-18  1.231069094797774e-17  4.099645425676890e-01
-9.645353406233848e-01  4.099645425676890e-01  7.338248251172230e-18

-1.599326221892152e-16  3.390567773561150e-17 -9.885752151253828e-01
 3.390567773561150e-17  9.062844617981137e-18  4.031446461632727e-01
-9.885752151253828e-01  4.031446461632727e-01  8.344323895051483e-18

-4.456617282697762e-18  3.021864123754147e-18 -1.005253547893670e+00
 3.021864123754147e-18  1.145635003653140e-17  3.951408949842746e-01
-1.005253547893670e+00  3.951408949842746e-01  9.023980031269911e-18

 7.455131360815251e-18  5.672548066007895e-19 -9.866243097171215e-01
 5.672548066007895e-19  9.817462583134639e-18  4.062571117661186e-01
-9.866243097171215e-01  4.062571117661186e-01  7.554484930535593e-18

 1.132772803242115e-17 -2.461194565797072e-19 -9.771597289192587e-01
-2.461194565797072e-19  1.969720322663770e-17  4.141516148222152e-01
-9.771597289192587e-01  4.141516148222152e-01  6.699191894053840e-18

 1.163224538233684e-17 -1.739322896678349e-19 -1.000460703667580e+00
-1.739322896678349e-19  1.624591633226205e-17  4.037628562761914e-01
-1.000460703667580e+00  4.037628562761914e-01  8.203725659301535e-18

 1.078880751331587e-17  2.306630034133355e-20 -1.000799618549255e+00
 2.306630034133355e-20  1.522535292086891e-17  4.150633063767059e-01
-1.000799618549255e+00  4.150633063767059e-01  7.955803018465504e-18

 1.109526854644082e-17 -1.939314243251289e-20 -1.005713167229773e+00
-1.939314243251289e-20  9.012847944527204e-18  4.019378236141201e-01
-1.005713167229773e+00  4.019378236141201e-01  8.318205727239070e-18

 1.117165863886813e-17  1.518049917395855e-21 -1.008128881235481e+00
 1.518049917395855e-21  1.434473792286699e-17  4.134392562346704e-01
-1.008128881235481e+00  4.134392562346704e-01  8.234129381129133e-18

 1.145351453963223e-17 -2.952440166851074e-20 -1.020346601491072e+00
-2.952440166851074e-20  1.467632641169711e-17  3.945022047037175e-01
-1.020346601491072e+00  3.945022047037175e-01  9.070497630852085e-18

 1.137527735738175e-17  1.161748113277159e-19 -1.033501835218629e+00
 1.161748113277159e-19  1.098240928044013e-17  4.127487702865311e-01
-1.033501835218629e+00  4.127487702865311e-01  9.454224746885727e-18

 1.336881532350229e-17 -4.745794974557922e-19 -1.034286145885748e+00
-4.745794974557922e-19  1.265173754942559e-17  3.882725316087171e-01
-1.034286145885748e+00  3.882725316087171e-01  9.599865474114787e-18

-1.131328153101782e-17  6.690173719649762e-18 -1.110406884093373e+00
 6.690173719649762e-18  1.470493591805869e-17  3.680974221067325e-01
-1.110406884093373e+00  3.680974221067325e-01  1.453269356614914e-17

 5.531646758025597e-17 -1.204043692213588e-17 -1.202839994201625e+00
-1.204043692213588e-17  2.643944209756766e-17  4.395931651099053e-01
-1.202839994201625e+00  4.395931651099053e-01  2.312665933241207e-17

 5.310506935058397e-18 -3.881964233674503e-18 -6.869331513684287e-01
-3.881964233674503e-18  4.657947500137436e-18  9.043841848656065e-01
-6.869331513684287e-01  9.043841848656065e-01 -3.062788404246544e-18

 7.490123317337435e-18  1.796284724706098e-18 -1.014927650665527e+00
 1.796284724706098e-18  1.678531977077920e-17  3.224380989482549e-01
-1.014927650665527e+00  3.224380989482549e-01  8.119566186816047e-18

 1.273526888853686e-17  2.213379660225184e-18 -1.058131078489023e+00
 2.213379660225184e-18  1.841811145443172e-17  7.228375506168955e-02
-1.058131078489023e+00  7.228375506168955e-02  7.273155936921951e-18

 7.764159055077451e-18  2.956482683493500e-19 -8.510497750583849e-01
 2.956482683493500e-19  5.550954304491550e-18  4.879188214544752e-01
-8.510497750583849e-01  4.879188214544752e-01 -5.391656720762116e-19

 8.114812768534927e-18 -1.608370967531990e-19 -8.659220933210267e-01
-1.608370967531990e-19  9.552710978420624e-18  5.132574630157006e-01
-8.659220933210267e-01  5.132574630157006e-01  1.206840439062897e-19

 1.241472214503399e-17 -4.224478417806603e-19 -1.038104354912775e+00
-4.224478417806603e-19  1.748029224665719e-17  3.399166977850194e-01
-1.038104354912775e+00  3.399166977850194e-01  1.287528561317470e-17

 1.298931060935092e-17 -3.641100278057270e-19 -1.068643484205126e+00
-3.641100278057270e-19  2.011144799243797e-17  3.380794393745650e-01
-1.068643484205126e+00  3.380794393745650e-01  1.426959590556513e-17

 1.103442553744011e-17  8.190928449475468e-20 -1.010133163215265e+00
 8.190928449475468e-20  1.141346838947965e-17  4.774429410893916e-01
-1.010133163215265e+00  4.774429410893916e-01  7.597016118750372e-18

 1.234853798940360e-17 -1.984520685249455e-19 -1.062394937724929e+00
-1.984520685249455e-19  1.668803232550061e-17  4.277801777469964e-01
-1.062394937724929e+00  4.277801777469964e-01  1.134224313085524e-17

 1.114617390574266e-17 -1.479698818159850e-19 -1.012648129312745e+00
-1.479698818159850e-19  1.641769099718008e-17  4.264585529547797e-01
-1.012648129312745e+00  4.264585529547797e-01  8.147615749393771e-18

-2.218624525522590e-17 -1.006099238139839e-19  8.573286087875821e-01
-1.006099238139839e-19  2.002996837449371e-18  4.430065958621269e-01
 8.573286087875821e-01  4.430065958621269e-01 -2.877466614349911e-17

-2.384284884319684e-17 -1.469024487686890e-19  9.621394780499555e-01
-1.469024487686890e-19 -4.960008677511977e-17  4.195480309445225e-01
 9.621394780499555e-01  4.195480309445225e-01 -3.266658861835913e-17

-2.419897711331265e-17  2.288918061281939e-19  9.829423120290716e-01
 2.288918061281939e-19 -2.943780626310118e-17  3.916252739486499e-01
 9.829423120290716e-01  3.916252739486499e-01 -3.352598419733990e-17

-2.373996055640522e-17  3.782889340027056e-19  1.042014036879173e+00
 3.782889340027056e-19  2.614840091095150e-18  1.822109226887682e-01
 1.042014036879173e+00  1.822109226887682e-01 -3.402605882981172e-17

-2.305568428206739e-17  1.092191426744826e-19  9.289469129473937e-01
 1.092191426744826e-19 -2.252490362022978e-17  3.797519406392957e-01
 9.289469129473937e-01  3.797519406392957e-01 -3.098305336009787e-17

-2.109396308716607e-17 -5.894690239906265e-19  6.791092564317838e-01
-5.894690239906265e-19  4.561123898823804e-17  7.055856882104526e-01
 6.791092564317838e-01  7.055856882104526e-01 -2.411165965216087e-17

-2.480059290896487e-17 -4.858509282137829e-19  1.007479569660354e+00
-4.858509282137829e-19 -1.533010664497083e-16  4.241791829905589e-01
 1.007479569660354e+00  4.241791829905589e-01 -3.450076925985273e-17

-2.592885406893514e-17  6.487875523039571e-20  1.079944672344279e+00
 6.487875523039571e-20  1.086410609918497e-17  3.642809349125677e-01
 1.079944672344279e+00  3.642809349125677e-01 -3.673614367594418e-17

-2.778821465860524e-17  2.468738247150136e-19  1.157061145473450e+00
 2.468738247150136e-19  3.314417609734265e-17  4.685499378985633e-01
 1.157061145473450e+00  4.685499378985633e-01 -4.033704706729730e-17

-2.635709409236743e-17  2.108926427443838e-18  1.032018491702440e+00
 2.108926427443838e-18  9.824869237510119e-17  5.874596352707926e-01
 1.032018491702440e+00  5.874596352707926e-01 -3.565376003820101e-17

-2.694882875798210e-17 -1.126012700257243e-18  1.135112363729442e+00
-1.126012700257243e-18 -5.305859138467746e-17  3.325119582261125e-01
 1.135112363729442e+00  3.325119582261125e-01 -3.904431807554793e-17

-2.583168714916068e-17 -7.693157297512773e-20  1.050192693814819e+00
-7.693157297512773e-20  2.114263624170083e-17  4.098343750103237e-01
 1.050192693814819e+00  4.098343750103237e-01 -3.593202099011531e-17

-2.540338060802229e-17 -1.188506349329491e-18  1.006896923541204e+00
-1.188506349329491e-18 -4.661221420482510e-17  4.799563810714267e-01
 1.006896923541204e+00  4.799563810714267e-01 -3.442476746956261e-17

-2.608051869892769e-17 -5.284583907186848e-19  1.066879529372875e+00
-5.284583907186848e-19 -2.784299044416678e-17  4.156346696091940e-01
 1.066879529372875e+00  4.156346696091940e-01 -3.651094125676845e-17

-2.794738937761669e-17 -4.001542953113333e-19  1.209321414549242e+00
-4.001542953113333e-19 -8.042269896920356e-18  3.722928097916851e-01
 1.209321414549242e+00  3.722928097916851e-01 -4.156700181687719e-17

-2.559885817157297e-17  1.529782057550359e-18  1.009811478215526e+00
 1.529782057550359e-18  5.139495851271976e-17  5.666304006353767e-01
 1.009811478215526e+00  5.666304006353767e-01 -3.441291101169167e-17

-2.455959192582938e-17 -9.678550612490784e-19  9.706178720017001e-01
-9.678550612490784e-19 -1.203572967594513e-16  5.115597687089175e-01
 9.706178720017001e-01  5.115597687089175e-01 -3.264928970885143e-17

-2.293062425730212e-17 -4.425341436887750e-20  9.086382449499685e-01
-4.425341436887750e-20  3.280267723623540e-17  3.616142044830584e-01
 9.086382449499685e-01  3.616142044830584e-01 -2.966794476675357e-17

-2.445567983590783e-17  1.675511220116681e-18  1.139229389375045e+00
 1.675511220116681e-18  8.065031280198572e-17  6.158869375884264e-02
 1.139229389375045e+00  6.158869375884264e-02 -3.305500644647479e-17

-2.455755575803529e-17 -5.208093729589866e-19  1.000900568322799e+00
-5.208093729589866e-19 -3.323892971301094e-17  4.063147854425911e-01
 1.000900568322799e+00  4.063147854425911e-01 -3.317651940226283e-17

-2.515722696642013e-17 -4.000224653261825e-18  8.596391687526775e-01
-4.000224653261825e-18 -1.049724668251452e-16  8.094451124272426e-01
 8.596391687526775e-01  8.094451124272426e-01 -3.462933809655658e-17

-2.733145367243386e-17 -1.190386002481695e-18  1.151347956129049e+00
-1.190386002481695e-18 -9.132318647704265e-17  4.152972385112272e-01
 1.151347956129049e+00  4.152972385112272e-01 -3.978408415966953e-17

-2.605417168676469e-17 -1.580816474268346e-19  1.082023875167066e+00
-1.580816474268346e-19  2.556256848115184e-17  3.997980308229267e-01
 1.082023875167066e+00  3.997980308229267e-01 -3.682479712889161e-17

-2.536074926198852e-17 -2.244492572796343e-19  1.038374249958422e+00
-2.244492572796343e-19  3.965491761364206e-17  4.200354541506254e-01
 1.038374249958422e+00  4.200354541506254e-01 -3.518354789996356e-17

-2.487591281111138e-17  1.598890756711992e-19  1.003823439500610e+00
 1.598890756711992e-19 -2.088986437303246e-17  4.539290885864321e-01
 1.003823439500610e+00  4.539290885864321e-01 -3.393450419689171e-17

-2.475462878755168e-17  1.352471485227628e-18  1.009197553811585e+00
 1.352471485227628e-18  1.108073592531922e-16  4.357612945123779e-01
 1.009197553811585e+00  4.357612945123779e-01 -3.411301796964727e-17

-2.477746315005374e-17 -1.006961539464635e-18  1.014471053988913e+00
-1.006961539464635e-18 -7.302856290660786e-18  4.222938368787967e-01
 1.014471053988913e+00  4.222938368787967e-01 -3.430586184488603e-17

-2.462770819964024e-17  1.281259314131911e-18  1.010930916887009e+00
 1.281259314131911e-18  4.372737192509225e-17  4.194053378597612e-01
 1.010930916887009e+00  4.194053378597612e-01 -3.418898305475672e-17

-2.450808130366882e-17  2.417530237727911e-18  1.004599047857864e+00
 2.417530237727911e-18  1.463336192350239e-16  4.297163632348857e-01
 1.004599047857864e+00  4.297163632348857e-01 -3.400494691613077e-17

-2.436564836729882e-17  6.597210333513172e-19  9.947230101888227e-01
 6.597210333513172e-19 -1.006391084596502e-17  4.239528544869182e-01
 9.947230101888227e-01  4.239528544869182e-01 -3.366170826552034e-17

-2.419619970604071e-17 -1.876265446849524e-18  9.806750897280933e-01
-1.876265446849524e-18 -1.379707433840543e-16  4.249240571478574e-01
 9.806750897280933e-01  4.249240571478574e-01 -3.316126481659868e-17

-2.405557395199727e-17  2.648845192688448e-18  9.803761134172492e-01
 2.648845192688448e-18  1.129259574100777e-16  4.193650145775218e-01
 9.803761134172492e-01  4.193650145775218e-01 -3.319805281139552e-17

-2.422805707188833e-17 -2.607514033057649e-18  9.851937897281734e-01
-2.607514033057649e-18 -1.440850007146834e-16  4.147906868434183e-01
 9.851937897281734e-01  4.147906868434183e-01 -3.342681206898140e-17

-2.431467128906534e-17 -2.891140709695746e-18  9.923550675542986e-01
-2.891140709695746e-18 -1.787661547746801e-16  4.071078926773620e-01
 9.923550675542986e-01  4.071078926773620e-01 -3.371432295127689e-17

-2.421938371013221e-17 -3.375953499587592e-18  9.822515738301563e-01
-3.375953499587592e-18 -2.026888307509968e-16  4.092642104060065e-01
 9.822515738301563e-01  4.092642104060065e-01 -3.342997047134085e-17

-2.413348962391203e-17  2.180490960921500e-18  9.805949034563749e-01
 2.180490960921500e-18  3.087346427459368e-17  4.023037409128773e-01
 9.805949034563749e-01  4.023037409128773e-01 -3.341104979502520e-17

-2.409743508104259e-17  3.812647830081249e-18  9.787068335433641e-01
 3.812647830081249e-18  1.794283729687382e-16  4.047780102922945e-01
 9.787068335433641e-01  4.047780102922945e-01 -3.338058304822650e-17

-2.436525913462347e-17 -3.258825450313538e-18  9.846294172197354e-01
-3.258825450313538e-18 -2.108003860967646e-16  4.007486738433919e-01
 9.846294172197354e-01  4.007486738433919e-01 -3.360811189918089e-17

-2.444346366890999e-17 -8.944794299689859e-19  9.847701070903968e-01
-8.944794299689859e-19 -1.541602183146716e-17  4.070663634082663e-01
 9.847701070903968e-01  4.070663634082663e-01 -3.362525609773961e-17

-2.447248506551544e-17 -2.194849870602817e-18  9.883416276237453e-01
-2.194849870602817e-18 -1.254077214662337e-16  4.074464909447785e-01
 9.883416276237453e-01  4.074464909447785e-01 -3.374057447804197e-17

-2.423638867373362e-17 -1.795179350843654e-18  9.659440114690329e-01
-1.795179350843654e-18 -8.874022711286595e-17  4.212249779958536e-01
 9.659440114690329e-01  4.212249779958536e-01 -3.290882285978353e-17

-2.453139203027491e-17 -1.609174082163400e-18  9.976791254036150e-01
-1.609174082163400e-18 -1.216226379623869e-16  3.719533167100651e-01
 9.976791254036150e-01  3.719533167100651e-01 -3.400399983953735e-17

-2.455434596657854e-17  3.191694101256291e-19  1.000079242779421e+00
 3.191694101256291e-19  3.940321989394330e-17  3.783285215629462e-01
 1.000079242779421e+00  3.783285215629462e-01 -3.407316652377470e-17

-2.462762512908854e-17 -2.871690454516355e-19  9.874037046921634e-01
-2.871690454516355e-19  2.648461009915190e-18  4.434486387013591e-01
 9.874037046921634e-01  4.434486387013591e-01 -3.369643624909360e-17

-2.433518073937511e-17  1.665479449044271e-18  9.712906309217942e-01
 1.665479449044271e-18  4.792091339844683e-17  4.285800201307094e-01
 9.712906309217942e-01  4.285800201307094e-01 -3.306697393820549e-17

-2.497037800790234e-17 -3.587256715675728e-19  1.033837418419836e+00
-3.587256715675728e-19 -2.419463111353479e-17  3.403155083940387e-01
 1.033837418419836e+00  3.403155083940387e-01 -3.524952725467840e-17

-2.456805693708850e-17  4.479614270541973e-19  9.918058557166626e-01
 4.479614270541973e-19  7.653956227201909e-17  3.948332053327244e-01
 9.918058557166626e-01  3.948332053327244e-01 -3.375423044593902e-17

-2.478818203848893e-17  9.713612379832775e-19  9.970867037735728e-01
 9.713612379832775e-19  5.678662347779758e-17  4.334961251710538e-01
 9.970867037735728e-01  4.334961251710538e-01 -3.402367727957134e-17

-2.465190523055197e-17 -6.130655556499325e-20  9.803514380103929e-01
-6.130655556499325e-20 -8.461040823774506e-18  4.441265042836657e-01
 9.803514380103929e-01  4.441265042836657e-01 -3.341328698991612e-17

-2.490690192539432e-17  5.717615761863129e-18  1.015834323482204e+00
 5.717615761863129e-18  3.206646569266677e-16  4.022916787854258e-01
 1.015834323482204e+00  4.022916787854258e-01 -3.465331571132769e-17

-2.504106766348884e-17  3.974564407982827e-19  1.019682356023168e+00
 3.974564407982827e-19  4.367746663989493e-17  3.961988257330613e-01
 1.019682356023168e+00  3.961988257330613e-01 -3.477270355357682e-17

-2.496604510878922e-17  1.687604431356504e-18  1.011023243379170e+00
 1.687604431356504e-18  1.304186592828997e-16  4.162495944580244e-01
 1.011023243379170e+00  4.162495944580244e-01 -3.447167660173934e-17

-2.491466172401220e-17 -2.567640406209359e-19  1.002762139261181e+00
-2.567640406209359e-19  3.276674345874911e-17  4.240545979982726e-01
 1.002762139261181e+00  4.240545979982726e-01 -3.417262603029763e-17

-2.471611956888263e-17  3.612719593720821e-18  9.967719019586803e-01
 3.612719593720821e-18  1.289884625153165e-16  4.192262369587479e-01
 9.967719019586803e-01  4.192262369587479e-01 -3.392803866589472e-17

-2.469210805939626e-17  1.674504130548037e-18  9.944994375977161e-01
 1.674504130548037e-18  5.273732522734401e-17  4.070150842192841e-01
 9.944994375977161e-01  4.070150842192841e-01 -3.381088509059928e-17

-2.500225836507085e-17 -3.486668355090403e-19  1.012672620385303e+00
-3.486668355090403e-19 -3.938517560190532e-17  3.977512311082934e-01
 1.012672620385303e+00  3.977512311082934e-01 -3.444958730865070e-17

-2.502718160000723e-17 -9.303664973141367e-19  1.008523805867120e+00
-9.303664973141367e-19 -9.334213890182776e-17  4.250825291829513e-01
 1.008523805867120e+00  4.250825291829513e-01 -3.434780297501264e-17

-2.503399107686360e-17 -2.472024160679384e-18  1.003661087402161e+00
-2.472024160679384e-18 -1.344755951147456e-16  4.400535516156818e-01
 1.003661087402161e+00  4.400535516156818e-01 -3.418116844546782e-17

-2.511351220338652e-17  4.410987907568674e-19  1.025162385103810e+00
 4.410987907568674e-19  2.768089359105272e-17  3.886890542820701e-01
 1.025162385103810e+00  3.886890542820701e-01 -3.490052889995071e-17

-2.485901902189293e-17  1.726290251315709e-18  1.004686135140948e+00
 1.726290251315709e-18  1.434939879969745e-16  4.081243144691982e-01
 1.004686135140948e+00  4.081243144691982e-01 -3.415342444673826e-17

-2.496086963539272e-17 -3.474463092689584e-18  1.000444799202827e+00
-3.474463092689584e-18 -1.812438968513545e-16  4.237936903296606e-01
 1.000444799202827e+00  4.237936903296606e-01 -3.401528799343648e-17

-2.499299151617177e-17  1.052920353039540e-18  1.000993466528591e+00
 1.052920353039540e-18  5.699410556837437e-17  4.396122628565462e-01
 1.000993466528591e+00  4.396122628565462e-01 -3.405810444950636e-17

-2.508430472025409e-17 -8.805967228263942e-19  1.008366927025940e+00
-8.805967228263942e-19 -1.041528449413456e-16  4.249420814131719e-01
 1.008366927025940e+00  4.249420814131719e-01 -3.430229134942939e-17

-2.508224786676916e-17 -4.812051701457484e-18  9.976655088018739e-01
-4.812051701457484e-18 -2.554774056139516e-16  4.373076017200306e-01
 9.976655088018739e-01  4.373076017200306e-01 -3.393107259679974e-17

-2.523763911398460e-17  2.816137389375942e-18  1.017375640752813e+00
 2.816137389375942e-18  1.399363222317571e-16  4.259885968839444e-01
 1.017375640752813e+00  4.259885968839444e-01 -3.464768919180105e-17

-2.554804216693528e-17  5.180942372453185e-19  1.033328917549581e+00
 5.180942372453185e-19  1.689040713253997e-17  4.246210479640588e-01
 1.033328917549581e+00  4.246210479640588e-01 -3.524085273529333e-17

-2.578748220072909e-17 -2.528556372914333e-18  1.048779615580337e+00
-2.528556372914333e-18 -1.136954604761930e-16  4.073244908529458e-01
 1.048779615580337e+00  4.073244908529458e-01 -3.577973803377490e-17

-2.540177502168742e-17 -3.127850826356027e-18  1.006802925990444e+00
-3.127850826356027e-18 -2.155140941866751e-16  4.491849641256188e-01
 1.006802925990444e+00  4.491849641256188e-01 -3.433755052202015e-17

-2.531402288718777e-17  1.274040853727725e-19  9.991348694409584e-01
 1.274040853727725e-19 -9.391467200761557e-18  4.616557098281340e-01
 9.991348694409584e-01  4.616557098281340e-01 -3.411297650306341e-17

-2.596775733216371e-17  8.211371530324347e-19  1.057700478034313e+00
 8.211371530324347e-19  5.663470993436130e-17  4.092007614267382e-01
 1.057700478034313e+00  4.092007614267382e-01 -3.617091686804188e-17

-2.604437077364141e-17  1.200995041133189e-18  1.058240822061886e+00
 1.200995041133189e-18  6.489198196895610e-17  4.101773252716823e-01
 1.058240822061886e+00  4.101773252716823e-01 -3.621122262468542e-17

-2.627986780660969e-17 -2.234715188588120e-18  1.069489712010845e+00
-2.234715188588120e-18 -1.519890106472419e-16  4.102156100898933e-01
 1.069489712010845e+00  4.102156100898933e-01 -3.665809578571562e-17

-2.585105195113367e-17 -2.039080255945564e-19  1.022999345766962e+00
-2.039080255945564e-19 -1.758433473655289e-18  4.767715587685058e-01
 1.022999345766962e+00  4.767715587685058e-01 -3.509127245519847e-17

-2.623921707067212e-17  4.872059570447848e-21  1.067999647625693e+00
 4.872059570447848e-21  9.967888213091142e-18  4.135232607002671e-01
 1.067999647625693e+00  4.135232607002671e-01 -3.662715480734113e-17

-2.564670381556332e-17  1.094328471492791e-20  1.033021924597569e+00
 1.094328471492791e-20  1.018545482747759e-17  4.108261514212789e-01
 1.033021924597569e+00  4.108261514212789e-01 -3.533292825430346e-17

-2.536187704706190e-17 -1.199539348672482e-18  1.016330121888709e+00
-1.199539348672482e-18 -1.263455985801538e-16  4.128101384836480e-01
 1.016330121888709e+00  4.128101384836480e-01 -3.470400961466401e-17

-2.527343206878098e-17 -9.439031600873675e-20  1.012758625717751e+00
-9.439031600873675e-20 -7.244491442695206e-17  4.143336262780631e-01
 1.012758625717751e+00  4.143336262780631e-01 -3.457104357733857e-17

-2.511635000695324e-17  3.727314541301856e-18  1.007524373950533e+00
 3.727314541301856e-18  2.028164371318476e-16  4.202520413941836e-01
 1.007524373950533e+00  4.202520413941836e-01 -3.437142480071851e-17

-2.503468386797024e-17 -1.656294471837181e-18  9.972527401137041e-01
-1.656294471837181e-18 -1.362241450126811e-16  4.215333358479078e-01
 9.972527401137041e-01  4.215333358479078e-01 -3.398414955931514e-17

-2.492659083941096e-17  2.607422866688839e-18  9.988011607377368e-01
 2.607422866688839e-18  1.310291868429459e-16  4.078895382971203e-01
 9.988011607377368e-01  4.078895382971203e-01 -3.402662100795354e-17

-2.466398600653198e-17  4.143065815100866e-18  9.839558171832461e-01
 4.143065815100866e-18  2.256432885157419e-16  4.159336488898793e-01
 9.839558171832461e-01  4.159336488898793e-01 -3.348716394008944e-17

-2.464295602482979e-17 -2.612933823953349e-18  9.797855218036872e-01
-2.612933823953349e-18 -1.422125325338925e-16  4.089395327140960e-01
 9.797855218036872e-01  4.089395327140960e-01 -3.333738014991573e-17

-2.438371807271016e-17  4.549823136715972e-19  9.593927980145732e-01
 4.549823136715972e-19  5.055657619862826e-17  4.383332435950471e-01
 9.593927980145732e-01  4.383332435950471e-01 -3.263022690006083e-17

-2.442565726667317e-17  1.201248742543437e-18  9.648470205367553e-01
 1.201248742543437e-18  1.358533914087015e-16  4.245913137881158e-01
 9.648470205367553e-01  4.245913137881158e-01 -3.283418141543401e-17

-2.459759499043667e-17  2.133368470530446e-18  9.902602401355531e-01
 2.133368470530446e-18  1.574532373879680e-16  3.825024797005437e-01
 9.902602401355531e-01  3.825024797005437e-01 -3.375425787097556e-17

-2.430767119419705e-17 -1.485562733533418e-18  9.599525318006942e-01
-1.485562733533418e-18 -1.761995890886590e-16  4.044797965913620e-01
 9.599525318006942e-01  4.044797965913620e-01 -3.267160369487357e-17

-2.441254333942085e-17  5.629900601761103e-19  9.634224393451718e-01
 5.629900601761103e-19 -9.826530329346243e-18  4.151383717098270e-01
 9.634224393451718e-01  4.151383717098270e-01 -3.283039843901972e-17

-2.447338130340052e-17  1.563538247341906e-18  9.657129535193832e-01
 1.563538247341906e-18  8.592672653663364e-17  4.220519456653082e-01
 9.657129535193832e-01  4.220519456653082e-01 -3.294897203709369e-17

-2.460431816626196e-17  3.050366715454534e-19  9.712186777001061e-01
 3.050366715454534e-19  4.003944588007809e-18  4.124595701186596e-01
 9.712186777001061e-01  4.124595701186596e-01 -3.315447675089192e-17

-2.465970524933109e-17  1.504661160019727e-18  9.675113495906691e-01
 1.504661160019727e-18  5.243092104338048e-17  4.209504300036804e-01
 9.675113495906691e-01  4.209504300036804e-01 -3.303089261215742e-17

-2.470493724416690e-17  1.619074491896196e-18  9.724888705047621e-01
 1.619074491896196e-18  6.165149101978685e-17  4.170574092366298e-01
 9.724888705047621e-01  4.170574092366298e-01 -3.321580935495904e-17

-2.465265037927943e-17 -3.169231264358661e-18  9.510709539444149e-01
-3.169231264358661e-18 -2.040779629325116e-16  4.397942314749028e-01
 9.510709539444149e-01  4.397942314749028e-01 -3.245427356589070e-17

-2.488037976086479e-17  2.320210117011731e-18  9.748699617829337e-01
 2.320210117011731e-18  1.117786369938584e-16  4.062223178338951e-01
 9.748699617829337e-01  4.062223178338951e-01 -3.324113399712652e-17

-2.484451507299012e-17 -1.332703120587753e-20  9.705864588421674e-01
-1.332703120587753e-20 -1.996416537943808e-17  3.961248487012572e-01
 9.705864588421674e-01  3.961248487012572e-01 -3.287146323679930e-17

-2.714515110003977e-17  2.037487576161064e-18  1.180409623573955e+00
 2.037487576161064e-18  2.734792987895236e-17  1.943452482238163e-01
 1.180409623573955e+00  1.943452482238163e-01 -3.830815028103557e-17

-2.753329482472359e-17 -8.157997626056307e-19  9.953208832165978e-01
-8.157997626056307e-19 -2.876285702080909e-17  7.251212146588631e-01
 9.953208832165978e-01  7.251212146588631e-01 -3.743555656032709e-17

-2.736092775713855e-17  4.721341467657042e-19  9.764494831404370e-01
 4.721341467657042e-19  2.844875928260131e-17  7.749182068305561e-01
 9.764494831404370e-01  7.749182068305561e-01 -3.665772552504459e-17

-2.975163318000529e-17 -5.978644075503522e-19  1.282589676496914e+00
-5.978644075503522e-19 -2.353893480123060e-17  3.107206527953736e-01
 1.282589676496914e+00  3.107206527953736e-01 -4.431886020965217e-17

-2.587495117746641e-17  7.289570341878982e-19  1.021164338990025e+00
 7.289570341878982e-19  4.834458567148730e-17  3.676801257571909e-01
 1.021164338990025e+00  3.676801257571909e-01 -3.512960945741883e-17

-2.500985290052075e-17  6.187933691205014e-19  9.722930129022962e-01
 6.187933691205014e-19 -5.620728037784555e-17  3.942285921959570e-01
 9.722930129022962e-01  3.942285921959570e-01 -3.318208721238041e-17

-2.434182013075164e-17 -1.759424241964672e-18  9.536979794913116e-01
-1.759424241964672e-18 -6.849773562955618e-17  4.307997118705152e-01
 9.536979794913116e-01  4.307997118705152e-01 -3.241030167195901e-17

-2.325472869610081e-17 -3.661730506023054e-18  9.809462653682156e-01
-3.661730506023054e-18 -1.851507316972893e-16  4.188990372669681e-01
 9.809462653682156e-01  4.188990372669681e-01 -3.338197776845441e-17

-2.627163566467773e-17 -4.294550947298349e-18  9.723761393150097e-01
-4.294550947298349e-18 -2.310905812513570e-16  4.449028528777411e-01
 9.723761393150097e-01  4.449028528777411e-01 -3.312696107479216e-17

-2.265326074891169e-17 -3.794446957664268e-18  9.978983777875530e-01
-3.794446957664268e-18 -2.059957323379916e-16  4.221594176308240e-01
 9.978983777875530e-01  4.221594176308240e-01 -3.403485174769070e-17

-3.476127860671409e-17  5.364956401489512e-18  9.979725904064423e-01
 5.364956401489512e-18  2.094462414266194e-16  4.149643556166590e-01
 9.979725904064423e-01  4.149643556166590e-01 -3.403316948855940e-17

-9.201378278656957e-17  1.883315393286030e-17  1.011631599147499e+00
 1.883315393286030e-17  1.711070184912296e-16  3.994543539002746e-01
 1.011631599147499e+00  3.994543539002746e-01 -3.452139088325109e-17

 6.346984456822079e-17 -2.015284733088151e-17  1.003322984396273e+00
-2.015284733088151e-17  1.147471351196276e-16  4.166470589659032e-01
 1.003322984396273e+00  4.166470589659032e-01 -3.424967926812347e-17

-5.750674126510770e-17  7.261050614997444e-18  1.008515614899484e+00
 7.261050614997444e-18  8.444770167178149e-18  4.006732192859866e-01
 1.008515614899484e+00  4.006732192859866e-01 -3.443795790240991e-17

-2.084890462642811e-17  1.879782659376694e-18  1.003138586605257e+00
 1.879782659376694e-18  1.808984702119399e-16  4.091585966834791e-01
 1.003138586605257e+00  4.091585966834791e-01 -3.426680202933784e-17

-2.677808436950995e-17  2.610663890624485e-18  1.057629768612551e+00
 2.610663890624485e-18  1.507826548039255e-16  3.641169149864549e-01
 1.057629768612551e+00  3.641169149864549e-01 -3.620906633200943e-17

-2.621566320709150e-17 -2.629816665364501e-18  1.034977712693885e+00
-2.629816665364501e-18 -2.707409842688361e-16  4.033370659654795e-01
 1.034977712693885e+00  4.033370659654795e-01 -3.542642208635496e-17

-2.586645637101338e-17 -2.125072219168539e-18  1.042595247616666e+00
-2.125072219168539e-18 -1.614648455154886e-16  4.209256566708163e-01
 1.042595247616666e+00  4.209256566708163e-01 -3.564826169144053e-17

-2.468065578482029e-17 -9.276427168040522e-19  9.331830468277597e-01
-9.276427168040522e-19 -9.421728759456267e-17  5.027387052696872e-01
 9.331830468277597e-01  5.027387052696872e-01 -3.161627908337894e-17

-2.504777268518009e-17  1.481505661437473e-18  9.889436718824157e-01
 1.481505661437473e-18  8.906801533812102e-17  4.139100373176494e-01
 9.889436718824157e-01  4.139100373176494e-01 -3.364281592440644e-17

-2.442434926555606e-17  3.212270583381082e-18  9.621371188137116e-01
 3.212270583381082e-18  3.590518189333458e-16  4.004018512924980e-01
 9.621371188137116e-01  4.004018512924980e-01 -3.263618701549312e-17

-2.238380183973737e-17  1.224663114554027e-18  8.568372231314935e-01
 1.224663114554027e-18  1.030644259002540e-16  2.914313241520864e-01
 8.568372231314935e-01  2.914313241520864e-01 -2.852959993986649e-17

-2.419375970763903e-17 -4.102029214434014e-18  1.030089288348915e+00
-4.102029214434014e-18 -5.620761859213074e-16  1.383010493767346e-01
 1.030089288348915e+00  1.383010493767346e-01 -3.340674620107946e-17

-2.009297651421110e-17  5.597226019104030e-18  5.769104230756218e-01
 5.597226019104030e-18  2.615736701951945e-16  6.802214210565615e-01
 5.769104230756218e-01  6.802214210565615e-01 -2.101654592886718e-17

-2.469464097663278e-17  2.080279116872814e-18  9.498446457950432e-01
 2.080279116872814e-18  2.053447065447306e-16  4.540565991085239e-01
 9.498446457950432e-01  4.540565991085239e-01 -3.292497476372110e-17

-2.538695217081822e-17  3.195484765756402e-18  9.901264378289101e-01
 3.195484765756402e-18  2.305926428967852e-16  4.337220589172897e-01
 9.901264378289101e-01  4.337220589172897e-01 -3.399252451316376e-17

-2.567107427106106e-17 -6.867860668818620e-19  1.003401033243252e+00
-6.867860668818620e-19 -3.143481784616624e-17  4.225864859035999e-01
 1.003401033243252e+00  4.225864859035999e-01 -3.434979861429119e-17

-2.575408589407739e-17 -5.771984723203210e-19  1.014434700969811e+00
-5.771984723203210e-19 -2.595274235345775e-17  3.802836574110899e-01
 1.014434700969811e+00  3.802836574110899e-01 -3.464808493429184e-17

-2.569865253108875e-17 -3.405930283335201e-18  1.001726849180039e+00
-3.405930283335201e-18 -2.505444243769462e-16  3.906180177965186e-01
 1.001726849180039e+00  3.906180177965186e-01 -3.420203142611491e-17

-2.572910767715137e-17 -4.461150114084043e-19  1.000549233963851e+00
-4.461150114084043e-19 -6.840802057324430e-17  4.018958840131681e-01
 1.000549233963851e+00  4.018958840131681e-01 -3.418223348920303e-17

-2.571841652184140e-17  2.087796886349286e-18  1.002345072475284e+00
 2.087796886349286e-18  1.657491030715843e-16  3.977784594350581e-01
 1.002345072475284e+00  3.977784594350581e-01 -3.424971704336767e-17

-2.555437631659025e-17  3.603772401490143e-18  9.962541546064335e-01
 3.603772401490143e-18  2.368523159192287e-16  3.940985417575174e-01
 9.962541546064335e-01  3.940985417575174e-01 -3.402401685767508e-17

-2.529133185022988e-17 -2.305053906996156e-18  9.663866955073757e-01
-2.305053906996156e-18 -3.153451465396724e-16  4.148146173257596e-01
 9.663866955073757e-01  4.148146173257596e-01 -3.295223294996960e-17

-2.538405303161465e-17  2.604091374242667e-18  9.839729922683184e-01
 2.604091374242667e-18  2.136008868237169e-16  3.962477778144287e-01
 9.839729922683184e-01  3.962477778144287e-01 -3.358557609726324e-17

-2.521706271018799e-17 -1.267042741870764e-18  9.666181227869258e-01
-1.267042741870764e-18 -2.016852602709536e-16  4.082347288500096e-01
 9.666181227869258e-01  4.082347288500096e-01 -3.294373307039914e-17

-2.548811801848669e-17 -1.795088661492728e-19  1.000188364144727e+00
-1.795088661492728e-19 -6.402439661220804e-17  3.486036908458959e-01
 1.000188364144727e+00  3.486036908458959e-01 -3.411412695058467e-17

-2.548906021661527e-17 -2.323944885867653e-18  9.886842773770244e-01
-2.323944885867653e-18 -2.674367207563155e-16  3.765532446501793e-01
 9.886842773770244e-01  3.765532446501793e-01 -3.373187999500187e-17

-2.503547886625702e-17 -2.401725233674451e-18  9.414652725539271e-01
-2.401725233674451e-18 -2.056510008240594e-16  4.485183962078796e-01
 9.414652725539271e-01  4.485183962078796e-01 -3.209980040810259e-17

-2.528217776148077e-17 -2.752875711260725e-19  9.753616689451045e-01
-2.752875711260725e-19  7.011923429555563e-17  3.717989422165100e-01
 9.753616689451045e-01  3.717989422165100e-01 -3.325687209026930e-17

-2.515830187256426e-17  6.211977793391057e-20  9.608270373508114e-01
 6.211977793391057e-20  4.432987725113392e-17  3.863502310061301e-01
 9.608270373508114e-01  3.863502310061301e-01 -3.272085904658926e-17

-2.509429843121725e-17  2.639246062410371e-18  9.525835926837415e-01
 2.639246062410371e-18  2.216077937918946e-16  4.140522977867380e-01
 9.525835926837415e-01  4.140522977867380e-01 -3.245759470840971e-17

-2.538270320551026e-17 -1.595332615105968e-19  9.659902991715502e-01
-1.595332615105968e-19 -1.164175141223626e-16  4.120321325421563e-01
 9.659902991715502e-01  4.120321325421563e-01 -3.295317715458336e-17

-2.578034921276060e-17  8.687369332748158e-19  9.951733101840284e-01
 8.687369332748158e-19  1.045986708471274e-16  3.809073844792359e-01
 9.951733101840284e-01  3.809073844792359e-01 -3.397030350808573e-17

-2.568101229224396e-17 -2.993324307094299e-18  9.745283153035971e-01
-2.993324307094299e-18 -2.070053344350910e-16  4.216361295887545e-01
 9.745283153035971e-01  4.216361295887545e-01 -3.327716661464548e-17

-2.547686613305562e-17 -1.229357361164888e-18  9.637266946839534e-01
-1.229357361164888e-18 -7.683815961146688e-17  4.062005901617873e-01
 9.637266946839534e-01  4.062005901617873e-01 -3.285848579073870e-17

-2.586671257555790e-17 -3.556439019968786e-19  1.006029499217848e+00
-3.556439019968786e-19  1.517680381819823e-16  3.382231001535459e-01
 1.006029499217848e+00  3.382231001535459e-01 -3.428161960006208e-17

-2.559541310497822e-17  5.998417575144590e-19  9.625858721411633e-01
 5.998417575144590e-19 -1.674260244494097e-16  4.259921661417175e-01
 9.625858721411633e-01  4.259921661417175e-01 -3.286532908838374e-17

-2.593404912682077e-17 -9.153489861815206e-19  9.799336297734128e-01
-9.153489861815206e-19 -8.454008729970618e-17  4.158037217050130e-01
 9.799336297734128e-01  4.158037217050130e-01 -3.348518326567695e-17

-2.631508868169665e-17 -4.632382250711305e-19  1.017728292906188e+00
-4.632382250711305e-19 -2.403123511017616e-17  3.578494624469865e-01
 1.017728292906188e+00  3.578494624469865e-01 -3.478618213230695e-17

-2.599801435174971e-17  3.427212800879248e-19  9.828250367931958e-01
 3.427212800879248e-19  7.469073204837960e-17  3.952862896320700e-01
 9.828250367931958e-01  3.952862896320700e-01 -3.356649216324523e-17

-2.644154053116690e-17  1.446070992438735e-19  1.003141840392720e+00
 1.446070992438735e-19 -1.287711863728157e-17  4.046179750324016e-01
 1.003141840392720e+00  4.046179750324016e-01 -3.437301481261424e-17

-2.676292098734595e-17 -1.839276072483311e-19  1.015273143433016e+00
-1.839276072483311e-19  3.121954355098818e-17  4.103081856634584e-01
 1.015273143433016e+00  4.103081856634584e-01 -3.486144922352704e-17

-2.672757329344799e-17  4.222068474759002e-19  1.010050047768508e+00
 4.222068474759002e-19 -7.515733001982888e-17  4.235733273779964e-01
 1.010050047768508e+00  4.235733273779964e-01 -3.470981086698783e-17

-2.667816376513097e-17 -1.199177859914799e-18  1.008873650401628e+00
-1.199177859914799e-18 -1.359137159334672e-16  3.951452861973229e-01
 1.008873650401628e+00  3.951452861973229e-01 -3.465923432738338e-17

-2.680096023993736e-17 -4.795534041361654e-19  1.022565621365490e+00
-4.795534041361654e-19 -1.189068178866346e-16  3.569462635822417e-01
 1.022565621365490e+00  3.569462635822417e-01 -3.515032867465961e-17

-2.692948357121816e-17  7.497647792017711e-20  1.023927517308679e+00
 7.497647792017711e-20  6.124720075567341e-17  3.761718591918174e-01
 1.023927517308679e+00  3.761718591918174e-01 -3.526730026478790e-17

-2.694405186519812e-17  3.405936553714686e-19  1.008540264412116e+00
 3.405936553714686e-19  3.337936089901668e-17  4.382917462433714e-01
 1.008540264412116e+00  4.382917462433714e-01 -3.479034129744211e-17

-2.678765242994407e-17  1.487806383474694e-18  1.009537977033245e+00
 1.487806383474694e-18 -4.853838385734782e-19  3.816408872398305e-01
 1.009537977033245e+00  3.816408872398305e-01 -3.485660330130694e-17

-2.647565852006596e-17 -8.720309464216720e-20  9.896725653807847e-01
-8.720309464216720e-20 -3.714203591564929e-17  3.682464479112971e-01
 9.896725653807847e-01  3.682464479112971e-01 -3.417201298909185e-17

-2.598497238669122e-17  6.144512217836486e-19  9.507211836080651e-01
 6.144512217836486e-19  5.865433630761786e-17  4.127323046607569e-01
 9.507211836080651e-01  4.127323046607569e-01 -3.273341504554066e-17

-2.639203972970812e-17  1.603068909075101e-18  1.001109782768309e+00
 1.603068909075101e-18  2.685703584017763e-16  3.257189928559570e-01
 1.001109782768309e+00  3.257189928559570e-01 -3.462616990743136e-17

-2.540037097844859e-17 -1.012710963022441e-18  9.136198409909143e-01
-1.012710963022441e-18 -1.686101277600118e-16  4.298561629718056e-01
 9.136198409909143e-01  4.298561629718056e-01 -3.137052333314640e-17

-2.389769797868944e-17 -5.086586609721942e-20  8.085556770871890e-01
-5.086586609721942e-20  1.757973633567903e-16  4.637148186925379e-01
 8.085556770871890e-01  4.637148186925379e-01 -2.758527779065818e-17

-2.582196786723701e-17  4.105074753551672e-18  1.004447775159104e+00
 4.105074753551672e-18  3.611855974575672e-16  2.042756798184211e-01
 1.004447775159104e+00  2.042756798184211e-01 -3.462866886678700e-17

-2.499960547466099e-17 -3.759772358414426e-18  9.325926888553290e-01
-3.759772358414426e-18 -1.106847654283326e-16  2.365122655367350e-01
 9.325926888553290e-01  2.365122655367350e-01 -3.170145356437257e-17

-2.460325180424216e-17 -2.036382920668653e-18  8.346193032860681e-01
-2.036382920668653e-18 -2.732306496417560e-16  4.618760231885559e-01
 8.346193032860681e-01  4.618760231885559e-01 -2.876264274491198e-17

-2.611041960558865e-17  1.227577038761954e-18  9.202970445772606e-01
 1.227577038761954e-18  2.021636866524261e-16  4.571641817462560e-01
 9.202970445772606e-01  4.571641817462560e-01 -3.200729719730473e-17

-2.701701266297453e-17  1.981800957932321e-19  9.769689776829654e-01
 1.981800957932321e-19  7.451778347183174e-17  4.237329256650545e-01
 9.769689776829654e-01  4.237329256650545e-01 -3.395584531733992e-17

-2.746828178152249e-17  9.625998736384997e-19  9.924075074185466e-01
 9.625998736384997e-19 -6.138400414070033e-17  4.101324583725607e-01
 9.924075074185466e-01  4.101324583725607e-01 -3.447118809729710e-17

-2.794182534497345e-17  7.654340004874859e-19  1.006088509344071e+00
 7.654340004874859e-19 -5.275498708236129e-17  4.069412724605244e-01
 1.006088509344071e+00  4.069412724605244e-01 -3.499730526025549e-17

-2.853189264629349e-17  2.305588657538523e-19  1.019515631847982e+00
 2.305588657538523e-19  8.849712837668161e-17  4.179081074068969e-01
 1.019515631847982e+00  4.179081074068969e-01 -3.558920203355721e-17

-2.881233983967020e-17 -3.728391729491882e-19  1.012882630627432e+00
-3.728391729491882e-19 -1.001221979699288e-16  4.490340993122943e-01
 1.012882630627432e+00  4.490340993122943e-01 -3.546946334317242e-17

-2.904609427148828e-17 -8.927276229350133e-20  1.017346297261459e+00
-8.927276229350133e-20 -5.284216873571792e-17  4.568316765707612e-01
 1.017346297261459e+00  4.568316765707612e-01 -3.567864709662381e-17

-2.915147591478038e-17 -3.007998670798606e-19  1.014065932301563e+00
-3.007998670798606e-19 -4.161839627005726e-17  4.434059228142984e-01
 1.014065932301563e+00  4.434059228142984e-01 -3.546584230675760e-17

-2.979913689999294e-17  8.142443509064343e-19  1.073852302664342e+00
 8.142443509064343e-19 -7.858871814040350e-17  3.412096741560748e-01
 1.073852302664342e+00  3.412096741560748e-01 -3.681177837547106e-17

-3.224304610991435e-17  1.281171608145882e-18  1.267395352232957e+00
 1.281171608145882e-18  4.444140401424967e-17  2.071493784334053e-01
 1.267395352232957e+00  2.071493784334053e-01 -4.203264835682374e-17

-3.555674420054339e-17  1.117409462241382e-18  1.497029861723429e+00
 1.117409462241382e-18 -3.255960917859383e-17  1.645032523388049e-01
 1.497029861723429e+00  1.645032523388049e-01 -4.984435933764777e-17

-3.412036014144170e-17 -6.757011253979791e-19  1.135372947483393e+00
-6.757011253979791e-19 -1.071182846426430e-17  7.994656195086631e-01
 1.135372947483393e+00  7.994656195086631e-01 -4.554049228807029e-17

-3.468310960873919e-17  3.430951410505841e-19  1.215152382078788e+00
 3.430951410505841e-19 -3.021590760104835e-17  7.149688992552032e-01
 1.215152382078788e+00  7.149688992552032e-01 -4.641275617352019e-17

-3.441518091213996e-17 -2.207304116503360e-19  1.293801721720575e+00
-2.207304116503360e-19 -2.737370929548386e-17  4.012036416612884e-01
 1.293801721720575e+00  4.012036416612884e-01 -4.614232132547010e-17

-3.245586159473277e-17 -8.162721761192946e-19  1.171706555539428e+00
-8.162721761192946e-19 -9.499041894194816e-17  3.547085664829142e-01
 1.171706555539428e+00  3.547085664829142e-01 -4.175455293591805e-17

-3.121130098967286e-17 -1.700627041303171e-19  1.104461287024520e+00
-1.700627041303171e-19 -6.021825997741366e-18  3.445122867602559e-01
 1.104461287024520e+00  3.445122867602559e-01 -3.929717277862297e-17

-2.984781639964069e-17  2.209313106942987e-19  9.917177774984682e-01
 2.209313106942987e-19 -4.832341692895885e-17  4.576167880529755e-01
 9.917177774984682e-01  4.576167880529755e-01 -3.513241811965181e-17

-3.010027735808169e-17  8.532096521098617e-19  9.999490056209190e-01
 8.532096521098617e-19  1.108054497491045e-16  4.615792536287694e-01
 9.999490056209190e-01  4.615792536287694e-01 -3.543877181558871e-17

-3.060171616197321e-17 -1.558046479068572e-20  1.024825256762725e+00
-1.558046479068572e-20 -5.628679238161763e-17  4.457199791428772e-01
 1.024825256762725e+00  4.457199791428772e-01 -3.638944475600527e-17

-3.128126074843031e-17  8.417190230036368e-19  1.064556501584293e+00
 8.417190230036368e-19 -8.701708238474076e-17  4.178188362588575e-01
 1.064556501584293e+00  4.178188362588575e-01 -3.788423757290470e-17

-3.165858108532218e-17  7.200607134176349e-19  1.066410123912382e+00
 7.200607134176349e-19 -1.140959546126078e-17  4.296974250557420e-01
 1.066410123912382e+00  4.296974250557420e-01 -3.806015116783770e-17

-3.176564160292167e-17  2.125692008606585e-19  1.035886686805459e+00
 2.125692008606585e-19 -8.053835257998646e-17  4.825395669538922e-01
 1.035886686805459e+00  4.825395669538922e-01 -3.714545120703482e-17

-3.195300846616296e-17  5.434956792399932e-19  1.025782312012135e+00
 5.434956792399932e-19 -1.666534667343659e-17  5.202743404561415e-01
 1.025782312012135e+00  5.202743404561415e-01 -3.690760780473031e-17

-3.313130302757331e-17  2.467998229397981e-19  1.143220980418713e+00
 2.467998229397981e-19 -5.607843932650393e-17  4.030754163693562e-01
 1.143220980418713e+00  4.030754163693562e-01 -4.097722553370970e-17

-3.134349714112084e-17  1.270493794006293e-18  1.060803410178932e+00
 1.270493794006293e-18  8.151918325942969e-17  4.150709575370596e-01
 1.060803410178932e+00  4.150709575370596e-01 -3.801275574803854e-17

-3.316209695747109e-17  8.845671126312979e-19  1.059827917176889e+00
 8.845671126312979e-19 -9.319993463548467e-17  3.956548831578834e-01
 1.059827917176889e+00  3.956548831578834e-01 -3.799996321989421e-17

-6.082480515490648e-17  2.760147412212829e-18  1.014661118373816e+00
 2.760147412212829e-18 -7.167805755025472e-17  4.410463963814398e-01
 1.014661118373816e+00  4.410463963814398e-01 -3.651230464556259e-17

-9.821934745970107e-18  3.198505122157945e-19  1.014817944288372e+00
 3.198505122157945e-19 -1.592951058665056e-16  4.281868153556771e-01
 1.014817944288372e+00  4.281868153556771e-01 -3.670209282303106e-17

-3.322020395267123e-17  9.132437790177270e-19  1.017885815610615e+00
 9.132437790177270e-19  6.377135963728630e-17  4.320509240974924e-01
 1.017885815610615e+00  4.320509240974924e-01 -3.706318507442329e-17

-3.371860936549209e-17  2.209272028637621e-18  9.975252837458990e-01
 2.209272028637621e-18  7.982539349461679e-18  4.387497111739503e-01
 9.975252837458990e-01  4.387497111739503e-01 -3.652859607217899e-17

-3.367884563168938e-17  2.501099951045011e-18  9.691563427527468e-01
 2.501099951045011e-18  6.587816888407138e-17  4.694046871659249e-01
 9.691563427527468e-01  4.694046871659249e-01 -3.562367451126636e-17

-3.429317474781692e-17  1.031613672098125e-18  9.982762672627917e-01
 1.031613672098125e-18  7.296060105902545e-18  4.227987612993019e-01
 9.982762672627917e-01  4.227987612993019e-01 -3.677157064198851e-17

-3.406422219244244e-17  1.506763563591685e-18  9.613575629284817e-01
 1.506763563591685e-18 -1.445992332663059e-16  4.352787477476367e-01
 9.613575629284817e-01  4.352787477476367e-01 -3.555753047365363e-17

-3.487749601362605e-17  2.497524949557915e-18  9.837663996320235e-01
 2.497524949557915e-18 -5.056129497801391e-17  3.878505308893764e-01
 9.837663996320235e-01  3.878505308893764e-01 -3.640569596527055e-17

-3.561239743945652e-17  2.967872515353402e-18  9.705176682077081e-01
 2.967872515353402e-18 -1.205683094301349e-16  4.316157548004434e-01
 9.705176682077081e-01  4.316157548004434e-01 -3.597640336737722e-17

-4.183184338369252e-17  3.384740081880273e-18  1.455667819235896e+00
 3.384740081880273e-18  1.117762268125553e-16  3.169067728530115e-02
 1.455667819235896e+00  3.169067728530115e-02 -5.101939135476777e-17

-4.111183581736826e-17  2.624947362551956e-18  1.267555646308840e+00
 2.624947362551956e-18 -1.409944281112349e-16  3.336414959875960e-01
 1.267555646308840e+00  3.336414959875960e-01 -4.738796711251575e-17

-4.041610193429815e-17  1.817573009583851e-18  1.062966261622327e+00
 1.817573009583851e-18 -5.195495636440347e-17  6.854549933796731e-01
 1.062966261622327e+00  6.854549933796731e-01 -4.380310181307614e-17

-3.790858960980933e-17  4.016279406226439e-18  8.544292350195599e-01
 4.016279406226439e-18 -1.894639061201906e-17  6.814404528073312e-01
 8.544292350195599e-01  6.814404528073312e-01 -3.658696708712765e-17

-4.060993761752636e-17  3.146003373492012e-18  1.096086048377416e+00
 3.146003373492012e-18 -2.084853857535046e-16  4.324329498750730e-01
 1.096086048377416e+00  4.324329498750730e-01 -4.222204520234610e-17

-4.114198857005829e-17  3.756670232450918e-18  1.129412893935394e+00
 3.756670232450918e-18 -8.504850970639715e-18  3.042355871330422e-01
 1.129412893935394e+00  3.042355871330422e-01 -4.212406367905306e-17

-4.024789168808975e-17  3.356060820968052e-18  9.561569683418154e-01
 3.356060820968052e-18 -2.158534305820729e-16  4.654190279675370e-01
 9.561569683418154e-01  4.654190279675370e-01 -3.718766753095702e-17

-4.199947228388879e-17  4.822085969637079e-18  9.909590469820346e-01
 4.822085969637079e-18 -3.649991713629271e-17  4.979673897837720e-01
 9.909590469820346e-01  4.979673897837720e-01 -3.881672171128337e-17

-4.323825092327444e-17  4.017783272014408e-18  1.007449853246959e+00
 4.017783272014408e-18 -1.199639488284192e-16  4.963247526697425e-01
 1.007449853246959e+00  4.963247526697425e-01 -3.969513788765905e-17

-4.460281697096619e-17  5.863764101130515e-18  1.029550355839116e+00
 5.863764101130515e-18  1.773062045118385e-16  4.523211086913717e-01
 1.029550355839116e+00  4.523211086913717e-01 -4.077389374461278e-17

-4.585514813918782e-17  6.050531520863426e-18  1.012158574080563e+00
 6.050531520863426e-18 -8.357284093862462e-17  4.710098743352243e-01
 1.012158574080563e+00  4.710098743352243e-01 -4.058825065285153e-17

-4.701328499812242e-17  7.188943178041427e-18  1.013745756157784e+00
 7.188943178041427e-18  7.038117420409240e-17  4.548474729878557e-01
 1.013745756157784e+00  4.548474729878557e-01 -4.099075630692892e-17

-4.886568557626511e-17  6.848281678344562e-18  1.041977563548625e+00
 6.848281678344562e-18  3.817103919949410e-17  4.224182299279628e-01
 1.041977563548625e+00  4.224182299279628e-01 -4.249605097142065e-17

-4.989555736569803e-17  6.417784364742796e-18  9.913741515403325e-01
 6.417784364742796e-18 -1.347872354033503e-16  5.070890950180714e-01
 9.913741515403325e-01  5.070890950180714e-01 -4.153825442229929e-17

-5.080808599480508e-17  7.449035080947906e-18  9.539236610636406e-01
 7.449035080947906e-18  4.289471829838736e-17  5.500324658226369e-01
 9.539236610636406e-01  5.500324658226369e-01 -4.078018224098317e-17

-5.373508612922799e-17  8.779467934783674e-18  1.084983267647031e+00
 8.779467934783674e-18 -6.936125659674863e-17  3.812740571163921e-01
 1.084983267647031e+00  3.812740571163921e-01 -4.583104408820268e-17

-5.478273759498187e-17  9.327672707482598e-18  1.029211215449230e+00
 9.327672707482598e-18 -1.302356484288797e-16  4.228145732629118e-01
 1.029211215449230e+00  4.228145732629118e-01 -4.450525275531245e-17

-5.938657768804956e-17  1.159473854439188e-17  1.026889718905314e+00
 1.159473854439188e-17 -8.800476049038703e-17  4.181912093350713e-01
 1.026889718905314e+00  4.181912093350713e-01 -4.605360442476460e-17

-6.355143642680681e-17  1.208842571814805e-17  1.014975116732172e+00
 1.208842571814805e-17 -1.285167517703999e-16  4.775235771523632e-01
 1.014975116732172e+00  4.775235771523632e-01 -4.731054236074009e-17

-6.508091059558654e-17  1.280480771227769e-17  9.826575253477910e-01
 1.280480771227769e-17 -1.388865118013320e-16  5.428621127590876e-01
 9.826575253477910e-01  5.428621127590876e-01 -4.695690098023169e-17

-7.012483529439949e-17  1.443076695425155e-17  1.111951683405374e+00
 1.443076695425155e-17 -2.072153230315036e-16  4.331357373823160e-01
 1.111951683405374e+00  4.331357373823160e-01 -5.250449386774457e-17

-7.667958864069182e-17  1.823531229258919e-17  1.082583827589546e+00
 1.823531229258919e-17 -2.480362509577510e-17  4.238135874272648e-01
 1.082583827589546e+00  4.238135874272648e-01 -5.346736760331274e-17

-8.346684964477188e-17  2.152612120727814e-17  1.047499241946493e+00
 2.152612120727814e-17 -1.611268803059084e-16  4.557813133074985e-01
 1.047499241946493e+00  4.557813133074985e-01 -5.447607924912152e-17

-8.907684225690805e-17  2.429058425721590e-17  1.038382179906097e+00
 2.429058425721590e-17 -9.654482979696842e-17  4.608215706384701e-01
 1.038382179906097e+00  4.608215706384701e-01 -5.597019822267601e-17

-1.027119897848358e-16  3.118986543658801e-17  1.055026442841634e+00
 3.118986543658801e-17 -3.163305795819680e-16  4.344026181766673e-01
 1.055026442841634e+00  4.344026181766673e-01 -6.087342675581297e-17

-1.150663413650311e-16  3.663686226533593e-17  1.056351673128718e+00
 3.663686226533593e-17 -2.254355201417861e-16  4.624448370267746e-01
 1.056351673128718e+00  4.624448370267746e-01 -6.491600871724809e-17

-1.263942502635189e-16  4.287098573235330e-17  1.081929114471913e+00
 4.287098573235330e-17 -2.158100373672656e-16  4.305985594936003e-01
 1.081929114471913e+00  4.305985594936003e-01 -6.924121951878052e-17

-1.492691729309608e-16  5.506612147503929e-17  1.080402439688184e+00
 5.506612147503929e-17 -2.492646955368620e-16  4.382475251111858e-01
 1.080402439688184e+00  4.382475251111858e-01 -7.629627234159687e-17

-1.780645649888986e-16  7.068487591781064e-17  1.079237597639627e+00
 7.068487591781064e-17 -3.140561781677456e-16  4.419494798912218e-01
 1.079237597639627e+00  4.419494798912218e-01 -8.496089568592967e-17

-2.142088869233256e-16  9.105233769776975e-17  1.075650907824502e+00
 9.105233769776975e-17 -3.598970175593036e-16  4.365569933002916e-01
 1.075650907824502e+00  4.365569933002916e-01 -9.553158935983210e-17

-2.504574793233433e-16  1.113667204894586e-16  1.066009030865218e+00
 1.113667204894586e-16 -3.898076659996909e-16  4.474976751943326e-01
 1.066009030865218e+00  4.474976751943326e-01 -1.058255779598971e-16

-3.195682697547884e-16  1.497609850988876e-16  1.053303415337348e+00
 1.497609850988876e-16 -2.565819096787490e-16  4.398482554585991e-01
 1.053303415337348e+00  4.398482554585991e-01 -1.254051403880010e-16

-4.083217369637925e-16  1.977872419864247e-16  1.031045973070818e+00
 1.977872419864247e-16 -3.372095352034148e-16  4.461128361834406e-01
 1.031045973070818e+00  4.461128361834406e-01 -1.500696375846621e-16

-4.805557767691689e-16  2.343533452170019e-16  1.026749524653455e+00
 2.343533452170019e-16 -5.372142577140913e-16  4.427825002608105e-01
 1.026749524653455e+00  4.427825002608105e-01 -1.703803206207220e-16

-6.392043374819669e-16  3.115232084300029e-16  1.029497313202199e+00
 3.115232084300029e-16 -8.625283135311604e-16  4.309090118336417e-01
 1.029497313202199e+00  4.309090118336417e-01 -2.153243863488075e-16

-1.047426660306029e-15  4.800890670251903e-16  1.018904259028891e+00
 4.800890670251903e-16 -1.024462662326020e-15  4.299149074686835e-01
 1.018904259028891e+00  4.299149074686835e-01 -3.313899757675599e-16

-1.685725564672481e-15  6.665380012433298e-16  1.011308702368664e+00
 6.665380012433298e-16 -1.070671840120833e-15  4.223353872557710e-01
 1.011308702368664e+00  4.223353872557710e-01 -5.222974171132979e-16

-2.258673109592577e-15  7.830633688932864e-16  1.014256847363085e+00
 7.830633688932864e-16 -1.274046088720096e-15  4.241767894170719e-01
 1.014256847363085e+00  4.241767894170719e-01 -7.056351551790554e-16

-3.486394341984278e-15  8.652561189087333e-16  1.019897550246221e+00
 8.652561189087333e-16 -1.468809466765708e-15  4.345272817412539e-01
 1.019897550246221e+00  4.345272817412539e-01 -1.143072275173553e-15

-5.082485787790316e-15  7.395710542776669e-16  1.009660797762874e+00
 7.395710542776669e-16 -1.903757182997025e-15  4.373417640088464e-01
 1.009660797762874e+00  4.373417640088464e-01 -1.816663187544131e-15

-7.171549442519675e-15  3.633957063231554e-16  1.020581536897974e+00
 3.633957063231554e-16 -1.875577735301073e-15  4.062903976516453e-01
 1.020581536897974e+00  4.062903976516453e-01 -2.851625953796192e-15

-1.011305359113375e-14 -3.974773514429431e-16  1.017780507192282e+00
-3.974773514429431e-16 -2.414101344026531e-15  4.142867067164794e-01
 1.017780507192282e+00  4.142867067164794e-01 -4.483756294768794e-15

-1.469019332112589e-14 -1.840870889372265e-15  1.012705587314688e+00
-1.840870889372265e-15 -3.076300803506312e-15  4.332702726523053e-01
 1.012705587314688e+00  4.332702726523053e-01 -7.187302820224972e-15

 2.163468059499091e-14 -2.506775932770941e-14  1.017216805220981e+00
-2.506775932770941e-14  3.280800542324091e-14  4.233077914343805e-01
 1.017216805220981e+00  4.233077914343805e-01 -3.247470403689212e-16

-6.159924424825629e-13  1.490028234182818e-13  1.015825086282765e+00
 1.490028234182818e-13 -2.561648453826734e-13  4.163487905675421e-01
 1.015825086282765e+00  4.163487905675421e-01 -2.205967339995665e-13

 8.398287203899871e-14 -2.159439299322532e-14  1.008681178607087e+00
-2.159439299322532e-14  5.397800834425901e-14  4.184892406834914e-01
 1.008681178607087e+00  4.184892406834914e-01  1.695734087938529e-14

-6.497442455388170e-13  1.525266412433645e-13  1.007796303176869e+00
 1.525266412433645e-13 -3.323506586790673e-13  4.212864447815277e-01
 1.007796303176869e+00  4.212864447815277e-01 -1.623655716395268e-13

-9.628332677725570e-15  1.124072478489135e-14  1.007918345238952e+00
 1.124072478489135e-14  8.352432192968072e-16  4.181941364394434e-01
 1.007918345238952e+00  4.181941364394434e-01 -1.012608485548353e-14

-4.703126375070854e-15  9.080565412013601e-15  1.010204779029324e+00
 9.080565412013601e-15  7.218251173932373e-16  4.292371256417261e-01
 1.010204779029324e+00  4.292371256417261e-01 -4.837582968754962e-15

-3.582684383012769e-15  7.261560625504091e-15  1.010570782073919e+00
 7.261560625504091e-15  1.256494726658663e-15  4.297874723006538e-01
 1.010570782073919e+00  4.297874723006538e-01 -3.515293730546838e-15

-2.746010290699267e-15  4.332451215642535e-15  1.013891033606859e+00
 4.332451215642535e-15  1.475582620500204e-15  4.184788305507419e-01
 1.013891033606859e+00  4.184788305507419e-01 -2.059420188246276e-15

-1.784918685747888e-15  1.606433113184314e-15  1.010438593716044e+00
 1.606433113184314e-15  9.738654873536608e-16  4.208985283429784e-01
 1.010438593716044e+00  4.208985283429784e-01 -9.399652072991154e-16

-1.155547503339004e-15  6.270969994801804e-16  1.020956600804790e+00
 6.270969994801804e-16  4.858944857489704e-16  4.170135273168656e-01
 1.020956600804790e+00  4.170135273168656e-01 -5.159387069963455e-16

-8.307101254574037e-16  3.096426795624823e-16  1.035702172201205e+00
 3.096426795624823e-16  2.596729588770340e-16  4.224214939717555e-01
 1.035702172201205e+00  4.224214939717555e-01 -3.507906248549105e-16

-5.540247564022122e-16  1.310021693734740e-16  1.027047564267442e+00
 1.310021693734740e-16  9.689694156366611e-17  4.223635575992249e-01
 1.027047564267442e+00  4.223635575992249e-01 -2.306733777101773e-16

-3.601584751827238e-16  4.841184580154237e-17  9.948424839957353e-01
 4.841184580154237e-17 -4.014084449439331e-18  4.101836542564775e-01
 9.948424839957353e-01  4.101836542564775e-01 -1.534852388496623e-16

-2.858271401028593e-16  2.445228509027771e-17  1.032633665841917e+00
 2.445228509027771e-17 -2.989597835512938e-17  4.425434521028432e-01
 1.032633665841917e+00  4.425434521028432e-01 -1.265707848706754e-16

-2.510715092013991e-16  1.555845007830349e-17  1.046170592147607e+00
 1.555845007830349e-17 -4.110824410094445e-17  4.763920262257157e-01
 1.046170592147607e+00  4.763920262257157e-01 -1.141550766004190e-16

-2.022828108908944e-16  6.944544353015764e-18  1.057229172755292e+00
 6.944544353015764e-18 -3.819160627313619e-17  4.106353976393419e-01
 1.057229172755292e+00  4.106353976393419e-01 -9.706014648996429e-17

-1.604974027431032e-16  1.478641940052272e-18  1.034410235560560e+00
 1.478641940052272e-18 -4.245100228048583e-17  4.245667694272567e-01
 1.034410235560560e+00  4.245667694272567e-01 -8.151350839815481e-17

-1.145591802747411e-16 -3.572283761437983e-20  1.023847832551706e+00
-3.572283761437983e-20 -4.126124564834070e-17  4.318181358558483e-01
 1.023847832551706e+00  4.318181358558483e-01 -7.262139721649117e-17

-1.068309305075705e-16 -2.474053126065846e-18  1.031319445474009e+00
-2.474053126065846e-18 -4.834736191895363e-17  4.343804264785364e-01
 1.031319445474009e+00  4.343804264785364e-01 -6.256871504741080e-17

-9.375058535456921e-17 -2.818932529471234e-18  1.046616071945997e+00
-2.818932529471234e-18 -4.697103274544914e-17  4.423024946133341e-01
 1.046616071945997e+00  4.423024946133341e-01 -5.842961341467114e-17

-8.342976989166405e-17 -2.921769653818402e-18  1.054088764273657e+00
-2.921769653818402e-18 -4.193898290927761e-17  4.445098317125814e-01
 1.054088764273657e+00  4.445098317125814e-01 -5.501779896602134e-17

-7.467296529981892e-17 -2.935270920288967e-18  1.058490132109499e+00
-2.935270920288967e-18 -4.024716971931210e-17  4.489136272748586e-01
 1.058490132109499e+00  4.489136272748586e-01 -5.205807769964588e-17

-6.793124842202949e-17 -2.839868985460082e-18  1.061367662377258e+00
-2.839868985460082e-18 -3.928727782107699e-17  4.552825780639096e-01
 1.061367662377258e+00  4.552825780639096e-01 -4.974508617959189e-17

-6.222705568203992e-17 -2.672155748143151e-18  1.055487626613073e+00
-2.672155748143151e-18 -3.841856346001835e-17  4.520634736576052e-01
 1.055487626613073e+00  4.520634736576052e-01 -4.756388181597751e-17

-5.859579921559015e-17 -2.506791883674460e-18  1.053086813591232e+00
-2.506791883674460e-18 -3.316405849735635e-17  4.469677624806390e-01
 1.053086813591232e+00  4.469677624806390e-01 -4.628231607719145e-17

-5.579307759120724e-17 -2.324897948532777e-18  1.047133309619733e+00
-2.324897948532777e-18 -3.184524834937260e-17  4.494222151449175e-01
 1.047133309619733e+00  4.494222151449175e-01 -4.520080637243909e-17

-5.241805320090952e-17 -2.082238508218743e-18  1.039475041920426e+00
-2.082238508218743e-18 -3.711992922008423e-17  4.430023556618524e-01
 1.039475041920426e+00  4.430023556618524e-01 -4.388210864855151e-17

-4.978608060062306e-17 -1.876753988542326e-18  1.029398588477085e+00
-1.876753988542326e-18 -2.893504228656688e-17  4.346817787961789e-01
 1.029398588477085e+00  4.346817787961789e-01 -4.271613862962848e-17

-4.759200665593208e-17 -1.709146892698795e-18  1.021886858005753e+00
-1.709146892698795e-18 -3.952796319475719e-17  4.285791600781242e-01
 1.021886858005753e+00  4.285791600781242e-01 -4.177429131017705e-17

-4.535094276328113e-17 -1.505296235181343e-18  1.023916665675716e+00
-1.505296235181343e-18 -2.667282144531123e-17  4.234898955656708e-01
 1.023916665675716e+00  4.234898955656708e-01 -4.112515740125357e-17

-4.351155035573015e-17 -1.321476606631812e-18  1.037935268521951e+00
-1.321476606631812e-18 -2.583290215734249e-17  4.163133831341615e-01
 1.037935268521951e+00  4.163133831341615e-01 -4.096723002644566e-17

-4.207130655887950e-17 -1.178080304767681e-18  1.055633506863599e+00
-1.178080304767681e-18 -3.829688448541920e-17  4.118464568810282e-01
 1.055633506863599e+00  4.118464568810282e-01 -4.109216694548455e-17

-4.077203979596143e-17 -9.987703083818986e-19  1.069770521055411e+00
-9.987703083818986e-19 -4.316204794095055e-17  4.291576044841645e-01
 1.069770521055411e+00  4.291576044841645e-01 -4.110173539550547e-17

-3.769824122086066e-17 -7.976033132254320e-19  9.656371839347400e-01
-7.976033132254320e-19 -1.997833961589649e-17  4.670987750693732e-01
 9.656371839347400e-01  4.670987750693732e-01 -3.672766103210259e-17

-3.363276139553798e-17 -8.564580427781733e-19  7.745250045328410e-01
-8.564580427781733e-19 -1.806392429021091e-17  4.545961688960738e-01
 7.745250045328410e-01  4.545961688960738e-01 -2.907461216208078e-17

-3.519442810451548e-17  7.518708115388737e-19  1.103595588978668e+00
 7.518708115388737e-19 -2.697956753345237e-17  3.198022376841508e-02
 1.103595588978668e+00  3.198022376841508e-02 -3.378603875638759e-17

-3.599873176644412e-17 -9.626815982735345e-19  9.688629116645350e-01
-9.626815982735345e-19 -4.110965346023604e-17  4.719702251795854e-01
 9.688629116645350e-01  4.719702251795854e-01 -3.744662064017862e-17

-3.561136300825104e-17 -2.372177060201815e-18  7.155921231901554e-01
-2.372177060201815e-18 -3.652288338754546e-18  9.860323575863882e-01
 7.155921231901554e-01  9.860323575863882e-01 -3.750144656733942e-17

-4.029609704006571e-17 -9.491097836720517e-19  1.285083291978594e+00
-9.491097836720517e-19 -1.528487679514302e-17  4.300221398417330e-01
 1.285083291978594e+00  4.300221398417330e-01 -4.930338025605839e-17

-3.722274455755352e-17 -6.359267114977862e-19  1.157202465015621e+00
-6.359267114977862e-19 -2.464760373743533e-17  3.428321515754599e-01
 1.157202465015621e+00  3.428321515754599e-01 -4.284804633110879e-17

-3.540671510237822e-17 -5.553574595227079e-19  1.077184033489654e+00
-5.553574595227079e-19 -2.629541492878609e-17  3.753435669280444e-01
 1.077184033489654e+00  3.753435669280444e-01 -3.953841584989552e-17

-3.417094317014416e-17 -4.980237071621704e-19  1.032205195600231e+00
-4.980237071621704e-19 -3.508500737857807e-17  4.135019073749074e-01
 1.032205195600231e+00  4.135019073749074e-01 -3.764362665995202e-17

-3.312666926149775e-17 -4.949414787880926e-19  1.003963613113704e+00
-4.949414787880926e-19 -2.143286966504496e-17  4.188759845703102e-01
 1.003963613113704e+00  4.188759845703102e-01 -3.640740876181051e-17

-3.223377354744556e-17 -4.860314453558654e-19  9.669634932049622e-01
-4.860314453558654e-19 -1.154238027495740e-17  4.329620287082752e-01
 9.669634932049622e-01  4.329620287082752e-01 -3.494177925481532e-17

-3.233697965358304e-17 -5.190532268670180e-19  1.006020969608438e+00
-5.190532268670180e-19 -1.963672080054119e-17  3.815004577901554e-01
 1.006020969608438e+00  3.815004577901554e-01 -3.627718373782649e-17

-3.194503995622189e-17 -5.058797088263142e-19  9.872626860702136e-01
-5.058797088263142e-19 -2.388737565547523e-17  3.905130725887292e-01
 9.872626860702136e-01  3.905130725887292e-01 -3.554851642048235e-17

-3.134426285753182e-17 -4.628632275725839e-19  9.527667197365381e-01
-4.628632275725839e-19 -1.362481524183608e-17  4.182938287248942e-01
 9.527667197365381e-01  4.182938287248942e-01 -3.423009450319813e-17

-3.119055140930358e-17 -4.329443374595921e-19  9.687807335012617e-01
-4.329443374595921e-19 -1.645160771974385e-17  4.138906654505060e-01
 9.687807335012617e-01  4.138906654505060e-01 -3.470382444376953e-17

-3.113966632610298e-17 -3.984592350183587e-19  9.885055207722856e-01
-3.984592350183587e-19 -2.036813778466334e-17  4.247208121156142e-01
 9.885055207722856e-01  4.247208121156142e-01 -3.533776159401935e-17

-3.067311724497321e-17 -3.649889047862784e-19  9.936065820265375e-01
-3.649889047862784e-19 -2.877762507446848e-17  4.120053487589302e-01
 9.936065820265375e-01  4.120053487589302e-01 -3.534072661851799e-17

-3.013501299845742e-17 -3.497948146914974e-19  9.792563550717226e-01
-3.497948146914974e-19 -2.415958556330119e-17  4.168835406668998e-01
 9.792563550717226e-01  4.168835406668998e-01 -3.470099358658825e-17

-2.992460940117907e-17 -3.438821564471451e-19  9.795000090588586e-01
-3.438821564471451e-19 -3.996680827920054e-18  4.117003950632580e-01
 9.795000090588586e-01  4.117003950632580e-01 -3.463408732698100e-17

-2.979368855421051e-17 -3.347864485510348e-19  9.868933046663644e-01
-3.347864485510348e-19 -1.962976985170394e-17  4.087669664276051e-01
 9.868933046663644e-01  4.087669664276051e-01 -3.481238534290818e-17

-2.961918944046161e-17 -3.248389840271219e-19  9.885740521757552e-01
-3.248389840271219e-19 -2.476101359228966e-17  4.165042717622783e-01
 9.885740521757552e-01  4.165042717622783e-01 -3.481772765425478e-17

-2.960933149108517e-17 -3.181939706886477e-19  1.001538065014187e+00
-3.181939706886477e-19 -2.274063555079486e-17  4.029544910274888e-01
 1.001538065014187e+00  4.029544910274888e-01 -3.522395054686661e-17

-2.941725449230482e-17 -3.177263478679696e-19  9.930218695477113e-01
-3.177263478679696e-19 -1.113119020749147e-17  4.158252160590490e-01
 9.930218695477113e-01  4.158252160590490e-01 -3.488823615741095e-17

-2.923928965404374e-17 -3.001757624077882e-19  1.000136392853002e+00
-3.001757624077882e-19 -6.307845184207029e-18  4.072307312459884e-01
 1.000136392853002e+00  4.072307312459884e-01 -3.505726649716951e-17

-2.900769326948361e-17 -2.928540089087854e-19  9.914570188493900e-01
-2.928540089087854e-19 -1.119836009798419e-17  4.267389512163438e-01
 9.914570188493900e-01  4.267389512163438e-01 -3.468262789383774e-17

-2.882248818157366e-17 -2.787918430161632e-19  9.990790122043626e-01
-2.787918430161632e-19 -2.150053573809386e-17  4.051599174427623e-01
 9.990790122043626e-01  4.051599174427623e-01 -3.489333358694186e-17

-2.850011744218855e-17 -2.766641478787260e-19  9.858151326479517e-01
-2.766641478787260e-19 -1.439640037106919e-17  4.195466410344099e-01
 9.858151326479517e-01  4.195466410344099e-01 -3.437149604481050e-17

-2.858688552717683e-17 -2.837220217775504e-19  9.982093518210368e-01
-2.837220217775504e-19 -1.227460387078794e-17  4.098795897306176e-01
 9.982093518210368e-01  4.098795897306176e-01 -3.478314427688174e-17

-2.840874924655052e-17 -2.606242275637377e-19  9.982873955042809e-01
-2.606242275637377e-19 -1.184017578981947e-17  4.122470569280578e-01
 9.982873955042809e-01  4.122470569280578e-01 -3.474561525511185e-17

-2.854806340565182e-17 -2.670931931113723e-19  1.018429878484265e+00
-2.670931931113723e-19 -8.170081496916372e-18  3.925353225433714e-01
 1.018429878484265e+00  3.925353225433714e-01 -3.541417683822797e-17

-2.815252442910482e-17 -2.598068930477592e-19  9.968152920992908e-01
-2.598068930477592e-19 -2.489603345006455e-17  4.133202986238437e-01
 9.968152920992908e-01  4.133202986238437e-01 -3.461343095537440e-17

-2.780929124123326e-17 -2.483701038493911e-19  9.771026437209492e-01
-2.483701038493911e-19 -2.137610512084531e-17  4.232445417789700e-01
 9.771026437209492e-01  4.232445417789700e-01 -3.387008285323585e-17

-2.765584014470127e-17 -2.562549277522786e-19  9.826830749561971e-01
-2.562549277522786e-19 -2.044426343662921e-17  4.092956647326625e-01
 9.826830749561971e-01  4.092956647326625e-01 -3.401291358929207e-17

-2.792648434508779e-17 -2.500521617332222e-19  1.021929322760125e+00
-2.500521617332222e-19 -1.446832727091970e-17  3.678660531483835e-01
 1.021929322760125e+00  3.678660531483835e-01 -3.534475797625394e-17

-2.794802703297221e-17 -2.592961653806443e-19  1.031730821223445e+00
-2.592961653806443e-19 -2.389802022344898e-17  3.552309195928666e-01
 1.031730821223445e+00  3.552309195928666e-01 -3.567894704999956e-17

-2.712476326116170e-17 -2.618677987497335e-19  9.624874516763194e-01
-2.618677987497335e-19 -2.384872921013337e-17  4.316981235063043e-01
 9.624874516763194e-01  4.316981235063043e-01 -3.321184414861984e-17

-2.708812801729141e-17 -2.604049471826763e-19  9.705268074502977e-01
-2.604049471826763e-19 -1.290245389577594e-17  4.159155505121732e-01
 9.705268074502977e-01  4.159155505121732e-01 -3.342558757553992e-17

-2.704994118307847e-17 -2.533829791752000e-19  9.779399956231297e-01
-2.533829791752000e-19 -1.892356440604540e-17  4.012629869109552e-01
 9.779399956231297e-01  4.012629869109552e-01 -3.364408225499602e-17

-2.714065022144526e-17 -2.576406299756668e-19  9.903012647323177e-01
-2.576406299756668e-19 -1.128323502230909e-17  3.930677366376693e-01
 9.903012647323177e-01  3.930677366376693e-01 -3.405662887236080e-17

-2.712185225911744e-17 -2.804309573815303e-19  9.905401048401883e-01
-2.804309573815303e-19 -1.823598105955331e-17  4.119905101435987e-01
 9.905401048401883e-01  4.119905101435987e-01 -3.407646170676280e-17

-2.702038542309447e-17 -2.925111788840890e-19  9.850598262876562e-01
-2.925111788840890e-19 -2.511495008374136e-17  4.229586966750687e-01
 9.850598262876562e-01  4.229586966750687e-01 -3.386519586100066e-17

-2.692081803704296e-17 -2.948170248847106e-19  9.831861475495994e-01
-2.948170248847106e-19 -3.124373135607314e-17  4.225380672926790e-01
 9.831861475495994e-01  4.225380672926790e-01 -3.375987819621798e-17

-2.670465916755278e-17 -3.130854021269158e-19  9.839586300808961e-01
-3.130854021269158e-19 -1.290576032253273e-17  4.005601971825344e-01
 9.839586300808961e-01  4.005601971825344e-01 -3.371017201316073e-17

-2.656635426456309e-17 -3.395424799102595e-19  9.785020241337846e-01
-3.395424799102595e-19 -1.479356449231696e-17  4.126772839874376e-01
 9.785020241337846e-01  4.126772839874376e-01 -3.347618322993730e-17

-2.638859297605461e-17 -3.562172361485304e-19  9.785496504263411e-01
-3.562172361485304e-19 -2.137049987495750e-17  4.058772506130559e-01
 9.785496504263411e-01  4.058772506130559e-01 -3.344269562268849e-17

-2.613313841332536e-17 -3.746261381634335e-19  9.683837371607487e-01
-3.746261381634335e-19 -1.324783904465881e-17  4.098901285930461e-01
 9.683837371607487e-01  4.098901285930461e-01 -3.304852867484304e-17

-2.614953107848766e-17 -3.950291017587630e-19  9.777159661452739e-01
-3.950291017587630e-19 -3.054474666442911e-17  3.983559427859809e-01
 9.777159661452739e-01  3.983559427859809e-01 -3.337571268106458e-17

-2.601910920980807e-17 -3.971100342408563e-19  9.739776350946809e-01
-3.971100342408563e-19 -6.084431947630218e-18  4.076073434193985e-01
 9.739776350946809e-01  4.076073434193985e-01 -3.324716909341934e-17

-2.575407944389214e-17 -4.079223426121684e-19  9.623447003991252e-01
-4.079223426121684e-19 -1.707844863273192e-17  4.094519834436215e-01
 9.623447003991252e-01  4.094519834436215e-01 -3.283332553878880e-17

-2.565406592762018e-17 -4.012970471402170e-19  9.682593672557084e-01
-4.012970471402170e-19 -1.932394907704743e-17  3.832871082635758e-01
 9.682593672557084e-01  3.832871082635758e-01 -3.305224408508006e-17

-2.522664272099998e-17 -3.871645429615121e-19  9.403796793891925e-01
-3.871645429615121e-19 -2.299793906908637e-17  3.952546190760598e-01
 9.403796793891925e-01  3.952546190760598e-01 -3.206034784004417e-17

-2.507970389453514e-17 -3.438491468550746e-19  9.398585189412003e-01
-3.438491468550746e-19 -9.252806505850567e-18  3.900880951004491e-01
 9.398585189412003e-01  3.900880951004491e-01 -3.211045113066264e-17

-2.500550265433820e-17 -3.033442677215302e-19  9.339497645681218e-01
-3.033442677215302e-19 -1.351815558554534e-17  4.046642854713779e-01
 9.339497645681218e-01  4.046642854713779e-01 -3.200374181698565e-17

-2.502364986007047e-17 -2.539695095456465e-19  9.373308832615260e-01
-2.539695095456465e-19 -5.918809302582480e-18  4.004846455540282e-01
 9.373308832615260e-01  4.004846455540282e-01 -3.216561488436418e-17

-2.489707682088599e-17 -1.511975343375083e-19  9.364702242073571e-01
-1.511975343375083e-19 -7.148990382548073e-18  3.786326826805237e-01
 9.364702242073571e-01  3.786326826805237e-01 -3.221756956664939e-17

-2.492152914712701e-17 -5.114276522638907e-20  9.355536812421308e-01
-5.114276522638907e-20 -1.080612502072560e-17  3.771854293388968e-01
 9.355536812421308e-01  3.771854293388968e-01 -3.225015525043922e-17

-2.491827369767185e-17  1.401618114812330e-20  9.360802900548457e-01
 1.401618114812330e-20 -1.023862341344507e-17  3.813467467211714e-01
 9.360802900548457e-01  3.813467467211714e-01 -3.230331313042111e-17

-2.498800998069100e-17  7.363877311086365e-20  9.416562180324733e-01
 7.363877311086365e-20 -2.919371979462398e-18  3.717720755576199e-01
 9.416562180324733e-01  3.717720755576199e-01 -3.248661990905341e-17

-2.498486679537955e-17  9.076755800301162e-20  9.396433372834216e-01
 9.076755800301162e-20 -1.215215392089162e-17  3.752400987827647e-01
 9.396433372834216e-01  3.752400987827647e-01 -3.239079904715848e-17

-2.497459774169610e-17  9.511027949915938e-20  9.382604907197527e-01
 9.511027949915938e-20 -1.356528968618851e-17  3.810818709167061e-01
 9.382604907197527e-01  3.810818709167061e-01 -3.229145842118139e-17

-2.506707145959369e-17  8.811916962931659e-20  9.462611587900714e-01
 8.811916962931659e-20 -6.485247962301082e-18  3.739226653881988e-01
 9.462611587900714e-01  3.739226653881988e-01 -3.250365836466797e-17

-2.529045521231856e-17  7.191111592201785e-20  9.604473036384055e-01
 7.191111592201785e-20 -2.257544377548225e-17  3.698467152688782e-01
 9.604473036384055e-01  3.698467152688782e-01 -3.296314253932487e-17

-2.519952410370539e-17  4.452207625751426e-20  9.500253831998486e-01
 4.452207625751426e-20 -1.967717221163758e-17  3.942567315343169e-01
 9.500253831998486e-01  3.942567315343169e-01 -3.256408715263732e-17

-2.528208673487737e-17  1.429625072718175e-20  9.614805435097621e-01
 1.429625072718175e-20 -1.894151198558194e-17  3.894731082726799e-01
 9.614805435097621e-01  3.894731082726799e-01 -3.290749679935279e-17

-2.522140340856866e-17 -2.167235183059502e-20  9.592346034721951e-01
-2.167235183059502e-20 -2.791800703196270e-17  3.885573595606317e-01
 9.592346034721951e-01  3.885573595606317e-01 -3.276916893376369e-17

-2.518906376551303e-17 -3.993914689134210e-20  9.578145340976588e-01
-3.993914689134210e-20 -1.001961089197106e-17  3.917241231007532e-01
 9.578145340976588e-01  3.917241231007532e-01 -3.267161661564896e-17

-2.526561800955604e-17 -8.625791232946997e-20  9.672200617236760e-01
-8.625791232946997e-20  2.628602946421586e-19  3.945666391378303e-01
 9.672200617236760e-01  3.945666391378303e-01 -3.295430718682520e-17

-2.534666716349669e-17 -1.362234861563720e-19  9.731738702440063e-01
-1.362234861563720e-19 -1.609348679586031e-17  3.990291646557759e-01
 9.731738702440063e-01  3.990291646557759e-01 -3.312065063974399e-17

-2.524564307685920e-17 -1.726063744806395e-19  9.736774544229509e-01
-1.726063744806395e-19 -9.246796455689749e-18  3.969503023632115e-01
 9.736774544229509e-01  3.969503023632115e-01 -3.309981800394613e-17

-2.511765933103578e-17 -2.188985823823858e-19  9.716490962491734e-01
-2.188985823823858e-19 -2.471966924462727e-17  3.939368775888171e-01
 9.716490962491734e-01  3.939368775888171e-01 -3.298492974327336e-17

-2.494172469212940e-17 -2.356886436899965e-19  9.624638658481487e-01
-2.356886436899965e-19 -1.960678580870819e-17  3.967231155562436e-01
 9.624638658481487e-01  3.967231155562436e-01 -3.264331104560545e-17

-2.492371111951376e-17 -2.529252306329159e-19  9.690151447030423e-01
-2.529252306329159e-19 -2.049424741164363e-17  3.854124455562697e-01
 9.690151447030423e-01  3.854124455562697e-01 -3.285144652582611e-17

-2.476924904883260e-17 -2.809385351851982e-19  9.532108944116110e-01
-2.809385351851982e-19 -1.215059270391280e-17  4.224522440924433e-01
 9.532108944116110e-01  4.224522440924433e-01 -3.232989859551186e-17

-2.449382985138730e-17 -2.668752363695936e-19  9.335577232644924e-01
-2.668752363695936e-19 -1.473009348646697e-17  4.395491143173618e-01
 9.335577232644924e-01  4.395491143173618e-01 -3.163317022867741e-17

-2.463298933234378e-17 -2.759899937579251e-19  9.636466603175753e-01
-2.759899937579251e-19 -8.991759596406741e-18  3.758059638846901e-01
 9.636466603175753e-01  3.758059638846901e-01 -3.271063579413502e-17

-2.418278318837322e-17 -2.423095067237870e-19  9.429240925824836e-01
-2.423095067237870e-19 -1.949648537004813e-17  3.674350389993727e-01
 9.429240925824836e-01  3.674350389993727e-01 -3.196481069862108e-17

-2.423443992310642e-17 -2.223706713939225e-19  9.392062035080946e-01
-2.223706713939225e-19 -1.501794003767346e-17  3.953338710366505e-01
 9.392062035080946e-01  3.953338710366505e-01 -3.192911946010044e-17

-2.405804068036449e-17 -2.117708657429069e-19  9.193823289977318e-01
-2.117708657429069e-19 -1.131191313810221e-17  4.347636607026054e-01
 9.193823289977318e-01  4.347636607026054e-01 -3.130358401980238e-17

-2.414168804486839e-17 -1.567651297149980e-19  9.496016283546251e-01
-1.567651297149980e-19 -3.566906538734686e-18  3.797294154590730e-01
 9.496016283546251e-01  3.797294154590730e-01 -3.239014920831105e-17

-2.790648221114198e-17  4.769623114584494e-19  9.398543473263795e-01
 4.769623114584494e-19 -1.050144061789751e-17  3.874504475821937e-01
 9.398543473263795e-01  3.874504475821937e-01 -3.206508646085107e-17

-4.162212750355175e-18 -2.931217874157453e-18  9.400566293174302e-01
-2.931217874157453e-18 -1.362440308646938e-17  3.878632406562455e-01
 9.400566293174302e-01  3.878632406562455e-01 -3.206385985365974e-17

-1.080364955085298e-17 -1.978263639392119e-18  9.371724259473886e-01
-1.978263639392119e-18 -1.657712668640495e-17  3.833557931002458e-01
 9.371724259473886e-01  3.833557931002458e-01 -3.191337598278028e-17

-4.635088416238176e-17  3.120432028738114e-18  9.481558906973998e-01
 3.120432028738114e-18 -1.661090542495455e-17  3.754054567334487e-01
 9.481558906973998e-01  3.754054567334487e-01 -3.226852384159509e-17

-6.920250397436367e-18 -2.617790063660538e-18  9.488579160696669e-01
-2.617790063660538e-18 -1.844564233563009e-17  3.868961774375377e-01
 9.488579160696669e-01  3.868961774375377e-01 -3.225601090726206e-17

-2.420841090020432e-17 -1.399554319909841e-19  9.442909669168167e-01
-1.399554319909841e-19 -1.281738102915926e-17  3.987932682312965e-01
 9.442909669168167e-01  3.987932682312965e-01 -3.204363412407114e-17

-2.490698631381433e-17 -9.199304509922230e-20  9.641480055372377e-01
-9.199304509922230e-20 -2.220424103884931e-17  3.708908258263959e-01
 9.641480055372377e-01  3.708908258263959e-01 -3.270809239790354e-17

-2.383876738162272e-17 -2.487634514765339e-19  9.473722124938238e-01
-2.487634514765339e-19 -1.641565983355497e-17  3.873661579818952e-01
 9.473722124938238e-01  3.873661579818952e-01 -3.208440665926720e-17

-2.437210727543443e-17 -2.113478472786914e-19  9.606771828068785e-01
-2.113478472786914e-19 -1.314819831882506e-17  3.763177373809018e-01
 9.606771828068785e-01  3.763177373809018e-01 -3.253778236029825e-17

-2.407211348096160e-17 -2.527498935299576e-19  9.402124973156657e-01
-2.527498935299576e-19 -1.031559090665728e-17  4.178546955155210e-01
 9.402124973156657e-01  4.178546955155210e-01 -3.185069793766112e-17

-2.379924751742102e-17 -2.446889068274432e-19  9.215236678580351e-01
-2.446889068274432e-19 -1.454360542758360e-17  4.382307289673749e-01
 9.215236678580351e-01  4.382307289673749e-01 -3.117032843108787e-17

-2.327230281871482e-17 -2.483379847658863e-19  9.073902800340180e-01
-2.483379847658863e-19 -9.501018602296319e-18  3.752609122876013e-01
 9.073902800340180e-01  3.752609122876013e-01 -3.069752066891929e-17

-2.346485014036654e-17 -1.596006074700492e-19  9.264002373718494e-01
-1.596006074700492e-19 -1.776783490736242e-17  3.565933572575402e-01
 9.264002373718494e-01  3.565933572575402e-01 -3.138844692096757e-17

-2.370386568781410e-17 -1.851496137216581e-19  9.260571681516006e-01
-1.851496137216581e-19 -1.588726878235588e-17  4.176868853208338e-01
 9.260571681516006e-01  4.176868853208338e-01 -3.161082249257519e-17

-2.389558749996815e-17 -1.121389445218802e-19  9.447134960447510e-01
-1.121389445218802e-19 -2.679306160293141e-17  3.830275539474404e-01
 9.447134960447510e-01  3.830275539474404e-01 -3.225935456945189e-17

-2.389455351468086e-17 -6.618532106875073e-20  9.501031954008865e-01
-6.618532106875073e-20 -8.156620197810472e-18  3.541588581474485e-01
 9.501031954008865e-01  3.541588581474485e-01 -3.245699136701468e-17

-2.371472660997921e-17 -3.526900680464629e-20  9.350409566565253e-01
-3.526900680464629e-20 -1.564741629633376e-17  3.647315127413807e-01
 9.350409566565253e-01  3.647315127413807e-01 -3.190856609324823e-17

-2.367253779447748e-17 -2.243572611978226e-20  9.228031361827634e-01
-2.243572611978226e-20 -1.672311809773786e-17  3.982476566098843e-01
 9.228031361827634e-01  3.982476566098843e-01 -3.148111597209124e-17

-2.376685093933169e-17 -2.215909066223412e-20  9.278929903918216e-01
-2.215909066223412e-20 -1.542955023392597e-17  3.930580994389004e-01
 9.278929903918216e-01  3.930580994389004e-01 -3.164777901000640e-17

-2.397827414296274e-17 -1.889370932710316e-20  9.527250901293189e-01
-1.889370932710316e-20 -2.260598536236956e-17  3.574796569752297e-01
 9.527250901293189e-01  3.574796569752297e-01 -3.251490746902432e-17

-2.374560349213993e-17 -1.641298499227622e-20  9.363005972483266e-01
-1.641298499227622e-20 -1.742598743418992e-17  3.732556485391585e-01
 9.363005972483266e-01  3.732556485391585e-01 -3.191067450566649e-17

-2.361242937431366e-17 -1.964451812616780e-20  9.204042194379607e-01
-1.964451812616780e-20 -2.610832368037474e-17  4.007634525238527e-01
 9.204042194379607e-01  4.007634525238527e-01 -3.135689299723270e-17

-2.369046164713093e-17 -3.469143720131589e-21  9.273500078530309e-01
-3.469143720131589e-21 -9.833231160097484e-18  3.935142290758518e-01
 9.273500078530309e-01  3.935142290758518e-01 -3.159854970156405e-17

-2.381414745771841e-17  7.405454027141431e-21  9.399045672764145e-01
 7.405454027141431e-21 -1.391654340326579e-17  3.765639501296291e-01
 9.399045672764145e-01  3.765639501296291e-01 -3.206689844298659e-17

-2.401790636817064e-17  3.678735291541379e-20  9.459285394507377e-01
 3.678735291541379e-20 -1.981903975660467e-17  3.912623659371471e-01
 9.459285394507377e-01  3.912623659371471e-01 -3.231634942444165e-17

-2.401181819143286e-17  6.823554748084477e-20  9.476657408595834e-01
 6.823554748084477e-20 -3.673393273203329e-18  3.916005232984501e-01
 9.476657408595834e-01  3.916005232984501e-01 -3.237936743655591e-17

-2.399712263436923e-17  5.838874070793872e-20  9.512559500248807e-01
 5.838874070793872e-20 -7.384606788330258e-18  3.678127928628131e-01
 9.512559500248807e-01  3.678127928628131e-01 -3.248436401116585e-17

-2.407104553018767e-17  5.116570591204763e-20  9.565007929799955e-01
 5.116570591204763e-20 -1.783959567533743e-17  3.639839195117988e-01
 9.565007929799955e-01  3.639839195117988e-01 -3.265579711680369e-17

-2.399115818026075e-17  5.278950996337569e-20  9.417007526052356e-01
 5.278950996337569e-20 -1.309848947130473e-17  3.987706513178824e-01
 9.417007526052356e-01  3.987706513178824e-01 -3.212595795527875e-17

-2.426928168651522e-17  5.520767072476274e-20  9.598993362269498e-01
 5.520767072476274e-20 -1.570972517500257e-17  3.915846588210522e-01
 9.598993362269498e-01  3.915846588210522e-01 -3.274992107584535e-17

-2.433084196974128e-17  6.089928568887455e-20  9.592346721676023e-01
 6.089928568887455e-20 -1.743937949077426e-17  3.972235502013647e-01
 9.592346721676023e-01  3.972235502013647e-01 -3.271338923964121e-17

-2.448346956543948e-17  4.344838697108327e-20  9.731854968475299e-01
 4.344838697108327e-20 -1.179623944407640e-17  3.854333066489561e-01
 9.731854968475299e-01  3.854333066489561e-01 -3.318919546557294e-17

-2.450648878235985e-17  2.101679473311039e-20  9.718011434747778e-01
 2.101679473311039e-20 -1.208230934295270e-17  3.994136450417469e-01
 9.718011434747778e-01  3.994136450417469e-01 -3.313553795192162e-17

-2.480765042173533e-17  8.429732369281545e-21  9.912485858298521e-01
 8.429732369281545e-21 -1.435882200227860e-17  3.861271408491995e-01
 9.912485858298521e-01  3.861271408491995e-01 -3.381340270211524e-17

-2.480221971614956e-17  2.672131719279432e-20  9.926587632084169e-01
 2.672131719279432e-20 -1.345068159421617e-17  3.909967902994433e-01
 9.926587632084169e-01  3.909967902994433e-01 -3.385572982827276e-17

-2.472690981904310e-17 -1.874589870101349e-20  9.861735962369294e-01
-1.874589870101349e-20 -1.750285669248664e-17  3.999501474023202e-01
 9.861735962369294e-01  3.999501474023202e-01 -3.361009342827886e-17

-2.468041796482588e-17 -2.533090432248098e-20  9.804762591924252e-01
-2.533090432248098e-20 -1.248479327466264e-17  4.049194660114882e-01
 9.804762591924252e-01  4.049194660114882e-01 -3.338177695874973e-17

-2.473289456137324e-17 -5.678376079613829e-20  9.891159842307012e-01
-5.678376079613829e-20 -2.515612301829562e-17  3.935751586111100e-01
 9.891159842307012e-01  3.935751586111100e-01 -3.366879790364839e-17

-2.473703487999630e-17 -6.069285053115556e-20  9.803228281368389e-01
-6.069285053115556e-20 -5.671919324455553e-18  4.290463195836862e-01
 9.803228281368389e-01  4.290463195836862e-01 -3.338475386146700e-17

-2.476301574286024e-17 -9.004952461975313e-20  9.757383885733469e-01
-9.004952461975313e-20 -2.331777931426148e-17  4.385843656572881e-01
 9.757383885733469e-01  4.385843656572881e-01 -3.321756206855173e-17

-2.490283252938220e-17 -5.526172746132984e-20  1.003279498401237e+00
-5.526172746132984e-20 -1.014228614643391e-17  3.894297722087472e-01
 1.003279498401237e+00  3.894297722087472e-01 -3.415575836786463e-17

-2.471693397602829e-17 -1.088441922880663e-19  9.864414251412827e-01
-1.088441922880663e-19 -2.782621481603193e-17  4.072259689289431e-01
 9.864414251412827e-01  4.072259689289431e-01 -3.352695365333187e-17

-2.490925838215957e-17 -8.785730954406766e-20  1.004659829235847e+00
-8.785730954406766e-20 -1.700712008427478e-17  3.932884100899141e-01
 1.004659829235847e+00  3.932884100899141e-01 -3.415926249000203e-17

-2.484243662446158e-17 -1.192257668563777e-19  9.934930269339710e-01
-1.192257668563777e-19  7.559318339983022e-18  4.226990549339407e-01
 9.934930269339710e-01  4.226990549339407e-01 -3.377911988969036e-17

-2.487426286885574e-17 -9.107590352255946e-20  9.999186511339812e-01
-9.107590352255946e-20 -1.333390729857110e-18  4.200633879066535e-01
 9.999186511339812e-01  4.200633879066535e-01 -3.398244195210254e-17

-2.441801908995449e-17 -1.373332307055434e-19  9.674671138132683e-01
-1.373332307055434e-19 -1.502209651424653e-17  4.324801745912819e-01
 9.674671138132683e-01  4.324801745912819e-01 -3.278290723835246e-17

-2.450297312782493e-17 -1.534241781510375e-19  9.887021957606247e-01
-1.534241781510375e-19 -5.653952003211286e-18  3.811930233962871e-01
 9.887021957606247e-01  3.811930233962871e-01 -3.347224944221162e-17

-2.453873557929389e-17 -2.111118657664852e-19  9.827283080830711e-01
-2.111118657664852e-19 -1.634172026946398e-17  4.174120336246480e-01
 9.827283080830711e-01  4.174120336246480e-01 -3.330249058958192e-17

-2.451309937437735e-17 -2.502164999390618e-19  9.730818040406523e-01
-2.502164999390618e-19 -2.014103275851778e-17  4.561084541500076e-01
 9.730818040406523e-01  4.561084541500076e-01 -3.302690624606954e-17

-2.458198169608279e-17 -2.574963194278025e-19  9.909823930621587e-01
-2.574963194278025e-19 -1.750836641908518e-17  4.180256455020553e-01
 9.909823930621587e-01  4.180256455020553e-01 -3.360495239929820e-17

-2.452739786203486e-17 -2.901131477364278e-19  9.969822296760695e-01
-2.901131477364278e-19 -1.069837612574347e-17  3.917882110526223e-01
 9.969822296760695e-01  3.917882110526223e-01 -3.379548221601112e-17

-2.418753473792674e-17 -2.639127948390124e-19  9.710431469150923e-01
-2.639127948390124e-19 -4.497094672316777e-18  4.190819136828297e-01
 9.710431469150923e-01  4.190819136828297e-01 -3.290484853640172e-17

-2.413943221779663e-17 -2.176286178548867e-19  9.671208416530047e-01
-2.176286178548867e-19 -1.186370381263137e-18  4.249876959407604e-01
 9.671208416530047e-01  4.249876959407604e-01 -3.280760619782041e-17

-2.453073862151140e-17 -1.966117159898174e-19  1.009763504663344e+00
-1.966117159898174e-19 -6.609259528855709e-18  3.617659198642003e-01
 1.009763504663344e+00  3.617659198642003e-01 -3.429491120599361e-17

-2.421474242543274e-17 -1.317467022497111e-19  9.789033587416486e-01
-1.317467022497111e-19 -2.446630711163860e-17  3.821432677033532e-01
 9.789033587416486e-01  3.821432677033532e-01 -3.318880565058550e-17

-2.472145496582356e-17 -2.668717883086893e-19  1.001688102678243e+00
-2.668717883086893e-19 -2.207517358581442e-17  4.167218434945436e-01
 1.001688102678243e+00  4.167218434945436e-01 -3.423259900249007e-17

-2.496349002271259e-17  4.718775125197663e-21  1.014418462295783e+00
 4.718775125197663e-21 -8.197753350199661e-18  4.117257461241606e-01
 1.014418462295783e+00  4.117257461241606e-01 -3.477620722445996e-17

-2.433945114280659e-17  2.371338684005351e-20  9.715805472747396e-01
 2.371338684005351e-20 -8.948112145528391e-18  4.100963525532228e-01
 9.715805472747396e-01  4.100963525532228e-01 -3.323340355998957e-17

-2.446418254349854e-17  5.254543347440778e-20  9.718327318964116e-01
 5.254543347440778e-20 -7.976240314544804e-18  4.279979125434048e-01
 9.718327318964116e-01  4.279979125434048e-01 -3.324800937153793e-17

-2.473046706954512e-17  9.704452605175343e-20  9.886521899750724e-01
 9.704452605175343e-20 -1.802137857079864e-17  4.151010373106229e-01
 9.886521899750724e-01  4.151010373106229e-01 -3.380564536513024e-17

-2.501402009823491e-17  1.610291579871941e-20  9.981776124589808e-01
 1.610291579871941e-20 -1.842489301991855e-17  4.284621833729904e-01
 9.981776124589808e-01  4.284621833729904e-01 -3.416865995510926e-17

-2.559162148471932e-17 -1.043646964876332e-19  1.024689860777045e+00
-1.043646964876332e-19 -7.139116547354001e-18  4.321487697147070e-01
 1.024689860777045e+00  4.321487697147070e-01 -3.515218673744296e-17

-2.642338861264522e-17 -4.105310597412210e-20  1.059261673847880e+00
-4.105310597412210e-20 -1.385955866426298e-17  4.521440746721488e-01
 1.059261673847880e+00  4.521440746721488e-01 -3.651605944910846e-17

-2.800157830877241e-17  5.333669809694256e-19  1.197694130025285e+00
 5.333669809694256e-19 -3.828551880511320e-18  3.017331160625361e-01
 1.197694130025285e+00  3.017331160625361e-01 -4.030337600548472e-17

-2.918711479387198e-17  9.468264601277673e-20  1.122234995011494e+00
 9.468264601277673e-20  1.782867417006048e-18  7.164112721231793e-01
 1.122234995011494e+00  7.164112721231793e-01 -4.182015821217829e-17

-2.931205513145804e-17  2.521447057682099e-19  1.198322436260226e+00
 2.521447057682099e-19  2.837108540189967e-18  5.423129491902314e-01
 1.198322436260226e+00  5.423129491902314e-01 -4.258841107008849e-17

-2.683504188554144e-17 -3.891369526272665e-19  1.073746257132051e+00
-3.891369526272665e-19 -2.564130895067456e-17  4.200438986487678e-01
 1.073746257132051e+00  4.200438986487678e-01 -3.721426990129030e-17

-2.612439252522842e-17 -3.167749091138284e-20  1.027100024042495e+00
-3.167749091138284e-20 -6.056833484228616e-18  4.586754029347284e-01
 1.027100024042495e+00  4.586754029347284e-01 -3.543867673314611e-17

-2.763944338654052e-17  2.225173263315076e-20  1.152507600359281e+00
 2.225173263315076e-20 -1.836094753171684e-17  3.540366988256617e-01
 1.152507600359281e+00  3.540366988256617e-01 -3.973715927524255e-17

-2.750591572363268e-17  4.176398385275422e-19  1.036851360153044e+00
 4.176398385275422e-19 -2.749876832577319e-18  7.156074105594773e-01
 1.036851360153044e+00  7.156074105594773e-01 -3.712922750326852e-17

-2.822402596802712e-17  4.876930981235015e-19  1.137930135254149e+00
 4.876930981235015e-19 -5.554678608987268e-18  5.711910918732881e-01
 1.137930135254149e+00  5.711910918732881e-01 -3.995675859779687e-17

-2.836692186370662e-17  2.586938788270643e-19  1.204669942302286e+00
 2.586938788270643e-19  9.549255175218896e-19  3.881319619662690e-01
 1.204669942302286e+00  3.881319619662690e-01 -4.185591682228299e-17

-2.637494241529346e-17 -4.807131976402305e-19  1.083638454045249e+00
-4.807131976402305e-19 -2.360576959623538e-17  3.864487997988547e-01
 1.083638454045249e+00  3.864487997988547e-01 -3.739180768289760e-17

-2.491137467893850e-17 -2.761212427253915e-19  9.887131778714268e-01
-2.761212427253915e-19 -1.418077485040797e-17  4.181858033208894e-01
 9.887131778714268e-01  4.181858033208894e-01 -3.386936790486836e-17

-2.448688325503541e-17 -2.146431084871616e-19  9.796787286615297e-01
-2.146431084871616e-19 -4.722200896702273e-18  3.846256969650257e-01
 9.796787286615297e-01  3.846256969650257e-01 -3.346763845372508e-17

-2.484569873004955e-17 -2.333797108014365e-19  1.026916437953304e+00
-2.333797108014365e-19 -1.339546582906983e-17  3.295418547630010e-01
 1.026916437953304e+00  3.295418547630010e-01 -3.510186026961153e-17

-2.379454955077146e-17 -1.786462260319270e-19  9.432826766564633e-01
-1.786462260319270e-19 -3.295213218270235e-17  4.017767046833350e-01
 9.432826766564633e-01  4.017767046833350e-01 -3.197767958969263e-17

-2.386925810409125e-17  2.062522047198507e-20  9.422808146876338e-01
 2.062522047198507e-20 -1.846679452621404e-19  4.467254747270167e-01
 9.422808146876338e-01  4.467254747270167e-01 -3.193549329069333e-17

-2.397153178680168e-17 -7.286767749711594e-20  9.432271688268447e-01
-7.286767749711594e-20 -5.591889892756163e-18  4.746635264548134e-01
 9.432271688268447e-01  4.746635264548134e-01 -3.200334166603058e-17

-2.458992391523409e-17 -2.381495528339296e-20  1.005115097042771e+00
-2.381495528339296e-20 -1.971482746423742e-18  3.904583975939372e-01
 1.005115097042771e+00  3.904583975939372e-01 -3.419771513375384e-17

-2.441912000760247e-17 -1.428671890285887e-20  9.876969753601053e-01
-1.428671890285887e-20 -9.556670438839417e-18  4.066663964784729e-01
 9.876969753601053e-01  4.066663964784729e-01 -3.358670728804959e-17

-2.475201286517851e-17 -1.060302227697684e-19  1.006695359204551e+00
-1.060302227697684e-19 -1.360572952664563e-17  4.133982669215542e-01
 1.006695359204551e+00  4.133982669215542e-01 -3.431577269384236e-17

-2.470047869411908e-17 -1.436452538498452e-19  1.002775431768385e+00
-1.436452538498452e-19 -2.838015825264739e-18  4.167591224451290e-01
 1.002775431768385e+00  4.167591224451290e-01 -3.416131164013282e-17

-2.454728946226379e-17 -3.020598047055079e-19  9.988002436636452e-01
-3.020598047055079e-19 -2.058642309500083e-17  3.995864216075813e-01
 9.988002436636452e-01  3.995864216075813e-01 -3.399596402227552e-17

-2.436821920233154e-17 -8.135748092530170e-20  9.943858017138201e-01
-8.135748092530170e-20  3.137796997924892e-18  3.930798496624507e-01
 9.943858017138201e-01  3.930798496624507e-01 -3.381412419579353e-17

-2.412444376803724e-17 -1.187907038851010e-19  9.767949655457077e-01
-1.187907038851010e-19 -1.007566326773597e-17  4.223625214892935e-01
 9.767949655457077e-01  4.223625214892935e-01 -3.313215426113933e-17

-2.366344417227819e-17 -1.618616944455359e-19  9.635421767753510e-01
-1.618616944455359e-19 -7.994828528774357e-19  4.019213887362055e-01
 9.635421767753510e-01  4.019213887362055e-01 -3.263634818813210e-17

-2.231097578303007e-17 -8.190870719767546e-20  8.839325655163320e-01
-8.190870719767546e-20 -1.094732768623528e-18  4.289004381367491e-01
 8.839325655163320e-01  4.289004381367491e-01 -2.974945953688935e-17

-2.167359156713826e-17 -2.848180193717304e-19  8.685334218075923e-01
-2.848180193717304e-19 -3.995432383639955e-17  3.409697974356747e-01
 8.685334218075923e-01  3.409697974356747e-01 -2.923735926633243e-17

-2.314122133533536e-17 -2.048567142410263e-19  1.010028811576402e+00
-2.048567142410263e-19 -6.675284943947602e-17  2.017508357333976e-01
 1.010028811576402e+00  2.017508357333976e-01 -3.397256346593474e-17

-2.189253426616344e-17  1.863922130168196e-19  8.605925375025751e-01
 1.863922130168196e-19  5.052182203600403e-17  4.214332036604668e-01
 8.605925375025751e-01  4.214332036604668e-01 -2.911156546317688e-17

-2.299371617674608e-17 -5.628466034923414e-20  9.165480917266096e-01
-5.628466034923414e-20  3.842052179223261e-17  4.451152839259960e-01
 9.165480917266096e-01  4.451152839259960e-01 -3.131884844414617e-17

-2.347761544992852e-17  4.081735963922173e-19  9.641407643543942e-01
 4.081735963922173e-19  1.096813300798369e-16  3.473136460131842e-01
 9.641407643543942e-01  3.473136460131842e-01 -3.290996625337350e-17

-2.366538072860267e-17  1.236458885660956e-19  9.751672088218615e-01
 1.236458885660956e-19  3.772193381383945e-17  3.320911872085656e-01
 9.751672088218615e-01  3.320911872085656e-01 -3.327854180730294e-17

-2.338672545555518e-17  7.917770162624899e-21  9.315440074371396e-01
 7.917770162624899e-21 -1.343159534422413e-17  4.124571834886764e-01
 9.315440074371396e-01  4.124571834886764e-01 -3.184397801337282e-17

-2.380028600993632e-17  1.910520318586939e-19  9.572926649472112e-01
 1.910520318586939e-19  6.140292459341764e-17  4.026791183882256e-01
 9.572926649472112e-01  4.026791183882256e-01 -3.275111846555833e-17

-2.406697526631380e-17  1.512192917172430e-19  9.801995251623330e-01
 1.512192917172430e-19  2.731538930997285e-18  3.698202414429911e-01
 9.801995251623330e-01  3.698202414429911e-01 -3.352661013056416e-17

-2.416827737462930e-17  3.391689245647896e-19  9.808751767766568e-01
 3.391689245647896e-19 -1.174514816891562e-17  3.860640274926722e-01
 9.808751767766568e-01  3.860640274926722e-01 -3.351840214907475e-17

-2.626730240848731e-17 -1.099430345200104e-19  1.101792868175403e+00
-1.099430345200104e-19 -1.557609612672297e-17  3.558946607151795e-01
 1.101792868175403e+00  3.558946607151795e-01 -3.795676847687288e-17

-2.527057730462940e-17 -4.922208458172562e-20  1.035706128947800e+00
-4.922208458172562e-20 -1.422773589452848e-17  4.018119092204907e-01
 1.035706128947800e+00  4.018119092204907e-01 -3.547650152852901e-17

-2.766355327503399e-17 -2.292383979838673e-19  1.182511361301234e+00
-2.292383979838673e-19 -1.609594702812967e-17  3.753722017921364e-01
 1.182511361301234e+00  3.753722017921364e-01 -4.140041615139882e-17

-2.824369710163209e-17 -1.083069270849816e-18  1.146604224373112e+00
-1.083069270849816e-18 -1.419565147042931e-17  5.749118543535190e-01
 1.146604224373112e+00  5.749118543535190e-01 -4.364699545061516e-17

-2.154482067143841e-17 -2.217480808724909e-18  5.171227397232735e-01
-2.217480808724909e-18 -7.518978607301616e-18  1.026433205763013e+00
 5.171227397232735e-01  1.026433205763013e+00 -2.842640695531135e-17

-2.382677109417344e-17  2.438367585562234e-19  9.781039850872013e-01
 2.438367585562234e-19 -1.250878352122147e-17  3.851775434867685e-01
 9.781039850872013e-01  3.851775434867685e-01 -3.246362841121744e-17

-2.172445270416438e-17  1.483472569611560e-18  9.710587457471966e-01
 1.483472569611560e-18 -1.328103641419441e-17  1.319182914877948e-01
 9.710587457471966e-01  1.319182914877948e-01 -2.691481063298535e-17

-2.197951154497823e-17 -4.305976413127163e-19  8.465342168536067e-01
-4.305976413127163e-19 -1.128294084805975e-17  4.370477839758584e-01
 8.465342168536067e-01  4.370477839758584e-01 -2.863687189438853e-17

-2.330095807344081e-17  3.636388656992236e-19  9.111776684941473e-01
 3.636388656992236e-19 -1.043059156196721e-17  4.995321190240781e-01
 9.111776684941473e-01  4.995321190240781e-01 -3.096793043805268e-17

-2.550621090340593e-17  4.662455732102833e-19  1.055765079042611e+00
 4.662455732102833e-19 -1.181244856955394e-17  4.827713564272854e-01
 1.055765079042611e+00  4.827713564272854e-01 -3.622170298350229e-17

-2.477548905326186e-17  7.541326819301715e-20  1.013608946442039e+00
 7.541326819301715e-20 -1.366574259363586e-17  3.899262243094325e-01
 1.013608946442039e+00  3.899262243094325e-01 -3.476606042745622e-17

-2.444869053125473e-17  7.521550622000979e-20  9.859143540465736e-01
 7.521550622000979e-20 -1.303034223078809e-17  4.233761395449602e-01
 9.859143540465736e-01  4.233761395449602e-01 -3.380001675490665e-17

-2.471049244111273e-17  7.307056480739658e-20  1.008073557930986e+00
 7.307056480739658e-20 -1.338407564410819e-17  4.073253893733612e-01
 1.008073557930986e+00  4.073253893733612e-01 -3.460659067977769e-17

-2.421476559730394e-17  1.186159234631425e-19  9.537977534593404e-01
 1.186159234631425e-19 -1.207328669855019e-17  4.856992779174342e-01
 9.537977534593404e-01  4.856992779174342e-01 -3.268637209430893e-17

-2.428305244119830e-17  1.022527662140234e-19  9.697888571815091e-01
 1.022527662140234e-19 -1.272715185664938e-17  4.448738377768101e-01
 9.697888571815091e-01  4.448738377768101e-01 -3.322313495960550e-17

-2.453433087632004e-17  4.133208528247862e-20  9.899626812020559e-01
 4.133208528247862e-20 -1.366061727655242e-17  4.057514515230785e-01
 9.899626812020559e-01  4.057514515230785e-01 -3.396516434247558e-17

-2.456728371667966e-17  1.272227259535406e-19  9.751854778547784e-01
 1.272227259535406e-19 -1.310866823780849e-17  4.630651970775076e-01
 9.751854778547784e-01  4.630651970775076e-01 -3.346563539648351e-17

-2.594605983570261e-17  5.244610891070834e-20  1.045944065596474e+00
 5.244610891070834e-20 -1.488703029214506e-17  4.433318865512589e-01
 1.045944065596474e+00  4.433318865512589e-01 -3.626632489115325e-17

-2.855922165902699e-17  2.570028986431374e-20  1.190905802020702e+00
 2.570028986431374e-20 -1.797308443764191e-17  4.160575947267521e-01
 1.190905802020702e+00  4.160575947267521e-01 -4.193652598070888e-17

-2.978054496839296e-17  2.031840639702905e-19  1.229681135800992e+00
 2.031840639702905e-19 -1.723314142469889e-17  5.249501741339565e-01
 1.229681135800992e+00  5.249501741339565e-01 -4.378371423549115e-17

-2.897441573669454e-17  3.985121915656418e-20  1.137280821280252e+00
 3.985121915656418e-20 -1.523888376005518e-17  6.352003571812963e-01
 1.137280821280252e+00  6.352003571812963e-01 -4.093478604985904e-17

-3.009574739337315e-17 -9.580824590184555e-20  1.253598452265741e+00
-9.580824590184555e-20 -1.790484958112884e-17  4.998807958117433e-01
 1.253598452265741e+00  4.998807958117433e-01 -4.487461564489114e-17

-2.995312269815643e-17  4.426267994356187e-20  1.296811490514715e+00
 4.426267994356187e-20 -1.994579437537146e-17  3.453532011252789e-01
 1.296811490514715e+00  3.453532011252789e-01 -4.558069635814377e-17

-2.755158981465810e-17 -6.154676065106190e-20  1.097836006771034e+00
-6.154676065106190e-20 -1.625496435665708e-17  5.062661744230577e-01
 1.097836006771034e+00  5.062661744230577e-01 -3.865324987457411e-17

-2.645046319646925e-17 -1.056807814903806e-19  1.009545310017151e+00
-1.056807814903806e-19 -1.449683602107039e-17  5.737359773633338e-01
 1.009545310017151e+00  5.737359773633338e-01 -3.554058169726089e-17

-2.864644236715905e-17  8.278031933628164e-20  1.237570738113652e+00
 8.278031933628164e-20 -1.824014012267502e-17  3.376196604647798e-01
 1.237570738113652e+00  3.376196604647798e-01 -4.289972489798934e-17

-2.697522776095668e-17  1.954250720521616e-20  1.106007978826334e+00
 1.954250720521616e-20 -1.647123733760129e-17  4.202554034503688e-01
 1.106007978826334e+00  4.202554034503688e-01 -3.828793128757134e-17

-2.678553720824110e-17 -6.339006927650750e-20  1.086136886647766e+00
-6.339006927650750e-20 -1.563636419246874e-17  4.712467886436595e-01
 1.086136886647766e+00  4.712467886436595e-01 -3.771598622771266e-17

-2.688867840721032e-17 -8.428288351821059e-20  1.098518098775793e+00
-8.428288351821059e-20 -1.558580868663343e-17  4.608273913889324e-01
 1.098518098775793e+00  4.608273913889324e-01 -3.811633153921411e-17

-2.675166278052246e-17 -8.864676599369381e-20  1.088087746159381e+00
-8.864676599369381e-20 -1.522176903491889e-17  4.719794216217959e-01
 1.088087746159381e+00  4.719794216217959e-01 -3.773301934396317e-17

-2.658546480055662e-17 -9.045820416654286e-20  1.081945017347746e+00
-9.045820416654286e-20 -1.541649852173507e-17  4.587378648047280e-01
 1.081945017347746e+00  4.587378648047280e-01 -3.744331632347216e-17

-2.659020254037006e-17 -8.604139033559658e-20  1.082567954146858e+00
-8.604139033559658e-20 -1.532497132219342e-17  4.597497601824887e-01
 1.082567954146858e+00  4.597497601824887e-01 -3.745354525405090e-17

-2.673697157414376e-17 -9.621199246441725e-20  1.092201947126670e+00
-9.621199246441725e-20 -1.528898985529469e-17  4.606861347255217e-01
 1.092201947126670e+00  4.606861347255217e-01 -3.781138681044591e-17

-2.640550742925721e-17 -9.141951018523594e-20  1.061014111239752e+00
-9.141951018523594e-20 -1.495354194219573e-17  4.954589444255723e-01
 1.061014111239752e+00  4.954589444255723e-01 -3.674197228806763e-17

-2.637051787750614e-17 -8.045939104028323e-20  1.069210103151849e+00
-8.045939104028323e-20 -1.521677540032154e-17  4.576560748312476e-01
 1.069210103151849e+00  4.576560748312476e-01 -3.692940025741386e-17

-2.644842875324323e-17 -5.576234007958355e-20  1.085558147212617e+00
-5.576234007958355e-20 -1.587606804480308e-17  4.161473216561611e-01
 1.085558147212617e+00  4.161473216561611e-01 -3.744408905953320e-17

-2.639553789047261e-17 -5.475473434535108e-20  1.066725946924742e+00
-5.475473434535108e-20 -1.525456039971690e-17  4.709618797836713e-01
 1.066725946924742e+00  4.709618797836713e-01 -3.687453038065440e-17

-2.675277821304644e-17 -6.041743542118816e-20  1.090581953064661e+00
-6.041743542118816e-20 -1.517192918726811e-17  4.574598451222094e-01
 1.090581953064661e+00  4.574598451222094e-01 -3.775760265443847e-17

-2.675764765375945e-17 -6.234995955508262e-20  1.091187652068484e+00
-6.234995955508262e-20 -1.548415926892034e-17  4.617264062568145e-01
 1.091187652068484e+00  4.617264062568145e-01 -3.780706261796298e-17

-2.695460693211505e-17 -4.776352361396694e-20  1.097561954792459e+00
-4.776352361396694e-20 -1.564508100623220e-17  4.328512386838544e-01
 1.097561954792459e+00  4.328512386838544e-01 -3.797520206205585e-17

-2.690877473850643e-17 -4.536062519087766e-20  1.085320703612504e+00
-4.536062519087766e-20 -1.525649433466773e-17  4.585477299888261e-01
 1.085320703612504e+00  4.585477299888261e-01 -3.756210617540943e-17

-2.872189599125668e-17  1.782060673265489e-19  1.075396390437650e+00
 1.782060673265489e-19 -1.445302470102255e-17  4.711710522320758e-01
 1.075396390437650e+00  4.711710522320758e-01 -3.720631428039166e-17

 2.799388014081649e-17 -6.834128797421316e-18  1.047181704834641e+00
-6.834128797421316e-18 -1.374396513764732e-17  4.608231286281145e-01
 1.047181704834641e+00  4.608231286281145e-01 -3.606006987668452e-17

-4.518662216637796e-17  2.265720416810558e-18  1.039260206677718e+00
 2.265720416810558e-18 -1.559923151094589e-17  4.258793250362470e-01
 1.039260206677718e+00  4.258793250362470e-01 -3.572771163602104e-17

-3.080927795242366e-17  4.541609075479367e-19  1.075117897001145e+00
 4.541609075479367e-19 -1.532533507967210e-17  4.516156093248289e-01
 1.075117897001145e+00  4.516156093248289e-01 -3.710896663766015e-17

-2.705932646126670e-17 -6.192336682667948e-20  1.111282408679774e+00
-6.192336682667948e-20 -1.517367746171725e-17  4.832054017228402e-01
 1.111282408679774e+00  4.832054017228402e-01 -3.854771828840582e-17

-2.799046812060645e-17  2.043838337764459e-19  1.106358649900389e+00
 2.043838337764459e-19 -1.585672239344649e-17  4.242441991746287e-01
 1.106358649900389e+00  4.242441991746287e-01 -3.825752076582689e-17

-9.751354388211945e-18 -4.279807914304471e-18  1.083839983505922e+00
-4.279807914304471e-18 -1.461194966835069e-17  4.402923824677321e-01
 1.083839983505922e+00  4.402923824677321e-01 -3.746510246813071e-17

-6.680348298015948e-17  9.882898439613670e-18  1.087136200398717e+00
 9.882898439613670e-18 -1.782538622138118e-17  4.581395919497720e-01
 1.087136200398717e+00  4.581395919497720e-01 -3.762179187640539e-17

-1.063473757322103e-17 -4.088805258334038e-18  1.083794815299975e+00
-4.088805258334038e-18 -1.444308515294337e-17  4.489066388361347e-01
 1.083794815299975e+00  4.489066388361347e-01 -3.746122595587084e-17

-3.176162636108211e-17  1.256455476494378e-18  1.067336694627057e+00
 1.256455476494378e-18 -1.518580706041687e-17  4.480022779794192e-01
 1.067336694627057e+00  4.480022779794192e-01 -3.681981704490721e-17

-2.660164164101828e-17  3.472381195132361e-20  1.051527869905463e+00
 3.472381195132361e-20 -1.490087691944755e-17  4.509058418160619e-01
 1.051527869905463e+00  4.509058418160619e-01 -3.621115732027606e-17

-2.612465317746770e-17 -7.664422340769259e-20  1.052984520706672e+00
-7.664422340769259e-20 -1.488421168046519e-17  4.438847834774075e-01
 1.052984520706672e+00  4.438847834774075e-01 -3.624824965400575e-17

-2.604373239548573e-17 -8.341250838398931e-20  1.051317001313669e+00
-8.341250838398931e-20 -1.473070522035006e-17  4.432683925205790e-01
 1.051317001313669e+00  4.432683925205790e-01 -3.618435032737103e-17

-2.600270335002220e-17 -6.773066067428217e-20  1.048750401160609e+00
-6.773066067428217e-20 -1.465917878710584e-17  4.438686749815418e-01
 1.048750401160609e+00  4.438686749815418e-01 -3.610989284296205e-17

-2.580721406541236e-17 -4.479470113963125e-20  1.031730547312757e+00
-4.479470113963125e-20 -1.430412288572311e-17  4.579211725476869e-01
 1.031730547312757e+00  4.579211725476869e-01 -3.552454291366764e-17

-2.579849654671471e-17 -1.745378897895908e-20  1.030559100591989e+00
-1.745378897895908e-20 -1.432667041208645e-17  4.471879275502521e-01
 1.030559100591989e+00  4.471879275502521e-01 -3.546954341772108e-17

-2.559226275115084e-17 -2.094887751907616e-20  1.024509181406779e+00
-2.094887751907616e-20 -1.401865691719728e-17  4.319822987238218e-01
 1.024509181406779e+00  4.319822987238218e-01 -3.523721361917857e-17

-2.574210864484011e-17 -9.002587214979516e-21  1.034861812374517e+00
-9.002587214979516e-21 -1.457146563073713e-17  4.217061591959563e-01
 1.034861812374517e+00  4.217061591959563e-01 -3.564694521308472e-17

-2.586348575385936e-17  1.931565001676046e-20  1.034214670466984e+00
 1.931565001676046e-20 -1.403024320806451e-17  4.442427122860951e-01
 1.034214670466984e+00  4.442427122860951e-01 -3.567550777467370e-17

-2.574292734017115e-17 -1.833739322842185e-20  1.031081600804200e+00
-1.833739322842185e-20 -1.462943260362874e-17  4.529912061520524e-01
 1.031081600804200e+00  4.529912061520524e-01 -3.559665967395574e-17

-2.457247990901439e-17 -2.331189261927831e-19  1.009406123344474e+00
-2.331189261927831e-19 -1.430392372744308e-17  4.292178650668244e-01
 1.009406123344474e+00  4.292178650668244e-01 -3.470827256182608e-17

-3.675917653514108e-17  2.870138671909667e-18  1.009700405734037e+00
 2.870138671909667e-18 -1.527126552377267e-17  4.440087709617281e-01
 1.009700405734037e+00  4.440087709617281e-01 -3.467444591428186e-17

-1.707740435234202e-16  3.803009062259186e-17  1.030740803470033e+00
 3.803009062259186e-17 -2.498324854890390e-17  4.300412594164786e-01
 1.030740803470033e+00  4.300412594164786e-01 -3.538847449234885e-17

-2.188220692562564e-17 -1.493502497191572e-18  1.038284848935766e+00
-1.493502497191572e-18 -1.339505290435853e-17  5.437989489446596e-01
 1.038284848935766e+00  5.437989489446596e-01 -3.603356525116533e-17

-2.612121489235790e-17 -2.547621237354645e-19  1.058292297290647e+00
-2.547621237354645e-19 -1.485592642661260e-17  4.357739791633625e-01
 1.058292297290647e+00  4.357739791633625e-01 -3.631899136636524e-17

-2.436652467682959e-17 -5.401247878516287e-19  1.083733984871107e+00
-5.401247878516287e-19 -1.628407039415734e-17  3.160096745677503e-01
 1.083733984871107e+00  3.160096745677503e-01 -3.678485336332097e-17

-2.668268697931109e-17 -1.087046892899467e-20  1.039970382765562e+00
-1.087046892899467e-20 -1.483943435506608e-17  4.325123203836958e-01
 1.039970382765562e+00  4.325123203836958e-01 -3.569350045349183e-17

-2.725187733171648e-17 -1.877378449380223e-19  1.125702489805508e+00
-1.877378449380223e-19 -1.598711100382646e-17  4.195825519295962e-01
 1.125702489805508e+00  4.195825519295962e-01 -3.894171199947534e-17

-2.873211258544066e-17 -3.638600323790563e-19  1.180833019300505e+00
-3.638600323790563e-19 -1.580192184243616e-17  4.928271774632810e-01
 1.180833019300505e+00  4.928271774632810e-01 -4.185023242797705e-17

-2.198637973067357e-17 -1.487309846813839e-18  5.492621642734069e-01
-1.487309846813839e-18 -6.638931079718287e-18  9.979492836860779e-01
 5.492621642734069e-01  9.979492836860779e-01 -2.377331337771753e-17

-2.511585306056855e-17 -4.027363021746711e-21  9.829381953928983e-01
-4.027363021746711e-21 -1.382094498200371e-17  4.465289408615628e-01
 9.829381953928983e-01  4.465289408615628e-01 -3.345722113452372e-17

-2.746040560877172e-17  1.112348308374130e-18  1.318422749348165e+00
 1.112348308374130e-18 -1.947096303466450e-17 -9.312085125565400e-03
 1.318422749348165e+00 -9.312085125565400e-03 -4.105184822075836e-17

-2.249059173276186e-17 -4.017693407795960e-20  8.163080859222794e-01
-4.017693407795960e-20 -1.222140889333428e-17  4.684620172120121e-01
 8.163080859222794e-01  4.684620172120121e-01 -2.725257338106008e-17

-2.643674034732931e-17  1.298037062832698e-19  1.050213884398113e+00
 1.298037062832698e-19 -1.424322273696875e-17  4.711832813092677e-01
 1.050213884398113e+00  4.711832813092677e-01 -3.613879470936432e-17

-2.673382191342604e-17  3.435576419572048e-19  1.015553798287965e+00
 3.435576419572048e-19 -1.182358918109282e-17  5.990281165249453e-01
 1.015553798287965e+00  5.990281165249453e-01 -3.521116035829465e-17

-2.875965795427079e-17  3.588163468582062e-20  1.195519016449164e+00
 3.588163468582062e-20 -1.621817096132877e-17  4.238561868393836e-01
 1.195519016449164e+00  4.238561868393836e-01 -4.176404849024254e-17

-2.879891816725888e-17  1.330348231570299e-19  1.128966062244165e+00
 1.330348231570299e-19 -1.575545193557514e-17  4.312517261498858e-01
 1.128966062244165e+00  4.312517261498858e-01 -3.946498506124076e-17

-2.895786903804266e-17  2.836350864815246e-19  1.102450790198666e+00
 2.836350864815246e-19 -1.559260264427055e-17  4.070360994326468e-01
 1.102450790198666e+00  4.070360994326468e-01 -3.837007034580664e-17

-2.488069194422981e-17 -4.365008375135490e-19  1.082164509753820e+00
-4.365008375135490e-19 -1.605893618736713e-17  4.380592690932469e-01
 1.082164509753820e+00  4.380592690932469e-01 -3.765509133269267e-17

-1.203038938386606e-17 -2.900321461702703e-18  1.073170830182816e+00
-2.900321461702703e-18 -1.509196761669678e-17  4.492722754910180e-01
 1.073170830182816e+00  4.492722754910180e-01 -3.731796495947788e-17

-6.130066935596168e-17  6.479586690932392e-18  1.075578382797220e+00
 6.479586690932392e-18 -1.701792972488032e-17  4.397244232352867e-01
 1.075578382797220e+00  4.397244232352867e-01 -3.734328530065247e-17

-2.740497847613539e-17 -8.829605739891545e-21  1.070335526002297e+00
-8.829605739891545e-21 -1.525698293411051e-17  4.354817856930950e-01
 1.070335526002297e+00  4.354817856930950e-01 -3.708130642944256e-17

-2.805193518508331e-17  1.489117687781585e-19  1.063014834919150e+00
 1.489117687781585e-19 -1.562180370858128e-17  4.314425270351216e-01
 1.063014834919150e+00  4.314425270351216e-01 -3.676265071396340e-17

-2.687307827263488e-17 -2.288740170884600e-20  1.017409486104204e+00
-2.288740170884600e-20 -1.463468123941168e-17  4.831457025251817e-01
 1.017409486104204e+00  4.831457025251817e-01 -3.517436511990682e-17

-2.698940887413185e-17 -6.686900882872224e-20  1.061179895490633e+00
-6.686900882872224e-20 -1.611175914621367e-17  4.308184125764816e-01
 1.061179895490633e+00  4.308184125764816e-01 -3.667032340229575e-17

-2.672376807009916e-17 -1.463365823684879e-19  1.062872168603807e+00
-1.463365823684879e-19 -1.596157367734543e-17  4.195490825647814e-01
 1.062872168603807e+00  4.195490825647814e-01 -3.671057134038872e-17

-2.697779873382939e-17 -9.372563269712713e-20  1.061100755580827e+00
-9.372563269712713e-20 -1.592580824498089e-17  4.369567000370828e-01
 1.061100755580827e+00  4.369567000370828e-01 -3.667582708122808e-17

-2.736198765073083e-17 -2.558608186256141e-20  1.070871054458455e+00
-2.558608186256141e-20 -1.631516985029737e-17  4.557405663510039e-01
 1.070871054458455e+00  4.557405663510039e-01 -3.708082797728630e-17

-2.648384263254011e-17 -3.302397370370369e-19  1.065847269627083e+00
-3.302397370370369e-19 -1.670295133984091e-17  4.269249971511928e-01
 1.065847269627083e+00  4.269249971511928e-01 -3.678482054602603e-17

-2.168998960976781e-17 -2.339631906755030e-18  1.055822899062889e+00
-2.339631906755030e-18 -1.495789985991876e-17  4.159464657180737e-01
 1.055822899062889e+00  4.159464657180737e-01 -3.634810220520620e-17

-3.671887073939737e-17  4.329033933817148e-18  1.034786141731401e+00
 4.329033933817148e-18 -1.716900498361300e-17  4.425932728524150e-01
 1.034786141731401e+00  4.425932728524150e-01 -3.562505721613737e-17

 7.168706903596988e-17 -4.347564423411580e-17  1.049293509648631e+00
-4.347564423411580e-17  4.173255383866082e-18  4.307135376809483e-01
 1.049293509648631e+00  4.307135376809483e-01 -3.615557248526317e-17

-2.256328410356471e-17 -1.879666976653912e-18  1.032721659706926e+00
-1.879666976653912e-18 -1.460362563135936e-17  4.480311325810908e-01
 1.032721659706926e+00  4.480311325810908e-01 -3.562957027287712e-17

-2.409515039117412e-17 -5.712243368787241e-19  9.631077206339567e-01
-5.712243368787241e-19 -1.389015917883544e-17  4.260518512804313e-01
 9.631077206339567e-01  4.260518512804313e-01 -3.290392592119951e-17

-2.607436283375068e-17  4.149090229478165e-19  9.451741237323656e-01
 4.149090229478165e-19 -1.403777540218875e-17  4.344213709181166e-01
 9.451741237323656e-01  4.344213709181166e-01 -3.230705212629529e-17

-2.509357534015393e-17 -1.353034231798482e-19  9.572276303363576e-01
-1.353034231798482e-19 -1.430684758297712e-17  4.313332666691197e-01
 9.572276303363576e-01  4.313332666691197e-01 -3.279876045165154e-17

-2.620316512996856e-17 -1.009996931040437e-19  1.021088055195008e+00
-1.009996931040437e-19 -1.447288292415029e-17  4.349017535272404e-01
 1.021088055195008e+00  4.349017535272404e-01 -3.519946302581449e-17

-2.550868416463001e-17 -6.190606433689993e-20  9.720413893075673e-01
-6.190606433689993e-20 -1.417957836719220e-17  4.259650018288553e-01
 9.720413893075673e-01  4.259650018288553e-01 -3.340382349045517e-17

-2.505276729276598e-17 -4.242354684328893e-20  9.346641026143412e-01
-4.242354684328893e-20 -1.440468493534211e-17  4.478177077075661e-01
 9.346641026143412e-01  4.478177077075661e-01 -3.210435148978827e-17

-2.681861630401566e-17 -3.106497797775624e-19  1.073133451036612e+00
-3.106497797775624e-19 -1.710141693517635e-17  3.021282701688551e-01
 1.073133451036612e+00  3.021282701688551e-01 -3.717350400956216e-17

-2.663969941176587e-17 -1.273977652044312e-19  1.031568723140385e+00
-1.273977652044312e-19 -1.618816434783645e-17  3.881035921179353e-01
 1.031568723140385e+00  3.881035921179353e-01 -3.571395736076174e-17

-2.627237425283822e-17  1.520557180021218e-19  9.681556331838177e-01
 1.520557180021218e-19 -1.385545284884134e-17  5.311528825305836e-01
 9.681556331838177e-01  5.311528825305836e-01 -3.340747063293416e-17

-2.798022081125491e-17 -5.010087123951053e-20  1.109601601154200e+00
-5.010087123951053e-20 -1.861049030474956e-17  3.895672015269069e-01
 1.109601601154200e+00  3.895672015269069e-01 -3.850390647646525e-17

-2.738904259586128e-17 -1.628093569139237e-19  1.049330851096027e+00
-1.628093569139237e-19 -1.600746541104404e-17  4.383647635888476e-01
 1.049330851096027e+00  4.383647635888476e-01 -3.642309912643654e-17

-2.808509117584978e-17 -1.815850907757095e-19  1.112908893176235e+00
-1.815850907757095e-19 -1.785062704546323e-17  3.534667588984292e-01
 1.112908893176235e+00  3.534667588984292e-01 -3.863337075999715e-17

-2.770503340104513e-17 -1.871980283319176e-19  1.061279640035732e+00
-1.871980283319176e-19 -1.708709196529698e-17  4.519176198862815e-01
 1.061279640035732e+00  4.519176198862815e-01 -3.689833909668902e-17

-2.764984123901778e-17 -1.865531518579248e-19  1.067412592423998e+00
-1.865531518579248e-19 -1.717053863783152e-17  4.030617861360935e-01
 1.067412592423998e+00  4.030617861360935e-01 -3.697986174363835e-17

-2.749137507878091e-17 -1.637593013212510e-19  1.054194084086863e+00
-1.637593013212510e-19 -1.665194224935862e-17  4.059554067112552e-01
 1.054194084086863e+00  4.059554067112552e-01 -3.647816489732974e-17

-2.727363065112181e-17 -1.821280333507600e-19  1.024104790236479e+00
-1.821280333507600e-19 -1.646567367299645e-17  4.606324677142279e-01
 1.024104790236479e+00  4.606324677142279e-01 -3.548518410246309e-17

-2.739524675609917e-17 -1.852164525043733e-19  1.031777686233939e+00
-1.852164525043733e-19 -1.516941798995557e-17  4.374099824748152e-01
 1.031777686233939e+00  4.374099824748152e-01 -3.575475846939818e-17

-2.740487664902064e-17 -1.570623830180847e-19  1.025481197845998e+00
-1.570623830180847e-19 -1.609893350990980e-17  4.441882269768083e-01
 1.025481197845998e+00  4.441882269768083e-01 -3.556468839599066e-17

-2.702373286914255e-17 -1.230448675706313e-19  9.914898820340408e-01
-1.230448675706313e-19 -1.656211631715255e-17  4.589117471110551e-01
 9.914898820340408e-01  4.589117471110551e-01 -3.436684392326058e-17

-2.769970208316723e-17 -1.510815370568865e-19  1.049539348633634e+00
-1.510815370568865e-19 -1.706321277195027e-17  3.843287150508078e-01
 1.049539348633634e+00  3.843287150508078e-01 -3.646056990605407e-17

-2.776876305747349e-17 -1.133950272915403e-19  1.043976391841276e+00
-1.133950272915403e-19 -1.805877334317471e-17  4.021831920600463e-01
 1.043976391841276e+00  4.021831920600463e-01 -3.630969866401595e-17

-2.796786556382566e-17 -7.572529920619623e-20  1.032246176462726e+00
-7.572529920619623e-20 -1.610121895382291e-17  4.599170084832824e-01
 1.032246176462726e+00  4.599170084832824e-01 -3.599101904003369e-17

-2.805268164650871e-17 -9.087176548751379e-20  1.029814323446781e+00
-9.087176548751379e-20 -1.650672043442625e-17  4.398987986791416e-01
 1.029814323446781e+00  4.398987986791416e-01 -3.598416476940142e-17

-2.826700815837428e-17 -7.491442231178473e-20  1.036309318311060e+00
-7.491442231178473e-20 -1.832096562797827e-17  4.325520753156474e-01
 1.036309318311060e+00  4.325520753156474e-01 -3.629385504855306e-17

-2.878305215726557e-17 -1.079484794388269e-19  1.057937938315099e+00
-1.079484794388269e-19 -1.628828466626267e-17  4.281640309120283e-01
 1.057937938315099e+00  4.281640309120283e-01 -3.721061004986715e-17

-3.022984520641634e-17 -2.686002726529157e-20  1.132023818387220e+00
-2.686002726529157e-20 -1.827613413525940e-17  4.393305664157818e-01
 1.132023818387220e+00  4.393305664157818e-01 -4.009499396557632e-17

-2.915978838833180e-17 -7.831395794576810e-20  1.011758250794239e+00
-7.831395794576810e-20 -1.537052956374845e-17  5.741020473832192e-01
 1.011758250794239e+00  5.741020473832192e-01 -3.607006702881025e-17

-3.002561934733077e-17 -1.000024301833917e-19  1.107640529998135e+00
-1.000024301833917e-19 -1.801302522856025e-17  4.371625763663543e-01
 1.107640529998135e+00  4.371625763663543e-01 -3.928097915305517e-17

-2.969454963632685e-17 -9.881954124707953e-20  1.092137377897823e+00
-9.881954124707953e-20 -2.028620129888273e-17  3.936951269302272e-01
 1.092137377897823e+00  3.936951269302272e-01 -3.861098245188222e-17

-3.018573555418409e-17 -1.600061830895630e-19  1.105973136609048e+00
-1.600061830895630e-19 -1.633236104296552e-17  4.445960785018417e-01
 1.105973136609048e+00  4.445960785018417e-01 -3.923686288054648e-17

-3.011333010701827e-17 -1.738180740343477e-19  1.096812204949932e+00
-1.738180740343477e-19 -2.248668737337931e-17  4.383873227144938e-01
 1.096812204949932e+00  4.383873227144938e-01 -3.889147999989205e-17

-2.913006834526846e-17 -2.732588933324542e-19  1.022309662557063e+00
-2.732588933324542e-19 -1.956451325052036e-17  4.597544637564894e-01
 1.022309662557063e+00  4.597544637564894e-01 -3.613107400028415e-17

-3.024122314222142e-17 -2.882492024702051e-19  1.129417309962069e+00
-2.882492024702051e-19 -2.081196724419768e-17  3.365297101356979e-01
 1.129417309962069e+00  3.365297101356979e-01 -3.979867455107245e-17

-2.990275862386651e-17 -3.638877492918115e-19  1.079819639224723e+00
-3.638877492918115e-19 -1.747375878983297e-17  4.148895553371625e-01
 1.079819639224723e+00  4.148895553371625e-01 -3.815134763549782e-17

-2.978051159503098e-17 -3.887203197369533e-19  1.052247233954793e+00
-3.887203197369533e-19 -2.057272269971157e-17  4.514842714158329e-01
 1.052247233954793e+00  4.514842714158329e-01 -3.718440838499565e-17

-2.952890447357304e-17 -4.228616594171302e-19  1.033262123001098e+00
-4.228616594171302e-19 -2.026927608758715e-17  4.212853663404142e-01
 1.033262123001098e+00  4.212853663404142e-01 -3.639371178371656e-17

-3.018040759762223e-17 -5.211413105230779e-19  1.054555485149318e+00
-5.211413105230779e-19 -1.988866954929826e-17  4.298832217694666e-01
 1.054555485149318e+00  4.298832217694666e-01 -3.730412985136977e-17

-3.095765070985298e-17 -5.572314142827733e-19  1.078407725271870e+00
-5.572314142827733e-19 -2.120783406133295e-17  4.696015873909108e-01
 1.078407725271870e+00  4.696015873909108e-01 -3.829219653380638e-17

-3.135977833395690e-17 -5.709884156118998e-19  1.084035430192297e+00
-5.709884156118998e-19 -2.166329526135698e-17  5.095018980297177e-01
 1.084035430192297e+00  5.095018980297177e-01 -3.867873643119034e-17

-3.121009653529667e-17 -5.645664145170121e-19  1.084972691479274e+00
-5.645664145170121e-19 -2.270805462751855e-17  4.272422457399955e-01
 1.084972691479274e+00  4.272422457399955e-01 -3.847653087686896e-17

-3.080978426236818e-17 -6.239056952248098e-19  1.041410114961885e+00
-6.239056952248098e-19 -2.113036145384937e-17  4.390090808200278e-01
 1.041410114961885e+00  4.390090808200278e-01 -3.691514771072517e-17

-3.125517938771649e-17 -7.115553393371081e-19  1.046066171912127e+00
-7.115553393371081e-19 -1.896283690026604e-17  4.486655665378652e-01
 1.046066171912127e+00  4.486655665378652e-01 -3.722741587753883e-17

-3.162385859501580e-17 -7.564470018974615e-19  1.047329648647105e+00
-7.564470018974615e-19 -1.958569324509138e-17  4.578968584308162e-01
 1.047329648647105e+00  4.578968584308162e-01 -3.738291155341624e-17

-3.180811714244165e-17 -7.474054178332447e-19  1.049997866046431e+00
-7.474054178332447e-19 -1.896181560311921e-17  4.520250333824363e-01
 1.049997866046431e+00  4.520250333824363e-01 -3.753750581508570e-17

-3.195082084518896e-17 -8.030398785604219e-19  1.040300671511861e+00
-8.030398785604219e-19 -1.836592533695454e-17  4.441800594251290e-01
 1.040300671511861e+00  4.441800594251290e-01 -3.728758254780339e-17

-3.249800951102801e-17 -6.847502400004978e-19  1.032661407838007e+00
-6.847502400004978e-19 -1.915274092541587e-17  4.366591763438904e-01
 1.032661407838007e+00  4.366591763438904e-01 -3.712806035586090e-17

-3.033817287203143e-17 -1.775016439881242e-18  1.024152782834688e+00
-1.775016439881242e-18 -1.858755512443730e-17  4.434171337164620e-01
 1.024152782834688e+00  4.434171337164620e-01 -3.692593475523111e-17

-2.422362760442504e-17 -4.741525703307626e-18  1.016170821814564e+00
-4.741525703307626e-18 -1.920441907477788e-17  4.428975258567622e-01
 1.016170821814564e+00  4.428975258567622e-01 -3.677173043941848e-17

-3.150338431315839e-17 -1.574059922754664e-18  1.004851138634270e+00
-1.574059922754664e-18 -2.112831365000620e-17  4.352356850783595e-01
 1.004851138634270e+00  4.352356850783595e-01 -3.657251365668941e-17

-3.408050245570588e-17 -7.055080876126646e-19  1.000461821934462e+00
-7.055080876126646e-19 -2.072598149127018e-17  4.350176830839824e-01
 1.000461821934462e+00  4.350176830839824e-01 -3.666023781882360e-17

-3.460521721351719e-17 -7.566432031339796e-19  9.933884084135268e-01
-7.566432031339796e-19 -2.093062564750816e-17  4.310386235226216e-01
 9.933884084135268e-01  4.310386235226216e-01 -3.666103372459448e-17

-3.484311789521429e-17 -1.051306281691747e-18  9.793515024020079e-01
-1.051306281691747e-18 -2.082287236618288e-17  4.324365819724508e-01
 9.793515024020079e-01  4.324365819724508e-01 -3.650782103996319e-17

-3.539449675519807e-17 -1.105404451147972e-18  9.632877972518032e-01
-1.105404451147972e-18 -2.103368391537331e-17  4.245738891135273e-01
 9.632877972518032e-01  4.245738891135273e-01 -3.622155461017809e-17

-3.541837802390086e-17 -1.123445754816598e-18  9.270369537985518e-01
-1.123445754816598e-18 -2.161169889136613e-17  4.414367664169614e-01
 9.270369537985518e-01  4.414367664169614e-01 -3.509501418206215e-17

-3.575978425981312e-17 -1.168521269210403e-18  9.369796316178790e-01
-1.168521269210403e-18 -2.135557874646760e-17  4.149263073954446e-01
 9.369796316178790e-01  4.149263073954446e-01 -3.557819266647164e-17

-3.656555029286866e-17 -1.208773596767630e-18  9.871177290181757e-01
-1.208773596767630e-18 -2.278940570167354e-17  3.622279792642697e-01
 9.871177290181757e-01  3.622279792642697e-01 -3.748229249518530e-17

-3.677338427581994e-17 -1.243365338024861e-18  9.402663443700087e-01
-1.243365338024861e-18 -2.136357505855428e-17  4.139497335850762e-01
 9.402663443700087e-01  4.139497335850762e-01 -3.610103461314777e-17

-3.853532861892624e-17 -1.255878422933178e-18  9.870272418284125e-01
-1.255878422933178e-18 -2.232339855752860e-17  4.099644308398583e-01
 9.870272418284125e-01  4.099644308398583e-01 -3.823569103491283e-17

-3.920562834633920e-17 -1.224201571226019e-18  9.759314688801198e-01
-1.224201571226019e-18 -2.319031455442253e-17  4.429803121544037e-01
 9.759314688801198e-01  4.429803121544037e-01 -3.811637672061571e-17

-4.061806660637126e-17 -1.351720512935327e-18  1.001331748655993e+00
-1.351720512935327e-18 -2.452284016448623e-17  4.046174987897865e-01
 1.001331748655993e+00  4.046174987897865e-01 -3.951247500084198e-17

-4.164805689161067e-17 -1.525610306967080e-18  9.566145904805718e-01
-1.525610306967080e-18 -2.381435645090799e-17  4.196387766595281e-01
 9.566145904805718e-01  4.196387766595281e-01 -3.854603107387339e-17

-4.280570168532240e-17 -1.639507942351151e-18  9.900902542168378e-01
-1.639507942351151e-18 -2.580027734249618e-17  3.710315522931561e-01
 9.900902542168378e-01  3.710315522931561e-01 -4.005718518849359e-17

-4.362990600585920e-17 -1.706988388523655e-18  1.006777244137620e+00
-1.706988388523655e-18 -2.822538992547004e-17  3.496922569998293e-01
 1.006777244137620e+00  3.496922569998293e-01 -4.089348376905968e-17

-4.393433088073582e-17 -1.764841366829125e-18  9.774920074073006e-01
-1.764841366829125e-18 -2.596833025962097e-17  3.864738756332357e-01
 9.774920074073006e-01  3.864738756332357e-01 -4.008725640977246e-17

-4.492414711881391e-17 -1.770460417958201e-18  9.713365784384910e-01
-1.770460417958201e-18 -2.758861724796303e-17  4.274056662460815e-01
 9.713365784384910e-01  4.274056662460815e-01 -4.020407002343039e-17

-4.625772125682303e-17 -1.952110889088722e-18  9.762233244364518e-01
-1.952110889088722e-18 -2.738170827586611e-17  4.178330970448834e-01
 9.762233244364518e-01  4.178330970448834e-01 -4.083429152907380e-17

-4.841122033062305e-17 -2.225201653792548e-18  9.904059385212715e-01
-2.225201653792548e-18 -2.886195541776853e-17  3.886240868164185e-01
 9.904059385212715e-01  3.886240868164185e-01 -4.204448952075907e-17

-5.239640051319866e-17 -2.704687749905258e-18  9.940339977933876e-01
-2.704687749905258e-18 -2.722656067063987e-17  4.077480714839436e-01
 9.940339977933876e-01  4.077480714839436e-01 -4.347446906124035e-17

-5.648513746628229e-17 -3.112641320291133e-18  9.837329037070647e-01
-3.112641320291133e-18 -3.199228224410944e-17  4.112467794735494e-01
 9.837329037070647e-01  4.112467794735494e-01 -4.448976423306216e-17

-6.038168043451782e-17 -3.452260855119773e-18  9.887599790789439e-01
-3.452260855119773e-18 -3.292276843814020e-17  4.195426858768978e-01
 9.887599790789439e-01  4.195426858768978e-01 -4.597355420421523e-17

-6.518411874161521e-17 -3.834490521844287e-18  9.994373741246867e-01
-3.834490521844287e-18 -3.168341555646041e-17  4.208489204219530e-01
 9.994373741246867e-01  4.208489204219530e-01 -4.795059783148404e-17

-7.181604139806708e-17 -4.232556617176027e-18  1.012680148020106e+00
-4.232556617176027e-18 -3.230419697911027e-17  4.270502097608135e-01
 1.012680148020106e+00  4.270502097608135e-01 -5.069215665079352e-17

-7.680339673826641e-17 -4.437569606621106e-18  1.018000122523087e+00
-4.437569606621106e-18 -3.967046611598865e-17  4.246240419762104e-01
 1.018000122523087e+00  4.246240419762104e-01 -5.263148017825076e-17

-8.235593665469516e-17 -4.747518134363513e-18  1.025266986710698e+00
-4.747518134363513e-18 -3.638968900421862e-17  4.175235784997916e-01
 1.025266986710698e+00  4.175235784997916e-01 -5.484128004951632e-17

-9.454978380082501e-17 -5.184019573421636e-18  1.039725360681681e+00
-5.184019573421636e-18 -3.653846525876606e-17  4.327091854807441e-01
 1.039725360681681e+00  4.327091854807441e-01 -5.966975202793046e-17

-1.049564122026812e-16 -5.481449433163502e-18  1.026794402149483e+00
-5.481449433163502e-18 -4.079873825803725e-17  4.208265752932585e-01
 1.026794402149483e+00  4.208265752932585e-01 -6.297919838479270e-17

-1.197506091801479e-16 -5.712911944848110e-18  1.012971932293592e+00
-5.712911944848110e-18 -3.591476452500326e-17  4.093326147998790e-01
 1.012971932293592e+00  4.093326147998790e-01 -6.789328739478182e-17

-1.499620618581143e-16 -5.551063675036829e-18  1.144187536758009e+00
-5.551063675036829e-18 -3.903571444181741e-17  4.110289436972672e-01
 1.144187536758009e+00  4.110289436972672e-01 -8.283987144728868e-17

-1.772519739911576e-16 -5.014685389621504e-18  1.090409678625188e+00
-5.014685389621504e-18 -3.809222590603263e-17  4.881059524408026e-01
 1.090409678625188e+00  4.881059524408026e-01 -9.147508917852766e-17

-2.024184423351676e-16 -1.672202555764418e-18  1.013421860859917e+00
-1.672202555764418e-18 -2.889502351990420e-17  3.578001314945516e-01
 1.013421860859917e+00  3.578001314945516e-01 -9.735297881645571e-17

-2.369041381251826e-16  2.973842612370581e-18  9.489099168054622e-01
 2.973842612370581e-18 -8.735038913000157e-18  4.044932654149175e-01
 9.489099168054622e-01  4.044932654149175e-01 -1.084369391400144e-16

-2.821935721163150e-16  9.869071907627905e-18  9.686739325644379e-01
 9.869071907627905e-18  1.413520220448864e-17  4.660389596659554e-01
 9.686739325644379e-01  4.660389596659554e-01 -1.259028199569801e-16

-3.458555365349202e-16  2.331093019481095e-17  1.015279265277045e+00
 2.331093019481095e-17  2.221599554429991e-17  4.660166178909309e-01
 1.015279265277045e+00  4.660166178909309e-01 -1.512450259199837e-16

-4.418407677181339e-16  5.188713571783223e-17  1.021131264504441e+00
 5.188713571783223e-17  8.135957352975444e-17  4.509959367323905e-01
 1.021131264504441e+00  4.509959367323905e-01 -1.887776601048006e-16

-6.059293146043885e-16  1.197022216600035e-16  1.029011787264164e+00
 1.197022216600035e-16  1.765967652105048e-16  4.558410457338310e-01
 1.029011787264164e+00  4.558410457338310e-01 -2.558606624163102e-16

-7.924103326859105e-16  2.308258231017651e-16  1.058744486718300e+00
 2.308258231017651e-16  3.247589869227915e-16  4.142458260987113e-01
 1.058744486718300e+00  4.142458260987113e-01 -3.393142937413773e-16

-9.398048244551613e-16  3.285855916466551e-16  1.029851253337908e+00
 3.285855916466551e-16  4.453477072944938e-16  4.270434508580890e-01
 1.029851253337908e+00  4.270434508580890e-01 -4.050200134731812e-16

-1.061868059002297e-15  4.233571491669492e-16  1.005348975092646e+00
 4.233571491669492e-16  5.548879793936100e-16  4.600121283796287e-01
 1.005348975092646e+00  4.600121283796287e-01 -4.626351607779235e-16

-1.292128267920823e-15  6.365607761559670e-16  1.056693363022422e+00
 6.365607761559670e-16  7.648136733954507e-16  4.353494952713934e-01
 1.056693363022422e+00  4.353494952713934e-01 -5.820397807423621e-16

-1.677743296498453e-15  1.142777631771829e-15  1.027696393388943e+00
 1.142777631771829e-15  1.163498450156197e-15  4.421258831044519e-01
 1.027696393388943e+00  4.421258831044519e-01 -8.173846647709644e-16

-2.262476885145773e-15  2.438476606975364e-15  1.007631025818121e+00
 2.438476606975364e-15  1.872575340000942e-15  4.267848639437546e-01
 1.007631025818121e+00  4.267848639437546e-01 -1.337079268431147e-15

-2.934746839630639e-15  5.101415236982705e-15  1.014715499503918e+00
 5.101415236982705e-15  2.760470151547255e-15  4.410899698558433e-01
 1.014715499503918e+00  4.410899698558433e-01 -2.373796941690689e-15

-3.514556357083652e-15  9.296238837133922e-15  1.016721075751854e+00
 9.296238837133922e-15  2.882063647068310e-15  4.303597343830586e-01
 1.016721075751854e+00  4.303597343830586e-01 -4.269848593192331e-15

-6.627350358178630e-15  1.553057956267862e-14  1.030246787763376e+00
 1.553057956267862e-14  2.792406216224581e-15  4.376194767201885e-01
 1.030246787763376e+00  4.376194767201885e-01 -9.880373791804196e-15

 1.824842849474534e-14  1.081179690249927e-15  1.023521632842457e+00
 1.081179690249927e-15  2.999841912656627e-14  4.527128561529062e-01
 1.023521632842457e+00  4.527128561529062e-01 -7.308391583065747e-15

 1.639080609647572e-13 -3.918111776419140e-14  1.039148563498355e+00
-3.918111776419140e-14  9.540306101688877e-14  4.266280861436026e-01
 1.039148563498355e+00  4.266280861436026e-01  4.034541999398325e-14

-6.306524308636317e-13  1.433185793214746e-13  1.036872427013006e+00
 1.433185793214746e-13 -3.219149513401827e-13  4.238548005911300e-01
 1.036872427013006e+00  4.238548005911300e-01 -1.592841164526193e-13

 1.693850754788487e-13 -5.976457800429472e-14  1.081115132143904e+00
-5.976457800429472e-14  9.964619454828982e-14  4.310455723599004e-01
 1.081115132143904e+00  4.310455723599004e-01  4.567705244956285e-14

-6.712741347698591e-13  1.455825168888316e-13  1.062909501538416e+00
 1.455825168888316e-13 -3.322826886309153e-13  4.242186029209249e-01
 1.062909501538416e+00  4.242186029209249e-01 -1.852076299004707e-13

-1.899963729670807e-14 -1.067039954652491e-14  1.100805798040128e+00
-1.067039954652491e-14  6.159638744529008e-15  4.533432772981446e-01
 1.100805798040128e+00  4.533432772981446e-01 -1.355485025434297e-14

-1.883402902985139e-14 -3.909317788017478e-15  1.074141894544546e+00
-3.909317788017478e-15 -2.224389375033428e-15  4.776219244324026e-01
 1.074141894544546e+00  4.776219244324026e-01 -1.006378299668009e-14

-1.343267830725162e-14 -1.165413498345839e-15  1.092654518354968e+00
-1.165413498345839e-15 -1.783412194391427e-15  4.287734710644791e-01
 1.092654518354968e+00  4.287734710644791e-01 -6.213930082111491e-15

-7.724880848467116e-15  7.254092585625821e-16  1.045061938212885e+00
 7.254092585625821e-16 -1.201657682036766e-15  4.306383502081882e-01
 1.045061938212885e+00  4.306383502081882e-01 -2.949490202780912e-15

-4.287097001588420e-15  1.139443815540973e-15  1.010599036545410e+00
 1.139443815540973e-15 -1.179064096379335e-15  4.300559974717202e-01
 1.010599036545410e+00  4.300559974717202e-01 -1.415731181813192e-15

-2.824590093241532e-15  1.010021883833081e-15  1.018466350349561e+00
 1.010021883833081e-15 -1.184146923291592e-15  4.228868938585000e-01
 1.018466350349561e+00  4.228868938585000e-01 -8.892468096299899e-16

-2.198089234891990e-15  8.781623616884457e-16  1.011191489875627e+00
 8.781623616884457e-16 -1.164768919823814e-15  4.408408459865183e-01
 1.011191489875627e+00  4.408408459865183e-01 -6.900435428271187e-16

-1.442579961673254e-15  6.614964727071374e-16  1.028054894374995e+00
 6.614964727071374e-16 -1.023667396661682e-15  4.318049745990836e-01
 1.028054894374995e+00  4.318049745990836e-01 -4.580992309748234e-16

-1.024883585925920e-15  4.975983476267134e-16  9.871952454885149e-01
 4.975983476267134e-16 -8.624481983368187e-16  4.673703825614504e-01
 9.871952454885149e-01  4.673703825614504e-01 -3.343923572510937e-16

-8.428021120193849e-16  4.188075949201359e-16  1.009681448947244e+00
 4.188075949201359e-16 -7.441919824052874e-16  4.079100450104773e-01
 1.009681448947244e+00  4.079100450104773e-01 -2.816449947650963e-16

-6.026928249144947e-16  3.026945839933345e-16  9.996714409884501e-01
 3.026945839933345e-16 -6.081921068120666e-16  4.350211718746781e-01
 9.996714409884501e-01  4.350211718746781e-01 -2.242655295259586e-16

-4.515226487585100e-16  2.223863103004040e-16  1.012210040465286e+00
 2.223863103004040e-16 -5.002253828256708e-16  4.309244797320563e-01
 1.012210040465286e+00  4.309244797320563e-01 -1.680072879304332e-16

-3.465219264447807e-16  1.622355188078572e-16  1.044517369108477e+00
 1.622355188078572e-16 -4.153418287490539e-16  4.440598000306485e-01
 1.044517369108477e+00  4.440598000306485e-01 -1.380720333383328e-16

-2.928353055758063e-16  1.300001133590413e-16  1.147105445299904e+00
 1.300001133590413e-16 -3.704852742946073e-16  4.199089760438694e-01
 1.147105445299904e+00  4.199089760438694e-01 -1.254673396835757e-16

-2.642389093754695e-16  1.129006630738051e-16  1.015193154634258e+00
 1.129006630738051e-16 -3.441297375480991e-16  5.542440117883141e-01
 1.015193154634258e+00  5.542440117883141e-01 -1.128585428480115e-16

-2.443802752580106e-16  1.026715972804227e-16  1.017913581918601e+00
 1.026715972804227e-16 -3.194230634997752e-16  5.272901719825669e-01
 1.017913581918601e+00  5.272901719825669e-01 -1.066217776513642e-16

-2.168207701561254e-16  9.091803209944518e-17  1.137621116179050e+00
 9.091803209944518e-17 -2.755554351261300e-16  3.679981588061363e-01
 1.137621116179050e+00  3.679981588061363e-01 -1.010430635634740e-16

-1.942738510989570e-16  7.773867428480440e-17  9.963974665813095e-01
 7.773867428480440e-17 -2.525394454858882e-16  5.389662216743873e-01
 9.963974665813095e-01  5.389662216743873e-01 -8.990477443778431e-17

-1.787657169114242e-16  7.016713865594744e-17  1.060579326342508e+00
 7.016713865594744e-17 -2.294347947080459e-16  4.758292447980411e-01
 1.060579326342508e+00  4.758292447980411e-01 -8.681831348913943e-17

-1.514800382045504e-16  5.762099587594055e-17  1.043160026428242e+00
 5.762099587594055e-17 -1.894324850612535e-16  4.434133220542071e-01
 1.043160026428242e+00  4.434133220542071e-01 -7.715339924618458e-17

-1.283927141338406e-16  4.596595295445134e-17  1.003776293866793e+00
 4.596595295445134e-17 -1.574958533479272e-16  4.951294118924602e-01
 1.003776293866793e+00  4.951294118924602e-01 -6.845854817510737e-17

-1.120668493739945e-16  3.889865130417867e-17  9.750275601923567e-01
 3.889865130417867e-17 -1.343536817275067e-16  4.253587746439225e-01
 9.750275601923567e-01  4.253587746439225e-01 -6.184327602234275e-17

-1.037559315354236e-16  3.387310472288294e-17  1.062895391284137e+00
 3.387310472288294e-17 -1.231371880144169e-16  3.559297978830138e-01
 1.062895391284137e+00  3.559297978830138e-01 -6.206603907783621e-17

-9.549007909708015e-17  2.777897097879010e-17  1.054740992397778e+00
 2.777897097879010e-17 -1.136321204033528e-16  5.377899829030669e-01
 1.054740992397778e+00  5.377899829030669e-01 -5.932189366752378e-17

-8.393741748435422e-17  2.205977534774451e-17  9.146917213547234e-01
 2.205977534774451e-17 -9.832323449854364e-17  6.638237578898006e-01
 9.146917213547234e-01  6.638237578898006e-01 -5.270165546024854e-17

-8.242089869262711e-17  2.409264884491455e-17  1.195893066604268e+00
 2.409264884491455e-17 -9.352070727999147e-17  1.682311755789020e-01
 1.195893066604268e+00  1.682311755789020e-01 -5.716576498121193e-17

-7.594647757481213e-17  2.228274491802654e-17  1.028045028546083e+00
 2.228274491802654e-17 -8.794126153081795e-17  2.193967198143414e-01
 1.028045028546083e+00  2.193967198143414e-01 -5.077895720873925e-17

-6.831938624204865e-17  1.578261773331155e-17  9.049077814668083e-01
 1.578261773331155e-17 -7.961912535758605e-17  5.204694450123896e-01
 9.049077814668083e-01  5.204694450123896e-01 -4.556799110136334e-17

-8.356942488672736e-17  1.409446952242259e-17  1.653102975343126e+00
 1.409446952242259e-17 -8.478973999359193e-17  1.493006334089074e-01
 1.653102975343126e+00  1.493006334089074e-01 -6.903566276096249e-17

-8.434733637939784e-17  1.452839483254854e-17  1.130069791586926e+00
 1.452839483254854e-17 -7.851815639890843e-17  5.403919385372138e-01
 1.130069791586926e+00  5.403919385372138e-01 -5.344674752509135e-17

-5.394958884785998e-17  8.811245764493400e-18  1.007095383244568e+00
 8.811245764493400e-18 -7.515044383853241e-17  7.570621946808805e-01
 1.007095383244568e+00  7.570621946808805e-01 -5.088664635236943e-17

-1.175253648481318e-17  1.812600570728489e-18  1.272238522487731e+00
 1.812600570728489e-18 -7.483296686820985e-17  4.048619025029326e-01
 1.272238522487731e+00  4.048619025029326e-01 -5.695729214264043e-17

-3.831955010854338e-17  4.443852042986177e-18  1.524824333009964e+00
 4.443852042986177e-18 -7.647609546794632e-17  1.055862094113210e-01
 1.524824333009964e+00  1.055862094113210e-01 -6.410735494642465e-17

-5.810790483295799e-17  6.516418602807259e-18  1.273037855618334e+00
 6.516418602807259e-18 -6.906090052432238e-17  4.890698468708909e-01
 1.273037855618334e+00  4.890698468708909e-01 -5.626786603353514e-17

-6.049520890970887e-17  5.917673577213512e-18  9.729817191988536e-01
 5.917673577213512e-18 -6.246602605855408e-17  9.020292315883143e-01
 9.729817191988536e-01  9.020292315883143e-01 -4.847662234882273e-17

-6.104022729599457e-17  6.049664570379111e-18  1.300632492632771e+00
 6.049664570379111e-18 -6.473248140722873e-17  5.714665149757915e-01
 1.300632492632771e+00  5.714665149757915e-01 -5.703299283570912e-17

-5.895616855860167e-17  6.775491915902820e-18  1.323354636048296e+00
 6.775491915902820e-18 -6.400335156913206e-17  3.307627505419251e-01
 1.323354636048296e+00  3.307627505419251e-01 -5.501516297350199e-17

-5.337711972527949e-17  6.232150121856914e-18  1.148903586505902e+00
 6.232150121856914e-18 -5.811622922765096e-17  3.801324995627314e-01
 1.148903586505902e+00  3.801324995627314e-01 -4.818432479946017e-17

-4.996539701354310e-17  5.319612378704074e-18  1.087311057993213e+00
 5.319612378704074e-18 -5.262538674449357e-17  4.447034409161763e-01
 1.087311057993213e+00  4.447034409161763e-01 -4.541065777407144e-17

-4.773274628740847e-17  4.823090975081810e-18  1.039146444500096e+00
 4.823090975081810e-18 -4.921336623582468e-17  4.676763839203210e-01
 1.039146444500096e+00  4.676763839203210e-01 -4.307679839643706e-17

-4.681795563671896e-17  4.538568600787229e-18  1.044947075613151e+00
 4.538568600787229e-18 -4.777744974175646e-17  4.641273254438628e-01
 1.044947075613151e+00  4.641273254438628e-01 -4.295220821465223e-17

-4.589529306020135e-17  4.047375450534123e-18  1.076009748087088e+00
 4.047375450534123e-18 -4.531221790104706e-17  4.839708483629842e-01
 1.076009748087088e+00  4.839708483629842e-01 -4.366692650230961e-17

-4.385875227333801e-17  3.607598489819191e-18  1.027626713540317e+00
 3.607598489819191e-18 -4.233532763052200e-17  5.068227706350802e-01
 1.027626713540317e+00  5.068227706350802e-01 -4.142540708805105e-17

-4.162124625017774e-17  3.523158929410406e-18  1.002882774644604e+00
 3.523158929410406e-18 -4.075692810225934e-17  4.102098591289507e-01
 1.002882774644604e+00  4.102098591289507e-01 -3.954098097655811e-17

-4.066797690868240e-17  2.835650870409483e-18  1.032666930457124e+00
 2.835650870409483e-18 -3.860616188257982e-17  4.250895862442369e-01
 1.032666930457124e+00  4.250895862442369e-01 -4.028336723344225e-17

-4.137110169350390e-17  2.162948045974110e-18  1.159928804287536e+00
 2.162948045974110e-18 -3.666030474623547e-17  4.763063773757418e-01
 1.159928804287536e+00  4.763063773757418e-01 -4.465023816640734e-17

-3.877057852869172e-17  1.592359791275482e-18  1.001968482988106e+00
 1.592359791275482e-18 -3.299334176216911e-17  6.067093765735998e-01
 1.001968482988106e+00  6.067093765735998e-01 -3.953619894175599e-17

-3.811301065029572e-17  2.320465018333729e-18  1.095119390579204e+00
 2.320465018333729e-18 -3.438946484170031e-17  3.445014791251119e-01
 1.095119390579204e+00  3.445014791251119e-01 -4.060056940702105e-17

-3.529850941815066e-17  1.996548303019076e-18  9.610466611657984e-01
 1.996548303019076e-18 -3.046569879779858e-17  4.261541952914226e-01
 9.610466611657984e-01  4.261541952914226e-01 -3.589975150268836e-17

-3.436518303699133e-17  1.723482944529598e-18  9.541137844456254e-01
 1.723482944529598e-18 -2.816407490098963e-17  4.602670437001345e-01
 9.541137844456254e-01  4.602670437001345e-01 -3.553541293364968e-17

-3.311712868422228e-17  1.548926125751023e-18  9.199903186480195e-01
 1.548926125751023e-18 -2.606227428768657e-17  4.859769361853233e-01
 9.199903186480195e-01  4.859769361853233e-01 -3.407443633336409e-17

-3.213696484539874e-17  1.581113436353020e-18  9.114560782117967e-01
 1.581113436353020e-18 -2.569110334812440e-17  4.209631189474651e-01
 9.114560782117967e-01  4.209631189474651e-01 -3.333543635917792e-17

-3.121057837226117e-17  1.442488424558016e-18  8.756427415929631e-01
 1.442488424558016e-18 -2.452415076186662e-17  4.392972990008661e-01
 8.756427415929631e-01  4.392972990008661e-01 -3.201903344583976e-17

-3.162960833402722e-17  1.300831829568804e-18  9.318664881450665e-01
 1.300831829568804e-18 -2.395920691321608e-17  4.528908537480293e-01
 9.318664881450665e-01  4.528908537480293e-01 -3.392657262730558e-17

-3.175480677604941e-17  1.218101335608725e-18  9.570708408371102e-01
 1.218101335608725e-18 -2.387935365186025e-17  4.487471323923730e-01
 9.570708408371102e-01  4.487471323923730e-01 -3.479197691577828e-17

-3.185759598346297e-17  1.155072112772536e-18  9.776876766604449e-01
 1.155072112772536e-18 -2.394143494833780e-17  4.427267683330274e-01
 9.776876766604449e-01  4.427267683330274e-01 -3.552591691758055e-17

-3.185429379901686e-17  9.502944884806968e-19  9.994169588206414e-01
 9.502944884806968e-19 -2.439702255915572e-17  4.221458752299066e-01
 9.994169588206414e-01  4.221458752299066e-01 -3.632744956226048e-17

-3.238469879233515e-17  9.201263272518834e-19  1.047590465405964e+00
 9.201263272518834e-19 -2.423876126266566e-17  4.458583957185466e-01
 1.047590465405964e+00  4.458583957185466e-01 -3.803187224627700e-17

-3.283021887843536e-17  6.698527223157705e-19  1.099117249460641e+00
 6.698527223157705e-19 -2.560424235688245e-17  3.879253801185611e-01
 1.099117249460641e+00  3.879253801185611e-01 -3.998675593891900e-17

-3.288284717754521e-17  5.303816306063598e-19  1.107237570810700e+00
 5.303816306063598e-19 -2.596395892852482e-17  3.820502407467290e-01
 1.107237570810700e+00  3.820502407467290e-01 -4.036780827730233e-17

-3.281950959095823e-17  5.622447069903678e-19  1.091497965361510e+00
 5.622447069903678e-19 -2.539821810611454e-17  4.272588739212032e-01
 1.091497965361510e+00  4.272588739212032e-01 -3.984957131330494e-17

-3.463521104669504e-17  6.212192726001125e-19  1.168970002951742e+00
 6.212192726001125e-19 -2.362734475494030e-17  5.888985277442211e-01
 1.168970002951742e+00  5.888985277442211e-01 -4.346640824093923e-17

-3.147308285239209e-17 -2.063695799952906e-20  8.434951526006501e-01
-2.063695799952906e-20 -1.932252850239636e-17  8.646498898943876e-01
 8.434951526006501e-01  8.646498898943876e-01 -3.396416987369609e-17

-3.139950488069523e-17  3.657265297557010e-20  1.338542361386748e+00
 3.657265297557010e-20 -2.664586051932654e-17  2.879673819496038e-01
 1.338542361386748e+00  2.879673819496038e-01 -4.741408029674259e-17

-1.050133844193279e-17 -3.255508483103983e-18  1.004439404900410e+00
-3.255508483103983e-18 -2.187065623669659e-17  3.932658018628906e-01
 1.004439404900410e+00  3.932658018628906e-01 -3.558283333910426e-17

-1.394734529208217e-16  2.282130974373671e-17  1.070028078355821e+00
 2.282130974373671e-17 -2.806504253667258e-17  3.023816959589302e-01
 1.070028078355821e+00  3.023816959589302e-01 -3.805723134179967e-17

-3.097969613151068e-17  8.620182019333411e-19  9.674158018414075e-01
 8.620182019333411e-19 -2.103720819183355e-17  4.347299084626033e-01
 9.674158018414075e-01  4.347299084626033e-01 -3.452613325357323e-17

-6.359605197939786e-17  7.566909060798636e-18  9.551466257906333e-01
 7.566909060798636e-18 -2.160464491938578e-17  4.713025344999870e-01
 9.551466257906333e-01  4.713025344999870e-01 -3.404622000924273e-17

-2.842251659108559e-17  1.528525872245835e-19  1.021988218100037e+00
 1.528525872245835e-19 -2.089462692659210e-17  4.316102350044745e-01
 1.021988218100037e+00  4.316102350044745e-01 -3.639907571169603e-17

-2.979690291494780e-17  4.090328456347269e-19  1.012101756753878e+00
 4.090328456347269e-19 -1.987350292548099e-17  4.921394409592799e-01
 1.012101756753878e+00  4.921394409592799e-01 -3.601148084434312e-17

-3.096088560920708e-17  5.159046001187328e-19  1.025712465335066e+00
 5.159046001187328e-19 -2.106114510541843e-17  4.123743433911237e-01
 1.025712465335066e+00  4.123743433911237e-01 -3.636650524284020e-17

-1.672099493489020e-17 -1.845828138637981e-18  1.019946414003074e+00
-1.845828138637981e-18 -2.047788078313102e-17  4.236016379389294e-01
 1.019946414003074e+00  4.236016379389294e-01 -3.613780819136495e-17

-4.888327297918028e-17  3.053378870191075e-18  1.129932768408337e+00
 3.053378870191075e-18 -2.279298406344202e-17  3.595071750940911e-01
 1.129932768408337e+00  3.595071750940911e-01 -4.010279915708977e-17

 3.635098990898407e-17 -1.059902053345229e-17  1.054917856211605e+00
-1.059902053345229e-17 -1.892354443155137e-17  4.516172934852170e-01
 1.054917856211605e+00  4.516172934852170e-01 -3.741289433350397e-17

-3.120672255065694e-17  4.385216885620971e-19  1.032487677344440e+00
 4.385216885620971e-19 -1.994823766192474e-17  4.987280271827287e-01
 1.032487677344440e+00  4.987280271827287e-01 -3.660780165333591e-17

-4.477652911303325e-17  2.419399747302320e-18  1.092189909555073e+00
 2.419399747302320e-18 -2.040987846460752e-17  5.075003110588071e-01
 1.092189909555073e+00  5.075003110588071e-01 -3.889999641759663e-17

-3.073486422447350e-17  1.151514500791363e-19  1.086343666591031e+00
 1.151514500791363e-19 -2.061185730715020e-17  4.545943249525115e-01
 1.086343666591031e+00  4.545943249525115e-01 -3.850797222784407e-17

-2.909503027953986e-17  5.989744750112750e-20  1.067171824254104e+00
 5.989744750112750e-20 -2.097018441095240e-17  3.841847064283349e-01
 1.067171824254104e+00  3.841847064283349e-01 -3.735260441741993e-17

-2.853719055936996e-17 -7.728051233150807e-20  1.040851562789630e+00
-7.728051233150807e-20 -1.990063564265446e-17  4.372317739251538e-01
 1.040851562789630e+00  4.372317739251538e-01 -3.649957865994311e-17

-2.866380131618091e-17 -9.117725468368416e-20  1.032531320075655e+00
-9.117725468368416e-20 -1.919642494350537e-17  4.737571421124745e-01
 1.032531320075655e+00  4.737571421124745e-01 -3.622539207595657e-17

-2.859936797651569e-17 -1.197537273785150e-19  1.035450707924123e+00
-1.197537273785150e-19 -1.915603592327699e-17  4.651106327574697e-01
 1.035450707924123e+00  4.651106327574697e-01 -3.625153582161273e-17

-2.858363045508864e-17 -1.167849092658747e-19  1.049493598291071e+00
-1.167849092658747e-19 -1.942434602698953e-17  4.353311360196782e-01
 1.049493598291071e+00  4.353311360196782e-01 -3.662861353894345e-17

-2.850997277668429e-17 -1.263185359452852e-19  1.043726809743435e+00
-1.263185359452852e-19 -1.896450949896973e-17  4.517550424967045e-01
 1.043726809743435e+00  4.517550424967045e-01 -3.640545206371207e-17

-2.851520756674768e-17 -1.187798028946646e-19  1.045095311106192e+00
-1.187798028946646e-19 -1.870489775627570e-17  4.627556847380566e-01
 1.045095311106192e+00  4.627556847380566e-01 -3.645380214995855e-17

-2.852590243015003e-17 -9.496289310508450e-20  1.044895446482638e+00
-9.496289310508450e-20 -1.856148414323463e-17  4.630864969453533e-01
 1.044895446482638e+00  4.630864969453533e-01 -3.643028188406677e-17

-2.824951707406436e-17 -1.446793248924620e-19  1.050522422134469e+00
-1.446793248924620e-19 -1.857635469292014e-17  4.526805940176701e-01
 1.050522422134469e+00  4.526805940176701e-01 -3.660422137598694e-17

-3.048545871221000e-17  5.114292829023111e-19  1.057532574901554e+00
 5.114292829023111e-19 -1.866621528224267e-17  4.551397684729588e-01
 1.057532574901554e+00  4.551397684729588e-01 -3.684640401849459e-17

-2.193447585622895e-17 -2.017630918687530e-18  1.056615363093429e+00
-2.017630918687530e-18 -1.781580023547257e-17  4.586425194055070e-01
 1.056615363093429e+00  4.586425194055070e-01 -3.680793527690461e-17

-2.668350656234828e-17 -5.814981851318200e-19  1.052647822780653e+00
-5.814981851318200e-19 -1.806764932383698e-17  4.673879218994345e-01
 1.052647822780653e+00  4.673879218994345e-01 -3.666176640577450e-17

 8.631115740723805e-17 -3.426236634608696e-17  1.051336749411218e+00
-3.426236634608696e-17 -7.963638074593604e-18  4.692209932876739e-01
 1.051336749411218e+00  4.692209932876739e-01 -3.661189881658230e-17

 7.067089272595784e-17 -2.968542477882998e-17  1.063277922570170e+00
-2.968542477882998e-17 -9.600498651439448e-18  4.541266546814644e-01
 1.063277922570170e+00  4.541266546814644e-01 -3.704977018785559e-17

 2.759681910802045e-17 -1.687845523527344e-17  1.070247502906001e+00
-1.687845523527344e-17 -1.346885179042546e-17  4.594569436240555e-01
 1.070247502906001e+00  4.594569436240555e-01 -3.733587724152460e-17

 8.841177179632741e-19 -8.896944394812597e-18  1.070038597543689e+00
-8.896944394812597e-18 -1.569854504692559e-17  4.772716297915346e-01
 1.070038597543689e+00  4.772716297915346e-01 -3.737735782968343e-17

-2.846300321655335e-17 -2.456600082218621e-19  1.103968317788198e+00
-2.456600082218621e-19 -1.877551564985011e-17  4.687507058746976e-01
 1.103968317788198e+00  4.687507058746976e-01 -3.866414455755257e-17

-2.915750665081114e-17 -1.780283678625953e-19  1.129071322420105e+00
-1.780283678625953e-19 -1.991908683572072e-17  4.251763372235864e-01
 1.129071322420105e+00  4.251763372235864e-01 -3.958484459498563e-17

-2.930332956024238e-17 -8.691796889736518e-20  1.109625140939747e+00
-8.691796889736518e-20 -1.903813310504098e-17  4.962131039990738e-01
 1.109625140939747e+00  4.962131039990738e-01 -3.897932482819767e-17

-2.970623216903842e-17 -1.565748844326559e-19  1.142578882283438e+00
-1.565748844326559e-19 -1.994123200437575e-17  4.652059749496892e-01
 1.142578882283438e+00  4.652059749496892e-01 -4.018848704988935e-17

-3.200240128774634e-17 -2.767392996791418e-19  1.292984088964336e+00
-2.767392996791418e-19 -2.148302736584200e-17  4.476252481618102e-01
 1.292984088964336e+00  4.476252481618102e-01 -4.602285812243314e-17

-2.842406209870024e-17 -1.285297361041914e-18  8.666715224740973e-01
-1.285297361041914e-18 -1.424353059228147e-17  9.991404648604086e-01
 8.666715224740973e-01  9.991404648604086e-01 -3.534453863930684e-17

-3.007869654601900e-17 -1.060419149164929e-18  1.115225616763726e+00
-1.060419149164929e-18 -1.813315255608551e-17  6.412226891983094e-01
 1.115225616763726e+00  6.412226891983094e-01 -4.173024186513987e-17

-2.745705211339198e-17  4.911284507857921e-19  1.101481870865728e+00
 4.911284507857921e-19 -1.871462660223385e-17  3.231403948553613e-01
 1.101481870865728e+00  3.231403948553613e-01 -3.564291170090482e-17

-2.774868850143063e-17  2.594616611748426e-19  1.178355594065698e+00
 2.594616611748426e-19 -2.083094492803308e-17  1.635411536874823e-01
 1.178355594065698e+00  1.635411536874823e-01 -3.851637888924237e-17

-2.522256333156738e-17 -2.650521107485623e-19  8.970216748889659e-01
-2.650521107485623e-19 -1.472733404769931e-17  5.480146481818899e-01
 8.970216748889659e-01  5.480146481818899e-01 -3.057840594397699e-17

-2.700720310269836e-17 -5.434963699857046e-19  1.056205338674397e+00
-5.434963699857046e-19 -1.800046382834957e-17  3.841862919668935e-01
 1.056205338674397e+00  3.841862919668935e-01 -3.618301820131878e-17

-2.929940148392263e-17 -7.425479534848385e-19  1.236687669592104e+00
-7.425479534848385e-19 -2.097490578118548e-17  2.523171136121961e-01
 1.236687669592104e+00  2.523171136121961e-01 -4.241588294660009e-17

-2.787441510712259e-17  2.175859480704646e-19  1.053566855941142e+00
 2.175859480704646e-19 -1.559791814717275e-17  5.725485209418361e-01
 1.053566855941142e+00  5.725485209418361e-01 -3.659021491803648e-17

-3.027935519446258e-17 -2.282052352483049e-19  1.208194265880370e+00
-2.282052352483049e-19 -1.843605433798605e-17  5.003766235728420e-01
 1.208194265880370e+00  5.003766235728420e-01 -4.241918009755663e-17

-2.994291558003568e-17 -2.778030869509419e-19  1.176088135763344e+00
-2.778030869509419e-19 -1.803516500748583e-17  5.198245410057585e-01
 1.176088135763344e+00  5.198245410057585e-01 -4.150435533178048e-17

-2.863533223191507e-17 -1.013565699775678e-19  1.107442752313163e+00
-1.013565699775678e-19 -1.737779816608954e-17  4.902614776059345e-01
 1.107442752313163e+00  4.902614776059345e-01 -3.874214213027691e-17

-2.691330560167411e-17  1.392396339564620e-20  1.019899042729057e+00
 1.392396339564620e-20 -1.733509291944874e-17  4.196229241834598e-01
 1.019899042729057e+00  4.196229241834598e-01 -3.530763307948776e-17

-2.835423508052526e-17 -1.869382920405931e-19  1.131825978627361e+00
-1.869382920405931e-19 -1.918552386540937e-17  3.455332650129483e-01
 1.131825978627361e+00  3.455332650129483e-01 -3.964488615660344e-17

-2.810603754315938e-17  2.995091816560066e-19  1.069589601376570e+00
 2.995091816560066e-19 -1.668255325966506e-17  5.106477211877968e-01
 1.069589601376570e+00  5.106477211877968e-01 -3.757396544074439e-17

-2.984376048667398e-17  2.216893650454894e-19  1.184038402630398e+00
 2.216893650454894e-19 -1.876777032212716e-17  4.638694362909067e-01
 1.184038402630398e+00  4.638694362909067e-01 -4.193375191892119e-17

-3.021868113464643e-17  1.078644599603643e-19  1.211500833395448e+00
 1.078644599603643e-19 -1.937871564021993e-17  4.523060502401107e-01
 1.211500833395448e+00  4.523060502401107e-01 -4.299724662396537e-17

-2.881258086244703e-17 -2.516747534586750e-19  1.109104545287667e+00
-2.516747534586750e-19 -1.729883844537412e-17  5.443202129766501e-01
 1.109104545287667e+00  5.443202129766501e-01 -3.980526223038992e-17

-2.867011495496511e-17  3.208683411800499e-19  1.223484218006400e+00
 3.208683411800499e-19 -2.062184938016091e-17  2.161562394606510e-01
 1.223484218006400e+00  2.161562394606510e-01 -4.153370957617179e-17

-2.723114764647756e-17  4.892376764060084e-20  1.095041877290030e+00
 4.892376764060084e-20 -1.897679415711340e-17  3.172345082925255e-01
 1.095041877290030e+00  3.172345082925255e-01 -3.757852574628995e-17

-2.760256209246747e-17 -6.499507567160047e-20  1.083533591851207e+00
-6.499507567160047e-20 -1.693845923370848e-17  4.780741700550206e-01
 1.083533591851207e+00  4.780741700550206e-01 -3.766809511414263e-17

-2.908475559901347e-17 -2.408993916082985e-19  1.180645402076180e+00
-2.408993916082985e-19 -1.905876694324725e-17  4.195733489491612e-01
 1.180645402076180e+00  4.195733489491612e-01 -4.134050413632065e-17

-3.294916569980394e-17 -1.720789706480237e-19  1.382055253042876e+00
-1.720789706480237e-19 -2.001409917919142e-17  4.389923800169178e-01
 1.382055253042876e+00  4.389923800169178e-01 -4.912730539223807e-17

-2.703707367192073e-17 -1.012748532564157e-18  1.028944477697630e+00
-1.012748532564157e-18 -1.434679480221480e-17  8.011704727291827e-01
 1.028944477697630e+00  8.011704727291827e-01 -3.825389616599357e-17

-3.086422270225659e-17 -8.435078449846865e-19  1.099033598821977e+00
-8.435078449846865e-19 -1.599370546167283e-17  6.817467009433579e-01
 1.099033598821977e+00  6.817467009433579e-01 -4.093694881929387e-17

-2.376959131828512e-17 -1.130070125723952e-18  1.099070332430964e+00
-1.130070125723952e-18 -1.681484169510480e-17  4.387767690744401e-01
 1.099070332430964e+00  4.387767690744401e-01 -3.807883718152824e-17

-5.038745237229162e-17  5.933106039452870e-18  1.006409008266167e+00
 5.933106039452870e-18 -1.963218587128765e-17  2.391680095776698e-01
 1.006409008266167e+00  2.391680095776698e-01 -3.230959509334562e-17

-2.490907913808170e-16  5.826615395211607e-17  1.028897367474142e+00
 5.826615395211607e-17 -3.158493636552822e-17  3.999228607548693e-01
 1.028897367474142e+00  3.999228607548693e-01 -3.485573496728149e-17

 1.163567721504569e-16 -4.052336285696231e-17  1.016308741798006e+00
-4.052336285696231e-17 -3.587667916095891e-19  6.457348673335195e-01
 1.016308741798006e+00  6.457348673335195e-01 -3.593954207722406e-17

-9.984570712671740e-18 -5.061534505407116e-18  1.019114452831083e+00
-5.061534505407116e-18 -1.251423078240644e-17  5.454496581230390e-01
 1.019114452831083e+00  5.454496581230390e-01 -3.576045124316120e-17

-2.989848896102927e-17  1.587263909629818e-18  9.978133440306576e-01
 1.587263909629818e-18 -1.600886225051989e-17  3.085684933352407e-01
 9.978133440306576e-01  3.085684933352407e-01 -3.304989548846912e-17

-2.573166740439719e-17  3.637069807496137e-19  9.624885160248937e-01
 3.637069807496137e-19 -1.468374982113354e-17  3.643189575829889e-01
 9.624885160248937e-01  3.643189575829889e-01 -3.234665655690901e-17

-2.421590069337910e-17  3.239469188158570e-19  8.768787017825115e-01
 3.239469188158570e-19 -1.085074768122334e-17  5.824338607996448e-01
 8.768787017825115e-01  5.824338607996448e-01 -2.970760228324709e-17

-2.514389686178001e-17  6.581942777275678e-20  9.854034312511012e-01
 6.581942777275678e-20 -1.343545777817535e-17  4.667624944185299e-01
 9.854034312511012e-01  4.667624944185299e-01 -3.373064479733031e-17

-2.359387641263702e-17 -3.001153120417026e-19  8.587321365076949e-01
-3.001153120417026e-19 -1.382748576929132e-17  4.589549659505378e-01
 8.587321365076949e-01  4.589549659505378e-01 -2.927323077182899e-17

-2.743032100778574e-17  2.916216909778754e-19  1.085480071188500e+00
 2.916216909778754e-19 -1.634828536244251e-17  4.463253319505407e-01
 1.085480071188500e+00  4.463253319505407e-01 -3.812810886551872e-17

-2.418157182703921e-17  2.257236324084817e-18  7.056538342536746e-01
 2.257236324084817e-18 -1.009835039788300e-17  8.859681818643448e-01
 7.056538342536746e-01  8.859681818643448e-01 -2.941097506021443e-17

-3.101957429762669e-17  1.242560326090847e-18  1.277906569508672e+00
 1.242560326090847e-18 -1.699023422498372e-17  5.504284501402428e-01
 1.277906569508672e+00  5.504284501402428e-01 -4.644918577883533e-17

-3.189301757214315e-17  3.235798590536622e-19  1.361649189523708e+00
 3.235798590536622e-19 -2.044941034295173e-17  3.917726381907200e-01
 1.361649189523708e+00  3.917726381907200e-01 -4.856407951923173e-17

-3.044608603012746e-17  1.623673229356490e-19  1.264244879426757e+00
 1.623673229356490e-19 -1.996441592425475e-17  3.906820568715609e-01
 1.264244879426757e+00  3.906820568715609e-01 -4.485662118352987e-17

-2.865184691837558e-17  1.050728956625743e-19  1.154990800200103e+00
 1.050728956625743e-19 -1.839603849863438e-17  4.196528902162917e-01
 1.154990800200103e+00  4.196528902162917e-01 -4.065847671537328e-17

-2.773921826735608e-17  7.318191788172782e-20  1.107949528892751e+00
 7.318191788172782e-20 -1.709177156611254e-17  4.446848501711213e-01
 1.107949528892751e+00  4.446848501711213e-01 -3.878848060783440e-17

-2.743020705850504e-17  5.880698575715100e-20  1.091707673723396e+00
 5.880698575715100e-20 -1.661941624293959e-17  4.547740466901560e-01
 1.091707673723396e+00  4.547740466901560e-01 -3.814107649518750e-17

-2.712401234420291e-17  3.656865564915415e-20  1.077775840340878e+00
 3.656865564915415e-20 -1.623417785789777e-17  4.600913936082571e-01
 1.077775840340878e+00  4.600913936082571e-01 -3.755555006059726e-17

-2.674619846452197e-17 -2.331459802830793e-21  1.062878635142306e+00
-2.331459802830793e-21 -1.579925086046148e-17  4.610892397032339e-01
 1.062878635142306e+00  4.610892397032339e-01 -3.688739555889373e-17

-2.660799491606477e-17 -4.077933699159772e-20  1.057930474812143e+00
-4.077933699159772e-20 -1.565230185247400e-17  4.592828713671115e-01
 1.057930474812143e+00  4.592828713671115e-01 -3.662961161976053e-17

-2.685526641132292e-17 -4.359320768346064e-20  1.074721442638333e+00
-4.359320768346064e-20 -1.562115134274195e-17  4.650541319145258e-01
 1.074721442638333e+00  4.650541319145258e-01 -3.724002250414776e-17

-2.665344888521756e-17 -4.178687193571756e-20  1.048983696341360e+00
-4.178687193571756e-20 -1.496180876237957e-17  5.060607666138147e-01
 1.048983696341360e+00  5.060607666138147e-01 -3.637450755408755e-17

-2.699422794731569e-17 -3.227507818949121e-20  1.091814586884427e+00
-3.227507818949121e-20 -1.610590501625386e-17  4.329335185952817e-01
 1.091814586884427e+00  4.329335185952817e-01 -3.780993530264855e-17

-2.699698963812453e-17 -2.218754963428204e-20  1.091901657651707e+00
-2.218754963428204e-20 -1.621317779304310e-17  4.250225857958017e-01
 1.091901657651707e+00  4.250225857958017e-01 -3.781304631986209e-17

-2.683235265693271e-17 -2.640070086868968e-21  1.070238832700944e+00
-2.640070086868968e-21 -1.567188628140465e-17  4.633540829141476e-01
 1.070238832700944e+00  4.633540829141476e-01 -3.712046121160210e-17

-2.711634033140582e-17  3.176413494727817e-20  1.080960569445403e+00
 3.176413494727817e-20 -1.559344988269411e-17  4.855939222333995e-01
 1.080960569445403e+00  4.855939222333995e-01 -3.758807594048666e-17

-2.719002533480205e-17  2.542184516889125e-20  1.084740013823822e+00
 2.542184516889125e-20 -1.580201299459783e-17  4.789815160362255e-01
 1.084740013823822e+00  4.789815160362255e-01 -3.773644575339317e-17

-2.723750959563751e-17  1.117056328075801e-20  1.096167178746023e+00
 1.117056328075801e-20 -1.646841151035129e-17  4.424771681273784e-01
 1.096167178746023e+00  4.424771681273784e-01 -3.812778989008773e-17

-2.751247598841049e-17 -1.571934313270248e-20  1.104742549836190e+00
-1.571934313270248e-20 -1.688823894926491e-17  4.468124734891891e-01
 1.104742549836190e+00  4.468124734891891e-01 -3.855709059702503e-17

-2.844839732087749e-17  5.160368023632103e-20  1.152453703015355e+00
 5.160368023632103e-20 -1.755045942272874e-17  4.553129341550096e-01
 1.152453703015355e+00  4.553129341550096e-01 -4.046037742586880e-17

-2.946636425802233e-17  4.416643165724461e-20  1.220113339223682e+00
 4.416643165724461e-20 -1.861248936566337e-17  4.287626592448477e-01
 1.220113339223682e+00  4.287626592448477e-01 -4.304491653859647e-17

-3.030858121245175e-17  5.331002175377874e-20  1.267470936134992e+00
 5.331002175377874e-20 -1.880931842659792e-17  4.485921151213236e-01
 1.267470936134992e+00  4.485921151213236e-01 -4.497909062797609e-17

-2.818462559100729e-17 -3.228878151030412e-20  1.052124070258300e+00
-3.228878151030412e-20 -1.500462239869279e-17  6.828987653128015e-01
 1.052124070258300e+00  6.828987653128015e-01 -3.795102806169416e-17

-2.960191463733005e-17 -1.155201608875795e-19  1.200524653524578e+00
-1.155201608875795e-19 -1.748021057109605e-17  5.227921556265226e-01
 1.200524653524578e+00  5.227921556265226e-01 -4.292000363653081e-17

-2.898940999353209e-17  8.311278225712032e-20  1.215471695035807e+00
 8.311278225712032e-20 -1.847239171794302e-17  3.827850454789004e-01
 1.215471695035807e+00  3.827850454789004e-01 -4.250839350424649e-17

-2.782633131244585e-17  1.233240634138135e-19  1.147474911711674e+00
 1.233240634138135e-19 -1.747422623898599e-17  3.865632779404786e-01
 1.147474911711674e+00  3.865632779404786e-01 -3.981995427860561e-17

-2.649348603106197e-17  6.271492969809417e-20  1.072067701781488e+00
 6.271492969809417e-20 -1.599087172271987e-17  4.124932346649246e-01
 1.072067701781488e+00  4.124932346649246e-01 -3.703381969500426e-17

-2.584680418572729e-17 -6.362220555929862e-22  1.044510963334587e+00
-6.362220555929862e-22 -1.486919035510420e-17  4.250203777259587e-01
 1.044510963334587e+00  4.250203777259587e-01 -3.604439303928031e-17

-2.516651027541048e-17 -3.359936891831828e-20  1.014517737144353e+00
-3.359936891831828e-20 -1.401094197883906e-17  4.265896147680099e-01
 1.014517737144353e+00  4.265896147680099e-01 -3.494323527417661e-17

-2.472140462264657e-17  3.607467303464212e-21  1.003287804715637e+00
 3.607467303464212e-21 -1.384150875522435e-17  3.988288222295893e-01
 1.003287804715637e+00  3.988288222295893e-01 -3.440674158161096e-17

-2.403226341696567e-17 -4.089100705957796e-20  9.658490109290173e-01
-4.089100705957796e-20 -1.301266130961070e-17  4.133599249108156e-01
 9.658490109290173e-01  4.133599249108156e-01 -3.310170802793045e-17

-2.198866119420361e-17 -4.008788273065808e-19  8.166052915332198e-01
-4.008788273065808e-19 -1.021796999896376e-17  5.289112645700857e-01
 8.166052915332198e-01  5.289112645700857e-01 -2.867531122773339e-17

-2.500698407752371e-17  3.431923339356958e-19  1.192622332018922e+00
 3.431923339356958e-19 -1.766455943452235e-17  1.663600303064972e-02
 1.192622332018922e+00  1.663600303064972e-02 -3.923484019605382e-17

-2.571408190874987e-17  1.056376399364778e-19  1.255817157391336e+00
 1.056376399364778e-19 -1.909915237293720e-17 -4.700705238522389e-02
 1.255817157391336e+00 -4.700705238522389e-02 -4.149858285827386e-17

-2.073725205784277e-17  3.273641203157828e-20  7.727629857170636e-01
 3.273641203157828e-20 -1.029735317817528e-17  4.510456580217475e-01
 7.727629857170636e-01  4.510456580217475e-01 -2.597746319644425e-17

-2.318457791759310e-17 -7.835774134456676e-20  9.379238993653654e-01
-7.835774134456676e-20 -1.211254313797251e-17  4.068118329884056e-01
 9.379238993653654e-01  4.068118329884056e-01 -3.187206043900816e-17

-2.492635808778917e-17 -1.353846433755108e-19  1.046987939114292e+00
-1.353846433755108e-19 -1.366411394521416e-17  3.720656555825844e-01
 1.046987939114292e+00  3.720656555825844e-01 -3.578086417750680e-17

-2.512874747029889e-17 -2.295319476505111e-19  1.061653317229612e+00
-2.295319476505111e-19 -1.413463220428953e-17  3.509441887148056e-01
 1.061653317229612e+00  3.509441887148056e-01 -3.636750215743363e-17

-2.372431577354774e-17 -3.519453444306234e-19  9.501235502069540e-01
-3.519453444306234e-19 -1.224275082780146e-17  4.280520131582039e-01
 9.501235502069540e-01  4.280520131582039e-01 -3.264259371806699e-17

-2.426212612859913e-17 -1.865086825571482e-19  1.030252310204331e+00
-1.865086825571482e-19 -1.345660331055047e-17  3.214007267334998e-01
 1.030252310204331e+00  3.214007267334998e-01 -3.516769687897562e-17

-2.339216469887670e-17 -3.547615432338771e-19  9.659018507535233e-01
-3.547615432338771e-19 -1.201775588450822e-17  3.843237545537393e-01
 9.659018507535233e-01  3.843237545537393e-01 -3.323244225830717e-17

-2.100774997883351e-17 -5.159462365373543e-19  7.986136773715582e-01
-5.159462365373543e-19 -9.239045982379079e-18  4.825981050728890e-01
 7.986136773715582e-01  4.825981050728890e-01 -2.768631519546826e-17

-1.868436937056276e-17  1.375175701719592e-19  7.061862056767171e-01
 1.375175701719592e-19 -9.495105273048726e-18  3.481993194699025e-01
 7.061862056767171e-01  3.481993194699025e-01 -2.268442015964296e-17

-2.140505971523972e-17 -8.403165327126211e-20  9.586942647830671e-01
-8.403165327126211e-20 -1.429482034860968e-17  9.939173641361104e-02
 9.586942647830671e-01  9.939173641361104e-02 -3.167981752023800e-17

-1.973653237966814e-17 -2.835149329233905e-19  7.601779098607724e-01
-2.835149329233905e-19 -9.190268017044885e-18  4.022571408107960e-01
 7.601779098607724e-01  4.022571408107960e-01 -2.564651117650561e-17

-2.153577986387539e-17 -1.849637274315600e-19  8.684059960870251e-01
-1.849637274315600e-19 -8.663562208443191e-18  4.564224046073340e-01
 8.684059960870251e-01  4.564224046073340e-01 -2.957309682476895e-17

-1.910180682523825e-17 -5.547737536709933e-19  6.612878060979838e-01
-5.547737536709933e-19 -7.083238415903465e-18  5.536048708530491e-01
 6.612878060979838e-01  5.536048708530491e-01 -2.318462121417059e-17

-2.213596783326269e-17 -2.340087775674724e-19  9.917423813205859e-01
-2.340087775674724e-19 -1.442322934650570e-17  1.171159798821791e-01
 9.917423813205859e-01  1.171159798821791e-01 -3.306090291219207e-17

-2.121785218459336e-17 -3.462685058895551e-19  8.928505597258586e-01
-3.462685058895551e-19 -1.289774219616530e-17  2.180881641160131e-01
 8.928505597258586e-01  2.180881641160131e-01 -3.016048235225587e-17

-1.789429723870714e-17  5.319695035176787e-19  5.839375097388326e-01
 5.319695035176787e-19 -5.704152069428968e-18  5.670152768823093e-01
 5.839375097388326e-01  5.670152768823093e-01 -1.936333680693819e-17

-2.282150784416045e-17  3.562732605894348e-20  9.614125850918166e-01
 3.562732605894348e-20 -1.123521157773512e-17  3.519335121763979e-01
 9.614125850918166e-01  3.519335121763979e-01 -3.272421850170864e-17

-2.302451265518980e-17 -2.303333502992456e-19  9.515190041105732e-01
-2.303333502992456e-19 -1.064369848947511e-17  4.209187782349265e-01
 9.515190041105732e-01  4.209187782349265e-01 -3.267808585032315e-17

-2.154667775868840e-17 -3.591489707102062e-19  8.372473618156721e-01
-3.591489707102062e-19 -9.525874833826160e-18  4.716581673931672e-01
 8.372473618156721e-01  4.716581673931672e-01 -2.881091354165181e-17

-2.025435655788245e-17 -1.559139828241022e-19  7.851509289470932e-01
-1.559139828241022e-19 -1.024755582644709e-17  3.860913447936912e-01
 7.851509289470932e-01  3.860913447936912e-01 -2.629516411856250e-17

-2.297638553001414e-17 -3.079228500209498e-19  1.050191767881072e+00
-3.079228500209498e-19 -1.595852393203332e-17  8.220446892031970e-02
 1.050191767881072e+00  8.220446892031970e-02 -3.526165809400564e-17

-2.064336356750160e-17 -2.242938303855842e-19  7.989044855480252e-01
-2.242938303855842e-19 -1.008986299243509e-17  4.180569167103362e-01
 7.989044855480252e-01  4.180569167103362e-01 -2.683250239537589e-17

-2.212153061284052e-17 -1.515046604706838e-19  8.950399631675270e-01
-1.515046604706838e-19 -1.068106887774435e-17  4.337222933041575e-01
 8.950399631675270e-01  4.337222933041575e-01 -3.015418222915421e-17

-2.273116915716438e-17 -4.324591678638971e-19  9.769058594443126e-01
-4.324591678638971e-19 -1.265995464603879e-17  3.864948754814977e-01
 9.769058594443126e-01  3.864948754814977e-01 -3.318339615166962e-17

-2.808685602360881e-17  7.184481293919149e-19  9.500074934992180e-01
 7.184481293919149e-19 -1.187513811026402e-17  4.742801500558228e-01
 9.500074934992180e-01  4.742801500558228e-01 -3.217063032840188e-17

-2.236896732681411e-17 -8.686769243958797e-19  1.064859641315925e+00
-8.686769243958797e-19 -1.413215588880202e-17  3.749535957791735e-01
 1.064859641315925e+00  3.749535957791735e-01 -3.638764029774932e-17

-9.468837955046999e-17  1.351007255202925e-17  1.065832793042299e+00
 1.351007255202925e-17 -1.714468022309284e-17  3.850616609335827e-01
 1.065832793042299e+00  3.850616609335827e-01 -3.642610102662643e-17

 1.588587157019310e-17 -8.462310513367281e-18  1.026945930085154e+00
-8.462310513367281e-18 -1.228960957973386e-17  4.071307078505951e-01
 1.026945930085154e+00  4.071307078505951e-01 -3.501814402867473e-17

-3.665756260610565e-17  2.072946752670698e-18  1.017838834268141e+00
 2.072946752670698e-18 -1.437235621207257e-17  4.066495537754738e-01
 1.017838834268141e+00  4.066495537754738e-01 -3.465230805538270e-17

-2.551199984386318e-17 -1.880145909971194e-19  1.041095580665673e+00
-1.880145909971194e-19 -1.415691533514136e-17  3.930376443178044e-01
 1.041095580665673e+00  3.930376443178044e-01 -3.545988692639342e-17

-2.563757545033498e-17 -1.545763989154721e-19  1.029924731934767e+00
-1.545763989154721e-19 -1.369897504326437e-17  4.182215191709684e-01
 1.029924731934767e+00  4.182215191709684e-01 -3.507479519761903e-17

-2.480755353620546e-17 -2.590175166260144e-19  1.014934752609090e+00
-2.590175166260144e-19 -1.342860525275621e-17  4.234885012909326e-01
 1.014934752609090e+00  4.234885012909326e-01 -3.450333747856252e-17

-2.477422451626073e-17 -2.410086874035842e-19  1.012464327659793e+00
-2.410086874035842e-19 -1.337169052502639e-17  4.193456281490567e-01
 1.012464327659793e+00  4.193456281490567e-01 -3.439376298539554e-17

-2.468844816541387e-17 -2.363873994408802e-19  1.011394598804696e+00
-2.363873994408802e-19 -1.317549873646056e-17  4.241845990201327e-01
 1.011394598804696e+00  4.241845990201327e-01 -3.436564318220763e-17

-2.463656080217280e-17 -2.152865365139369e-19  1.006695416918104e+00
-2.152865365139369e-19 -1.297908412795278e-17  4.286061263662632e-01
 1.006695416918104e+00  4.286061263662632e-01 -3.421617051184347e-17

-2.454390355382629e-17 -1.603118230211366e-19  1.005022183318180e+00
-1.603118230211366e-19 -1.292124442527546e-17  4.190749329430396e-01
 1.005022183318180e+00  4.190749329430396e-01 -3.417416632258571e-17

-1.715305744689828e-17 -2.046882073273503e-18  9.842237183073910e-01
-2.046882073273503e-18 -1.172765158832821e-17  4.319370876195575e-01
 9.842237183073910e-01  4.319370876195575e-01 -3.353253028195014e-17

-1.605466571966692e-17 -1.930700995639644e-18  9.209765847915158e-01
-1.930700995639644e-18 -1.124054289326826e-17  4.191133344942837e-01
 9.209765847915158e-01  4.191133344942837e-01 -3.127238086813114e-17

-7.951269220629663e-17  1.543538911220674e-17  9.828392843527094e-01
 1.543538911220674e-17 -1.743963058676364e-17  3.367538997255780e-01
 9.828392843527094e-01  3.367538997255780e-01 -3.354326049151819e-17

-3.133121661597287e-17  2.299627244080128e-18  9.279521135248135e-01
 2.299627244080128e-18 -1.241895843638192e-17  4.235934360059141e-01
 9.279521135248135e-01  4.235934360059141e-01 -3.168903816835238e-17

-2.400358571741380e-17  8.907910589118308e-20  9.698762799692401e-01
 8.907910589118308e-20 -1.239256532989788e-17  4.149180547023288e-01
 9.698762799692401e-01  4.149180547023288e-01 -3.321475131214007e-17

-2.435100212453731e-17  1.137476957726922e-19  9.762597426684588e-01
 1.137476957726922e-19 -1.265749940297038e-17  4.084255027099727e-01
 9.762597426684588e-01  4.084255027099727e-01 -3.342725474253546e-17

-2.371920945966544e-17 -6.062688420160315e-20  9.674363962156427e-01
-6.062688420160315e-20 -1.255314283255118e-17  4.221318717608364e-01
 9.674363962156427e-01  4.221318717608364e-01 -3.307694888537270e-17

-2.428056039935760e-17 -2.925947263557112e-20  9.890695813118925e-01
-2.925947263557112e-20 -1.303710626456753e-17  4.059546940741238e-01
 9.890695813118925e-01  4.059546940741238e-01 -3.381529941170269e-17

-2.432119411203798e-17 -6.335202193640599e-20  9.907609561678578e-01
-6.335202193640599e-20 -1.293845863016250e-17  4.191337990112743e-01
 9.907609561678578e-01  4.191337990112743e-01 -3.385361143262166e-17

-2.451135569674955e-17 -6.811149977939019e-20  9.984202812601884e-01
-6.811149977939019e-20 -1.315818798981460e-17  4.186518601640805e-01
 9.984202812601884e-01  4.186518601640805e-01 -3.411536496505213e-17

-2.476740949372214e-17 -6.734612096304617e-20  1.016265537710332e+00
-6.734612096304617e-20 -1.359223676714495e-17  4.016029414386642e-01
 1.016265537710332e+00  4.016029414386642e-01 -3.475319271880691e-17

-2.474504779753702e-17 -4.964952862776483e-20  1.006195869807686e+00
-4.964952862776483e-20 -1.336880276822811e-17  4.216333360866782e-01
 1.006195869807686e+00  4.216333360866782e-01 -3.439411462714154e-17

-2.502088352871745e-17 -5.134727763080244e-20  1.024083022091685e+00
-5.134727763080244e-20 -1.389372390630245e-17  4.027876627164320e-01
 1.024083022091685e+00  4.027876627164320e-01 -3.503900149642226e-17


CELL_DATA 1651
SCALARS dislocation_index int
LOOKUP_TABLE default
0
1
2
3
4
5
6
7
8
9
10
11
12
13
14
15
16
17
18
19
20
21
22
23
24
25
26
27
28
29
30
31
32
33
34
35
36
37
38
39
40
41
42
43
44
45
46
47
48
49
50
51
52
53
54
55
56
57
58
59
60
61
62
63
64
65
66
67
68
69
70
71
72
73
74
75
76
77
78
79
80
81
82
83
84
85
86
87
88
89
90
91
92
93
94
95
96
97
98
99
100
101
102
103
104
105
106
107
108
109
110
111
112
113
114
115
116
117
118
119
120
121
122
123
124
125
126
127
128
129
130
131
132
133
134
135
136
137
138
139
140
141
142
143
144
145
146
147
148
149
150
151
152
153
154
155
156
157
158
159
160
161
162
163
164
165
166
167
168
169
170
171
172
173
174
175
176
177
178
179
180
181
182
183
184
185
186
187
188
189
190
191
192
193
194
195
196
197
198
199
200
201
202
203
204
205
206
207
208
209
210
211
212
213
214
215
216
217
218
219
220
221
222
223
224
225
226
227
228
229
230
231
232
233
234
235
236
237
238
239
240
241
242
243
244
245
246
247
248
249
250
251
252
253
254
255
256
257
258
259
260
261
262
263
264
265
266
267
268
269
270
271
272
273
274
275
276
277
278
279
280
281
282
283
284
285
286
287
288
289
290
291
292
293
294
295
296
297
298
299
300
301
302
303
304
305
306
307
308
309
310
311
312
313
314
315
316
317
318
319
320
321
322
323
324
325
326
327
328
329
330
331
332
333
334
335
336
337
338
339
340
341
342
343
344
345
346
347
348
349
350
351
352
353
354
355
356
357
358
359
360
361
362
363
364
365
366
367
368
369
370
371
372
373
374
375
376
377
378
379
380
381
382
383
384
385
386
387
388
389
390
391
392
393
394
395
396
397
398
399
400
401
402
403
404
405
406
407
408
409
410
411
412
413
414
415
416
417
418
419
420
421
422
423
424
425
426
427
428
429
430
431
432
433
434
435
436
437
438
439
440
441
442
443
444
445
446
447
448
449
450
451
452
453
454
455
456
457
458
459
460
461
462
463
464
465
466
467
468
469
470
471
472
473
474
475
476
477
478
479
480
481
482
483
484
485
486
487
488
489
490
491
492
493
494
495
496
497
498
499
500
501
502
503
504
505
506
507
508
509
510
511
512
513
514
515
516
517
518
519
520
521
522
523
524
525
526
527
528
529
530
531
532
533
534
535
536
537
538
539
540
541
542
543
544
545
546
547
548
549
550
551
552
553
554
555
556
557
558
559
560
561
562
563
564
565
566
567
568
569
570
571
572
573
574
575
576
577
578
579
580
581
582
583
584
585
586
587
588
589
590
591
592
593
594
595
596
597
598
599
600
601
602
603
604
605
606
607
608
609
610
611
612
613
614
615
616
617
618
619
620
621
622
623
624
625
626
627
628
629
630
631
632
633
634
635
636
637
638
639
640
641
642
643
644
645
646
647
648
649
650
651
652
653
654
655
656
657
658
659
660
661
662
663
664
665
666
667
668
669
670
671
672
673
674
675
676
677
678
679
680
681
682
683
684
685
686
687
688
689
690
691
692
693
694
695
696
697
698
699
700
701
702
703
704
705
706
707
708
709
710
711
712
713
714
715
716
717
718
719
720
721
722
723
724
725
726
727
728
729
730
731
732
733
734
735
736
737
738
739
740
741
742
743
744
745
746
747
748
749
750
751
752
753
754
755
756
757
758
759
760
761
762
763
764
765
766
767
768
769
770
771
772
773
774
775
776
777
778
779
780
781
782
783
784
785
786
787
788
789
790
791
792
793
794
795
796
797
798
799
800
801
802
803
804
805
806
807
808
809
810
811
812
813
814
815
816
817
818
819
820
821
822
823
824
825
826
827
828
829
830
831
832
833
834
835
836
837
838
839
840
841
842
843
844
845
846
847
848
849
850
851
852
853
854
855
856
857
858
859
860
861
862
863
864
865
866
867
868
869
870
871
872
873
874
875
876
877
878
879
880
881
882
883
884
885
886
887
888
889
890
891
892
893
894
895
896
897
898
899
900
901
902
903
904
905
906
907
908
909
910
911
912
913
914
915
916
917
918
919
920
921
922
923
924
925
926
927
928
929
930
931
932
933
934
935
936
937
938
939
940
941
942
943
944
945
946
947
948
949
950
951
952
953
954
955
956
957
958
959
960
961
962
963
964
965
966
967
968
969
970
971
972
973
974
975
976
977
978
979
980
981
982
983
984
985
986
987
988
989
990
991
992
993
994
995
996
997
998
999
1000
1001
1002
1003
1004
1005
1006
1007
1008
1009
1010
1011
1012
1013
1014
1015
1016
1017
1018
1019
1020
1021
1022
1023
1024
1025
1026
1027
1028
1029
1030
1031
1032
1033
1034
1035
1036
1037
1038
1039
1040
1041
1042
1043
1044
1045
1046
1047
1048
1049
1050
1051
1052
1053
1054
1055
1056
1057
1058
1059
1060
1061
1062
1063
1064
1065
1066
1067
1068
1069
1070
1071
1072
1073
1074
1075
1076
1077
1078
1079
1080
1081
1082
1083
1084
1085
1086
1087
1088
1089
1090
1091
1092
1093
1094
1095
1096
1097
1098
1099
1100
1101
1102
1103
1104
1105
1106
1107
1108
1109
1110
1111
1112
1113
1114
1115
1116
1117
1118
1119
1120
1121
1122
1123
1124
1125
1126
1127
1128
1129
1130
1131
1132
1133
1134
1135
1136
1137
1138
1139
1140
1141
1142
1143
1144
1145
1146
1147
1148
1149
1150
1151
1152
1153
1154
1155
1156
1157
1158
1159
1160
1161
1162
1163
1164
1165
1166
1167
1168
1169
1170
1171
1172
1173
1174
1175
1176
1177
1178
1179
1180
1181
1182
1183
1184
1185
1186
1187
1188
1189
1190
1191
1192
1193
1194
1195
1196
1197
1198
1199
1200
1201
1202
1203
1204
1205
1206
1207
1208
1209
1210
1211
1212
1213
1214
1215
1216
1217
1218
1219
1220
1221
1222
1223
1224
1225
1226
1227
1228
1229
1230
1231
1232
1233
1234
1235
1236
1237
1238
1239
1240
1241
1242
1243
1244
1245
1246
1247
1248
1249
1250
1251
1252
1253
1254
1255
1256
1257
1258
1259
1260
1261
1262
1263
1264
1265
1266
1267
1268
1269
1270
1271
1272
1273
1274
1275
1276
1277
1278
1279
1280
1281
1282
1283
1284
1285
1286
1287
1288
1289
1290
1291
1292
1293
1294
1295
1296
1297
1298
1299
1300
1301
1302
1303
1304
1305
1306
1307
1308
1309
1310
1311
1312
1313
1314
1315
1316
1317
1318
1319
1320
1321
1322
1323
1324
1325
1326
1327
1328
1329
1330
1331
1332
1333
1334
1335
1336
1337
1338
1339
1340
1341
1342
1343
1344
1345
1346
1347
1348
1349
1350
1351
1352
1353
1354
1355
1356
1357
1358
1359
1360
1361
1362
1363
1364
1365
1366
1367
1368
1369
1370
1371
1372
1373
1374
1375
1376
1377
1378
1379
1380
1381
1382
1383
1384
1385
1386
1387
1388
1389
1390
1391
1392
1393
1394
1395
1396
1397
1398
1399
1400
1401
1402
1403
1404
1405
1406
1407
1408
1409
1410
1411
1412
1413
1414
1415
1416
1417
1418
1419
1420
1421
1422
1423
1424
1425
1426
1427
1428
1429
1430
1431
1432
1433
1434
1435
1436
1437
1438
1439
1440
1441
1442
1443
1444
1445
1446
1447
1448
1449
1450
1451
1452
1453
1454
1455
1456
1457
1458
1459
1460
1461
1462
1463
1464
1465
1466
1467
1468
1469
1470
1471
1472
1473
1474
1475
1476
1477
1478
1479
1480
1481
1482
1483
1484
1485
1486
1487
1488
1489
1490
1491
1492
1493
1494
1495
1496
1497
1498
1499
1500
1501
1502
1503
1504
1505
1506
1507
1508
1509
1510
1511
1512
1513
1514
1515
1516
1517
1518
1519
1520
1521
1522
1523
1524
1525
1526
1527
1528
1529
1530
1531
1532
1533
1534
1535
1536
1537
1538
1539
1540
1541
1542
1543
1544
1545
1546
1547
1548
1549
1550
1551
1552
1553
1554
1555
1556
1557
1558
1559
1560
1561
1562
1563
1564
1565
1566
1567
1568
1569
1570
1571
1572
1573
1574
1575
1576
1577
1578
1579
1580
1581
1582
1583
1584
1585
1586
1587
1588
1589
1590
1591
1592
1593
1594
1595
1596
1597
1598
1599
1600
1601
1602
1603
1604
1605
1606
1607
1608
1609
1610
1611
1612
1613
1614
1615
1616
1617
1618
1619
1620
1621
1622
1623
1624
1625
1626
1627
1628
1629
1630
1631
1632
1633
1634
1635
1636
1637
1638
1639
1640
1641
1642
1643
1644
1645
1646
1647
1648
1649
1650

VECTORS burgers_vector_global double
-1.429999999999999e+00 -8.256108849411650e-01  3.393140768766017e-17
 1.429999999999999e+00  8.256108849411650e-01 -3.393140768766017e-17
-1.429999999999999e+00 -8.256108849411650e-01  3.393140768766017e-17
-1.429999999999999e+00 -8.256108849411650e-01  3.393140768766017e-17
-1.429999999999999e+00 -8.256108849411650e-01  3.393140768766017e-17
-1.429999999999999e+00 -8.256108849411650e-01  3.393140768766017e-17
-1.429999999999999e+00 -8.256108849411650e-01  3.393140768766017e-17
-1.429999999999999e+00 -8.256108849411650e-01  3.393140768766017e-17
-1.429999999999999e+00 -8.256108849411650e-01  3.393140768766017e-17
-1.429999999999999e+00 -8.256108849411650e-01  3.393140768766017e-17
-1.429999999999999e+00 -8.256108849411650e-01  3.393140768766017e-17
-1.429999999999999e+00 -8.256108849411650e-01  3.393140768766017e-17
-1.429999999999999e+00 -8.256108849411650e-01  3.393140768766017e-17
-1.429999999999999e+00 -8.256108849411650e-01  3.393140768766017e-17
-1.429999999999999e+00 -8.256108849411650e-01  3.393140768766017e-17
-1.429999999999999e+00 -8.256108849411650e-01  3.393140768766017e-17
-1.429999999999999e+00 -8.256108849411650e-01  3.393140768766017e-17
-1.429999999999999e+00 -8.256108849411650e-01  3.393140768766017e-17
-1.429999999999999e+00 -8.256108849411650e-01  3.393140768766017e-17
-1.429999999999999e+00 -8.256108849411650e-01  3.393140768766017e-17
-1.429999999999999e+00 -8.256108849411650e-01  3.393140768766017e-17
-1.429999999999999e+00 -8.256108849411650e-01  3.393140768766017e-17
-1.429999999999999e+00 -8.256108849411650e-01  3.393140768766017e-17
-1.429999999999999e+00 -8.256108849411650e-01  3.393140768766017e-17
-1.429999999999999e+00 -8.256108849411650e-01  3.393140768766017e-17
-1.429999999999999e+00 -8.256108849411650e-01  3.393140768766017e-17
-1.429999999999999e+00 -8.256108849411650e-01  3.393140768766017e-17
-1.429999999999999e+00 -8.256108849411650e-01  3.393140768766017e-17
-1.429999999999999e+00 -8.256108849411650e-01  3.393140768766017e-17
-1.429999999999999e+00 -8.256108849411650e-01  3.393140768766017e-17
-1.429999999999999e+00 -8.256108849411650e-01  3.393140768766017e-17
-1.429999999999999e+00 -8.256108849411650e-01  3.393140768766017e-17
-1.429999999999999e+00 -8.256108849411650e-01  3.393140768766017e-17
-1.429999999999999e+00 -8.256108849411650e-01  3.393140768766017e-17
-1.429999999999999e+00 -8.256108849411650e-01  3.393140768766017e-17
-1.429999999999999e+00 -8.256108849411650e-01  3.393140768766017e-17
-1.429999999999999e+00 -8.256108849411650e-01  3.393140768766017e-17
-1.429999999999999e+00 -8.256108849411650e-01  3.393140768766017e-17
-1.429999999999999e+00 -8.256108849411650e-01  3.393140768766017e-17
-1.429999999999999e+00 -8.256108849411650e-01  3.393140768766017e-17
-1.429999999999999e+00 -8.256108849411650e-01  3.393140768766017e-17
-1.429999999999999e+00 -8.256108849411650e-01  3.393140768766017e-17
-1.429999999999999e+00 -8.256108849411650e-01  3.393140768766017e-17
-1.429999999999999e+00 -8.256108849411650e-01  3.393140768766017e-17
-1.429999999999999e+00 -8.256108849411650e-01  3.393140768766017e-17
-1.429999999999999e+00 -8.256108849411650e-01  3.393140768766017e-17
-1.429999999999999e+00 -8.256108849411650e-01  3.393140768766017e-17
-1.429999999999999e+00 -8.256108849411650e-01  3.393140768766017e-17
-1.429999999999999e+00 -8.256108849411650e-01  3.393140768766017e-17
-1.429999999999999e+00 -8.256108849411650e-01  3.393140768766017e-17
-1.429999999999999e+00 -8.256108849411650e-01  3.393140768766017e-17
-1.429999999999999e+00 -8.256108849411650e-01  3.393140768766017e-17
-1.429999999999999e+00 -8.256108849411650e-01  3.393140768766017e-17
-1.429999999999999e+00 -8.256108849411650e-01  3.393140768766017e-17
-1.429999999999999e+00 -8.256108849411650e-01  3.393140768766017e-17
-1.429999999999999e+00 -8.256108849411650e-01  3.393140768766017e-17
-1.429999999999999e+00 -8.256108849411650e-01  3.393140768766017e-17
-1.429999999999999e+00 -8.256108849411650e-01  3.393140768766017e-17
-1.429999999999999e+00 -8.256108849411650e-01  3.393140768766017e-17
-1.429999999999999e+00 -8.256108849411650e-01  3.393140768766017e-17
-1.429999999999999e+00 -8.256108849411650e-01  3.393140768766017e-17
-1.429999999999999e+00 -8.256108849411650e-01  3.393140768766017e-17
-1.429999999999999e+00 -8.256108849411650e-01  3.393140768766017e-17
-1.429999999999999e+00 -8.256108849411650e-01  3.393140768766017e-17
-1.429999999999999e+00 -8.256108849411650e-01  3.393140768766017e-17
-1.429999999999999e+00 -8.256108849411650e-01  3.393140768766017e-17
-1.429999999999999e+00 -8.256108849411650e-01  3.393140768766017e-17
-1.429999999999999e+00 -8.256108849411650e-01  3.393140768766017e-17
-1.429999999999999e+00 -8.256108849411650e-01  3.393140768766017e-17
-1.429999999999999e+00 -8.256108849411650e-01  3.393140768766017e-17
-1.429999999999999e+00 -8.256108849411650e-01  3.393140768766017e-17
-1.429999999999999e+00 -8.256108849411650e-01  3.393140768766017e-17
-1.429999999999999e+00 -8.256108849411650e-01  3.393140768766017e-17
-1.429999999999999e+00 -8.256108849411650e-01  3.393140768766017e-17
-1.429999999999999e+00 -8.256108849411650e-01  3.393140768766017e-17
-1.429999999999999e+00 -8.256108849411650e-01  3.393140768766017e-17
-1.429999999999999e+00 -8.256108849411650e-01  3.393140768766017e-17
-1.429999999999999e+00 -8.256108849411650e-01  3.393140768766017e-17
-1.429999999999999e+00 -8.256108849411650e-01  3.393140768766017e-17
-1.429999999999999e+00 -8.256108849411650e-01  3.393140768766017e-17
-1.429999999999999e+00 -8.256108849411650e-01  3.393140768766017e-17
-1.429999999999999e+00 -8.256108849411650e-01  3.393140768766017e-17
-1.429999999999999e+00 -8.256108849411650e-01  3.393140768766017e-17
-1.429999999999999e+00 -8.256108849411650e-01  3.393140768766017e-17
-1.429999999999999e+00 -8.256108849411650e-01  3.393140768766017e-17
-1.429999999999999e+00 -8.256108849411650e-01  3.393140768766017e-17
-1.429999999999999e+00 -8.256108849411650e-01  3.393140768766017e-17
-1.429999999999999e+00 -8.256108849411650e-01  3.393140768766017e-17
-1.429999999999999e+00 -8.256108849411650e-01  3.393140768766017e-17
-1.429999999999999e+00 -8.256108849411650e-01  3.393140768766017e-17
-1.429999999999999e+00 -8.256108849411650e-01  3.393140768766017e-17
-1.429999999999999e+00 -8.256108849411650e-01  3.393140768766017e-17
-1.429999999999999e+00 -8.256108849411650e-01  3.393140768766017e-17
-1.429999999999999e+00 -8.256108849411650e-01  3.393140768766017e-17
-1.429999999999999e+00 -8.256108849411650e-01  3.393140768766017e-17
-1.429999999999999e+00 -8.256108849411650e-01  3.393140768766017e-17
-1.429999999999999e+00 -8.256108849411650e-01  3.393140768766017e-17
-1.429999999999999e+00 -8.256108849411650e-01  3.393140768766017e-17
-1.429999999999999e+00 -8.256108849411650e-01  3.393140768766017e-17
-1.429999999999999e+00 -8.256108849411650e-01  3.393140768766017e-17
-1.429999999999999e+00 -8.256108849411650e-01  3.393140768766017e-17
-1.429999999999999e+00 -8.256108849411650e-01  3.393140768766017e-17
-1.429999999999999e+00 -8.256108849411650e-01  3.393140768766017e-17
-1.429999999999999e+00 -8.256108849411650e-01  3.393140768766017e-17
-1.429999999999999e+00 -8.256108849411650e-01  3.393140768766017e-17
-1.429999999999999e+00 -8.256108849411650e-01  3.393140768766017e-17
-1.429999999999999e+00 -8.256108849411650e-01  3.393140768766017e-17
-1.429999999999999e+00 -8.256108849411650e-01  3.393140768766017e-17
-1.429999999999999e+00 -8.256108849411650e-01  3.393140768766017e-17
-1.429999999999999e+00 -8.256108849411650e-01  3.393140768766017e-17
-1.429999999999999e+00 -8.256108849411650e-01  3.393140768766017e-17
-1.429999999999999e+00 -8.256108849411650e-01  3.393140768766017e-17
-1.429999999999999e+00 -8.256108849411650e-01  3.393140768766017e-17
-1.429999999999999e+00 -8.256108849411650e-01  3.393140768766017e-17
-1.429999999999999e+00 -8.256108849411650e-01  3.393140768766017e-17
-1.429999999999999e+00 -8.256108849411650e-01  3.393140768766017e-17
-1.429999999999999e+00 -8.256108849411650e-01  3.393140768766017e-17
-1.429999999999999e+00 -8.256108849411650e-01  3.393140768766017e-17
-1.429999999999999e+00 -8.256108849411650e-01  3.393140768766017e-17
-1.429999999999999e+00 -8.256108849411650e-01  3.393140768766017e-17
-1.429999999999999e+00 -8.256108849411650e-01  3.393140768766017e-17
-1.429999999999999e+00 -8.256108849411650e-01  3.393140768766017e-17
-1.429999999999999e+00 -8.256108849411650e-01  3.393140768766017e-17
-1.429999999999999e+00 -8.256108849411650e-01  3.393140768766017e-17
-1.429999999999999e+00 -8.256108849411650e-01  3.393140768766017e-17
-1.429999999999999e+00 -8.256108849411650e-01  3.393140768766017e-17
-1.429999999999999e+00 -8.256108849411650e-01  3.393140768766017e-17
-1.429999999999999e+00 -8.256108849411650e-01  3.393140768766017e-17
-1.429999999999999e+00 -8.256108849411650e-01  3.393140768766017e-17
-1.429999999999999e+00 -8.256108849411650e-01  3.393140768766017e-17
-1.429999999999999e+00 -8.256108849411650e-01  3.393140768766017e-17
-1.429999999999999e+00 -8.256108849411650e-01  3.393140768766017e-17
-1.429999999999999e+00 -8.256108849411650e-01  3.393140768766017e-17
-1.429999999999999e+00 -8.256108849411650e-01  3.393140768766017e-17
-1.429999999999999e+00 -8.256108849411650e-01  3.393140768766017e-17
-1.429999999999999e+00 -8.256108849411650e-01  3.393140768766017e-17
-1.429999999999999e+00 -8.256108849411650e-01  3.393140768766017e-17
-1.429999999999999e+00 -8.256108849411650e-01  3.393140768766017e-17
-1.429999999999999e+00 -8.256108849411650e-01  3.393140768766017e-17
-1.429999999999999e+00 -8.256108849411650e-01  3.393140768766017e-17
-1.429999999999999e+00 -8.256108849411650e-01  3.393140768766017e-17
-1.429999999999999e+00 -8.256108849411650e-01  3.393140768766017e-17
-1.429999999999999e+00 -8.256108849411650e-01  3.393140768766017e-17
-1.429999999999999e+00 -8.256108849411650e-01  3.393140768766017e-17
-1.429999999999999e+00 -8.256108849411650e-01  3.393140768766017e-17
-1.429999999999999e+00 -8.256108849411650e-01  3.393140768766017e-17
-1.429999999999999e+00 -8.256108849411650e-01  3.393140768766017e-17
-1.429999999999999e+00 -8.256108849411650e-01  3.393140768766017e-17
-1.429999999999999e+00 -8.256108849411650e-01  3.393140768766017e-17
-1.429999999999999e+00 -8.256108849411650e-01  3.393140768766017e-17
-1.429999999999999e+00 -8.256108849411650e-01  3.393140768766017e-17
-1.429999999999999e+00 -8.256108849411650e-01  3.393140768766017e-17
-1.429999999999999e+00 -8.256108849411650e-01  3.393140768766017e-17
-1.429999999999999e+00 -8.256108849411650e-01  3.393140768766017e-17
-1.429999999999999e+00 -8.256108849411650e-01  3.393140768766017e-17
-1.429999999999999e+00 -8.256108849411650e-01  3.393140768766017e-17
-1.429999999999999e+00 -8.256108849411650e-01  3.393140768766017e-17
-1.429999999999999e+00 -8.256108849411650e-01  3.393140768766017e-17
-1.429999999999999e+00 -8.256108849411650e-01  3.393140768766017e-17
-1.429999999999999e+00 -8.256108849411650e-01  3.393140768766017e-17
-1.429999999999999e+00 -8.256108849411650e-01  3.393140768766017e-17
-1.429999999999999e+00 -8.256108849411650e-01  3.393140768766017e-17
-1.429999999999999e+00 -8.256108849411650e-01  3.393140768766017e-17
-1.429999999999999e+00 -8.256108849411650e-01  3.393140768766017e-17
-1.429999999999999e+00 -8.256108849411650e-01  3.393140768766017e-17
-1.429999999999999e+00 -8.256108849411650e-01  3.393140768766017e-17
-1.429999999999999e+00 -8.256108849411650e-01  3.393140768766017e-17
-1.429999999999999e+00 -8.256108849411650e-01  3.393140768766017e-17
-1.429999999999999e+00 -8.256108849411650e-01  3.393140768766017e-17
-1.429999999999999e+00 -8.256108849411650e-01  3.393140768766017e-17
-1.429999999999999e+00 -8.256108849411650e-01  3.393140768766017e-17
-1.429999999999999e+00 -8.256108849411650e-01  3.393140768766017e-17
-1.429999999999999e+00 -8.256108849411650e-01  3.393140768766017e-17
-1.429999999999999e+00 -8.256108849411650e-01  3.393140768766017e-17
-1.429999999999999e+00 -8.256108849411650e-01  3.393140768766017e-17
-1.429999999999999e+00 -8.256108849411650e-01  3.393140768766017e-17
-1.429999999999999e+00 -8.256108849411650e-01  3.393140768766017e-17
-1.429999999999999e+00 -8.256108849411650e-01  3.393140768766017e-17
-1.429999999999999e+00 -8.256108849411650e-01  3.393140768766017e-17
-1.429999999999999e+00 -8.256108849411650e-01  3.393140768766017e-17
-1.429999999999999e+00 -8.256108849411650e-01  3.393140768766017e-17
-1.429999999999999e+00 -8.256108849411650e-01  3.393140768766017e-17
-1.429999999999999e+00 -8.256108849411650e-01  3.393140768766017e-17
-1.429999999999999e+00 -8.256108849411650e-01  3.393140768766017e-17
-1.429999999999999e+00 -8.256108849411650e-01  3.393140768766017e-17
-1.429999999999999e+00 -8.256108849411650e-01  3.393140768766017e-17
-1.429999999999999e+00 -8.256108849411650e-01  3.393140768766017e-17
-1.429999999999999e+00 -8.256108849411650e-01  3.393140768766017e-17
-1.429999999999999e+00 -8.256108849411650e-01  3.393140768766017e-17
-1.429999999999999e+00 -8.256108849411650e-01  3.393140768766017e-17
-1.429999999999999e+00 -8.256108849411650e-01  3.393140768766017e-17
-1.429999999999999e+00 -8.256108849411650e-01  3.393140768766017e-17
-1.429999999999999e+00 -8.256108849411650e-01  3.393140768766017e-17
-1.429999999999999e+00 -8.256108849411650e-01  3.393140768766017e-17
-1.429999999999999e+00 -8.256108849411650e-01  3.393140768766017e-17
-1.429999999999999e+00 -8.256108849411650e-01  3.393140768766017e-17
-1.429999999999999e+00 -8.256108849411650e-01  3.393140768766017e-17
-1.429999999999999e+00 -8.256108849411650e-01  3.393140768766017e-17
-1.429999999999999e+00 -8.256108849411650e-01  3.393140768766017e-17
-1.429999999999999e+00 -8.256108849411650e-01  3.393140768766017e-17
-1.429999999999999e+00 -8.256108849411650e-01  3.393140768766017e-17
-1.429999999999999e+00 -8.256108849411650e-01  3.393140768766017e-17
-1.429999999999999e+00 -8.256108849411650e-01  3.393140768766017e-17
-1.429999999999999e+00 -8.256108849411650e-01  3.393140768766017e-17
-1.429999999999999e+00 -8.256108849411650e-01  3.393140768766017e-17
-1.429999999999999e+00 -8.256108849411650e-01  3.393140768766017e-17
-1.429999999999999e+00 -8.256108849411650e-01  3.393140768766017e-17
-1.429999999999999e+00 -8.256108849411650e-01  3.393140768766017e-17
-1.429999999999999e+00 -8.256108849411650e-01  3.393140768766017e-17
-1.429999999999999e+00 -8.256108849411650e-01  3.393140768766017e-17
-1.429999999999999e+00 -8.256108849411650e-01  3.393140768766017e-17
-1.429999999999999e+00 -8.256108849411650e-01  3.393140768766017e-17
-1.429999999999999e+00 -8.256108849411650e-01  3.393140768766017e-17
-1.429999999999999e+00 -8.256108849411650e-01  3.393140768766017e-17
 1.429999999999999e+00  8.256108849411650e-01 -3.393140768766017e-17
-1.429999999999999e+00 -8.256108849411650e-01  3.393140768766017e-17
-1.429999999999999e+00 -8.256108849411650e-01  3.393140768766017e-17
-1.429999999999999e+00 -8.256108849411650e-01  3.393140768766017e-17
-1.429999999999999e+00 -8.256108849411650e-01  3.393140768766017e-17
-1.429999999999999e+00 -8.256108849411650e-01  3.393140768766017e-17
-1.429999999999999e+00 -8.256108849411650e-01  3.393140768766017e-17
-1.429999999999999e+00 -8.256108849411650e-01  3.393140768766017e-17
-1.429999999999999e+00 -8.256108849411650e-01  3.393140768766017e-17
-1.429999999999999e+00 -8.256108849411650e-01  3.393140768766017e-17
-1.429999999999999e+00 -8.256108849411650e-01  3.393140768766017e-17
-1.429999999999999e+00 -8.256108849411650e-01  3.393140768766017e-17
-1.429999999999999e+00 -8.256108849411650e-01  3.393140768766017e-17
-1.429999999999999e+00 -8.256108849411650e-01  3.393140768766017e-17
-1.429999999999999e+00 -8.256108849411650e-01  3.393140768766017e-17
-1.429999999999999e+00 -8.256108849411650e-01  3.393140768766017e-17
-1.429999999999999e+00 -8.256108849411650e-01  3.393140768766017e-17
-1.429999999999999e+00 -8.256108849411650e-01  3.393140768766017e-17
-1.429999999999999e+00 -8.256108849411650e-01  3.393140768766017e-17
-1.429999999999999e+00 -8.256108849411650e-01  3.393140768766017e-17
-1.429999999999999e+00 -8.256108849411650e-01  3.393140768766017e-17
-1.429999999999999e+00 -8.256108849411650e-01  3.393140768766017e-17
-1.429999999999999e+00 -8.256108849411650e-01  3.393140768766017e-17
-1.429999999999999e+00 -8.256108849411650e-01  3.393140768766017e-17
-1.429999999999999e+00 -8.256108849411650e-01  3.393140768766017e-17
-1.429999999999999e+00 -8.256108849411650e-01  3.393140768766017e-17
-1.429999999999999e+00 -8.256108849411650e-01  3.393140768766017e-17
-1.429999999999999e+00 -8.256108849411650e-01  3.393140768766017e-17
-1.429999999999999e+00 -8.256108849411650e-01  3.393140768766017e-17
-1.429999999999999e+00 -8.256108849411650e-01  3.393140768766017e-17
-1.429999999999999e+00 -8.256108849411650e-01  3.393140768766017e-17
-1.429999999999999e+00 -8.256108849411650e-01  3.393140768766017e-17
-1.429999999999999e+00 -8.256108849411650e-01  3.393140768766017e-17
-1.429999999999999e+00 -8.256108849411650e-01  3.393140768766017e-17
-1.429999999999999e+00 -8.256108849411650e-01  3.393140768766017e-17
-1.429999999999999e+00 -8.256108849411650e-01  3.393140768766017e-17
-1.429999999999999e+00 -8.256108849411650e-01  3.393140768766017e-17
-1.429999999999999e+00 -8.256108849411650e-01  3.393140768766017e-17
-1.429999999999999e+00 -8.256108849411650e-01  3.393140768766017e-17
-1.429999999999999e+00 -8.256108849411650e-01  3.393140768766017e-17
-1.429999999999999e+00 -8.256108849411650e-01  3.393140768766017e-17
-1.429999999999999e+00 -8.256108849411650e-01  3.393140768766017e-17
-1.429999999999999e+00 -8.256108849411650e-01  3.393140768766017e-17
-1.429999999999999e+00 -8.256108849411650e-01  3.393140768766017e-17
-1.429999999999999e+00 -8.256108849411650e-01  3.393140768766017e-17
-1.429999999999999e+00 -8.256108849411650e-01  3.393140768766017e-17
-1.429999999999999e+00 -8.256108849411650e-01  3.393140768766017e-17
-1.429999999999999e+00 -8.256108849411650e-01  3.393140768766017e-17
-1.429999999999999e+00 -8.256108849411650e-01  3.393140768766017e-17
-1.429999999999999e+00 -8.256108849411650e-01  3.393140768766017e-17
-1.429999999999999e+00 -8.256108849411650e-01  3.393140768766017e-17
-1.429999999999999e+00 -8.256108849411650e-01  3.393140768766017e-17
-1.429999999999999e+00 -8.256108849411650e-01  3.393140768766017e-17
-1.429999999999999e+00 -8.256108849411650e-01  3.393140768766017e-17
-1.429999999999999e+00 -8.256108849411650e-01  3.393140768766017e-17
-1.429999999999999e+00 -8.256108849411650e-01  3.393140768766017e-17
-1.429999999999999e+00 -8.256108849411650e-01  3.393140768766017e-17
-1.429999999999999e+00 -8.256108849411650e-01  3.393140768766017e-17
-1.429999999999999e+00 -8.256108849411650e-01  3.393140768766017e-17
-1.429999999999999e+00 -8.256108849411650e-01  3.393140768766017e-17
-1.429999999999999e+00 -8.256108849411650e-01  3.393140768766017e-17
-1.429999999999999e+00 -8.256108849411650e-01  3.393140768766017e-17
-1.429999999999999e+00 -8.256108849411650e-01  3.393140768766017e-17
-1.429999999999999e+00 -8.256108849411650e-01  3.393140768766017e-17
-1.429999999999999e+00 -8.256108849411650e-01  3.393140768766017e-17
-1.429999999999999e+00 -8.256108849411650e-01  3.393140768766017e-17
-1.429999999999999e+00 -8.256108849411650e-01  3.393140768766017e-17
-1.429999999999999e+00 -8.256108849411650e-01  3.393140768766017e-17
-1.429999999999999e+00 -8.256108849411650e-01  3.393140768766017e-17
-1.429999999999999e+00 -8.256108849411650e-01  3.393140768766017e-17
-1.429999999999999e+00 -8.256108849411650e-01  3.393140768766017e-17
-1.429999999999999e+00 -8.256108849411650e-01  3.393140768766017e-17
-1.429999999999999e+00 -8.256108849411650e-01  3.393140768766017e-17
-1.429999999999999e+00 -8.256108849411650e-01  3.393140768766017e-17
-1.429999999999999e+00 -8.256108849411650e-01  3.393140768766017e-17
-1.429999999999999e+00 -8.256108849411650e-01  3.393140768766017e-17
-1.429999999999999e+00 -8.256108849411650e-01  3.393140768766017e-17
-1.429999999999999e+00 -8.256108849411650e-01  3.393140768766017e-17
-1.429999999999999e+00 -8.256108849411650e-01  3.393140768766017e-17
-1.429999999999999e+00 -8.256108849411650e-01  3.393140768766017e-17
-1.429999999999999e+00 -8.256108849411650e-01  3.393140768766017e-17
-1.429999999999999e+00 -8.256108849411650e-01  3.393140768766017e-17
-1.429999999999999e+00 -8.256108849411650e-01  3.393140768766017e-17
-1.429999999999999e+00 -8.256108849411650e-01  3.393140768766017e-17
-1.429999999999999e+00 -8.256108849411650e-01  3.393140768766017e-17
-1.429999999999999e+00 -8.256108849411650e-01  3.393140768766017e-17
-1.429999999999999e+00 -8.256108849411650e-01  3.393140768766017e-17
-1.429999999999999e+00 -8.256108849411650e-01  3.393140768766017e-17
-1.429999999999999e+00 -8.256108849411650e-01  3.393140768766017e-17
-1.429999999999999e+00 -8.256108849411650e-01  3.393140768766017e-17
-1.429999999999999e+00 -8.256108849411650e-01  3.393140768766017e-17
-1.429999999999999e+00 -8.256108849411650e-01  3.393140768766017e-17
-1.429999999999999e+00 -8.256108849411650e-01  3.393140768766017e-17
-1.429999999999999e+00 -8.256108849411650e-01  3.393140768766017e-17
-1.429999999999999e+00 -8.256108849411650e-01  3.393140768766017e-17
-1.429999999999999e+00 -8.256108849411650e-01  3.393140768766017e-17
-1.429999999999999e+00 -8.256108849411650e-01  3.393140768766017e-17
-1.429999999999999e+00 -8.256108849411650e-01  3.393140768766017e-17
-1.429999999999999e+00 -8.256108849411650e-01  3.393140768766017e-17
-1.429999999999999e+00 -8.256108849411650e-01  3.393140768766017e-17
-1.429999999999999e+00 -8.256108849411650e-01  3.393140768766017e-17
-1.429999999999999e+00 -8.256108849411650e-01  3.393140768766017e-17
-1.429999999999999e+00 -8.256108849411650e-01  3.393140768766017e-17
-1.429999999999999e+00 -8.256108849411650e-01  3.393140768766017e-17
-1.429999999999999e+00 -8.256108849411650e-01  3.393140768766017e-17
-1.429999999999999e+00 -8.256108849411650e-01  3.393140768766017e-17
-1.429999999999999e+00 -8.256108849411650e-01  3.393140768766017e-17
-1.429999999999999e+00 -8.256108849411650e-01  3.393140768766017e-17
-1.429999999999999e+00 -8.256108849411650e-01  3.393140768766017e-17
-1.429999999999999e+00 -8.256108849411650e-01  3.393140768766017e-17
-1.429999999999999e+00 -8.256108849411650e-01  3.393140768766017e-17
-1.429999999999999e+00 -8.256108849411650e-01  3.393140768766017e-17
-1.429999999999999e+00 -8.256108849411650e-01  3.393140768766017e-17
-1.429999999999999e+00 -8.256108849411650e-01  3.393140768766017e-17
-1.429999999999999e+00 -8.256108849411650e-01  3.393140768766017e-17
-1.429999999999999e+00 -8.256108849411650e-01  3.393140768766017e-17
-1.429999999999999e+00 -8.256108849411650e-01  3.393140768766017e-17
-1.429999999999999e+00 -8.256108849411650e-01  3.393140768766017e-17
-1.429999999999999e+00 -8.256108849411650e-01  3.393140768766017e-17
-1.429999999999999e+00 -8.256108849411650e-01  3.393140768766017e-17
-1.429999999999999e+00 -8.256108849411650e-01  3.393140768766017e-17
-1.429999999999999e+00 -8.256108849411650e-01  3.393140768766017e-17
-1.429999999999999e+00 -8.256108849411650e-01  3.393140768766017e-17
-1.429999999999999e+00 -8.256108849411650e-01  3.393140768766017e-17
-1.429999999999999e+00 -8.256108849411650e-01  3.393140768766017e-17
-1.429999999999999e+00 -8.256108849411650e-01  3.393140768766017e-17
-1.429999999999999e+00 -8.256108849411650e-01  3.393140768766017e-17
-1.429999999999999e+00 -8.256108849411650e-01  3.393140768766017e-17
-1.429999999999999e+00 -8.256108849411650e-01  3.393140768766017e-17
-1.429999999999999e+00 -8.256108849411650e-01  3.393140768766017e-17
-1.429999999999999e+00 -8.256108849411650e-01  3.393140768766017e-17
-1.429999999999999e+00 -8.256108849411650e-01  3.393140768766017e-17
-1.429999999999999e+00 -8.256108849411650e-01  3.393140768766017e-17
-1.429999999999999e+00 -8.256108849411650e-01  3.393140768766017e-17
-1.429999999999999e+00 -8.256108849411650e-01  3.393140768766017e-17
-1.429999999999999e+00 -8.256108849411650e-01  3.393140768766017e-17
-1.429999999999999e+00 -8.256108849411650e-01  3.393140768766017e-17
-1.429999999999999e+00 -8.256108849411650e-01  3.393140768766017e-17
-1.429999999999999e+00 -8.256108849411650e-01  3.393140768766017e-17
-1.429999999999999e+00 -8.256108849411650e-01  3.393140768766017e-17
-1.429999999999999e+00 -8.256108849411650e-01  3.393140768766017e-17
-1.429999999999999e+00 -8.256108849411650e-01  3.393140768766017e-17
-1.429999999999999e+00 -8.256108849411650e-01  3.393140768766017e-17
-1.429999999999999e+00 -8.256108849411650e-01  3.393140768766017e-17
-1.429999999999999e+00 -8.256108849411650e-01  3.393140768766017e-17
-1.429999999999999e+00 -8.256108849411650e-01  3.393140768766017e-17
-1.429999999999999e+00 -8.256108849411650e-01  3.393140768766017e-17
-1.429999999999999e+00 -8.256108849411650e-01  3.393140768766017e-17
-1.429999999999999e+00 -8.256108849411650e-01  3.393140768766017e-17
-1.429999999999999e+00 -8.256108849411650e-01  3.393140768766017e-17
-1.429999999999999e+00 -8.256108849411650e-01  3.393140768766017e-17
-1.429999999999999e+00 -8.256108849411650e-01  3.393140768766017e-17
-1.429999999999999e+00 -8.256108849411650e-01  3.393140768766017e-17
-1.429999999999999e+00 -8.256108849411650e-01  3.393140768766017e-17
-1.429999999999999e+00 -8.256108849411650e-01  3.393140768766017e-17
-1.429999999999999e+00 -8.256108849411650e-01  3.393140768766017e-17
-1.429999999999999e+00 -8.256108849411650e-01  3.393140768766017e-17
-1.429999999999999e+00 -8.256108849411650e-01  3.393140768766017e-17
-1.429999999999999e+00 -8.256108849411650e-01  3.393140768766017e-17
-1.429999999999999e+00 -8.256108849411650e-01  3.393140768766017e-17
-1.429999999999999e+00 -8.256108849411650e-01  3.393140768766017e-17
-1.429999999999999e+00 -8.256108849411650e-01  3.393140768766017e-17
-1.429999999999999e+00 -8.256108849411650e-01  3.393140768766017e-17
-1.429999999999999e+00 -8.256108849411650e-01  3.393140768766017e-17
-1.429999999999999e+00 -8.256108849411650e-01  3.393140768766017e-17
-1.429999999999999e+00 -8.256108849411650e-01  3.393140768766017e-17
-1.429999999999999e+00 -8.256108849411650e-01  3.393140768766017e-17
-1.429999999999999e+00 -8.256108849411650e-01  3.393140768766017e-17
-1.429999999999999e+00 -8.256108849411650e-01  3.393140768766017e-17
-1.429999999999999e+00 -8.256108849411650e-01  3.393140768766017e-17
-1.429999999999999e+00 -8.256108849411650e-01  3.393140768766017e-17
-1.429999999999999e+00 -8.256108849411650e-01  3.393140768766017e-17
-1.429999999999999e+00 -8.256108849411650e-01  3.393140768766017e-17
-1.429999999999999e+00 -8.256108849411650e-01  3.393140768766017e-17
-1.429999999999999e+00 -8.256108849411650e-01  3.393140768766017e-17
-1.429999999999999e+00 -8.256108849411650e-01  3.393140768766017e-17
-1.429999999999999e+00 -8.256108849411650e-01  3.393140768766017e-17
-1.429999999999999e+00 -8.256108849411650e-01  3.393140768766017e-17
-1.429999999999999e+00 -8.256108849411650e-01  3.393140768766017e-17
-1.429999999999999e+00 -8.256108849411650e-01  3.393140768766017e-17
-1.429999999999999e+00 -8.256108849411650e-01  3.393140768766017e-17
-1.429999999999999e+00 -8.256108849411650e-01  3.393140768766017e-17
-1.429999999999999e+00 -8.256108849411650e-01  3.393140768766017e-17
-1.429999999999999e+00 -8.256108849411650e-01  3.393140768766017e-17
-1.429999999999999e+00 -8.256108849411650e-01  3.393140768766017e-17
-1.429999999999999e+00 -8.256108849411650e-01  3.393140768766017e-17
-1.429999999999999e+00 -8.256108849411650e-01  3.393140768766017e-17
-1.429999999999999e+00 -8.256108849411650e-01  3.393140768766017e-17
-1.429999999999999e+00 -8.256108849411650e-01  3.393140768766017e-17
-1.429999999999999e+00 -8.256108849411650e-01  3.393140768766017e-17
-1.429999999999999e+00 -8.256108849411650e-01  3.393140768766017e-17
-1.429999999999999e+00 -8.256108849411650e-01  3.393140768766017e-17
-1.429999999999999e+00 -8.256108849411650e-01  3.393140768766017e-17
-1.429999999999999e+00 -8.256108849411650e-01  3.393140768766017e-17
-1.429999999999999e+00 -8.256108849411650e-01  3.393140768766017e-17
-1.429999999999999e+00 -8.256108849411650e-01  3.393140768766017e-17
-1.429999999999999e+00 -8.256108849411650e-01  3.393140768766017e-17
-1.429999999999999e+00 -8.256108849411650e-01  3.393140768766017e-17
-1.429999999999999e+00 -8.256108849411650e-01  3.393140768766017e-17
-1.429999999999999e+00 -8.256108849411650e-01  3.393140768766017e-17
-1.429999999999999e+00 -8.256108849411650e-01  3.393140768766017e-17
 1.429999999999999e+00  8.256108849411650e-01 -3.393140768766017e-17
-1.429999999999999e+00 -8.256108849411650e-01  3.393140768766017e-17
 1.429999999999999e+00  8.256108849411650e-01 -3.393140768766017e-17
 1.429999999999999e+00  8.256108849411650e-01 -3.393140768766017e-17
 1.429999999999999e+00  8.256108849411650e-01 -3.393140768766017e-17
 1.429999999999999e+00  8.256108849411650e-01 -3.393140768766017e-17
 1.429999999999999e+00  8.256108849411650e-01 -3.393140768766017e-17
 1.429999999999999e+00  8.256108849411650e-01 -3.393140768766017e-17
 1.429999999999999e+00  8.256108849411650e-01 -3.393140768766017e-17
 1.429999999999999e+00  8.256108849411650e-01 -3.393140768766017e-17
 1.429999999999999e+00  8.256108849411650e-01 -3.393140768766017e-17
 1.429999999999999e+00  8.256108849411650e-01 -3.393140768766017e-17
 1.429999999999999e+00  8.256108849411650e-01 -3.393140768766017e-17
 1.429999999999999e+00  8.256108849411650e-01 -3.393140768766017e-17
 1.429999999999999e+00  8.256108849411650e-01 -3.393140768766017e-17
 1.429999999999999e+00  8.256108849411650e-01 -3.393140768766017e-17
 1.429999999999999e+00  8.256108849411650e-01 -3.393140768766017e-17
 1.429999999999999e+00  8.256108849411650e-01 -3.393140768766017e-17
 1.429999999999999e+00  8.256108849411650e-01 -3.393140768766017e-17
 1.429999999999999e+00  8.256108849411650e-01 -3.393140768766017e-17
 1.429999999999999e+00  8.256108849411650e-01 -3.393140768766017e-17
 1.429999999999999e+00  8.256108849411650e-01 -3.393140768766017e-17
 1.429999999999999e+00  8.256108849411650e-01 -3.393140768766017e-17
 1.429999999999999e+00  8.256108849411650e-01 -3.393140768766017e-17
 1.429999999999999e+00  8.256108849411650e-01 -3.393140768766017e-17
 1.429999999999999e+00  8.256108849411650e-01 -3.393140768766017e-17
 1.429999999999999e+00  8.256108849411650e-01 -3.393140768766017e-17
 1.429999999999999e+00  8.256108849411650e-01 -3.393140768766017e-17
 1.429999999999999e+00  8.256108849411650e-01 -3.393140768766017e-17
 1.429999999999999e+00  8.256108849411650e-01 -3.393140768766017e-17
 1.429999999999999e+00  8.256108849411650e-01 -3.393140768766017e-17
 1.429999999999999e+00  8.256108849411650e-01 -3.393140768766017e-17
 1.429999999999999e+00  8.256108849411650e-01 -3.393140768766017e-17
 1.429999999999999e+00  8.256108849411650e-01 -3.393140768766017e-17
 1.429999999999999e+00  8.256108849411650e-01 -3.393140768766017e-17
 1.429999999999999e+00  8.256108849411650e-01 -3.393140768766017e-17
 1.429999999999999e+00  8.256108849411650e-01 -3.393140768766017e-17
 1.429999999999999e+00  8.256108849411650e-01 -3.393140768766017e-17
 1.429999999999999e+00  8.256108849411650e-01 -3.393140768766017e-17
 1.429999999999999e+00  8.256108849411650e-01 -3.393140768766017e-17
 1.429999999999999e+00  8.256108849411650e-01 -3.393140768766017e-17
 1.429999999999999e+00  8.256108849411650e-01 -3.393140768766017e-17
 1.429999999999999e+00  8.256108849411650e-01 -3.393140768766017e-17
 1.429999999999999e+00  8.256108849411650e-01 -3.393140768766017e-17
 1.429999999999999e+00  8.256108849411650e-01 -3.393140768766017e-17
 1.429999999999999e+00  8.256108849411650e-01 -3.393140768766017e-17
 1.429999999999999e+00  8.256108849411650e-01 -3.393140768766017e-17
 1.429999999999999e+00  8.256108849411650e-01 -3.393140768766017e-17
 1.429999999999999e+00  8.256108849411650e-01 -3.393140768766017e-17
 1.429999999999999e+00  8.256108849411650e-01 -3.393140768766017e-17
 1.429999999999999e+00  8.256108849411650e-01 -3.393140768766017e-17
 1.429999999999999e+00  8.256108849411650e-01 -3.393140768766017e-17
 1.429999999999999e+00  8.256108849411650e-01 -3.393140768766017e-17
 1.429999999999999e+00  8.256108849411650e-01 -3.393140768766017e-17
 1.429999999999999e+00  8.256108849411650e-01 -3.393140768766017e-17
 1.429999999999999e+00  8.256108849411650e-01 -3.393140768766017e-17
 1.429999999999999e+00  8.256108849411650e-01 -3.393140768766017e-17
 1.429999999999999e+00  8.256108849411650e-01 -3.393140768766017e-17
 1.429999999999999e+00  8.256108849411650e-01 -3.393140768766017e-17
 1.429999999999999e+00  8.256108849411650e-01 -3.393140768766017e-17
 1.429999999999999e+00  8.256108849411650e-01 -3.393140768766017e-17
 1.429999999999999e+00  8.256108849411650e-01 -3.393140768766017e-17
 1.429999999999999e+00  8.256108849411650e-01 -3.393140768766017e-17
 1.429999999999999e+00  8.256108849411650e-01 -3.393140768766017e-17
 1.429999999999999e+00  8.256108849411650e-01 -3.393140768766017e-17
 1.429999999999999e+00  8.256108849411650e-01 -3.393140768766017e-17
 1.429999999999999e+00  8.256108849411650e-01 -3.393140768766017e-17
 1.429999999999999e+00  8.256108849411650e-01 -3.393140768766017e-17
 1.429999999999999e+00  8.256108849411650e-01 -3.393140768766017e-17
 1.429999999999999e+00  8.256108849411650e-01 -3.393140768766017e-17
 1.429999999999999e+00  8.256108849411650e-01 -3.393140768766017e-17
 1.429999999999999e+00  8.256108849411650e-01 -3.393140768766017e-17
 1.429999999999999e+00  8.256108849411650e-01 -3.393140768766017e-17
 1.429999999999999e+00  8.256108849411650e-01 -3.393140768766017e-17
 1.429999999999999e+00  8.256108849411650e-01 -3.393140768766017e-17
 1.429999999999999e+00  8.256108849411650e-01 -3.393140768766017e-17
 1.429999999999999e+00  8.256108849411650e-01 -3.393140768766017e-17
 1.429999999999999e+00  8.256108849411650e-01 -3.393140768766017e-17
 1.429999999999999e+00  8.256108849411650e-01 -3.393140768766017e-17
 1.429999999999999e+00  8.256108849411650e-01 -3.393140768766017e-17
 1.429999999999999e+00  8.256108849411650e-01 -3.393140768766017e-17
 1.429999999999999e+00  8.256108849411650e-01 -3.393140768766017e-17
 1.429999999999999e+00  8.256108849411650e-01 -3.393140768766017e-17
 1.429999999999999e+00  8.256108849411650e-01 -3.393140768766017e-17
 1.429999999999999e+00  8.256108849411650e-01 -3.393140768766017e-17
 1.429999999999999e+00  8.256108849411650e-01 -3.393140768766017e-17
 1.429999999999999e+00  8.256108849411650e-01 -3.393140768766017e-17
 1.429999999999999e+00  8.256108849411650e-01 -3.393140768766017e-17
 1.429999999999999e+00  8.256108849411650e-01 -3.393140768766017e-17
 1.429999999999999e+00  8.256108849411650e-01 -3.393140768766017e-17
 1.429999999999999e+00  8.256108849411650e-01 -3.393140768766017e-17
 1.429999999999999e+00  8.256108849411650e-01 -3.393140768766017e-17
 1.429999999999999e+00  8.256108849411650e-01 -3.393140768766017e-17
 1.429999999999999e+00  8.256108849411650e-01 -3.393140768766017e-17
 1.429999999999999e+00  8.256108849411650e-01 -3.393140768766017e-17
 1.429999999999999e+00  8.256108849411650e-01 -3.393140768766017e-17
 1.429999999999999e+00  8.256108849411650e-01 -3.393140768766017e-17
 1.429999999999999e+00  8.256108849411650e-01 -3.393140768766017e-17
 1.429999999999999e+00  8.256108849411650e-01 -3.393140768766017e-17
 1.429999999999999e+00  8.256108849411650e-01 -3.393140768766017e-17
 1.429999999999999e+00  8.256108849411650e-01 -3.393140768766017e-17
 1.429999999999999e+00  8.256108849411650e-01 -3.393140768766017e-17
 1.429999999999999e+00  8.256108849411650e-01 -3.393140768766017e-17
 1.429999999999999e+00  8.256108849411650e-01 -3.393140768766017e-17
 1.429999999999999e+00  8.256108849411650e-01 -3.393140768766017e-17
 1.429999999999999e+00  8.256108849411650e-01 -3.393140768766017e-17
 1.429999999999999e+00  8.256108849411650e-01 -3.393140768766017e-17
 1.429999999999999e+00  8.256108849411650e-01 -3.393140768766017e-17
 1.429999999999999e+00  8.256108849411650e-01 -3.393140768766017e-17
 1.429999999999999e+00  8.256108849411650e-01 -3.393140768766017e-17
 1.429999999999999e+00  8.256108849411650e-01 -3.393140768766017e-17
 1.429999999999999e+00  8.256108849411650e-01 -3.393140768766017e-17
 1.429999999999999e+00  8.256108849411650e-01 -3.393140768766017e-17
 1.429999999999999e+00  8.256108849411650e-01 -3.393140768766017e-17
 1.429999999999999e+00  8.256108849411650e-01 -3.393140768766017e-17
 1.429999999999999e+00  8.256108849411650e-01 -3.393140768766017e-17
 1.429999999999999e+00  8.256108849411650e-01 -3.393140768766017e-17
 1.429999999999999e+00  8.256108849411650e-01 -3.393140768766017e-17
 1.429999999999999e+00  8.256108849411650e-01 -3.393140768766017e-17
 1.429999999999999e+00  8.256108849411650e-01 -3.393140768766017e-17
 1.429999999999999e+00  8.256108849411650e-01 -3.393140768766017e-17
 1.429999999999999e+00  8.256108849411650e-01 -3.393140768766017e-17
 1.429999999999999e+00  8.256108849411650e-01 -3.393140768766017e-17
 1.429999999999999e+00  8.256108849411650e-01 -3.393140768766017e-17
 1.429999999999999e+00  8.256108849411650e-01 -3.393140768766017e-17
 1.429999999999999e+00  8.256108849411650e-01 -3.393140768766017e-17
 1.429999999999999e+00  8.256108849411650e-01 -3.393140768766017e-17
 1.429999999999999e+00  8.256108849411650e-01 -3.393140768766017e-17
 1.429999999999999e+00  8.256108849411650e-01 -3.393140768766017e-17
 1.429999999999999e+00  8.256108849411650e-01 -3.393140768766017e-17
 1.429999999999999e+00  8.256108849411650e-01 -3.393140768766017e-17
 1.429999999999999e+00  8.256108849411650e-01 -3.393140768766017e-17
 1.429999999999999e+00  8.256108849411650e-01 -3.393140768766017e-17
 1.429999999999999e+00  8.256108849411650e-01 -3.393140768766017e-17
 1.429999999999999e+00  8.256108849411650e-01 -3.393140768766017e-17
 1.429999999999999e+00  8.256108849411650e-01 -3.393140768766017e-17
 1.429999999999999e+00  8.256108849411650e-01 -3.393140768766017e-17
 1.429999999999999e+00  8.256108849411650e-01 -3.393140768766017e-17
 1.429999999999999e+00  8.256108849411650e-01 -3.393140768766017e-17
 1.429999999999999e+00  8.256108849411650e-01 -3.393140768766017e-17
 1.429999999999999e+00  8.256108849411650e-01 -3.393140768766017e-17
 1.429999999999999e+00  8.256108849411650e-01 -3.393140768766017e-17
 1.429999999999999e+00  8.256108849411650e-01 -3.393140768766017e-17
 1.429999999999999e+00  8.256108849411650e-01 -3.393140768766017e-17
 1.429999999999999e+00  8.256108849411650e-01 -3.393140768766017e-17
 1.429999999999999e+00  8.256108849411650e-01 -3.393140768766017e-17
 1.429999999999999e+00  8.256108849411650e-01 -3.393140768766017e-17
 1.429999999999999e+00  8.256108849411650e-01 -3.393140768766017e-17
 1.429999999999999e+00  8.256108849411650e-01 -3.393140768766017e-17
 1.429999999999999e+00  8.256108849411650e-01 -3.393140768766017e-17
 1.429999999999999e+00  8.256108849411650e-01 -3.393140768766017e-17
 1.429999999999999e+00  8.256108849411650e-01 -3.393140768766017e-17
 1.429999999999999e+00  8.256108849411650e-01 -3.393140768766017e-17
 1.429999999999999e+00  8.256108849411650e-01 -3.393140768766017e-17
 1.429999999999999e+00  8.256108849411650e-01 -3.393140768766017e-17
 1.429999999999999e+00  8.256108849411650e-01 -3.393140768766017e-17
 1.429999999999999e+00  8.256108849411650e-01 -3.393140768766017e-17
 1.429999999999999e+00  8.256108849411650e-01 -3.393140768766017e-17
 1.429999999999999e+00  8.256108849411650e-01 -3.393140768766017e-17
 1.429999999999999e+00  8.256108849411650e-01 -3.393140768766017e-17
 1.429999999999999e+00  8.256108849411650e-01 -3.393140768766017e-17
 1.429999999999999e+00  8.256108849411650e-01 -3.393140768766017e-17
 1.429999999999999e+00  8.256108849411650e-01 -3.393140768766017e-17
 1.429999999999999e+00  8.256108849411650e-01 -3.393140768766017e-17
 1.429999999999999e+00  8.256108849411650e-01 -3.393140768766017e-17
 1.429999999999999e+00  8.256108849411650e-01 -3.393140768766017e-17
 1.429999999999999e+00  8.256108849411650e-01 -3.393140768766017e-17
 1.429999999999999e+00  8.256108849411650e-01 -3.393140768766017e-17
 1.429999999999999e+00  8.256108849411650e-01 -3.393140768766017e-17
 1.429999999999999e+00  8.256108849411650e-01 -3.393140768766017e-17
 1.429999999999999e+00  8.256108849411650e-01 -3.393140768766017e-17
 1.429999999999999e+00  8.256108849411650e-01 -3.393140768766017e-17
 1.429999999999999e+00  8.256108849411650e-01 -3.393140768766017e-17
 1.429999999999999e+00  8.256108849411650e-01 -3.393140768766017e-17
 1.429999999999999e+00  8.256108849411650e-01 -3.393140768766017e-17
 1.429999999999999e+00  8.256108849411650e-01 -3.393140768766017e-17
 1.429999999999999e+00  8.256108849411650e-01 -3.393140768766017e-17
 1.429999999999999e+00  8.256108849411650e-01 -3.393140768766017e-17
 1.429999999999999e+00  8.256108849411650e-01 -3.393140768766017e-17
 1.429999999999999e+00  8.256108849411650e-01 -3.393140768766017e-17
 1.429999999999999e+00  8.256108849411650e-01 -3.393140768766017e-17
 1.429999999999999e+00  8.256108849411650e-01 -3.393140768766017e-17
 1.429999999999999e+00  8.256108849411650e-01 -3.393140768766017e-17
 1.429999999999999e+00  8.256108849411650e-01 -3.393140768766017e-17
 1.429999999999999e+00  8.256108849411650e-01 -3.393140768766017e-17
 1.429999999999999e+00  8.256108849411650e-01 -3.393140768766017e-17
 1.429999999999999e+00  8.256108849411650e-01 -3.393140768766017e-17
 1.429999999999999e+00  8.256108849411650e-01 -3.393140768766017e-17
 1.429999999999999e+00  8.256108849411650e-01 -3.393140768766017e-17
 1.429999999999999e+00  8.256108849411650e-01 -3.393140768766017e-17
 1.429999999999999e+00  8.256108849411650e-01 -3.393140768766017e-17
 1.429999999999999e+00  8.256108849411650e-01 -3.393140768766017e-17
 1.429999999999999e+00  8.256108849411650e-01 -3.393140768766017e-17
 1.429999999999999e+00  8.256108849411650e-01 -3.393140768766017e-17
-1.429999999999999e+00 -8.256108849411650e-01  3.393140768766017e-17
 1.429999999999999e+00  8.256108849411650e-01 -3.393140768766017e-17
 1.429999999999999e+00  8.256108849411650e-01 -3.393140768766017e-17
 1.429999999999999e+00  8.256108849411650e-01 -3.393140768766017e-17
 1.429999999999999e+00  8.256108849411650e-01 -3.393140768766017e-17
 1.429999999999999e+00  8.256108849411650e-01 -3.393140768766017e-17
 1.429999999999999e+00  8.256108849411650e-01 -3.393140768766017e-17
 1.429999999999999e+00  8.256108849411650e-01 -3.393140768766017e-17
 1.429999999999999e+00  8.256108849411650e-01 -3.393140768766017e-17
 1.429999999999999e+00  8.256108849411650e-01 -3.393140768766017e-17
 1.429999999999999e+00  8.256108849411650e-01 -3.393140768766017e-17
 1.429999999999999e+00  8.256108849411650e-01 -3.393140768766017e-17
 1.429999999999999e+00  8.256108849411650e-01 -3.393140768766017e-17
 1.429999999999999e+00  8.256108849411650e-01 -3.393140768766017e-17
 1.429999999999999e+00  8.256108849411650e-01 -3.393140768766017e-17
 1.429999999999999e+00  8.256108849411650e-01 -3.393140768766017e-17
 1.429999999999999e+00  8.256108849411650e-01 -3.393140768766017e-17
 1.429999999999999e+00  8.256108849411650e-01 -3.393140768766017e-17
 1.429999999999999e+00  8.256108849411650e-01 -3.393140768766017e-17
 1.429999999999999e+00  8.256108849411650e-01 -3.393140768766017e-17
 1.429999999999999e+00  8.256108849411650e-01 -3.393140768766017e-17
 1.429999999999999e+00  8.256108849411650e-01 -3.393140768766017e-17
 1.429999999999999e+00  8.256108849411650e-01 -3.393140768766017e-17
 1.429999999999999e+00  8.256108849411650e-01 -3.393140768766017e-17
 1.429999999999999e+00  8.256108849411650e-01 -3.393140768766017e-17
 1.429999999999999e+00  8.256108849411650e-01 -3.393140768766017e-17
 1.429999999999999e+00  8.256108849411650e-01 -3.393140768766017e-17
 1.429999999999999e+00  8.256108849411650e-01 -3.393140768766017e-17
 1.429999999999999e+00  8.256108849411650e-01 -3.393140768766017e-17
 1.429999999999999e+00  8.256108849411650e-01 -3.393140768766017e-17
 1.429999999999999e+00  8.256108849411650e-01 -3.393140768766017e-17
 1.429999999999999e+00  8.256108849411650e-01 -3.393140768766017e-17
 1.429999999999999e+00  8.256108849411650e-01 -3.393140768766017e-17
 1.429999999999999e+00  8.256108849411650e-01 -3.393140768766017e-17
 1.429999999999999e+00  8.256108849411650e-01 -3.393140768766017e-17
 1.429999999999999e+00  8.256108849411650e-01 -3.393140768766017e-17
 1.429999999999999e+00  8.256108849411650e-01 -3.393140768766017e-17
 1.429999999999999e+00  8.256108849411650e-01 -3.393140768766017e-17
 1.429999999999999e+00  8.256108849411650e-01 -3.393140768766017e-17
 1.429999999999999e+00  8.256108849411650e-01 -3.393140768766017e-17
 1.429999999999999e+00  8.256108849411650e-01 -3.393140768766017e-17
 1.429999999999999e+00  8.256108849411650e-01 -3.393140768766017e-17
 1.429999999999999e+00  8.256108849411650e-01 -3.393140768766017e-17
 1.429999999999999e+00  8.256108849411650e-01 -3.393140768766017e-17
 1.429999999999999e+00  8.256108849411650e-01 -3.393140768766017e-17
 1.429999999999999e+00  8.256108849411650e-01 -3.393140768766017e-17
 1.429999999999999e+00  8.256108849411650e-01 -3.393140768766017e-17
 1.429999999999999e+00  8.256108849411650e-01 -3.393140768766017e-17
 1.429999999999999e+00  8.256108849411650e-01 -3.393140768766017e-17
 1.429999999999999e+00  8.256108849411650e-01 -3.393140768766017e-17
 1.429999999999999e+00  8.256108849411650e-01 -3.393140768766017e-17
 1.429999999999999e+00  8.256108849411650e-01 -3.393140768766017e-17
 1.429999999999999e+00  8.256108849411650e-01 -3.393140768766017e-17
 1.429999999999999e+00  8.256108849411650e-01 -3.393140768766017e-17
 1.429999999999999e+00  8.256108849411650e-01 -3.393140768766017e-17
 1.429999999999999e+00  8.256108849411650e-01 -3.393140768766017e-17
 1.429999999999999e+00  8.256108849411650e-01 -3.393140768766017e-17
 1.429999999999999e+00  8.256108849411650e-01 -3.393140768766017e-17
 1.429999999999999e+00  8.256108849411650e-01 -3.393140768766017e-17
 1.429999999999999e+00  8.256108849411650e-01 -3.393140768766017e-17
 1.429999999999999e+00  8.256108849411650e-01 -3.393140768766017e-17
 1.429999999999999e+00  8.256108849411650e-01 -3.393140768766017e-17
 1.429999999999999e+00  8.256108849411650e-01 -3.393140768766017e-17
 1.429999999999999e+00  8.256108849411650e-01 -3.393140768766017e-17
 1.429999999999999e+00  8.256108849411650e-01 -3.393140768766017e-17
 1.429999999999999e+00  8.256108849411650e-01 -3.393140768766017e-17
 1.429999999999999e+00  8.256108849411650e-01 -3.393140768766017e-17
 1.429999999999999e+00  8.256108849411650e-01 -3.393140768766017e-17
 1.429999999999999e+00  8.256108849411650e-01 -3.393140768766017e-17
 1.429999999999999e+00  8.256108849411650e-01 -3.393140768766017e-17
 1.429999999999999e+00  8.256108849411650e-01 -3.393140768766017e-17
 1.429999999999999e+00  8.256108849411650e-01 -3.393140768766017e-17
 1.429999999999999e+00  8.256108849411650e-01 -3.393140768766017e-17
 1.429999999999999e+00  8.256108849411650e-01 -3.393140768766017e-17
 1.429999999999999e+00  8.256108849411650e-01 -3.393140768766017e-17
 1.429999999999999e+00  8.256108849411650e-01 -3.393140768766017e-17
 1.429999999999999e+00  8.256108849411650e-01 -3.393140768766017e-17
 1.429999999999999e+00  8.256108849411650e-01 -3.393140768766017e-17
 1.429999999999999e+00  8.256108849411650e-01 -3.393140768766017e-17
 1.429999999999999e+00  8.256108849411650e-01 -3.393140768766017e-17
 1.429999999999999e+00  8.256108849411650e-01 -3.393140768766017e-17
 1.429999999999999e+00  8.256108849411650e-01 -3.393140768766017e-17
 1.429999999999999e+00  8.256108849411650e-01 -3.393140768766017e-17
 1.429999999999999e+00  8.256108849411650e-01 -3.393140768766017e-17
 1.429999999999999e+00  8.256108849411650e-01 -3.393140768766017e-17
 1.429999999999999e+00  8.256108849411650e-01 -3.393140768766017e-17
 1.429999999999999e+00  8.256108849411650e-01 -3.393140768766017e-17
 1.429999999999999e+00  8.256108849411650e-01 -3.393140768766017e-17
 1.429999999999999e+00  8.256108849411650e-01 -3.393140768766017e-17
 1.429999999999999e+00  8.256108849411650e-01 -3.393140768766017e-17
 1.429999999999999e+00  8.256108849411650e-01 -3.393140768766017e-17
 1.429999999999999e+00  8.256108849411650e-01 -3.393140768766017e-17
 1.429999999999999e+00  8.256108849411650e-01 -3.393140768766017e-17
 1.429999999999999e+00  8.256108849411650e-01 -3.393140768766017e-17
 1.429999999999999e+00  8.256108849411650e-01 -3.393140768766017e-17
 1.429999999999999e+00  8.256108849411650e-01 -3.393140768766017e-17
 1.429999999999999e+00  8.256108849411650e-01 -3.393140768766017e-17
 1.429999999999999e+00  8.256108849411650e-01 -3.393140768766017e-17
 1.429999999999999e+00  8.256108849411650e-01 -3.393140768766017e-17
 1.429999999999999e+00  8.256108849411650e-01 -3.393140768766017e-17
 1.429999999999999e+00  8.256108849411650e-01 -3.393140768766017e-17
 1.429999999999999e+00  8.256108849411650e-01 -3.393140768766017e-17
 1.429999999999999e+00  8.256108849411650e-01 -3.393140768766017e-17
 1.429999999999999e+00  8.256108849411650e-01 -3.393140768766017e-17
 1.429999999999999e+00  8.256108849411650e-01 -3.393140768766017e-17
 1.429999999999999e+00  8.256108849411650e-01 -3.393140768766017e-17
 1.429999999999999e+00  8.256108849411650e-01 -3.393140768766017e-17
 1.429999999999999e+00  8.256108849411650e-01 -3.393140768766017e-17
 1.429999999999999e+00  8.256108849411650e-01 -3.393140768766017e-17
 1.429999999999999e+00  8.256108849411650e-01 -3.393140768766017e-17
 1.429999999999999e+00  8.256108849411650e-01 -3.393140768766017e-17
 1.429999999999999e+00  8.256108849411650e-01 -3.393140768766017e-17
 1.429999999999999e+00  8.256108849411650e-01 -3.393140768766017e-17
 1.429999999999999e+00  8.256108849411650e-01 -3.393140768766017e-17
 1.429999999999999e+00  8.256108849411650e-01 -3.393140768766017e-17
 1.429999999999999e+00  8.256108849411650e-01 -3.393140768766017e-17
 1.429999999999999e+00  8.256108849411650e-01 -3.393140768766017e-17
 1.429999999999999e+00  8.256108849411650e-01 -3.393140768766017e-17
 1.429999999999999e+00  8.256108849411650e-01 -3.393140768766017e-17
 1.429999999999999e+00  8.256108849411650e-01 -3.393140768766017e-17
 1.429999999999999e+00  8.256108849411650e-01 -3.393140768766017e-17
 1.429999999999999e+00  8.256108849411650e-01 -3.393140768766017e-17
 1.429999999999999e+00  8.256108849411650e-01 -3.393140768766017e-17
 1.429999999999999e+00  8.256108849411650e-01 -3.393140768766017e-17
 1.429999999999999e+00  8.256108849411650e-01 -3.393140768766017e-17
 1.429999999999999e+00  8.256108849411650e-01 -3.393140768766017e-17
 1.429999999999999e+00  8.256108849411650e-01 -3.393140768766017e-17
 1.429999999999999e+00  8.256108849411650e-01 -3.393140768766017e-17
 1.429999999999999e+00  8.256108849411650e-01 -3.393140768766017e-17
 1.429999999999999e+00  8.256108849411650e-01 -3.393140768766017e-17
 1.429999999999999e+00  8.256108849411650e-01 -3.393140768766017e-17
 1.429999999999999e+00  8.256108849411650e-01 -3.393140768766017e-17
 1.429999999999999e+00  8.256108849411650e-01 -3.393140768766017e-17
 1.429999999999999e+00  8.256108849411650e-01 -3.393140768766017e-17
 1.429999999999999e+00  8.256108849411650e-01 -3.393140768766017e-17
 1.429999999999999e+00  8.256108849411650e-01 -3.393140768766017e-17
 1.429999999999999e+00  8.256108849411650e-01 -3.393140768766017e-17
 1.429999999999999e+00  8.256108849411650e-01 -3.393140768766017e-17
 1.429999999999999e+00  8.256108849411650e-01 -3.393140768766017e-17
 1.429999999999999e+00  8.256108849411650e-01 -3.393140768766017e-17
 1.429999999999999e+00  8.256108849411650e-01 -3.393140768766017e-17
 1.429999999999999e+00  8.256108849411650e-01 -3.393140768766017e-17
 1.429999999999999e+00  8.256108849411650e-01 -3.393140768766017e-17
 1.429999999999999e+00  8.256108849411650e-01 -3.393140768766017e-17
 1.429999999999999e+00  8.256108849411650e-01 -3.393140768766017e-17
 1.429999999999999e+00  8.256108849411650e-01 -3.393140768766017e-17
 1.429999999999999e+00  8.256108849411650e-01 -3.393140768766017e-17
 1.429999999999999e+00  8.256108849411650e-01 -3.393140768766017e-17
 1.429999999999999e+00  8.256108849411650e-01 -3.393140768766017e-17
 1.429999999999999e+00  8.256108849411650e-01 -3.393140768766017e-17
 1.429999999999999e+00  8.256108849411650e-01 -3.393140768766017e-17
 1.429999999999999e+00  8.256108849411650e-01 -3.393140768766017e-17
 1.429999999999999e+00  8.256108849411650e-01 -3.393140768766017e-17
 1.429999999999999e+00  8.256108849411650e-01 -3.393140768766017e-17
 1.429999999999999e+00  8.256108849411650e-01 -3.393140768766017e-17
 1.429999999999999e+00  8.256108849411650e-01 -3.393140768766017e-17
 1.429999999999999e+00  8.256108849411650e-01 -3.393140768766017e-17
 1.429999999999999e+00  8.256108849411650e-01 -3.393140768766017e-17
 1.429999999999999e+00  8.256108849411650e-01 -3.393140768766017e-17
 1.429999999999999e+00  8.256108849411650e-01 -3.393140768766017e-17
 1.429999999999999e+00  8.256108849411650e-01 -3.393140768766017e-17
 1.429999999999999e+00  8.256108849411650e-01 -3.393140768766017e-17
 1.429999999999999e+00  8.256108849411650e-01 -3.393140768766017e-17
 1.429999999999999e+00  8.256108849411650e-01 -3.393140768766017e-17
 1.429999999999999e+00  8.256108849411650e-01 -3.393140768766017e-17
 1.429999999999999e+00  8.256108849411650e-01 -3.393140768766017e-17
 1.429999999999999e+00  8.256108849411650e-01 -3.393140768766017e-17
 1.429999999999999e+00  8.256108849411650e-01 -3.393140768766017e-17
 1.429999999999999e+00  8.256108849411650e-01 -3.393140768766017e-17
 1.429999999999999e+00  8.256108849411650e-01 -3.393140768766017e-17
 1.429999999999999e+00  8.256108849411650e-01 -3.393140768766017e-17
 1.429999999999999e+00  8.256108849411650e-01 -3.393140768766017e-17
 1.429999999999999e+00  8.256108849411650e-01 -3.393140768766017e-17
 1.429999999999999e+00  8.256108849411650e-01 -3.393140768766017e-17
 1.429999999999999e+00  8.256108849411650e-01 -3.393140768766017e-17
 1.429999999999999e+00  8.256108849411650e-01 -3.393140768766017e-17
 1.429999999999999e+00  8.256108849411650e-01 -3.393140768766017e-17
 1.429999999999999e+00  8.256108849411650e-01 -3.393140768766017e-17
 1.429999999999999e+00  8.256108849411650e-01 -3.393140768766017e-17
 1.429999999999999e+00  8.256108849411650e-01 -3.393140768766017e-17
 1.429999999999999e+00  8.256108849411650e-01 -3.393140768766017e-17
 1.429999999999999e+00  8.256108849411650e-01 -3.393140768766017e-17
 1.429999999999999e+00  8.256108849411650e-01 -3.393140768766017e-17
 1.429999999999999e+00  8.256108849411650e-01 -3.393140768766017e-17
 1.429999999999999e+00  8.256108849411650e-01 -3.393140768766017e-17
 1.429999999999999e+00  8.256108849411650e-01 -3.393140768766017e-17
 1.429999999999999e+00  8.256108849411650e-01 -3.393140768766017e-17
 1.429999999999999e+00  8.256108849411650e-01 -3.393140768766017e-17
 1.429999999999999e+00  8.256108849411650e-01 -3.393140768766017e-17
 1.429999999999999e+00  8.256108849411650e-01 -3.393140768766017e-17
 1.429999999999999e+00  8.256108849411650e-01 -3.393140768766017e-17
 1.429999999999999e+00  8.256108849411650e-01 -3.393140768766017e-17
 1.429999999999999e+00  8.256108849411650e-01 -3.393140768766017e-17
 1.429999999999999e+00  8.256108849411650e-01 -3.393140768766017e-17
 1.429999999999999e+00  8.256108849411650e-01 -3.393140768766017e-17
 1.429999999999999e+00  8.256108849411650e-01 -3.393140768766017e-17
 1.429999999999999e+00  8.256108849411650e-01 -3.393140768766017e-17
 1.429999999999999e+00  8.256108849411650e-01 -3.393140768766017e-17
 1.429999999999999e+00  8.256108849411650e-01 -3.393140768766017e-17
 1.429999999999999e+00  8.256108849411650e-01 -3.393140768766017e-17
 1.429999999999999e+00  8.256108849411650e-01 -3.393140768766017e-17
 1.429999999999999e+00  8.256108849411650e-01 -3.393140768766017e-17
 1.429999999999999e+00  8.256108849411650e-01 -3.393140768766017e-17
 1.429999999999999e+00  8.256108849411650e-01 -3.393140768766017e-17
 1.429999999999999e+00  8.256108849411650e-01 -3.393140768766017e-17
 1.429999999999999e+00  8.256108849411650e-01 -3.393140768766017e-17
 1.429999999999999e+00  8.256108849411650e-01 -3.393140768766017e-17
 1.429999999999999e+00  8.256108849411650e-01 -3.393140768766017e-17
 1.429999999999999e+00  8.256108849411650e-01 -3.393140768766017e-17
 1.429999999999999e+00  8.256108849411650e-01 -3.393140768766017e-17
 1.429999999999999e+00  8.256108849411650e-01 -3.393140768766017e-17
 1.429999999999999e+00  8.256108849411650e-01 -3.393140768766017e-17
 1.429999999999999e+00  8.256108849411650e-01 -3.393140768766017e-17
 1.429999999999999e+00  8.256108849411650e-01 -3.393140768766017e-17
 1.429999999999999e+00  8.256108849411650e-01 -3.393140768766017e-17
 1.429999999999999e+00  8.256108849411650e-01 -3.393140768766017e-17
-1.429999999999999e+00  8.256108849411650e-01  1.696570384383008e-17
 1.429999999999999e+00 -8.256108849411650e-01 -1.696570384383008e-17
-1.429999999999999e+00  8.256108849411650e-01  1.696570384383008e-17
-1.429999999999999e+00  8.256108849411650e-01  1.696570384383008e-17
-1.429999999999999e+00  8.256108849411650e-01  1.696570384383008e-17
-1.429999999999999e+00  8.256108849411650e-01  1.696570384383008e-17
-1.429999999999999e+00  8.256108849411650e-01  1.696570384383008e-17
-1.429999999999999e+00  8.256108849411650e-01  1.696570384383008e-17
-1.429999999999999e+00  8.256108849411650e-01  1.696570384383008e-17
-1.429999999999999e+00  8.256108849411650e-01  1.696570384383008e-17
-1.429999999999999e+00  8.256108849411650e-01  1.696570384383008e-17
-1.429999999999999e+00  8.256108849411650e-01  1.696570384383008e-17
-1.429999999999999e+00  8.256108849411650e-01  1.696570384383008e-17
-1.429999999999999e+00  8.256108849411650e-01  1.696570384383008e-17
-1.429999999999999e+00  8.256108849411650e-01  1.696570384383008e-17
-1.429999999999999e+00  8.256108849411650e-01  1.696570384383008e-17
-1.429999999999999e+00  8.256108849411650e-01  1.696570384383008e-17
-1.429999999999999e+00  8.256108849411650e-01  1.696570384383008e-17
-1.429999999999999e+00  8.256108849411650e-01  1.696570384383008e-17
-1.429999999999999e+00  8.256108849411650e-01  1.696570384383008e-17
-1.429999999999999e+00  8.256108849411650e-01  1.696570384383008e-17
-1.429999999999999e+00  8.256108849411650e-01  1.696570384383008e-17
-1.429999999999999e+00  8.256108849411650e-01  1.696570384383008e-17
-1.429999999999999e+00  8.256108849411650e-01  1.696570384383008e-17
-1.429999999999999e+00  8.256108849411650e-01  1.696570384383008e-17
-1.429999999999999e+00  8.256108849411650e-01  1.696570384383008e-17
-1.429999999999999e+00  8.256108849411650e-01  1.696570384383008e-17
-1.429999999999999e+00  8.256108849411650e-01  1.696570384383008e-17
-1.429999999999999e+00  8.256108849411650e-01  1.696570384383008e-17
-1.429999999999999e+00  8.256108849411650e-01  1.696570384383008e-17
-1.429999999999999e+00  8.256108849411650e-01  1.696570384383008e-17
-1.429999999999999e+00  8.256108849411650e-01  1.696570384383008e-17
-1.429999999999999e+00  8.256108849411650e-01  1.696570384383008e-17
-1.429999999999999e+00  8.256108849411650e-01  1.696570384383008e-17
-1.429999999999999e+00  8.256108849411650e-01  1.696570384383008e-17
-1.429999999999999e+00  8.256108849411650e-01  1.696570384383008e-17
-1.429999999999999e+00  8.256108849411650e-01  1.696570384383008e-17
-1.429999999999999e+00  8.256108849411650e-01  1.696570384383008e-17
-1.429999999999999e+00  8.256108849411650e-01  1.696570384383008e-17
-1.429999999999999e+00  8.256108849411650e-01  1.696570384383008e-17
-1.429999999999999e+00  8.256108849411650e-01  1.696570384383008e-17
-1.429999999999999e+00  8.256108849411650e-01  1.696570384383008e-17
-1.429999999999999e+00  8.256108849411650e-01  1.696570384383008e-17
-1.429999999999999e+00  8.256108849411650e-01  1.696570384383008e-17
-1.429999999999999e+00  8.256108849411650e-01  1.696570384383008e-17
-1.429999999999999e+00  8.256108849411650e-01  1.696570384383008e-17
-1.429999999999999e+00  8.256108849411650e-01  1.696570384383008e-17
-1.429999999999999e+00  8.256108849411650e-01  1.696570384383008e-17
-1.429999999999999e+00  8.256108849411650e-01  1.696570384383008e-17
-1.429999999999999e+00  8.256108849411650e-01  1.696570384383008e-17
-1.429999999999999e+00  8.256108849411650e-01  1.696570384383008e-17
-1.429999999999999e+00  8.256108849411650e-01  1.696570384383008e-17
-1.429999999999999e+00  8.256108849411650e-01  1.696570384383008e-17
-1.429999999999999e+00  8.256108849411650e-01  1.696570384383008e-17
-1.429999999999999e+00  8.256108849411650e-01  1.696570384383008e-17
-1.429999999999999e+00  8.256108849411650e-01  1.696570384383008e-17
-1.429999999999999e+00  8.256108849411650e-01  1.696570384383008e-17
-1.429999999999999e+00  8.256108849411650e-01  1.696570384383008e-17
-1.429999999999999e+00  8.256108849411650e-01  1.696570384383008e-17
-1.429999999999999e+00  8.256108849411650e-01  1.696570384383008e-17
-1.429999999999999e+00  8.256108849411650e-01  1.696570384383008e-17
-1.429999999999999e+00  8.256108849411650e-01  1.696570384383008e-17
-1.429999999999999e+00  8.256108849411650e-01  1.696570384383008e-17
-1.429999999999999e+00  8.256108849411650e-01  1.696570384383008e-17
-1.429999999999999e+00  8.256108849411650e-01  1.696570384383008e-17
-1.429999999999999e+00  8.256108849411650e-01  1.696570384383008e-17
-1.429999999999999e+00  8.256108849411650e-01  1.696570384383008e-17
-1.429999999999999e+00  8.256108849411650e-01  1.696570384383008e-17
-1.429999999999999e+00  8.256108849411650e-01  1.696570384383008e-17
-1.429999999999999e+00  8.256108849411650e-01  1.696570384383008e-17
-1.429999999999999e+00  8.256108849411650e-01  1.696570384383008e-17
-1.429999999999999e+00  8.256108849411650e-01  1.696570384383008e-17
-1.429999999999999e+00  8.256108849411650e-01  1.696570384383008e-17
-1.429999999999999e+00  8.256108849411650e-01  1.696570384383008e-17
-1.429999999999999e+00  8.256108849411650e-01  1.696570384383008e-17
-1.429999999999999e+00  8.256108849411650e-01  1.696570384383008e-17
-1.429999999999999e+00  8.256108849411650e-01  1.696570384383008e-17
-1.429999999999999e+00  8.256108849411650e-01  1.696570384383008e-17
-1.429999999999999e+00  8.256108849411650e-01  1.696570384383008e-17
-1.429999999999999e+00  8.256108849411650e-01  1.696570384383008e-17
-1.429999999999999e+00  8.256108849411650e-01  1.696570384383008e-17
-1.429999999999999e+00  8.256108849411650e-01  1.696570384383008e-17
-1.429999999999999e+00  8.256108849411650e-01  1.696570384383008e-17
-1.429999999999999e+00  8.256108849411650e-01  1.696570384383008e-17
-1.429999999999999e+00  8.256108849411650e-01  1.696570384383008e-17
-1.429999999999999e+00  8.256108849411650e-01  1.696570384383008e-17
-1.429999999999999e+00  8.256108849411650e-01  1.696570384383008e-17
-1.429999999999999e+00  8.256108849411650e-01  1.696570384383008e-17
-1.429999999999999e+00  8.256108849411650e-01  1.696570384383008e-17
-1.429999999999999e+00  8.256108849411650e-01  1.696570384383008e-17
-1.429999999999999e+00  8.256108849411650e-01  1.696570384383008e-17
-1.429999999999999e+00  8.256108849411650e-01  1.696570384383008e-17
-1.429999999999999e+00  8.256108849411650e-01  1.696570384383008e-17
-1.429999999999999e+00  8.256108849411650e-01  1.696570384383008e-17
-1.429999999999999e+00  8.256108849411650e-01  1.696570384383008e-17
-1.429999999999999e+00  8.256108849411650e-01  1.696570384383008e-17
-1.429999999999999e+00  8.256108849411650e-01  1.696570384383008e-17
-1.429999999999999e+00  8.256108849411650e-01  1.696570384383008e-17
-1.429999999999999e+00  8.256108849411650e-01  1.696570384383008e-17
-1.429999999999999e+00  8.256108849411650e-01  1.696570384383008e-17
-1.429999999999999e+00  8.256108849411650e-01  1.696570384383008e-17
-1.429999999999999e+00  8.256108849411650e-01  1.696570384383008e-17
-1.429999999999999e+00  8.256108849411650e-01  1.696570384383008e-17
-1.429999999999999e+00  8.256108849411650e-01  1.696570384383008e-17
-1.429999999999999e+00  8.256108849411650e-01  1.696570384383008e-17
-1.429999999999999e+00  8.256108849411650e-01  1.696570384383008e-17
-1.429999999999999e+00  8.256108849411650e-01  1.696570384383008e-17
-1.429999999999999e+00  8.256108849411650e-01  1.696570384383008e-17
-1.429999999999999e+00  8.256108849411650e-01  1.696570384383008e-17
-1.429999999999999e+00  8.256108849411650e-01  1.696570384383008e-17
-1.429999999999999e+00  8.256108849411650e-01  1.696570384383008e-17
-1.429999999999999e+00  8.256108849411650e-01  1.696570384383008e-17
-1.429999999999999e+00  8.256108849411650e-01  1.696570384383008e-17
-1.429999999999999e+00  8.256108849411650e-01  1.696570384383008e-17
-1.429999999999999e+00  8.256108849411650e-01  1.696570384383008e-17
-1.429999999999999e+00  8.256108849411650e-01  1.696570384383008e-17
-1.429999999999999e+00  8.256108849411650e-01  1.696570384383008e-17
-1.429999999999999e+00  8.256108849411650e-01  1.696570384383008e-17
-1.429999999999999e+00  8.256108849411650e-01  1.696570384383008e-17
-1.429999999999999e+00  8.256108849411650e-01  1.696570384383008e-17
-1.429999999999999e+00  8.256108849411650e-01  1.696570384383008e-17
-1.429999999999999e+00  8.256108849411650e-01  1.696570384383008e-17
-1.429999999999999e+00  8.256108849411650e-01  1.696570384383008e-17
-1.429999999999999e+00  8.256108849411650e-01  1.696570384383008e-17
-1.429999999999999e+00  8.256108849411650e-01  1.696570384383008e-17
-1.429999999999999e+00  8.256108849411650e-01  1.696570384383008e-17
-1.429999999999999e+00  8.256108849411650e-01  1.696570384383008e-17
-1.429999999999999e+00  8.256108849411650e-01  1.696570384383008e-17
-1.429999999999999e+00  8.256108849411650e-01  1.696570384383008e-17
-1.429999999999999e+00  8.256108849411650e-01  1.696570384383008e-17
-1.429999999999999e+00  8.256108849411650e-01  1.696570384383008e-17
-1.429999999999999e+00  8.256108849411650e-01  1.696570384383008e-17
-1.429999999999999e+00  8.256108849411650e-01  1.696570384383008e-17
-1.429999999999999e+00  8.256108849411650e-01  1.696570384383008e-17
-1.429999999999999e+00  8.256108849411650e-01  1.696570384383008e-17
-1.429999999999999e+00  8.256108849411650e-01  1.696570384383008e-17
-1.429999999999999e+00  8.256108849411650e-01  1.696570384383008e-17
-1.429999999999999e+00  8.256108849411650e-01  1.696570384383008e-17
-1.429999999999999e+00  8.256108849411650e-01  1.696570384383008e-17
-1.429999999999999e+00  8.256108849411650e-01  1.696570384383008e-17
-1.429999999999999e+00  8.256108849411650e-01  1.696570384383008e-17
-1.429999999999999e+00  8.256108849411650e-01  1.696570384383008e-17
-1.429999999999999e+00  8.256108849411650e-01  1.696570384383008e-17
-1.429999999999999e+00  8.256108849411650e-01  1.696570384383008e-17
-1.429999999999999e+00  8.256108849411650e-01  1.696570384383008e-17
-1.429999999999999e+00  8.256108849411650e-01  1.696570384383008e-17
-1.429999999999999e+00  8.256108849411650e-01  1.696570384383008e-17
-1.429999999999999e+00  8.256108849411650e-01  1.696570384383008e-17
-1.429999999999999e+00  8.256108849411650e-01  1.696570384383008e-17
-1.429999999999999e+00  8.256108849411650e-01  1.696570384383008e-17
-1.429999999999999e+00  8.256108849411650e-01  1.696570384383008e-17
-1.429999999999999e+00  8.256108849411650e-01  1.696570384383008e-17
-1.429999999999999e+00  8.256108849411650e-01  1.696570384383008e-17
-1.429999999999999e+00  8.256108849411650e-01  1.696570384383008e-17
-1.429999999999999e+00  8.256108849411650e-01  1.696570384383008e-17
-1.429999999999999e+00  8.256108849411650e-01  1.696570384383008e-17
-1.429999999999999e+00  8.256108849411650e-01  1.696570384383008e-17
-1.429999999999999e+00  8.256108849411650e-01  1.696570384383008e-17
-1.429999999999999e+00  8.256108849411650e-01  1.696570384383008e-17
-1.429999999999999e+00  8.256108849411650e-01  1.696570384383008e-17
-1.429999999999999e+00  8.256108849411650e-01  1.696570384383008e-17
-1.429999999999999e+00  8.256108849411650e-01  1.696570384383008e-17
-1.429999999999999e+00  8.256108849411650e-01  1.696570384383008e-17
-1.429999999999999e+00  8.256108849411650e-01  1.696570384383008e-17
-1.429999999999999e+00  8.256108849411650e-01  1.696570384383008e-17
-1.429999999999999e+00  8.256108849411650e-01  1.696570384383008e-17
-1.429999999999999e+00  8.256108849411650e-01  1.696570384383008e-17
-1.429999999999999e+00  8.256108849411650e-01  1.696570384383008e-17
-1.429999999999999e+00  8.256108849411650e-01  1.696570384383008e-17
-1.429999999999999e+00  8.256108849411650e-01  1.696570384383008e-17
-1.429999999999999e+00  8.256108849411650e-01  1.696570384383008e-17
-1.429999999999999e+00  8.256108849411650e-01  1.696570384383008e-17
-1.429999999999999e+00  8.256108849411650e-01  1.696570384383008e-17
-1.429999999999999e+00  8.256108849411650e-01  1.696570384383008e-17
-1.429999999999999e+00  8.256108849411650e-01  1.696570384383008e-17
-1.429999999999999e+00  8.256108849411650e-01  1.696570384383008e-17
-1.429999999999999e+00  8.256108849411650e-01  1.696570384383008e-17
-1.429999999999999e+00  8.256108849411650e-01  1.696570384383008e-17
-1.429999999999999e+00  8.256108849411650e-01  1.696570384383008e-17
-1.429999999999999e+00  8.256108849411650e-01  1.696570384383008e-17
-1.429999999999999e+00  8.256108849411650e-01  1.696570384383008e-17
-1.429999999999999e+00  8.256108849411650e-01  1.696570384383008e-17
-1.429999999999999e+00  8.256108849411650e-01  1.696570384383008e-17
-1.429999999999999e+00  8.256108849411650e-01  1.696570384383008e-17
-1.429999999999999e+00  8.256108849411650e-01  1.696570384383008e-17
-1.429999999999999e+00  8.256108849411650e-01  1.696570384383008e-17
-1.429999999999999e+00  8.256108849411650e-01  1.696570384383008e-17
-1.429999999999999e+00  8.256108849411650e-01  1.696570384383008e-17
-1.429999999999999e+00  8.256108849411650e-01  1.696570384383008e-17
-1.429999999999999e+00  8.256108849411650e-01  1.696570384383008e-17
-1.429999999999999e+00  8.256108849411650e-01  1.696570384383008e-17
-1.429999999999999e+00  8.256108849411650e-01  1.696570384383008e-17
-1.429999999999999e+00  8.256108849411650e-01  1.696570384383008e-17
-1.429999999999999e+00  8.256108849411650e-01  1.696570384383008e-17
-1.429999999999999e+00  8.256108849411650e-01  1.696570384383008e-17
-1.429999999999999e+00  8.256108849411650e-01  1.696570384383008e-17
-1.429999999999999e+00  8.256108849411650e-01  1.696570384383008e-17
-1.429999999999999e+00  8.256108849411650e-01  1.696570384383008e-17
-1.429999999999999e+00  8.256108849411650e-01  1.696570384383008e-17
-1.429999999999999e+00  8.256108849411650e-01  1.696570384383008e-17
-1.429999999999999e+00  8.256108849411650e-01  1.696570384383008e-17
-1.429999999999999e+00  8.256108849411650e-01  1.696570384383008e-17
-1.429999999999999e+00  8.256108849411650e-01  1.696570384383008e-17
-1.429999999999999e+00  8.256108849411650e-01  1.696570384383008e-17
-1.429999999999999e+00  8.256108849411650e-01  1.696570384383008e-17
-1.429999999999999e+00  8.256108849411650e-01  1.696570384383008e-17
-1.429999999999999e+00  8.256108849411650e-01  1.696570384383008e-17
-1.429999999999999e+00  8.256108849411650e-01  1.696570384383008e-17
-1.429999999999999e+00  8.256108849411650e-01  1.696570384383008e-17
-1.429999999999999e+00  8.256108849411650e-01  1.696570384383008e-17
-1.429999999999999e+00  8.256108849411650e-01  1.696570384383008e-17
-1.429999999999999e+00  8.256108849411650e-01  1.696570384383008e-17
-1.429999999999999e+00  8.256108849411650e-01  1.696570384383008e-17
-1.429999999999999e+00  8.256108849411650e-01  1.696570384383008e-17
-1.429999999999999e+00  8.256108849411650e-01  1.696570384383008e-17
-1.429999999999999e+00  8.256108849411650e-01  1.696570384383008e-17
-1.429999999999999e+00  8.256108849411650e-01  1.696570384383008e-17
-1.429999999999999e+00  8.256108849411650e-01  1.696570384383008e-17
-1.429999999999999e+00  8.256108849411650e-01  1.696570384383008e-17
-1.429999999999999e+00  8.256108849411650e-01  1.696570384383008e-17
-1.429999999999999e+00  8.256108849411650e-01  1.696570384383008e-17
-1.429999999999999e+00  8.256108849411650e-01  1.696570384383008e-17
-1.429999999999999e+00  8.256108849411650e-01  1.696570384383008e-17
-1.429999999999999e+00  8.256108849411650e-01  1.696570384383008e-17
-1.429999999999999e+00  8.256108849411650e-01  1.696570384383008e-17
-1.429999999999999e+00  8.256108849411650e-01  1.696570384383008e-17
-1.429999999999999e+00  8.256108849411650e-01  1.696570384383008e-17
-1.429999999999999e+00  8.256108849411650e-01  1.696570384383008e-17
-1.429999999999999e+00  8.256108849411650e-01  1.696570384383008e-17
-1.429999999999999e+00  8.256108849411650e-01  1.696570384383008e-17
-1.429999999999999e+00  8.256108849411650e-01  1.696570384383008e-17
-1.429999999999999e+00  8.256108849411650e-01  1.696570384383008e-17
-1.429999999999999e+00  8.256108849411650e-01  1.696570384383008e-17
-1.429999999999999e+00  8.256108849411650e-01  1.696570384383008e-17
-1.429999999999999e+00  8.256108849411650e-01  1.696570384383008e-17
-1.429999999999999e+00  8.256108849411650e-01  1.696570384383008e-17
 1.429999999999999e+00 -8.256108849411650e-01 -1.696570384383008e-17
-1.429999999999999e+00  8.256108849411650e-01  1.696570384383008e-17
-1.429999999999999e+00  8.256108849411650e-01  1.696570384383008e-17
-1.429999999999999e+00  8.256108849411650e-01  1.696570384383008e-17
-1.429999999999999e+00  8.256108849411650e-01  1.696570384383008e-17
-1.429999999999999e+00  8.256108849411650e-01  1.696570384383008e-17
-1.429999999999999e+00  8.256108849411650e-01  1.696570384383008e-17
-1.429999999999999e+00  8.256108849411650e-01  1.696570384383008e-17
-1.429999999999999e+00  8.256108849411650e-01  1.696570384383008e-17
-1.429999999999999e+00  8.256108849411650e-01  1.696570384383008e-17
-1.429999999999999e+00  8.256108849411650e-01  1.696570384383008e-17
-1.429999999999999e+00  8.256108849411650e-01  1.696570384383008e-17
-1.429999999999999e+00  8.256108849411650e-01  1.696570384383008e-17
-1.429999999999999e+00  8.256108849411650e-01  1.696570384383008e-17
-1.429999999999999e+00  8.256108849411650e-01  1.696570384383008e-17
-1.429999999999999e+00  8.256108849411650e-01  1.696570384383008e-17
-1.429999999999999e+00  8.256108849411650e-01  1.696570384383008e-17
-1.429999999999999e+00  8.256108849411650e-01  1.696570384383008e-17
-1.429999999999999e+00  8.256108849411650e-01  1.696570384383008e-17
-1.429999999999999e+00  8.256108849411650e-01  1.696570384383008e-17
-1.429999999999999e+00  8.256108849411650e-01  1.696570384383008e-17
-1.429999999999999e+00  8.256108849411650e-01  1.696570384383008e-17
-1.429999999999999e+00  8.256108849411650e-01  1.696570384383008e-17
-1.429999999999999e+00  8.256108849411650e-01  1.696570384383008e-17
-1.429999999999999e+00  8.256108849411650e-01  1.696570384383008e-17
-1.429999999999999e+00  8.256108849411650e-01  1.696570384383008e-17
-1.429999999999999e+00  8.256108849411650e-01  1.696570384383008e-17
-1.429999999999999e+00  8.256108849411650e-01  1.696570384383008e-17
-1.429999999999999e+00  8.256108849411650e-01  1.696570384383008e-17
-1.429999999999999e+00  8.256108849411650e-01  1.696570384383008e-17
-1.429999999999999e+00  8.256108849411650e-01  1.696570384383008e-17
-1.429999999999999e+00  8.256108849411650e-01  1.696570384383008e-17
-1.429999999999999e+00  8.256108849411650e-01  1.696570384383008e-17
-1.429999999999999e+00  8.256108849411650e-01  1.696570384383008e-17
-1.429999999999999e+00  8.256108849411650e-01  1.696570384383008e-17
-1.429999999999999e+00  8.256108849411650e-01  1.696570384383008e-17
-1.429999999999999e+00  8.256108849411650e-01  1.696570384383008e-17
-1.429999999999999e+00  8.256108849411650e-01  1.696570384383008e-17
-1.429999999999999e+00  8.256108849411650e-01  1.696570384383008e-17
-1.429999999999999e+00  8.256108849411650e-01  1.696570384383008e-17
-1.429999999999999e+00  8.256108849411650e-01  1.696570384383008e-17
-1.429999999999999e+00  8.256108849411650e-01  1.696570384383008e-17
-1.429999999999999e+00  8.256108849411650e-01  1.696570384383008e-17
-1.429999999999999e+00  8.256108849411650e-01  1.696570384383008e-17
-1.429999999999999e+00  8.256108849411650e-01  1.696570384383008e-17
-1.429999999999999e+00  8.256108849411650e-01  1.696570384383008e-17
-1.429999999999999e+00  8.256108849411650e-01  1.696570384383008e-17
-1.429999999999999e+00  8.256108849411650e-01  1.696570384383008e-17
-1.429999999999999e+00  8.256108849411650e-01  1.696570384383008e-17
-1.429999999999999e+00  8.256108849411650e-01  1.696570384383008e-17
-1.429999999999999e+00  8.256108849411650e-01  1.696570384383008e-17
-1.429999999999999e+00  8.256108849411650e-01  1.696570384383008e-17
-1.429999999999999e+00  8.256108849411650e-01  1.696570384383008e-17
-1.429999999999999e+00  8.256108849411650e-01  1.696570384383008e-17
-1.429999999999999e+00  8.256108849411650e-01  1.696570384383008e-17
-1.429999999999999e+00  8.256108849411650e-01  1.696570384383008e-17
-1.429999999999999e+00  8.256108849411650e-01  1.696570384383008e-17
-1.429999999999999e+00  8.256108849411650e-01  1.696570384383008e-17
-1.429999999999999e+00  8.256108849411650e-01  1.696570384383008e-17
-1.429999999999999e+00  8.256108849411650e-01  1.696570384383008e-17
-1.429999999999999e+00  8.256108849411650e-01  1.696570384383008e-17
-1.429999999999999e+00  8.256108849411650e-01  1.696570384383008e-17
-1.429999999999999e+00  8.256108849411650e-01  1.696570384383008e-17
-1.429999999999999e+00  8.256108849411650e-01  1.696570384383008e-17
-1.429999999999999e+00  8.256108849411650e-01  1.696570384383008e-17
-1.429999999999999e+00  8.256108849411650e-01  1.696570384383008e-17
-1.429999999999999e+00  8.256108849411650e-01  1.696570384383008e-17
-1.429999999999999e+00  8.256108849411650e-01  1.696570384383008e-17
-1.429999999999999e+00  8.256108849411650e-01  1.696570384383008e-17
-1.429999999999999e+00  8.256108849411650e-01  1.696570384383008e-17
-1.429999999999999e+00  8.256108849411650e-01  1.696570384383008e-17
-1.429999999999999e+00  8.256108849411650e-01  1.696570384383008e-17
-1.429999999999999e+00  8.256108849411650e-01  1.696570384383008e-17
-1.429999999999999e+00  8.256108849411650e-01  1.696570384383008e-17
-1.429999999999999e+00  8.256108849411650e-01  1.696570384383008e-17
-1.429999999999999e+00  8.256108849411650e-01  1.696570384383008e-17
-1.429999999999999e+00  8.256108849411650e-01  1.696570384383008e-17
-1.429999999999999e+00  8.256108849411650e-01  1.696570384383008e-17
-1.429999999999999e+00  8.256108849411650e-01  1.696570384383008e-17
-1.429999999999999e+00  8.256108849411650e-01  1.696570384383008e-17
-1.429999999999999e+00  8.256108849411650e-01  1.696570384383008e-17
-1.429999999999999e+00  8.256108849411650e-01  1.696570384383008e-17
-1.429999999999999e+00  8.256108849411650e-01  1.696570384383008e-17
-1.429999999999999e+00  8.256108849411650e-01  1.696570384383008e-17
-1.429999999999999e+00  8.256108849411650e-01  1.696570384383008e-17
-1.429999999999999e+00  8.256108849411650e-01  1.696570384383008e-17
-1.429999999999999e+00  8.256108849411650e-01  1.696570384383008e-17
-1.429999999999999e+00  8.256108849411650e-01  1.696570384383008e-17
-1.429999999999999e+00  8.256108849411650e-01  1.696570384383008e-17
-1.429999999999999e+00  8.256108849411650e-01  1.696570384383008e-17
-1.429999999999999e+00  8.256108849411650e-01  1.696570384383008e-17
-1.429999999999999e+00  8.256108849411650e-01  1.696570384383008e-17
-1.429999999999999e+00  8.256108849411650e-01  1.696570384383008e-17
-1.429999999999999e+00  8.256108849411650e-01  1.696570384383008e-17
-1.429999999999999e+00  8.256108849411650e-01  1.696570384383008e-17
-1.429999999999999e+00  8.256108849411650e-01  1.696570384383008e-17
-1.429999999999999e+00  8.256108849411650e-01  1.696570384383008e-17
-1.429999999999999e+00  8.256108849411650e-01  1.696570384383008e-17
-1.429999999999999e+00  8.256108849411650e-01  1.696570384383008e-17
-1.429999999999999e+00  8.256108849411650e-01  1.696570384383008e-17
-1.429999999999999e+00  8.256108849411650e-01  1.696570384383008e-17
-1.429999999999999e+00  8.256108849411650e-01  1.696570384383008e-17
-1.429999999999999e+00  8.256108849411650e-01  1.696570384383008e-17
-1.429999999999999e+00  8.256108849411650e-01  1.696570384383008e-17
-1.429999999999999e+00  8.256108849411650e-01  1.696570384383008e-17
-1.429999999999999e+00  8.256108849411650e-01  1.696570384383008e-17
-1.429999999999999e+00  8.256108849411650e-01  1.696570384383008e-17
-1.429999999999999e+00  8.256108849411650e-01  1.696570384383008e-17
-1.429999999999999e+00  8.256108849411650e-01  1.696570384383008e-17
-1.429999999999999e+00  8.256108849411650e-01  1.696570384383008e-17
-1.429999999999999e+00  8.256108849411650e-01  1.696570384383008e-17
-1.429999999999999e+00  8.256108849411650e-01  1.696570384383008e-17
-1.429999999999999e+00  8.256108849411650e-01  1.696570384383008e-17
-1.429999999999999e+00  8.256108849411650e-01  1.696570384383008e-17
-1.429999999999999e+00  8.256108849411650e-01  1.696570384383008e-17
-1.429999999999999e+00  8.256108849411650e-01  1.696570384383008e-17
-1.429999999999999e+00  8.256108849411650e-01  1.696570384383008e-17
-1.429999999999999e+00  8.256108849411650e-01  1.696570384383008e-17
-1.429999999999999e+00  8.256108849411650e-01  1.696570384383008e-17
-1.429999999999999e+00  8.256108849411650e-01  1.696570384383008e-17
-1.429999999999999e+00  8.256108849411650e-01  1.696570384383008e-17
-1.429999999999999e+00  8.256108849411650e-01  1.696570384383008e-17
-1.429999999999999e+00  8.256108849411650e-01  1.696570384383008e-17
-1.429999999999999e+00  8.256108849411650e-01  1.696570384383008e-17
-1.429999999999999e+00  8.256108849411650e-01  1.696570384383008e-17
-1.429999999999999e+00  8.256108849411650e-01  1.696570384383008e-17
-1.429999999999999e+00  8.256108849411650e-01  1.696570384383008e-17
-1.429999999999999e+00  8.256108849411650e-01  1.696570384383008e-17
-1.429999999999999e+00  8.256108849411650e-01  1.696570384383008e-17
-1.429999999999999e+00  8.256108849411650e-01  1.696570384383008e-17
-1.429999999999999e+00  8.256108849411650e-01  1.696570384383008e-17
-1.429999999999999e+00  8.256108849411650e-01  1.696570384383008e-17
-1.429999999999999e+00  8.256108849411650e-01  1.696570384383008e-17
-1.429999999999999e+00  8.256108849411650e-01  1.696570384383008e-17
-1.429999999999999e+00  8.256108849411650e-01  1.696570384383008e-17
-1.429999999999999e+00  8.256108849411650e-01  1.696570384383008e-17
-1.429999999999999e+00  8.256108849411650e-01  1.696570384383008e-17
-1.429999999999999e+00  8.256108849411650e-01  1.696570384383008e-17
-1.429999999999999e+00  8.256108849411650e-01  1.696570384383008e-17
-1.429999999999999e+00  8.256108849411650e-01  1.696570384383008e-17
-1.429999999999999e+00  8.256108849411650e-01  1.696570384383008e-17
-1.429999999999999e+00  8.256108849411650e-01  1.696570384383008e-17
-1.429999999999999e+00  8.256108849411650e-01  1.696570384383008e-17
-1.429999999999999e+00  8.256108849411650e-01  1.696570384383008e-17
-1.429999999999999e+00  8.256108849411650e-01  1.696570384383008e-17
-1.429999999999999e+00  8.256108849411650e-01  1.696570384383008e-17
-1.429999999999999e+00  8.256108849411650e-01  1.696570384383008e-17
-1.429999999999999e+00  8.256108849411650e-01  1.696570384383008e-17
-1.429999999999999e+00  8.256108849411650e-01  1.696570384383008e-17
-1.429999999999999e+00  8.256108849411650e-01  1.696570384383008e-17
-1.429999999999999e+00  8.256108849411650e-01  1.696570384383008e-17
-1.429999999999999e+00  8.256108849411650e-01  1.696570384383008e-17
-1.429999999999999e+00  8.256108849411650e-01  1.696570384383008e-17
-1.429999999999999e+00  8.256108849411650e-01  1.696570384383008e-17
-1.429999999999999e+00  8.256108849411650e-01  1.696570384383008e-17
-1.429999999999999e+00  8.256108849411650e-01  1.696570384383008e-17
-1.429999999999999e+00  8.256108849411650e-01  1.696570384383008e-17
-1.429999999999999e+00  8.256108849411650e-01  1.696570384383008e-17
-1.429999999999999e+00  8.256108849411650e-01  1.696570384383008e-17
-1.429999999999999e+00  8.256108849411650e-01  1.696570384383008e-17
-1.429999999999999e+00  8.256108849411650e-01  1.696570384383008e-17
-1.429999999999999e+00  8.256108849411650e-01  1.696570384383008e-17
-1.429999999999999e+00  8.256108849411650e-01  1.696570384383008e-17
-1.429999999999999e+00  8.256108849411650e-01  1.696570384383008e-17
-1.429999999999999e+00  8.256108849411650e-01  1.696570384383008e-17
-1.429999999999999e+00  8.256108849411650e-01  1.696570384383008e-17
-1.429999999999999e+00  8.256108849411650e-01  1.696570384383008e-17
-1.429999999999999e+00  8.256108849411650e-01  1.696570384383008e-17
-1.429999999999999e+00  8.256108849411650e-01  1.696570384383008e-17
-1.429999999999999e+00  8.256108849411650e-01  1.696570384383008e-17
-1.429999999999999e+00  8.256108849411650e-01  1.696570384383008e-17
-1.429999999999999e+00  8.256108849411650e-01  1.696570384383008e-17
-1.429999999999999e+00  8.256108849411650e-01  1.696570384383008e-17
-1.429999999999999e+00  8.256108849411650e-01  1.696570384383008e-17
-1.429999999999999e+00  8.256108849411650e-01  1.696570384383008e-17
-1.429999999999999e+00  8.256108849411650e-01  1.696570384383008e-17
-1.429999999999999e+00  8.256108849411650e-01  1.696570384383008e-17
-1.429999999999999e+00  8.256108849411650e-01  1.696570384383008e-17
-1.429999999999999e+00  8.256108849411650e-01  1.696570384383008e-17
-1.429999999999999e+00  8.256108849411650e-01  1.696570384383008e-17
-1.429999999999999e+00  8.256108849411650e-01  1.696570384383008e-17
-1.429999999999999e+00  8.256108849411650e-01  1.696570384383008e-17
-1.429999999999999e+00  8.256108849411650e-01  1.696570384383008e-17
-1.429999999999999e+00  8.256108849411650e-01  1.696570384383008e-17
-1.429999999999999e+00  8.256108849411650e-01  1.696570384383008e-17
-1.429999999999999e+00  8.256108849411650e-01  1.696570384383008e-17
-1.429999999999999e+00  8.256108849411650e-01  1.696570384383008e-17
-1.429999999999999e+00  8.256108849411650e-01  1.696570384383008e-17
-1.429999999999999e+00  8.256108849411650e-01  1.696570384383008e-17
-1.429999999999999e+00  8.256108849411650e-01  1.696570384383008e-17
-1.429999999999999e+00  8.256108849411650e-01  1.696570384383008e-17
-1.429999999999999e+00  8.256108849411650e-01  1.696570384383008e-17
-1.429999999999999e+00  8.256108849411650e-01  1.696570384383008e-17
-1.429999999999999e+00  8.256108849411650e-01  1.696570384383008e-17
-1.429999999999999e+00  8.256108849411650e-01  1.696570384383008e-17
-1.429999999999999e+00  8.256108849411650e-01  1.696570384383008e-17
-1.429999999999999e+00  8.256108849411650e-01  1.696570384383008e-17
 1.429999999999999e+00 -8.256108849411650e-01 -1.696570384383008e-17
-1.429999999999999e+00  8.256108849411650e-01  1.696570384383008e-17
 1.429999999999999e+00 -8.256108849411650e-01 -1.696570384383008e-17
 1.429999999999999e+00 -8.256108849411650e-01 -1.696570384383008e-17
 1.429999999999999e+00 -8.256108849411650e-01 -1.696570384383008e-17
 1.429999999999999e+00 -8.256108849411650e-01 -1.696570384383008e-17
 1.429999999999999e+00 -8.256108849411650e-01 -1.696570384383008e-17
 1.429999999999999e+00 -8.256108849411650e-01 -1.696570384383008e-17
 1.429999999999999e+00 -8.256108849411650e-01 -1.696570384383008e-17
 1.429999999999999e+00 -8.256108849411650e-01 -1.696570384383008e-17
 1.429999999999999e+00 -8.256108849411650e-01 -1.696570384383008e-17
 1.429999999999999e+00 -8.256108849411650e-01 -1.696570384383008e-17
 1.429999999999999e+00 -8.256108849411650e-01 -1.696570384383008e-17
 1.429999999999999e+00 -8.256108849411650e-01 -1.696570384383008e-17
 1.429999999999999e+00 -8.256108849411650e-01 -1.696570384383008e-17
 1.429999999999999e+00 -8.256108849411650e-01 -1.696570384383008e-17
 1.429999999999999e+00 -8.256108849411650e-01 -1.696570384383008e-17
 1.429999999999999e+00 -8.256108849411650e-01 -1.696570384383008e-17
 1.429999999999999e+00 -8.256108849411650e-01 -1.696570384383008e-17
 1.429999999999999e+00 -8.256108849411650e-01 -1.696570384383008e-17
 1.429999999999999e+00 -8.256108849411650e-01 -1.696570384383008e-17
 1.429999999999999e+00 -8.256108849411650e-01 -1.696570384383008e-17
 1.429999999999999e+00 -8.256108849411650e-01 -1.696570384383008e-17
 1.429999999999999e+00 -8.256108849411650e-01 -1.696570384383008e-17
 1.429999999999999e+00 -8.256108849411650e-01 -1.696570384383008e-17
 1.429999999999999e+00 -8.256108849411650e-01 -1.696570384383008e-17
 1.429999999999999e+00 -8.256108849411650e-01 -1.696570384383008e-17
 1.429999999999999e+00 -8.256108849411650e-01 -1.696570384383008e-17
 1.429999999999999e+00 -8.256108849411650e-01 -1.696570384383008e-17
 1.429999999999999e+00 -8.256108849411650e-01 -1.696570384383008e-17
 1.429999999999999e+00 -8.256108849411650e-01 -1.696570384383008e-17
 1.429999999999999e+00 -8.256108849411650e-01 -1.696570384383008e-17
 1.429999999999999e+00 -8.256108849411650e-01 -1.696570384383008e-17
 1.429999999999999e+00 -8.256108849411650e-01 -1.696570384383008e-17
 1.429999999999999e+00 -8.256108849411650e-01 -1.696570384383008e-17
 1.429999999999999e+00 -8.256108849411650e-01 -1.696570384383008e-17
 1.429999999999999e+00 -8.256108849411650e-01 -1.696570384383008e-17
 1.429999999999999e+00 -8.256108849411650e-01 -1.696570384383008e-17
 1.429999999999999e+00 -8.256108849411650e-01 -1.696570384383008e-17
 1.429999999999999e+00 -8.256108849411650e-01 -1.696570384383008e-17
 1.429999999999999e+00 -8.256108849411650e-01 -1.696570384383008e-17
 1.429999999999999e+00 -8.256108849411650e-01 -1.696570384383008e-17
 1.429999999999999e+00 -8.256108849411650e-01 -1.696570384383008e-17
 1.429999999999999e+00 -8.256108849411650e-01 -1.696570384383008e-17
 1.429999999999999e+00 -8.256108849411650e-01 -1.696570384383008e-17
 1.429999999999999e+00 -8.256108849411650e-01 -1.696570384383008e-17
 1.429999999999999e+00 -8.256108849411650e-01 -1.696570384383008e-17
 1.429999999999999e+00 -8.256108849411650e-01 -1.696570384383008e-17
 1.429999999999999e+00 -8.256108849411650e-01 -1.696570384383008e-17
 1.429999999999999e+00 -8.256108849411650e-01 -1.696570384383008e-17
 1.429999999999999e+00 -8.256108849411650e-01 -1.696570384383008e-17
 1.429999999999999e+00 -8.256108849411650e-01 -1.696570384383008e-17
 1.429999999999999e+00 -8.256108849411650e-01 -1.696570384383008e-17
 1.429999999999999e+00 -8.256108849411650e-01 -1.696570384383008e-17
 1.429999999999999e+00 -8.256108849411650e-01 -1.696570384383008e-17
 1.429999999999999e+00 -8.256108849411650e-01 -1.696570384383008e-17
 1.429999999999999e+00 -8.256108849411650e-01 -1.696570384383008e-17
 1.429999999999999e+00 -8.256108849411650e-01 -1.696570384383008e-17
 1.429999999999999e+00 -8.256108849411650e-01 -1.696570384383008e-17
 1.429999999999999e+00 -8.256108849411650e-01 -1.696570384383008e-17
 1.429999999999999e+00 -8.256108849411650e-01 -1.696570384383008e-17
 1.429999999999999e+00 -8.256108849411650e-01 -1.696570384383008e-17
 1.429999999999999e+00 -8.256108849411650e-01 -1.696570384383008e-17
 1.429999999999999e+00 -8.256108849411650e-01 -1.696570384383008e-17
 1.429999999999999e+00 -8.256108849411650e-01 -1.696570384383008e-17
 1.429999999999999e+00 -8.256108849411650e-01 -1.696570384383008e-17
 1.429999999999999e+00 -8.256108849411650e-01 -1.696570384383008e-17
 1.429999999999999e+00 -8.256108849411650e-01 -1.696570384383008e-17
 1.429999999999999e+00 -8.256108849411650e-01 -1.696570384383008e-17
 1.429999999999999e+00 -8.256108849411650e-01 -1.696570384383008e-17
 1.429999999999999e+00 -8.256108849411650e-01 -1.696570384383008e-17
 1.429999999999999e+00 -8.256108849411650e-01 -1.696570384383008e-17
 1.429999999999999e+00 -8.256108849411650e-01 -1.696570384383008e-17
 1.429999999999999e+00 -8.256108849411650e-01 -1.696570384383008e-17
 1.429999999999999e+00 -8.256108849411650e-01 -1.696570384383008e-17
 1.429999999999999e+00 -8.256108849411650e-01 -1.696570384383008e-17
 1.429999999999999e+00 -8.256108849411650e-01 -1.696570384383008e-17
 1.429999999999999e+00 -8.256108849411650e-01 -1.696570384383008e-17
 1.429999999999999e+00 -8.256108849411650e-01 -1.696570384383008e-17
 1.429999999999999e+00 -8.256108849411650e-01 -1.696570384383008e-17
 1.429999999999999e+00 -8.256108849411650e-01 -1.696570384383008e-17
 1.429999999999999e+00 -8.256108849411650e-01 -1.696570384383008e-17
 1.429999999999999e+00 -8.256108849411650e-01 -1.696570384383008e-17
 1.429999999999999e+00 -8.256108849411650e-01 -1.696570384383008e-17
 1.429999999999999e+00 -8.256108849411650e-01 -1.696570384383008e-17
 1.429999999999999e+00 -8.256108849411650e-01 -1.696570384383008e-17
 1.429999999999999e+00 -8.256108849411650e-01 -1.696570384383008e-17
 1.429999999999999e+00 -8.256108849411650e-01 -1.696570384383008e-17
 1.429999999999999e+00 -8.256108849411650e-01 -1.696570384383008e-17
 1.429999999999999e+00 -8.256108849411650e-01 -1.696570384383008e-17
 1.429999999999999e+00 -8.256108849411650e-01 -1.696570384383008e-17
 1.429999999999999e+00 -8.256108849411650e-01 -1.696570384383008e-17
 1.429999999999999e+00 -8.256108849411650e-01 -1.696570384383008e-17
 1.429999999999999e+00 -8.256108849411650e-01 -1.696570384383008e-17
 1.429999999999999e+00 -8.256108849411650e-01 -1.696570384383008e-17
 1.429999999999999e+00 -8.256108849411650e-01 -1.696570384383008e-17
 1.429999999999999e+00 -8.256108849411650e-01 -1.696570384383008e-17
 1.429999999999999e+00 -8.256108849411650e-01 -1.696570384383008e-17
 1.429999999999999e+00 -8.256108849411650e-01 -1.696570384383008e-17
 1.429999999999999e+00 -8.256108849411650e-01 -1.696570384383008e-17
 1.429999999999999e+00 -8.256108849411650e-01 -1.696570384383008e-17
 1.429999999999999e+00 -8.256108849411650e-01 -1.696570384383008e-17
 1.429999999999999e+00 -8.256108849411650e-01 -1.696570384383008e-17
 1.429999999999999e+00 -8.256108849411650e-01 -1.696570384383008e-17
 1.429999999999999e+00 -8.256108849411650e-01 -1.696570384383008e-17
 1.429999999999999e+00 -8.256108849411650e-01 -1.696570384383008e-17
 1.429999999999999e+00 -8.256108849411650e-01 -1.696570384383008e-17
 1.429999999999999e+00 -8.256108849411650e-01 -1.696570384383008e-17
 1.429999999999999e+00 -8.256108849411650e-01 -1.696570384383008e-17
 1.429999999999999e+00 -8.256108849411650e-01 -1.696570384383008e-17
 1.429999999999999e+00 -8.256108849411650e-01 -1.696570384383008e-17
 1.429999999999999e+00 -8.256108849411650e-01 -1.696570384383008e-17
 1.429999999999999e+00 -8.256108849411650e-01 -1.696570384383008e-17
 1.429999999999999e+00 -8.256108849411650e-01 -1.696570384383008e-17
 1.429999999999999e+00 -8.256108849411650e-01 -1.696570384383008e-17
 1.429999999999999e+00 -8.256108849411650e-01 -1.696570384383008e-17
 1.429999999999999e+00 -8.256108849411650e-01 -1.696570384383008e-17
 1.429999999999999e+00 -8.256108849411650e-01 -1.696570384383008e-17
 1.429999999999999e+00 -8.256108849411650e-01 -1.696570384383008e-17
 1.429999999999999e+00 -8.256108849411650e-01 -1.696570384383008e-17
 1.429999999999999e+00 -8.256108849411650e-01 -1.696570384383008e-17
 1.429999999999999e+00 -8.256108849411650e-01 -1.696570384383008e-17
 1.429999999999999e+00 -8.256108849411650e-01 -1.696570384383008e-17
 1.429999999999999e+00 -8.256108849411650e-01 -1.696570384383008e-17
 1.429999999999999e+00 -8.256108849411650e-01 -1.696570384383008e-17
 1.429999999999999e+00 -8.256108849411650e-01 -1.696570384383008e-17
 1.429999999999999e+00 -8.256108849411650e-01 -1.696570384383008e-17
 1.429999999999999e+00 -8.256108849411650e-01 -1.696570384383008e-17
 1.429999999999999e+00 -8.256108849411650e-01 -1.696570384383008e-17
 1.429999999999999e+00 -8.256108849411650e-01 -1.696570384383008e-17
 1.429999999999999e+00 -8.256108849411650e-01 -1.696570384383008e-17
 1.429999999999999e+00 -8.256108849411650e-01 -1.696570384383008e-17
 1.429999999999999e+00 -8.256108849411650e-01 -1.696570384383008e-17
 1.429999999999999e+00 -8.256108849411650e-01 -1.696570384383008e-17
 1.429999999999999e+00 -8.256108849411650e-01 -1.696570384383008e-17
 1.429999999999999e+00 -8.256108849411650e-01 -1.696570384383008e-17
 1.429999999999999e+00 -8.256108849411650e-01 -1.696570384383008e-17
 1.429999999999999e+00 -8.256108849411650e-01 -1.696570384383008e-17
 1.429999999999999e+00 -8.256108849411650e-01 -1.696570384383008e-17
 1.429999999999999e+00 -8.256108849411650e-01 -1.696570384383008e-17
 1.429999999999999e+00 -8.256108849411650e-01 -1.696570384383008e-17
 1.429999999999999e+00 -8.256108849411650e-01 -1.696570384383008e-17
 1.429999999999999e+00 -8.256108849411650e-01 -1.696570384383008e-17
 1.429999999999999e+00 -8.256108849411650e-01 -1.696570384383008e-17
 1.429999999999999e+00 -8.256108849411650e-01 -1.696570384383008e-17
 1.429999999999999e+00 -8.256108849411650e-01 -1.696570384383008e-17
 1.429999999999999e+00 -8.256108849411650e-01 -1.696570384383008e-17
 1.429999999999999e+00 -8.256108849411650e-01 -1.696570384383008e-17
 1.429999999999999e+00 -8.256108849411650e-01 -1.696570384383008e-17
 1.429999999999999e+00 -8.256108849411650e-01 -1.696570384383008e-17
 1.429999999999999e+00 -8.256108849411650e-01 -1.696570384383008e-17
 1.429999999999999e+00 -8.256108849411650e-01 -1.696570384383008e-17
 1.429999999999999e+00 -8.256108849411650e-01 -1.696570384383008e-17
 1.429999999999999e+00 -8.256108849411650e-01 -1.696570384383008e-17
 1.429999999999999e+00 -8.256108849411650e-01 -1.696570384383008e-17
 1.429999999999999e+00 -8.256108849411650e-01 -1.696570384383008e-17
 1.429999999999999e+00 -8.256108849411650e-01 -1.696570384383008e-17
 1.429999999999999e+00 -8.256108849411650e-01 -1.696570384383008e-17
 1.429999999999999e+00 -8.256108849411650e-01 -1.696570384383008e-17
 1.429999999999999e+00 -8.256108849411650e-01 -1.696570384383008e-17
 1.429999999999999e+00 -8.256108849411650e-01 -1.696570384383008e-17
 1.429999999999999e+00 -8.256108849411650e-01 -1.696570384383008e-17
 1.429999999999999e+00 -8.256108849411650e-01 -1.696570384383008e-17
 1.429999999999999e+00 -8.256108849411650e-01 -1.696570384383008e-17
 1.429999999999999e+00 -8.256108849411650e-01 -1.696570384383008e-17
 1.429999999999999e+00 -8.256108849411650e-01 -1.696570384383008e-17
 1.429999999999999e+00 -8.256108849411650e-01 -1.696570384383008e-17
 1.429999999999999e+00 -8.256108849411650e-01 -1.696570384383008e-17
 1.429999999999999e+00 -8.256108849411650e-01 -1.696570384383008e-17
 1.429999999999999e+00 -8.256108849411650e-01 -1.696570384383008e-17
 1.429999999999999e+00 -8.256108849411650e-01 -1.696570384383008e-17
 1.429999999999999e+00 -8.256108849411650e-01 -1.696570384383008e-17
 1.429999999999999e+00 -8.256108849411650e-01 -1.696570384383008e-17
 1.429999999999999e+00 -8.256108849411650e-01 -1.696570384383008e-17
 1.429999999999999e+00 -8.256108849411650e-01 -1.696570384383008e-17
 1.429999999999999e+00 -8.256108849411650e-01 -1.696570384383008e-17
 1.429999999999999e+00 -8.256108849411650e-01 -1.696570384383008e-17
 1.429999999999999e+00 -8.256108849411650e-01 -1.696570384383008e-17
 1.429999999999999e+00 -8.256108849411650e-01 -1.696570384383008e-17
 1.429999999999999e+00 -8.256108849411650e-01 -1.696570384383008e-17
 1.429999999999999e+00 -8.256108849411650e-01 -1.696570384383008e-17
 1.429999999999999e+00 -8.256108849411650e-01 -1.696570384383008e-17
 1.429999999999999e+00 -8.256108849411650e-01 -1.696570384383008e-17
 1.429999999999999e+00 -8.256108849411650e-01 -1.696570384383008e-17
 1.429999999999999e+00 -8.256108849411650e-01 -1.696570384383008e-17
-1.429999999999999e+00  8.256108849411650e-01  1.696570384383008e-17
 1.429999999999999e+00 -8.256108849411650e-01 -1.696570384383008e-17
 1.429999999999999e+00 -8.256108849411650e-01 -1.696570384383008e-17
 1.429999999999999e+00 -8.256108849411650e-01 -1.696570384383008e-17
 1.429999999999999e+00 -8.256108849411650e-01 -1.696570384383008e-17
 1.429999999999999e+00 -8.256108849411650e-01 -1.696570384383008e-17
 1.429999999999999e+00 -8.256108849411650e-01 -1.696570384383008e-17
 1.429999999999999e+00 -8.256108849411650e-01 -1.696570384383008e-17
 1.429999999999999e+00 -8.256108849411650e-01 -1.696570384383008e-17
 1.429999999999999e+00 -8.256108849411650e-01 -1.696570384383008e-17
 1.429999999999999e+00 -8.256108849411650e-01 -1.696570384383008e-17
 1.429999999999999e+00 -8.256108849411650e-01 -1.696570384383008e-17
 1.429999999999999e+00 -8.256108849411650e-01 -1.696570384383008e-17
 1.429999999999999e+00 -8.256108849411650e-01 -1.696570384383008e-17
 1.429999999999999e+00 -8.256108849411650e-01 -1.696570384383008e-17
 1.429999999999999e+00 -8.256108849411650e-01 -1.696570384383008e-17
 1.429999999999999e+00 -8.256108849411650e-01 -1.696570384383008e-17
 1.429999999999999e+00 -8.256108849411650e-01 -1.696570384383008e-17
 1.429999999999999e+00 -8.256108849411650e-01 -1.696570384383008e-17
 1.429999999999999e+00 -8.256108849411650e-01 -1.696570384383008e-17
 1.429999999999999e+00 -8.256108849411650e-01 -1.696570384383008e-17
 1.429999999999999e+00 -8.256108849411650e-01 -1.696570384383008e-17
 1.429999999999999e+00 -8.256108849411650e-01 -1.696570384383008e-17
 1.429999999999999e+00 -8.256108849411650e-01 -1.696570384383008e-17
 1.429999999999999e+00 -8.256108849411650e-01 -1.696570384383008e-17
 1.429999999999999e+00 -8.256108849411650e-01 -1.696570384383008e-17
 1.429999999999999e+00 -8.256108849411650e-01 -1.696570384383008e-17
 1.429999999999999e+00 -8.256108849411650e-01 -1.696570384383008e-17
 1.429999999999999e+00 -8.256108849411650e-01 -1.696570384383008e-17
 1.429999999999999e+00 -8.256108849411650e-01 -1.696570384383008e-17
 1.429999999999999e+00 -8.256108849411650e-01 -1.696570384383008e-17
 1.429999999999999e+00 -8.256108849411650e-01 -1.696570384383008e-17
 1.429999999999999e+00 -8.256108849411650e-01 -1.696570384383008e-17
 1.429999999999999e+00 -8.256108849411650e-01 -1.696570384383008e-17
 1.429999999999999e+00 -8.256108849411650e-01 -1.696570384383008e-17
 1.429999999999999e+00 -8.256108849411650e-01 -1.696570384383008e-17
 1.429999999999999e+00 -8.256108849411650e-01 -1.696570384383008e-17
 1.429999999999999e+00 -8.256108849411650e-01 -1.696570384383008e-17
 1.429999999999999e+00 -8.256108849411650e-01 -1.696570384383008e-17
 1.429999999999999e+00 -8.256108849411650e-01 -1.696570384383008e-17
 1.429999999999999e+00 -8.256108849411650e-01 -1.696570384383008e-17
 1.429999999999999e+00 -8.256108849411650e-01 -1.696570384383008e-17
 1.429999999999999e+00 -8.256108849411650e-01 -1.696570384383008e-17
 1.429999999999999e+00 -8.256108849411650e-01 -1.696570384383008e-17
 1.429999999999999e+00 -8.256108849411650e-01 -1.696570384383008e-17
 1.429999999999999e+00 -8.256108849411650e-01 -1.696570384383008e-17
 1.429999999999999e+00 -8.256108849411650e-01 -1.696570384383008e-17
 1.429999999999999e+00 -8.256108849411650e-01 -1.696570384383008e-17
 1.429999999999999e+00 -8.256108849411650e-01 -1.696570384383008e-17
 1.429999999999999e+00 -8.256108849411650e-01 -1.696570384383008e-17
 1.429999999999999e+00 -8.256108849411650e-01 -1.696570384383008e-17
 1.429999999999999e+00 -8.256108849411650e-01 -1.696570384383008e-17
 1.429999999999999e+00 -8.256108849411650e-01 -1.696570384383008e-17
 1.429999999999999e+00 -8.256108849411650e-01 -1.696570384383008e-17
 1.429999999999999e+00 -8.256108849411650e-01 -1.696570384383008e-17
 1.429999999999999e+00 -8.256108849411650e-01 -1.696570384383008e-17
 1.429999999999999e+00 -8.256108849411650e-01 -1.696570384383008e-17
 1.429999999999999e+00 -8.256108849411650e-01 -1.696570384383008e-17
 1.429999999999999e+00 -8.256108849411650e-01 -1.696570384383008e-17
 1.429999999999999e+00 -8.256108849411650e-01 -1.696570384383008e-17
 1.429999999999999e+00 -8.256108849411650e-01 -1.696570384383008e-17
 1.429999999999999e+00 -8.256108849411650e-01 -1.696570384383008e-17
 1.429999999999999e+00 -8.256108849411650e-01 -1.696570384383008e-17
 1.429999999999999e+00 -8.256108849411650e-01 -1.696570384383008e-17
 1.429999999999999e+00 -8.256108849411650e-01 -1.696570384383008e-17
 1.429999999999999e+00 -8.256108849411650e-01 -1.696570384383008e-17
 1.429999999999999e+00 -8.256108849411650e-01 -1.696570384383008e-17
 1.429999999999999e+00 -8.256108849411650e-01 -1.696570384383008e-17
 1.429999999999999e+00 -8.256108849411650e-01 -1.696570384383008e-17
 1.429999999999999e+00 -8.256108849411650e-01 -1.696570384383008e-17
 1.429999999999999e+00 -8.256108849411650e-01 -1.696570384383008e-17
 1.429999999999999e+00 -8.256108849411650e-01 -1.696570384383008e-17
 1.429999999999999e+00 -8.256108849411650e-01 -1.696570384383008e-17
 1.429999999999999e+00 -8.256108849411650e-01 -1.696570384383008e-17
 1.429999999999999e+00 -8.256108849411650e-01 -1.696570384383008e-17
 1.429999999999999e+00 -8.256108849411650e-01 -1.696570384383008e-17
 1.429999999999999e+00 -8.256108849411650e-01 -1.696570384383008e-17
 1.429999999999999e+00 -8.256108849411650e-01 -1.696570384383008e-17
 1.429999999999999e+00 -8.256108849411650e-01 -1.696570384383008e-17
 1.429999999999999e+00 -8.256108849411650e-01 -1.696570384383008e-17
 1.429999999999999e+00 -8.256108849411650e-01 -1.696570384383008e-17
 1.429999999999999e+00 -8.256108849411650e-01 -1.696570384383008e-17
 1.429999999999999e+00 -8.256108849411650e-01 -1.696570384383008e-17
 1.429999999999999e+00 -8.256108849411650e-01 -1.696570384383008e-17
 1.429999999999999e+00 -8.256108849411650e-01 -1.696570384383008e-17
 1.429999999999999e+00 -8.256108849411650e-01 -1.696570384383008e-17
 1.429999999999999e+00 -8.256108849411650e-01 -1.696570384383008e-17
 1.429999999999999e+00 -8.256108849411650e-01 -1.696570384383008e-17
 1.429999999999999e+00 -8.256108849411650e-01 -1.696570384383008e-17
 1.429999999999999e+00 -8.256108849411650e-01 -1.696570384383008e-17
 1.429999999999999e+00 -8.256108849411650e-01 -1.696570384383008e-17
 1.429999999999999e+00 -8.256108849411650e-01 -1.696570384383008e-17
 1.429999999999999e+00 -8.256108849411650e-01 -1.696570384383008e-17
 1.429999999999999e+00 -8.256108849411650e-01 -1.696570384383008e-17
 1.429999999999999e+00 -8.256108849411650e-01 -1.696570384383008e-17
 1.429999999999999e+00 -8.256108849411650e-01 -1.696570384383008e-17
 1.429999999999999e+00 -8.256108849411650e-01 -1.696570384383008e-17
 1.429999999999999e+00 -8.256108849411650e-01 -1.696570384383008e-17
 1.429999999999999e+00 -8.256108849411650e-01 -1.696570384383008e-17
 1.429999999999999e+00 -8.256108849411650e-01 -1.696570384383008e-17
 1.429999999999999e+00 -8.256108849411650e-01 -1.696570384383008e-17
 1.429999999999999e+00 -8.256108849411650e-01 -1.696570384383008e-17
 1.429999999999999e+00 -8.256108849411650e-01 -1.696570384383008e-17
 1.429999999999999e+00 -8.256108849411650e-01 -1.696570384383008e-17
 1.429999999999999e+00 -8.256108849411650e-01 -1.696570384383008e-17
 1.429999999999999e+00 -8.256108849411650e-01 -1.696570384383008e-17
 1.429999999999999e+00 -8.256108849411650e-01 -1.696570384383008e-17
 1.429999999999999e+00 -8.256108849411650e-01 -1.696570384383008e-17
 1.429999999999999e+00 -8.256108849411650e-01 -1.696570384383008e-17
 1.429999999999999e+00 -8.256108849411650e-01 -1.696570384383008e-17
 1.429999999999999e+00 -8.256108849411650e-01 -1.696570384383008e-17
 1.429999999999999e+00 -8.256108849411650e-01 -1.696570384383008e-17
 1.429999999999999e+00 -8.256108849411650e-01 -1.696570384383008e-17
 1.429999999999999e+00 -8.256108849411650e-01 -1.696570384383008e-17
 1.429999999999999e+00 -8.256108849411650e-01 -1.696570384383008e-17
 1.429999999999999e+00 -8.256108849411650e-01 -1.696570384383008e-17
 1.429999999999999e+00 -8.256108849411650e-01 -1.696570384383008e-17
 1.429999999999999e+00 -8.256108849411650e-01 -1.696570384383008e-17
 1.429999999999999e+00 -8.256108849411650e-01 -1.696570384383008e-17
 1.429999999999999e+00 -8.256108849411650e-01 -1.696570384383008e-17
 1.429999999999999e+00 -8.256108849411650e-01 -1.696570384383008e-17
 1.429999999999999e+00 -8.256108849411650e-01 -1.696570384383008e-17
 1.429999999999999e+00 -8.256108849411650e-01 -1.696570384383008e-17
 1.429999999999999e+00 -8.256108849411650e-01 -1.696570384383008e-17
 1.429999999999999e+00 -8.256108849411650e-01 -1.696570384383008e-17
 1.429999999999999e+00 -8.256108849411650e-01 -1.696570384383008e-17
 1.429999999999999e+00 -8.256108849411650e-01 -1.696570384383008e-17
 1.429999999999999e+00 -8.256108849411650e-01 -1.696570384383008e-17
 1.429999999999999e+00 -8.256108849411650e-01 -1.696570384383008e-17
 1.429999999999999e+00 -8.256108849411650e-01 -1.696570384383008e-17
 1.429999999999999e+00 -8.256108849411650e-01 -1.696570384383008e-17
 1.429999999999999e+00 -8.256108849411650e-01 -1.696570384383008e-17
 1.429999999999999e+00 -8.256108849411650e-01 -1.696570384383008e-17
 1.429999999999999e+00 -8.256108849411650e-01 -1.696570384383008e-17
 1.429999999999999e+00 -8.256108849411650e-01 -1.696570384383008e-17
 1.429999999999999e+00 -8.256108849411650e-01 -1.696570384383008e-17
 1.429999999999999e+00 -8.256108849411650e-01 -1.696570384383008e-17
 1.429999999999999e+00 -8.256108849411650e-01 -1.696570384383008e-17
 1.429999999999999e+00 -8.256108849411650e-01 -1.696570384383008e-17
 1.429999999999999e+00 -8.256108849411650e-01 -1.696570384383008e-17
 1.429999999999999e+00 -8.256108849411650e-01 -1.696570384383008e-17
 1.429999999999999e+00 -8.256108849411650e-01 -1.696570384383008e-17
 1.429999999999999e+00 -8.256108849411650e-01 -1.696570384383008e-17
 1.429999999999999e+00 -8.256108849411650e-01 -1.696570384383008e-17
 1.429999999999999e+00 -8.256108849411650e-01 -1.696570384383008e-17
 1.429999999999999e+00 -8.256108849411650e-01 -1.696570384383008e-17
 1.429999999999999e+00 -8.256108849411650e-01 -1.696570384383008e-17
 1.429999999999999e+00 -8.256108849411650e-01 -1.696570384383008e-17
 1.429999999999999e+00 -8.256108849411650e-01 -1.696570384383008e-17
 1.429999999999999e+00 -8.256108849411650e-01 -1.696570384383008e-17
 1.429999999999999e+00 -8.256108849411650e-01 -1.696570384383008e-17
 1.429999999999999e+00 -8.256108849411650e-01 -1.696570384383008e-17
 1.429999999999999e+00 -8.256108849411650e-01 -1.696570384383008e-17
 1.429999999999999e+00 -8.256108849411650e-01 -1.696570384383008e-17
 1.429999999999999e+00 -8.256108849411650e-01 -1.696570384383008e-17
 1.429999999999999e+00 -8.256108849411650e-01 -1.696570384383008e-17
 1.429999999999999e+00 -8.256108849411650e-01 -1.696570384383008e-17
 1.429999999999999e+00 -8.256108849411650e-01 -1.696570384383008e-17
 1.429999999999999e+00 -8.256108849411650e-01 -1.696570384383008e-17
 1.429999999999999e+00 -8.256108849411650e-01 -1.696570384383008e-17
 1.429999999999999e+00 -8.256108849411650e-01 -1.696570384383008e-17
 1.429999999999999e+00 -8.256108849411650e-01 -1.696570384383008e-17
 1.429999999999999e+00 -8.256108849411650e-01 -1.696570384383008e-17
 1.429999999999999e+00 -8.256108849411650e-01 -1.696570384383008e-17
 1.429999999999999e+00 -8.256108849411650e-01 -1.696570384383008e-17
 1.429999999999999e+00 -8.256108849411650e-01 -1.696570384383008e-17
 1.429999999999999e+00 -8.256108849411650e-01 -1.696570384383008e-17
 1.429999999999999e+00 -8.256108849411650e-01 -1.696570384383008e-17
 1.429999999999999e+00 -8.256108849411650e-01 -1.696570384383008e-17
 1.429999999999999e+00 -8.256108849411650e-01 -1.696570384383008e-17
 1.429999999999999e+00 -8.256108849411650e-01 -1.696570384383008e-17
 1.429999999999999e+00 -8.256108849411650e-01 -1.696570384383008e-17
 1.429999999999999e+00 -8.256108849411650e-01 -1.696570384383008e-17
 1.429999999999999e+00 -8.256108849411650e-01 -1.696570384383008e-17
 1.429999999999999e+00 -8.256108849411650e-01 -1.696570384383008e-17
 1.429999999999999e+00 -8.256108849411650e-01 -1.696570384383008e-17
 1.429999999999999e+00 -8.256108849411650e-01 -1.696570384383008e-17
 1.429999999999999e+00 -8.256108849411650e-01 -1.696570384383008e-17
 1.429999999999999e+00 -8.256108849411650e-01 -1.696570384383008e-17
 1.429999999999999e+00 -8.256108849411650e-01 -1.696570384383008e-17
 1.429999999999999e+00 -8.256108849411650e-01 -1.696570384383008e-17
 1.429999999999999e+00 -8.256108849411650e-01 -1.696570384383008e-17
 1.429999999999999e+00 -8.256108849411650e-01 -1.696570384383008e-17
 1.429999999999999e+00 -8.256108849411650e-01 -1.696570384383008e-17
 1.429999999999999e+00 -8.256108849411650e-01 -1.696570384383008e-17
 1.429999999999999e+00 -8.256108849411650e-01 -1.696570384383008e-17
 1.429999999999999e+00 -8.256108849411650e-01 -1.696570384383008e-17
 1.429999999999999e+00 -8.256108849411650e-01 -1.696570384383008e-17
 1.429999999999999e+00 -8.256108849411650e-01 -1.696570384383008e-17
 1.429999999999999e+00 -8.256108849411650e-01 -1.696570384383008e-17
 1.429999999999999e+00 -8.256108849411650e-01 -1.696570384383008e-17
 1.429999999999999e+00 -8.256108849411650e-01 -1.696570384383008e-17
 1.429999999999999e+00 -8.256108849411650e-01 -1.696570384383008e-17
 1.429999999999999e+00 -8.256108849411650e-01 -1.696570384383008e-17
 1.429999999999999e+00 -8.256108849411650e-01 -1.696570384383008e-17
 1.429999999999999e+00 -8.256108849411650e-01 -1.696570384383008e-17
 1.429999999999999e+00 -8.256108849411650e-01 -1.696570384383008e-17
 1.429999999999999e+00 -8.256108849411650e-01 -1.696570384383008e-17
 1.429999999999999e+00 -8.256108849411650e-01 -1.696570384383008e-17
 1.429999999999999e+00 -8.256108849411650e-01 -1.696570384383008e-17
 1.429999999999999e+00 -8.256108849411650e-01 -1.696570384383008e-17
 1.429999999999999e+00 -8.256108849411650e-01 -1.696570384383008e-17
 1.429999999999999e+00 -8.256108849411650e-01 -1.696570384383008e-17
 1.429999999999999e+00 -8.256108849411650e-01 -1.696570384383008e-17
 1.429999999999999e+00 -8.256108849411650e-01 -1.696570384383008e-17
 1.429999999999999e+00 -8.256108849411650e-01 -1.696570384383008e-17
 1.429999999999999e+00 -8.256108849411650e-01 -1.696570384383008e-17
 1.429999999999999e+00 -8.256108849411650e-01 -1.696570384383008e-17

VECTORS burgers_vector_local double
-1.666666666666667e-01 -3.333333333333333e-01 -1.666666666666665e-01
1.666666666666667e-01 3.333333333333333e-01 1.666666666666665e-01
-1.666666666666667e-01 -3.333333333333333e-01 -1.666666666666665e-01
-1.666666666666667e-01 -3.333333333333333e-01 -1.666666666666665e-01
-1.666666666666667e-01 -3.333333333333333e-01 -1.666666666666665e-01
-1.666666666666667e-01 -3.333333333333333e-01 -1.666666666666665e-01
-1.666666666666667e-01 -3.333333333333333e-01 -1.666666666666665e-01
-1.666666666666667e-01 -3.333333333333333e-01 -1.666666666666665e-01
-1.666666666666667e-01 -3.333333333333333e-01 -1.666666666666665e-01
-1.666666666666667e-01 -3.333333333333333e-01 -1.666666666666665e-01
-1.666666666666667e-01 -3.333333333333333e-01 -1.666666666666665e-01
-1.666666666666667e-01 -3.333333333333333e-01 -1.666666666666665e-01
-1.666666666666667e-01 -3.333333333333333e-01 -1.666666666666665e-01
-1.666666666666667e-01 -3.333333333333333e-01 -1.666666666666665e-01
-1.666666666666667e-01 -3.333333333333333e-01 -1.666666666666665e-01
-1.666666666666667e-01 -3.333333333333333e-01 -1.666666666666665e-01
-1.666666666666667e-01 -3.333333333333333e-01 -1.666666666666665e-01
-1.666666666666667e-01 -3.333333333333333e-01 -1.666666666666665e-01
-1.666666666666667e-01 -3.333333333333333e-01 -1.666666666666665e-01
-1.666666666666667e-01 -3.333333333333333e-01 -1.666666666666665e-01
-1.666666666666667e-01 -3.333333333333333e-01 -1.666666666666665e-01
-1.666666666666667e-01 -3.333333333333333e-01 -1.666666666666665e-01
-1.666666666666667e-01 -3.333333333333333e-01 -1.666666666666665e-01
-1.666666666666667e-01 -3.333333333333333e-01 -1.666666666666665e-01
-1.666666666666667e-01 -3.333333333333333e-01 -1.666666666666665e-01
-1.666666666666667e-01 -3.333333333333333e-01 -1.666666666666665e-01
-1.666666666666667e-01 -3.333333333333333e-01 -1.666666666666665e-01
-1.666666666666667e-01 -3.333333333333333e-01 -1.666666666666665e-01
-1.666666666666667e-01 -3.333333333333333e-01 -1.666666666666665e-01
-1.666666666666667e-01 -3.333333333333333e-01 -1.666666666666665e-01
-1.666666666666667e-01 -3.333333333333333e-01 -1.666666666666665e-01
-1.666666666666667e-01 -3.333333333333333e-01 -1.666666666666665e-01
-1.666666666666667e-01 -3.333333333333333e-01 -1.666666666666665e-01
-1.666666666666667e-01 -3.333333333333333e-01 -1.666666666666665e-01
-1.666666666666667e-01 -3.333333333333333e-01 -1.666666666666665e-01
-1.666666666666667e-01 -3.333333333333333e-01 -1.666666666666665e-01
-1.666666666666667e-01 -3.333333333333333e-01 -1.666666666666665e-01
-1.666666666666667e-01 -3.333333333333333e-01 -1.666666666666665e-01
-1.666666666666667e-01 -3.333333333333333e-01 -1.666666666666665e-01
-1.666666666666667e-01 -3.333333333333333e-01 -1.666666666666665e-01
-1.666666666666667e-01 -3.333333333333333e-01 -1.666666666666665e-01
-1.666666666666667e-01 -3.333333333333333e-01 -1.666666666666665e-01
-1.666666666666667e-01 -3.333333333333333e-01 -1.666666666666665e-01
-1.666666666666667e-01 -3.333333333333333e-01 -1.666666666666665e-01
-1.666666666666667e-01 -3.333333333333333e-01 -1.666666666666665e-01
-1.666666666666667e-01 -3.333333333333333e-01 -1.666666666666665e-01
-1.666666666666667e-01 -3.333333333333333e-01 -1.666666666666665e-01
-1.666666666666667e-01 -3.333333333333333e-01 -1.666666666666665e-01
-1.666666666666667e-01 -3.333333333333333e-01 -1.666666666666665e-01
-1.666666666666667e-01 -3.333333333333333e-01 -1.666666666666665e-01
-1.666666666666667e-01 -3.333333333333333e-01 -1.666666666666665e-01
-1.666666666666667e-01 -3.333333333333333e-01 -1.666666666666665e-01
-1.666666666666667e-01 -3.333333333333333e-01 -1.666666666666665e-01
-1.666666666666667e-01 -3.333333333333333e-01 -1.666666666666665e-01
-1.666666666666667e-01 -3.333333333333333e-01 -1.666666666666665e-01
-1.666666666666667e-01 -3.333333333333333e-01 -1.666666666666665e-01
-1.666666666666667e-01 -3.333333333333333e-01 -1.666666666666665e-01
-1.666666666666667e-01 -3.333333333333333e-01 -1.666666666666665e-01
-1.666666666666667e-01 -3.333333333333333e-01 -1.666666666666665e-01
-1.666666666666667e-01 -3.333333333333333e-01 -1.666666666666665e-01
-1.666666666666667e-01 -3.333333333333333e-01 -1.666666666666665e-01
-1.666666666666667e-01 -3.333333333333333e-01 -1.666666666666665e-01
-1.666666666666667e-01 -3.333333333333333e-01 -1.666666666666665e-01
-1.666666666666667e-01 -3.333333333333333e-01 -1.666666666666665e-01
-1.666666666666667e-01 -3.333333333333333e-01 -1.666666666666665e-01
-1.666666666666667e-01 -3.333333333333333e-01 -1.666666666666665e-01
-1.666666666666667e-01 -3.333333333333333e-01 -1.666666666666665e-01
-1.666666666666667e-01 -3.333333333333333e-01 -1.666666666666665e-01
-1.666666666666667e-01 -3.333333333333333e-01 -1.666666666666665e-01
-1.666666666666667e-01 -3.333333333333333e-01 -1.666666666666665e-01
-1.666666666666667e-01 -3.333333333333333e-01 -1.666666666666665e-01
-1.666666666666667e-01 -3.333333333333333e-01 -1.666666666666665e-01
-1.666666666666667e-01 -3.333333333333333e-01 -1.666666666666665e-01
-1.666666666666667e-01 -3.333333333333333e-01 -1.666666666666665e-01
-1.666666666666667e-01 -3.333333333333333e-01 -1.666666666666665e-01
-1.666666666666667e-01 -3.333333333333333e-01 -1.666666666666665e-01
-1.666666666666667e-01 -3.333333333333333e-01 -1.666666666666665e-01
-1.666666666666667e-01 -3.333333333333333e-01 -1.666666666666665e-01
-1.666666666666667e-01 -3.333333333333333e-01 -1.666666666666665e-01
-1.666666666666667e-01 -3.333333333333333e-01 -1.666666666666665e-01
-1.666666666666667e-01 -3.333333333333333e-01 -1.666666666666665e-01
-1.666666666666667e-01 -3.333333333333333e-01 -1.666666666666665e-01
-1.666666666666667e-01 -3.333333333333333e-01 -1.666666666666665e-01
-1.666666666666667e-01 -3.333333333333333e-01 -1.666666666666665e-01
-1.666666666666667e-01 -3.333333333333333e-01 -1.666666666666665e-01
-1.666666666666667e-01 -3.333333333333333e-01 -1.666666666666665e-01
-1.666666666666667e-01 -3.333333333333333e-01 -1.666666666666665e-01
-1.666666666666667e-01 -3.333333333333333e-01 -1.666666666666665e-01
-1.666666666666667e-01 -3.333333333333333e-01 -1.666666666666665e-01
-1.666666666666667e-01 -3.333333333333333e-01 -1.666666666666665e-01
-1.666666666666667e-01 -3.333333333333333e-01 -1.666666666666665e-01
-1.666666666666667e-01 -3.333333333333333e-01 -1.666666666666665e-01
-1.666666666666667e-01 -3.333333333333333e-01 -1.666666666666665e-01
-1.666666666666667e-01 -3.333333333333333e-01 -1.666666666666665e-01
-1.666666666666667e-01 -3.333333333333333e-01 -1.666666666666665e-01
-1.666666666666667e-01 -3.333333333333333e-01 -1.666666666666665e-01
-1.666666666666667e-01 -3.333333333333333e-01 -1.666666666666665e-01
-1.666666666666667e-01 -3.333333333333333e-01 -1.666666666666665e-01
-1.666666666666667e-01 -3.333333333333333e-01 -1.666666666666665e-01
-1.666666666666667e-01 -3.333333333333333e-01 -1.666666666666665e-01
-1.666666666666667e-01 -3.333333333333333e-01 -1.666666666666665e-01
-1.666666666666667e-01 -3.333333333333333e-01 -1.666666666666665e-01
-1.666666666666667e-01 -3.333333333333333e-01 -1.666666666666665e-01
-1.666666666666667e-01 -3.333333333333333e-01 -1.666666666666665e-01
-1.666666666666667e-01 -3.333333333333333e-01 -1.666666666666665e-01
-1.666666666666667e-01 -3.333333333333333e-01 -1.666666666666665e-01
-1.666666666666667e-01 -3.333333333333333e-01 -1.666666666666665e-01
-1.666666666666667e-01 -3.333333333333333e-01 -1.666666666666665e-01
-1.666666666666667e-01 -3.333333333333333e-01 -1.666666666666665e-01
-1.666666666666667e-01 -3.333333333333333e-01 -1.666666666666665e-01
-1.666666666666667e-01 -3.333333333333333e-01 -1.666666666666665e-01
-1.666666666666667e-01 -3.333333333333333e-01 -1.666666666666665e-01
-1.666666666666667e-01 -3.333333333333333e-01 -1.666666666666665e-01
-1.666666666666667e-01 -3.333333333333333e-01 -1.666666666666665e-01
-1.666666666666667e-01 -3.333333333333333e-01 -1.666666666666665e-01
-1.666666666666667e-01 -3.333333333333333e-01 -1.666666666666665e-01
-1.666666666666667e-01 -3.333333333333333e-01 -1.666666666666665e-01
-1.666666666666667e-01 -3.333333333333333e-01 -1.666666666666665e-01
-1.666666666666667e-01 -3.333333333333333e-01 -1.666666666666665e-01
-1.666666666666667e-01 -3.333333333333333e-01 -1.666666666666665e-01
-1.666666666666667e-01 -3.333333333333333e-01 -1.666666666666665e-01
-1.666666666666667e-01 -3.333333333333333e-01 -1.666666666666665e-01
-1.666666666666667e-01 -3.333333333333333e-01 -1.666666666666665e-01
-1.666666666666667e-01 -3.333333333333333e-01 -1.666666666666665e-01
-1.666666666666667e-01 -3.333333333333333e-01 -1.666666666666665e-01
-1.666666666666667e-01 -3.333333333333333e-01 -1.666666666666665e-01
-1.666666666666667e-01 -3.333333333333333e-01 -1.666666666666665e-01
-1.666666666666667e-01 -3.333333333333333e-01 -1.666666666666665e-01
-1.666666666666667e-01 -3.333333333333333e-01 -1.666666666666665e-01
-1.666666666666667e-01 -3.333333333333333e-01 -1.666666666666665e-01
-1.666666666666667e-01 -3.333333333333333e-01 -1.666666666666665e-01
-1.666666666666667e-01 -3.333333333333333e-01 -1.666666666666665e-01
-1.666666666666667e-01 -3.333333333333333e-01 -1.666666666666665e-01
-1.666666666666667e-01 -3.333333333333333e-01 -1.666666666666665e-01
-1.666666666666667e-01 -3.333333333333333e-01 -1.666666666666665e-01
-1.666666666666667e-01 -3.333333333333333e-01 -1.666666666666665e-01
-1.666666666666667e-01 -3.333333333333333e-01 -1.666666666666665e-01
-1.666666666666667e-01 -3.333333333333333e-01 -1.666666666666665e-01
-1.666666666666667e-01 -3.333333333333333e-01 -1.666666666666665e-01
-1.666666666666667e-01 -3.333333333333333e-01 -1.666666666666665e-01
-1.666666666666667e-01 -3.333333333333333e-01 -1.666666666666665e-01
-1.666666666666667e-01 -3.333333333333333e-01 -1.666666666666665e-01
-1.666666666666667e-01 -3.333333333333333e-01 -1.666666666666665e-01
-1.666666666666667e-01 -3.333333333333333e-01 -1.666666666666665e-01
-1.666666666666667e-01 -3.333333333333333e-01 -1.666666666666665e-01
-1.666666666666667e-01 -3.333333333333333e-01 -1.666666666666665e-01
-1.666666666666667e-01 -3.333333333333333e-01 -1.666666666666665e-01
-1.666666666666667e-01 -3.333333333333333e-01 -1.666666666666665e-01
-1.666666666666667e-01 -3.333333333333333e-01 -1.666666666666665e-01
-1.666666666666667e-01 -3.333333333333333e-01 -1.666666666666665e-01
-1.666666666666667e-01 -3.333333333333333e-01 -1.666666666666665e-01
-1.666666666666667e-01 -3.333333333333333e-01 -1.666666666666665e-01
-1.666666666666667e-01 -3.333333333333333e-01 -1.666666666666665e-01
-1.666666666666667e-01 -3.333333333333333e-01 -1.666666666666665e-01
-1.666666666666667e-01 -3.333333333333333e-01 -1.666666666666665e-01
-1.666666666666667e-01 -3.333333333333333e-01 -1.666666666666665e-01
-1.666666666666667e-01 -3.333333333333333e-01 -1.666666666666665e-01
-1.666666666666667e-01 -3.333333333333333e-01 -1.666666666666665e-01
-1.666666666666667e-01 -3.333333333333333e-01 -1.666666666666665e-01
-1.666666666666667e-01 -3.333333333333333e-01 -1.666666666666665e-01
-1.666666666666667e-01 -3.333333333333333e-01 -1.666666666666665e-01
-1.666666666666667e-01 -3.333333333333333e-01 -1.666666666666665e-01
-1.666666666666667e-01 -3.333333333333333e-01 -1.666666666666665e-01
-1.666666666666667e-01 -3.333333333333333e-01 -1.666666666666665e-01
-1.666666666666667e-01 -3.333333333333333e-01 -1.666666666666665e-01
-1.666666666666667e-01 -3.333333333333333e-01 -1.666666666666665e-01
-1.666666666666667e-01 -3.333333333333333e-01 -1.666666666666665e-01
-1.666666666666667e-01 -3.333333333333333e-01 -1.666666666666665e-01
-1.666666666666667e-01 -3.333333333333333e-01 -1.666666666666665e-01
-1.666666666666667e-01 -3.333333333333333e-01 -1.666666666666665e-01
-1.666666666666667e-01 -3.333333333333333e-01 -1.666666666666665e-01
-1.666666666666667e-01 -3.333333333333333e-01 -1.666666666666665e-01
-1.666666666666667e-01 -3.333333333333333e-01 -1.666666666666665e-01
-1.666666666666667e-01 -3.333333333333333e-01 -1.666666666666665e-01
-1.666666666666667e-01 -3.333333333333333e-01 -1.666666666666665e-01
-1.666666666666667e-01 -3.333333333333333e-01 -1.666666666666665e-01
-1.666666666666667e-01 -3.333333333333333e-01 -1.666666666666665e-01
-1.666666666666667e-01 -3.333333333333333e-01 -1.666666666666665e-01
-1.666666666666667e-01 -3.333333333333333e-01 -1.666666666666665e-01
-1.666666666666667e-01 -3.333333333333333e-01 -1.666666666666665e-01
-1.666666666666667e-01 -3.333333333333333e-01 -1.666666666666665e-01
-1.666666666666667e-01 -3.333333333333333e-01 -1.666666666666665e-01
-1.666666666666667e-01 -3.333333333333333e-01 -1.666666666666665e-01
-1.666666666666667e-01 -3.333333333333333e-01 -1.666666666666665e-01
-1.666666666666667e-01 -3.333333333333333e-01 -1.666666666666665e-01
-1.666666666666667e-01 -3.333333333333333e-01 -1.666666666666665e-01
-1.666666666666667e-01 -3.333333333333333e-01 -1.666666666666665e-01
-1.666666666666667e-01 -3.333333333333333e-01 -1.666666666666665e-01
-1.666666666666667e-01 -3.333333333333333e-01 -1.666666666666665e-01
-1.666666666666667e-01 -3.333333333333333e-01 -1.666666666666665e-01
-1.666666666666667e-01 -3.333333333333333e-01 -1.666666666666665e-01
-1.666666666666667e-01 -3.333333333333333e-01 -1.666666666666665e-01
-1.666666666666667e-01 -3.333333333333333e-01 -1.666666666666665e-01
-1.666666666666667e-01 -3.333333333333333e-01 -1.666666666666665e-01
-1.666666666666667e-01 -3.333333333333333e-01 -1.666666666666665e-01
-1.666666666666667e-01 -3.333333333333333e-01 -1.666666666666665e-01
-1.666666666666667e-01 -3.333333333333333e-01 -1.666666666666665e-01
-1.666666666666667e-01 -3.333333333333333e-01 -1.666666666666665e-01
-1.666666666666667e-01 -3.333333333333333e-01 -1.666666666666665e-01
-1.666666666666667e-01 -3.333333333333333e-01 -1.666666666666665e-01
-1.666666666666667e-01 -3.333333333333333e-01 -1.666666666666665e-01
-1.666666666666667e-01 -3.333333333333333e-01 -1.666666666666665e-01
-1.666666666666667e-01 -3.333333333333333e-01 -1.666666666666665e-01
-1.666666666666667e-01 -3.333333333333333e-01 -1.666666666666665e-01
-1.666666666666667e-01 -3.333333333333333e-01 -1.666666666666665e-01
-1.666666666666667e-01 -3.333333333333333e-01 -1.666666666666665e-01
-1.666666666666667e-01 -3.333333333333333e-01 -1.666666666666665e-01
-1.666666666666667e-01 -3.333333333333333e-01 -1.666666666666665e-01
-1.666666666666667e-01 -3.333333333333333e-01 -1.666666666666665e-01
-1.666666666666667e-01 -3.333333333333333e-01 -1.666666666666665e-01
-1.666666666666667e-01 -3.333333333333333e-01 -1.666666666666665e-01
-1.666666666666667e-01 -3.333333333333333e-01 -1.666666666666665e-01
-1.666666666666667e-01 -3.333333333333333e-01 -1.666666666666665e-01
-1.666666666666667e-01 -3.333333333333333e-01 -1.666666666666665e-01
1.666666666666667e-01 3.333333333333333e-01 1.666666666666665e-01
-1.666666666666667e-01 -3.333333333333333e-01 -1.666666666666665e-01
-1.666666666666667e-01 -3.333333333333333e-01 -1.666666666666665e-01
-1.666666666666667e-01 -3.333333333333333e-01 -1.666666666666665e-01
-1.666666666666667e-01 -3.333333333333333e-01 -1.666666666666665e-01
-1.666666666666667e-01 -3.333333333333333e-01 -1.666666666666665e-01
-1.666666666666667e-01 -3.333333333333333e-01 -1.666666666666665e-01
-1.666666666666667e-01 -3.333333333333333e-01 -1.666666666666665e-01
-1.666666666666667e-01 -3.333333333333333e-01 -1.666666666666665e-01
-1.666666666666667e-01 -3.333333333333333e-01 -1.666666666666665e-01
-1.666666666666667e-01 -3.333333333333333e-01 -1.666666666666665e-01
-1.666666666666667e-01 -3.333333333333333e-01 -1.666666666666665e-01
-1.666666666666667e-01 -3.333333333333333e-01 -1.666666666666665e-01
-1.666666666666667e-01 -3.333333333333333e-01 -1.666666666666665e-01
-1.666666666666667e-01 -3.333333333333333e-01 -1.666666666666665e-01
-1.666666666666667e-01 -3.333333333333333e-01 -1.666666666666665e-01
-1.666666666666667e-01 -3.333333333333333e-01 -1.666666666666665e-01
-1.666666666666667e-01 -3.333333333333333e-01 -1.666666666666665e-01
-1.666666666666667e-01 -3.333333333333333e-01 -1.666666666666665e-01
-1.666666666666667e-01 -3.333333333333333e-01 -1.666666666666665e-01
-1.666666666666667e-01 -3.333333333333333e-01 -1.666666666666665e-01
-1.666666666666667e-01 -3.333333333333333e-01 -1.666666666666665e-01
-1.666666666666667e-01 -3.333333333333333e-01 -1.666666666666665e-01
-1.666666666666667e-01 -3.333333333333333e-01 -1.666666666666665e-01
-1.666666666666667e-01 -3.333333333333333e-01 -1.666666666666665e-01
-1.666666666666667e-01 -3.333333333333333e-01 -1.666666666666665e-01
-1.666666666666667e-01 -3.333333333333333e-01 -1.666666666666665e-01
-1.666666666666667e-01 -3.333333333333333e-01 -1.666666666666665e-01
-1.666666666666667e-01 -3.333333333333333e-01 -1.666666666666665e-01
-1.666666666666667e-01 -3.333333333333333e-01 -1.666666666666665e-01
-1.666666666666667e-01 -3.333333333333333e-01 -1.666666666666665e-01
-1.666666666666667e-01 -3.333333333333333e-01 -1.666666666666665e-01
-1.666666666666667e-01 -3.333333333333333e-01 -1.666666666666665e-01
-1.666666666666667e-01 -3.333333333333333e-01 -1.666666666666665e-01
-1.666666666666667e-01 -3.333333333333333e-01 -1.666666666666665e-01
-1.666666666666667e-01 -3.333333333333333e-01 -1.666666666666665e-01
-1.666666666666667e-01 -3.333333333333333e-01 -1.666666666666665e-01
-1.666666666666667e-01 -3.333333333333333e-01 -1.666666666666665e-01
-1.666666666666667e-01 -3.333333333333333e-01 -1.666666666666665e-01
-1.666666666666667e-01 -3.333333333333333e-01 -1.666666666666665e-01
-1.666666666666667e-01 -3.333333333333333e-01 -1.666666666666665e-01
-1.666666666666667e-01 -3.333333333333333e-01 -1.666666666666665e-01
-1.666666666666667e-01 -3.333333333333333e-01 -1.666666666666665e-01
-1.666666666666667e-01 -3.333333333333333e-01 -1.666666666666665e-01
-1.666666666666667e-01 -3.333333333333333e-01 -1.666666666666665e-01
-1.666666666666667e-01 -3.333333333333333e-01 -1.666666666666665e-01
-1.666666666666667e-01 -3.333333333333333e-01 -1.666666666666665e-01
-1.666666666666667e-01 -3.333333333333333e-01 -1.666666666666665e-01
-1.666666666666667e-01 -3.333333333333333e-01 -1.666666666666665e-01
-1.666666666666667e-01 -3.333333333333333e-01 -1.666666666666665e-01
-1.666666666666667e-01 -3.333333333333333e-01 -1.666666666666665e-01
-1.666666666666667e-01 -3.333333333333333e-01 -1.666666666666665e-01
-1.666666666666667e-01 -3.333333333333333e-01 -1.666666666666665e-01
-1.666666666666667e-01 -3.333333333333333e-01 -1.666666666666665e-01
-1.666666666666667e-01 -3.333333333333333e-01 -1.666666666666665e-01
-1.666666666666667e-01 -3.333333333333333e-01 -1.666666666666665e-01
-1.666666666666667e-01 -3.333333333333333e-01 -1.666666666666665e-01
-1.666666666666667e-01 -3.333333333333333e-01 -1.666666666666665e-01
-1.666666666666667e-01 -3.333333333333333e-01 -1.666666666666665e-01
-1.666666666666667e-01 -3.333333333333333e-01 -1.666666666666665e-01
-1.666666666666667e-01 -3.333333333333333e-01 -1.666666666666665e-01
-1.666666666666667e-01 -3.333333333333333e-01 -1.666666666666665e-01
-1.666666666666667e-01 -3.333333333333333e-01 -1.666666666666665e-01
-1.666666666666667e-01 -3.333333333333333e-01 -1.666666666666665e-01
-1.666666666666667e-01 -3.333333333333333e-01 -1.666666666666665e-01
-1.666666666666667e-01 -3.333333333333333e-01 -1.666666666666665e-01
-1.666666666666667e-01 -3.333333333333333e-01 -1.666666666666665e-01
-1.666666666666667e-01 -3.333333333333333e-01 -1.666666666666665e-01
-1.666666666666667e-01 -3.333333333333333e-01 -1.666666666666665e-01
-1.666666666666667e-01 -3.333333333333333e-01 -1.666666666666665e-01
-1.666666666666667e-01 -3.333333333333333e-01 -1.666666666666665e-01
-1.666666666666667e-01 -3.333333333333333e-01 -1.666666666666665e-01
-1.666666666666667e-01 -3.333333333333333e-01 -1.666666666666665e-01
-1.666666666666667e-01 -3.333333333333333e-01 -1.666666666666665e-01
-1.666666666666667e-01 -3.333333333333333e-01 -1.666666666666665e-01
-1.666666666666667e-01 -3.333333333333333e-01 -1.666666666666665e-01
-1.666666666666667e-01 -3.333333333333333e-01 -1.666666666666665e-01
-1.666666666666667e-01 -3.333333333333333e-01 -1.666666666666665e-01
-1.666666666666667e-01 -3.333333333333333e-01 -1.666666666666665e-01
-1.666666666666667e-01 -3.333333333333333e-01 -1.666666666666665e-01
-1.666666666666667e-01 -3.333333333333333e-01 -1.666666666666665e-01
-1.666666666666667e-01 -3.333333333333333e-01 -1.666666666666665e-01
-1.666666666666667e-01 -3.333333333333333e-01 -1.666666666666665e-01
-1.666666666666667e-01 -3.333333333333333e-01 -1.666666666666665e-01
-1.666666666666667e-01 -3.333333333333333e-01 -1.666666666666665e-01
-1.666666666666667e-01 -3.333333333333333e-01 -1.666666666666665e-01
-1.666666666666667e-01 -3.333333333333333e-01 -1.666666666666665e-01
-1.666666666666667e-01 -3.333333333333333e-01 -1.666666666666665e-01
-1.666666666666667e-01 -3.333333333333333e-01 -1.666666666666665e-01
-1.666666666666667e-01 -3.333333333333333e-01 -1.666666666666665e-01
-1.666666666666667e-01 -3.333333333333333e-01 -1.666666666666665e-01
-1.666666666666667e-01 -3.333333333333333e-01 -1.666666666666665e-01
-1.666666666666667e-01 -3.333333333333333e-01 -1.666666666666665e-01
-1.666666666666667e-01 -3.333333333333333e-01 -1.666666666666665e-01
-1.666666666666667e-01 -3.333333333333333e-01 -1.666666666666665e-01
-1.666666666666667e-01 -3.333333333333333e-01 -1.666666666666665e-01
-1.666666666666667e-01 -3.333333333333333e-01 -1.666666666666665e-01
-1.666666666666667e-01 -3.333333333333333e-01 -1.666666666666665e-01
-1.666666666666667e-01 -3.333333333333333e-01 -1.666666666666665e-01
-1.666666666666667e-01 -3.333333333333333e-01 -1.666666666666665e-01
-1.666666666666667e-01 -3.333333333333333e-01 -1.666666666666665e-01
-1.666666666666667e-01 -3.333333333333333e-01 -1.666666666666665e-01
-1.666666666666667e-01 -3.333333333333333e-01 -1.666666666666665e-01
-1.666666666666667e-01 -3.333333333333333e-01 -1.666666666666665e-01
-1.666666666666667e-01 -3.333333333333333e-01 -1.666666666666665e-01
-1.666666666666667e-01 -3.333333333333333e-01 -1.666666666666665e-01
-1.666666666666667e-01 -3.333333333333333e-01 -1.666666666666665e-01
-1.666666666666667e-01 -3.333333333333333e-01 -1.666666666666665e-01
-1.666666666666667e-01 -3.333333333333333e-01 -1.666666666666665e-01
-1.666666666666667e-01 -3.333333333333333e-01 -1.666666666666665e-01
-1.666666666666667e-01 -3.333333333333333e-01 -1.666666666666665e-01
-1.666666666666667e-01 -3.333333333333333e-01 -1.666666666666665e-01
-1.666666666666667e-01 -3.333333333333333e-01 -1.666666666666665e-01
-1.666666666666667e-01 -3.333333333333333e-01 -1.666666666666665e-01
-1.666666666666667e-01 -3.333333333333333e-01 -1.666666666666665e-01
-1.666666666666667e-01 -3.333333333333333e-01 -1.666666666666665e-01
-1.666666666666667e-01 -3.333333333333333e-01 -1.666666666666665e-01
-1.666666666666667e-01 -3.333333333333333e-01 -1.666666666666665e-01
-1.666666666666667e-01 -3.333333333333333e-01 -1.666666666666665e-01
-1.666666666666667e-01 -3.333333333333333e-01 -1.666666666666665e-01
-1.666666666666667e-01 -3.333333333333333e-01 -1.666666666666665e-01
-1.666666666666667e-01 -3.333333333333333e-01 -1.666666666666665e-01
-1.666666666666667e-01 -3.333333333333333e-01 -1.666666666666665e-01
-1.666666666666667e-01 -3.333333333333333e-01 -1.666666666666665e-01
-1.666666666666667e-01 -3.333333333333333e-01 -1.666666666666665e-01
-1.666666666666667e-01 -3.333333333333333e-01 -1.666666666666665e-01
-1.666666666666667e-01 -3.333333333333333e-01 -1.666666666666665e-01
-1.666666666666667e-01 -3.333333333333333e-01 -1.666666666666665e-01
-1.666666666666667e-01 -3.333333333333333e-01 -1.666666666666665e-01
-1.666666666666667e-01 -3.333333333333333e-01 -1.666666666666665e-01
-1.666666666666667e-01 -3.333333333333333e-01 -1.666666666666665e-01
-1.666666666666667e-01 -3.333333333333333e-01 -1.666666666666665e-01
-1.666666666666667e-01 -3.333333333333333e-01 -1.666666666666665e-01
-1.666666666666667e-01 -3.333333333333333e-01 -1.666666666666665e-01
-1.666666666666667e-01 -3.333333333333333e-01 -1.666666666666665e-01
-1.666666666666667e-01 -3.333333333333333e-01 -1.666666666666665e-01
-1.666666666666667e-01 -3.333333333333333e-01 -1.666666666666665e-01
-1.666666666666667e-01 -3.333333333333333e-01 -1.666666666666665e-01
-1.666666666666667e-01 -3.333333333333333e-01 -1.666666666666665e-01
-1.666666666666667e-01 -3.333333333333333e-01 -1.666666666666665e-01
-1.666666666666667e-01 -3.333333333333333e-01 -1.666666666666665e-01
-1.666666666666667e-01 -3.333333333333333e-01 -1.666666666666665e-01
-1.666666666666667e-01 -3.333333333333333e-01 -1.666666666666665e-01
-1.666666666666667e-01 -3.333333333333333e-01 -1.666666666666665e-01
-1.666666666666667e-01 -3.333333333333333e-01 -1.666666666666665e-01
-1.666666666666667e-01 -3.333333333333333e-01 -1.666666666666665e-01
-1.666666666666667e-01 -3.333333333333333e-01 -1.666666666666665e-01
-1.666666666666667e-01 -3.333333333333333e-01 -1.666666666666665e-01
-1.666666666666667e-01 -3.333333333333333e-01 -1.666666666666665e-01
-1.666666666666667e-01 -3.333333333333333e-01 -1.666666666666665e-01
-1.666666666666667e-01 -3.333333333333333e-01 -1.666666666666665e-01
-1.666666666666667e-01 -3.333333333333333e-01 -1.666666666666665e-01
-1.666666666666667e-01 -3.333333333333333e-01 -1.666666666666665e-01
-1.666666666666667e-01 -3.333333333333333e-01 -1.666666666666665e-01
-1.666666666666667e-01 -3.333333333333333e-01 -1.666666666666665e-01
-1.666666666666667e-01 -3.333333333333333e-01 -1.666666666666665e-01
-1.666666666666667e-01 -3.333333333333333e-01 -1.666666666666665e-01
-1.666666666666667e-01 -3.333333333333333e-01 -1.666666666666665e-01
-1.666666666666667e-01 -3.333333333333333e-01 -1.666666666666665e-01
-1.666666666666667e-01 -3.333333333333333e-01 -1.666666666666665e-01
-1.666666666666667e-01 -3.333333333333333e-01 -1.666666666666665e-01
-1.666666666666667e-01 -3.333333333333333e-01 -1.666666666666665e-01
-1.666666666666667e-01 -3.333333333333333e-01 -1.666666666666665e-01
-1.666666666666667e-01 -3.333333333333333e-01 -1.666666666666665e-01
-1.666666666666667e-01 -3.333333333333333e-01 -1.666666666666665e-01
-1.666666666666667e-01 -3.333333333333333e-01 -1.666666666666665e-01
-1.666666666666667e-01 -3.333333333333333e-01 -1.666666666666665e-01
-1.666666666666667e-01 -3.333333333333333e-01 -1.666666666666665e-01
-1.666666666666667e-01 -3.333333333333333e-01 -1.666666666666665e-01
-1.666666666666667e-01 -3.333333333333333e-01 -1.666666666666665e-01
-1.666666666666667e-01 -3.333333333333333e-01 -1.666666666666665e-01
-1.666666666666667e-01 -3.333333333333333e-01 -1.666666666666665e-01
-1.666666666666667e-01 -3.333333333333333e-01 -1.666666666666665e-01
-1.666666666666667e-01 -3.333333333333333e-01 -1.666666666666665e-01
-1.666666666666667e-01 -3.333333333333333e-01 -1.666666666666665e-01
-1.666666666666667e-01 -3.333333333333333e-01 -1.666666666666665e-01
-1.666666666666667e-01 -3.333333333333333e-01 -1.666666666666665e-01
-1.666666666666667e-01 -3.333333333333333e-01 -1.666666666666665e-01
-1.666666666666667e-01 -3.333333333333333e-01 -1.666666666666665e-01
-1.666666666666667e-01 -3.333333333333333e-01 -1.666666666666665e-01
-1.666666666666667e-01 -3.333333333333333e-01 -1.666666666666665e-01
-1.666666666666667e-01 -3.333333333333333e-01 -1.666666666666665e-01
-1.666666666666667e-01 -3.333333333333333e-01 -1.666666666666665e-01
-1.666666666666667e-01 -3.333333333333333e-01 -1.666666666666665e-01
-1.666666666666667e-01 -3.333333333333333e-01 -1.666666666666665e-01
-1.666666666666667e-01 -3.333333333333333e-01 -1.666666666666665e-01
-1.666666666666667e-01 -3.333333333333333e-01 -1.666666666666665e-01
-1.666666666666667e-01 -3.333333333333333e-01 -1.666666666666665e-01
-1.666666666666667e-01 -3.333333333333333e-01 -1.666666666666665e-01
-1.666666666666667e-01 -3.333333333333333e-01 -1.666666666666665e-01
-1.666666666666667e-01 -3.333333333333333e-01 -1.666666666666665e-01
-1.666666666666667e-01 -3.333333333333333e-01 -1.666666666666665e-01
-1.666666666666667e-01 -3.333333333333333e-01 -1.666666666666665e-01
-1.666666666666667e-01 -3.333333333333333e-01 -1.666666666666665e-01
-1.666666666666667e-01 -3.333333333333333e-01 -1.666666666666665e-01
-1.666666666666667e-01 -3.333333333333333e-01 -1.666666666666665e-01
-1.666666666666667e-01 -3.333333333333333e-01 -1.666666666666665e-01
-1.666666666666667e-01 -3.333333333333333e-01 -1.666666666666665e-01
-1.666666666666667e-01 -3.333333333333333e-01 -1.666666666666665e-01
-1.666666666666667e-01 -3.333333333333333e-01 -1.666666666666665e-01
-1.666666666666667e-01 -3.333333333333333e-01 -1.666666666666665e-01
1.666666666666667e-01 3.333333333333333e-01 1.666666666666665e-01
-1.666666666666667e-01 -3.333333333333333e-01 -1.666666666666665e-01
1.666666666666667e-01 3.333333333333333e-01 1.666666666666665e-01
1.666666666666667e-01 3.333333333333333e-01 1.666666666666665e-01
1.666666666666667e-01 3.333333333333333e-01 1.666666666666665e-01
1.666666666666667e-01 3.333333333333333e-01 1.666666666666665e-01
1.666666666666667e-01 3.333333333333333e-01 1.666666666666665e-01
1.666666666666667e-01 3.333333333333333e-01 1.666666666666665e-01
1.666666666666667e-01 3.333333333333333e-01 1.666666666666665e-01
1.666666666666667e-01 3.333333333333333e-01 1.666666666666665e-01
1.666666666666667e-01 3.333333333333333e-01 1.666666666666665e-01
1.666666666666667e-01 3.333333333333333e-01 1.666666666666665e-01
1.666666666666667e-01 3.333333333333333e-01 1.666666666666665e-01
1.666666666666667e-01 3.333333333333333e-01 1.666666666666665e-01
1.666666666666667e-01 3.333333333333333e-01 1.666666666666665e-01
1.666666666666667e-01 3.333333333333333e-01 1.666666666666665e-01
1.666666666666667e-01 3.333333333333333e-01 1.666666666666665e-01
1.666666666666667e-01 3.333333333333333e-01 1.666666666666665e-01
1.666666666666667e-01 3.333333333333333e-01 1.666666666666665e-01
1.666666666666667e-01 3.333333333333333e-01 1.666666666666665e-01
1.666666666666667e-01 3.333333333333333e-01 1.666666666666665e-01
1.666666666666667e-01 3.333333333333333e-01 1.666666666666665e-01
1.666666666666667e-01 3.333333333333333e-01 1.666666666666665e-01
1.666666666666667e-01 3.333333333333333e-01 1.666666666666665e-01
1.666666666666667e-01 3.333333333333333e-01 1.666666666666665e-01
1.666666666666667e-01 3.333333333333333e-01 1.666666666666665e-01
1.666666666666667e-01 3.333333333333333e-01 1.666666666666665e-01
1.666666666666667e-01 3.333333333333333e-01 1.666666666666665e-01
1.666666666666667e-01 3.333333333333333e-01 1.666666666666665e-01
1.666666666666667e-01 3.333333333333333e-01 1.666666666666665e-01
1.666666666666667e-01 3.333333333333333e-01 1.666666666666665e-01
1.666666666666667e-01 3.333333333333333e-01 1.666666666666665e-01
1.666666666666667e-01 3.333333333333333e-01 1.666666666666665e-01
1.666666666666667e-01 3.333333333333333e-01 1.666666666666665e-01
1.666666666666667e-01 3.333333333333333e-01 1.666666666666665e-01
1.666666666666667e-01 3.333333333333333e-01 1.666666666666665e-01
1.666666666666667e-01 3.333333333333333e-01 1.666666666666665e-01
1.666666666666667e-01 3.333333333333333e-01 1.666666666666665e-01
1.666666666666667e-01 3.333333333333333e-01 1.666666666666665e-01
1.666666666666667e-01 3.333333333333333e-01 1.666666666666665e-01
1.666666666666667e-01 3.333333333333333e-01 1.666666666666665e-01
1.666666666666667e-01 3.333333333333333e-01 1.666666666666665e-01
1.666666666666667e-01 3.333333333333333e-01 1.666666666666665e-01
1.666666666666667e-01 3.333333333333333e-01 1.666666666666665e-01
1.666666666666667e-01 3.333333333333333e-01 1.666666666666665e-01
1.666666666666667e-01 3.333333333333333e-01 1.666666666666665e-01
1.666666666666667e-01 3.333333333333333e-01 1.666666666666665e-01
1.666666666666667e-01 3.333333333333333e-01 1.666666666666665e-01
1.666666666666667e-01 3.333333333333333e-01 1.666666666666665e-01
1.666666666666667e-01 3.333333333333333e-01 1.666666666666665e-01
1.666666666666667e-01 3.333333333333333e-01 1.666666666666665e-01
1.666666666666667e-01 3.333333333333333e-01 1.666666666666665e-01
1.666666666666667e-01 3.333333333333333e-01 1.666666666666665e-01
1.666666666666667e-01 3.333333333333333e-01 1.666666666666665e-01
1.666666666666667e-01 3.333333333333333e-01 1.666666666666665e-01
1.666666666666667e-01 3.333333333333333e-01 1.666666666666665e-01
1.666666666666667e-01 3.333333333333333e-01 1.666666666666665e-01
1.666666666666667e-01 3.333333333333333e-01 1.666666666666665e-01
1.666666666666667e-01 3.333333333333333e-01 1.666666666666665e-01
1.666666666666667e-01 3.333333333333333e-01 1.666666666666665e-01
1.666666666666667e-01 3.333333333333333e-01 1.666666666666665e-01
1.666666666666667e-01 3.333333333333333e-01 1.666666666666665e-01
1.666666666666667e-01 3.333333333333333e-01 1.666666666666665e-01
1.666666666666667e-01 3.333333333333333e-01 1.666666666666665e-01
1.666666666666667e-01 3.333333333333333e-01 1.666666666666665e-01
1.666666666666667e-01 3.333333333333333e-01 1.666666666666665e-01
1.666666666666667e-01 3.333333333333333e-01 1.666666666666665e-01
1.666666666666667e-01 3.333333333333333e-01 1.666666666666665e-01
1.666666666666667e-01 3.333333333333333e-01 1.666666666666665e-01
1.666666666666667e-01 3.333333333333333e-01 1.666666666666665e-01
1.666666666666667e-01 3.333333333333333e-01 1.666666666666665e-01
1.666666666666667e-01 3.333333333333333e-01 1.666666666666665e-01
1.666666666666667e-01 3.333333333333333e-01 1.666666666666665e-01
1.666666666666667e-01 3.333333333333333e-01 1.666666666666665e-01
1.666666666666667e-01 3.333333333333333e-01 1.666666666666665e-01
1.666666666666667e-01 3.333333333333333e-01 1.666666666666665e-01
1.666666666666667e-01 3.333333333333333e-01 1.666666666666665e-01
1.666666666666667e-01 3.333333333333333e-01 1.666666666666665e-01
1.666666666666667e-01 3.333333333333333e-01 1.666666666666665e-01
1.666666666666667e-01 3.333333333333333e-01 1.666666666666665e-01
1.666666666666667e-01 3.333333333333333e-01 1.666666666666665e-01
1.666666666666667e-01 3.333333333333333e-01 1.666666666666665e-01
1.666666666666667e-01 3.333333333333333e-01 1.666666666666665e-01
1.666666666666667e-01 3.333333333333333e-01 1.666666666666665e-01
1.666666666666667e-01 3.333333333333333e-01 1.666666666666665e-01
1.666666666666667e-01 3.333333333333333e-01 1.666666666666665e-01
1.666666666666667e-01 3.333333333333333e-01 1.666666666666665e-01
1.666666666666667e-01 3.333333333333333e-01 1.666666666666665e-01
1.666666666666667e-01 3.333333333333333e-01 1.666666666666665e-01
1.666666666666667e-01 3.333333333333333e-01 1.666666666666665e-01
1.666666666666667e-01 3.333333333333333e-01 1.666666666666665e-01
1.666666666666667e-01 3.333333333333333e-01 1.666666666666665e-01
1.666666666666667e-01 3.333333333333333e-01 1.666666666666665e-01
1.666666666666667e-01 3.333333333333333e-01 1.666666666666665e-01
1.666666666666667e-01 3.333333333333333e-01 1.666666666666665e-01
1.666666666666667e-01 3.333333333333333e-01 1.666666666666665e-01
1.666666666666667e-01 3.333333333333333e-01 1.666666666666665e-01
1.666666666666667e-01 3.333333333333333e-01 1.666666666666665e-01
1.666666666666667e-01 3.333333333333333e-01 1.666666666666665e-01
1.666666666666667e-01 3.333333333333333e-01 1.666666666666665e-01
1.666666666666667e-01 3.333333333333333e-01 1.666666666666665e-01
1.666666666666667e-01 3.333333333333333e-01 1.666666666666665e-01
1.666666666666667e-01 3.333333333333333e-01 1.666666666666665e-01
1.666666666666667e-01 3.333333333333333e-01 1.666666666666665e-01
1.666666666666667e-01 3.333333333333333e-01 1.666666666666665e-01
1.666666666666667e-01 3.333333333333333e-01 1.666666666666665e-01
1.666666666666667e-01 3.333333333333333e-01 1.666666666666665e-01
1.666666666666667e-01 3.333333333333333e-01 1.666666666666665e-01
1.666666666666667e-01 3.333333333333333e-01 1.666666666666665e-01
1.666666666666667e-01 3.333333333333333e-01 1.666666666666665e-01
1.666666666666667e-01 3.333333333333333e-01 1.666666666666665e-01
1.666666666666667e-01 3.333333333333333e-01 1.666666666666665e-01
1.666666666666667e-01 3.333333333333333e-01 1.666666666666665e-01
1.666666666666667e-01 3.333333333333333e-01 1.666666666666665e-01
1.666666666666667e-01 3.333333333333333e-01 1.666666666666665e-01
1.666666666666667e-01 3.333333333333333e-01 1.666666666666665e-01
1.666666666666667e-01 3.333333333333333e-01 1.666666666666665e-01
1.666666666666667e-01 3.333333333333333e-01 1.666666666666665e-01
1.666666666666667e-01 3.333333333333333e-01 1.666666666666665e-01
1.666666666666667e-01 3.333333333333333e-01 1.666666666666665e-01
1.666666666666667e-01 3.333333333333333e-01 1.666666666666665e-01
1.666666666666667e-01 3.333333333333333e-01 1.666666666666665e-01
1.666666666666667e-01 3.333333333333333e-01 1.666666666666665e-01
1.666666666666667e-01 3.333333333333333e-01 1.666666666666665e-01
1.666666666666667e-01 3.333333333333333e-01 1.666666666666665e-01
1.666666666666667e-01 3.333333333333333e-01 1.666666666666665e-01
1.666666666666667e-01 3.333333333333333e-01 1.666666666666665e-01
1.666666666666667e-01 3.333333333333333e-01 1.666666666666665e-01
1.666666666666667e-01 3.333333333333333e-01 1.666666666666665e-01
1.666666666666667e-01 3.333333333333333e-01 1.666666666666665e-01
1.666666666666667e-01 3.333333333333333e-01 1.666666666666665e-01
1.666666666666667e-01 3.333333333333333e-01 1.666666666666665e-01
1.666666666666667e-01 3.333333333333333e-01 1.666666666666665e-01
1.666666666666667e-01 3.333333333333333e-01 1.666666666666665e-01
1.666666666666667e-01 3.333333333333333e-01 1.666666666666665e-01
1.666666666666667e-01 3.333333333333333e-01 1.666666666666665e-01
1.666666666666667e-01 3.333333333333333e-01 1.666666666666665e-01
1.666666666666667e-01 3.333333333333333e-01 1.666666666666665e-01
1.666666666666667e-01 3.333333333333333e-01 1.666666666666665e-01
1.666666666666667e-01 3.333333333333333e-01 1.666666666666665e-01
1.666666666666667e-01 3.333333333333333e-01 1.666666666666665e-01
1.666666666666667e-01 3.333333333333333e-01 1.666666666666665e-01
1.666666666666667e-01 3.333333333333333e-01 1.666666666666665e-01
1.666666666666667e-01 3.333333333333333e-01 1.666666666666665e-01
1.666666666666667e-01 3.333333333333333e-01 1.666666666666665e-01
1.666666666666667e-01 3.333333333333333e-01 1.666666666666665e-01
1.666666666666667e-01 3.333333333333333e-01 1.666666666666665e-01
1.666666666666667e-01 3.333333333333333e-01 1.666666666666665e-01
1.666666666666667e-01 3.333333333333333e-01 1.666666666666665e-01
1.666666666666667e-01 3.333333333333333e-01 1.666666666666665e-01
1.666666666666667e-01 3.333333333333333e-01 1.666666666666665e-01
1.666666666666667e-01 3.333333333333333e-01 1.666666666666665e-01
1.666666666666667e-01 3.333333333333333e-01 1.666666666666665e-01
1.666666666666667e-01 3.333333333333333e-01 1.666666666666665e-01
1.666666666666667e-01 3.333333333333333e-01 1.666666666666665e-01
1.666666666666667e-01 3.333333333333333e-01 1.666666666666665e-01
1.666666666666667e-01 3.333333333333333e-01 1.666666666666665e-01
1.666666666666667e-01 3.333333333333333e-01 1.666666666666665e-01
1.666666666666667e-01 3.333333333333333e-01 1.666666666666665e-01
1.666666666666667e-01 3.333333333333333e-01 1.666666666666665e-01
1.666666666666667e-01 3.333333333333333e-01 1.666666666666665e-01
1.666666666666667e-01 3.333333333333333e-01 1.666666666666665e-01
1.666666666666667e-01 3.333333333333333e-01 1.666666666666665e-01
1.666666666666667e-01 3.333333333333333e-01 1.666666666666665e-01
1.666666666666667e-01 3.333333333333333e-01 1.666666666666665e-01
1.666666666666667e-01 3.333333333333333e-01 1.666666666666665e-01
1.666666666666667e-01 3.333333333333333e-01 1.666666666666665e-01
1.666666666666667e-01 3.333333333333333e-01 1.666666666666665e-01
1.666666666666667e-01 3.333333333333333e-01 1.666666666666665e-01
1.666666666666667e-01 3.333333333333333e-01 1.666666666666665e-01
1.666666666666667e-01 3.333333333333333e-01 1.666666666666665e-01
1.666666666666667e-01 3.333333333333333e-01 1.666666666666665e-01
1.666666666666667e-01 3.333333333333333e-01 1.666666666666665e-01
1.666666666666667e-01 3.333333333333333e-01 1.666666666666665e-01
1.666666666666667e-01 3.333333333333333e-01 1.666666666666665e-01
1.666666666666667e-01 3.333333333333333e-01 1.666666666666665e-01
1.666666666666667e-01 3.333333333333333e-01 1.666666666666665e-01
1.666666666666667e-01 3.333333333333333e-01 1.666666666666665e-01
1.666666666666667e-01 3.333333333333333e-01 1.666666666666665e-01
1.666666666666667e-01 3.333333333333333e-01 1.666666666666665e-01
1.666666666666667e-01 3.333333333333333e-01 1.666666666666665e-01
1.666666666666667e-01 3.333333333333333e-01 1.666666666666665e-01
1.666666666666667e-01 3.333333333333333e-01 1.666666666666665e-01
1.666666666666667e-01 3.333333333333333e-01 1.666666666666665e-01
1.666666666666667e-01 3.333333333333333e-01 1.666666666666665e-01
1.666666666666667e-01 3.333333333333333e-01 1.666666666666665e-01
1.666666666666667e-01 3.333333333333333e-01 1.666666666666665e-01
1.666666666666667e-01 3.333333333333333e-01 1.666666666666665e-01
1.666666666666667e-01 3.333333333333333e-01 1.666666666666665e-01
1.666666666666667e-01 3.333333333333333e-01 1.666666666666665e-01
1.666666666666667e-01 3.333333333333333e-01 1.666666666666665e-01
1.666666666666667e-01 3.333333333333333e-01 1.666666666666665e-01
1.666666666666667e-01 3.333333333333333e-01 1.666666666666665e-01
1.666666666666667e-01 3.333333333333333e-01 1.666666666666665e-01
-1.666666666666667e-01 -3.333333333333333e-01 -1.666666666666665e-01
1.666666666666667e-01 3.333333333333333e-01 1.666666666666665e-01
1.666666666666667e-01 3.333333333333333e-01 1.666666666666665e-01
1.666666666666667e-01 3.333333333333333e-01 1.666666666666665e-01
1.666666666666667e-01 3.333333333333333e-01 1.666666666666665e-01
1.666666666666667e-01 3.333333333333333e-01 1.666666666666665e-01
1.666666666666667e-01 3.333333333333333e-01 1.666666666666665e-01
1.666666666666667e-01 3.333333333333333e-01 1.666666666666665e-01
1.666666666666667e-01 3.333333333333333e-01 1.666666666666665e-01
1.666666666666667e-01 3.333333333333333e-01 1.666666666666665e-01
1.666666666666667e-01 3.333333333333333e-01 1.666666666666665e-01
1.666666666666667e-01 3.333333333333333e-01 1.666666666666665e-01
1.666666666666667e-01 3.333333333333333e-01 1.666666666666665e-01
1.666666666666667e-01 3.333333333333333e-01 1.666666666666665e-01
1.666666666666667e-01 3.333333333333333e-01 1.666666666666665e-01
1.666666666666667e-01 3.333333333333333e-01 1.666666666666665e-01
1.666666666666667e-01 3.333333333333333e-01 1.666666666666665e-01
1.666666666666667e-01 3.333333333333333e-01 1.666666666666665e-01
1.666666666666667e-01 3.333333333333333e-01 1.666666666666665e-01
1.666666666666667e-01 3.333333333333333e-01 1.666666666666665e-01
1.666666666666667e-01 3.333333333333333e-01 1.666666666666665e-01
1.666666666666667e-01 3.333333333333333e-01 1.666666666666665e-01
1.666666666666667e-01 3.333333333333333e-01 1.666666666666665e-01
1.666666666666667e-01 3.333333333333333e-01 1.666666666666665e-01
1.666666666666667e-01 3.333333333333333e-01 1.666666666666665e-01
1.666666666666667e-01 3.333333333333333e-01 1.666666666666665e-01
1.666666666666667e-01 3.333333333333333e-01 1.666666666666665e-01
1.666666666666667e-01 3.333333333333333e-01 1.666666666666665e-01
1.666666666666667e-01 3.333333333333333e-01 1.666666666666665e-01
1.666666666666667e-01 3.333333333333333e-01 1.666666666666665e-01
1.666666666666667e-01 3.333333333333333e-01 1.666666666666665e-01
1.666666666666667e-01 3.333333333333333e-01 1.666666666666665e-01
1.666666666666667e-01 3.333333333333333e-01 1.666666666666665e-01
1.666666666666667e-01 3.333333333333333e-01 1.666666666666665e-01
1.666666666666667e-01 3.333333333333333e-01 1.666666666666665e-01
1.666666666666667e-01 3.333333333333333e-01 1.666666666666665e-01
1.666666666666667e-01 3.333333333333333e-01 1.666666666666665e-01
1.666666666666667e-01 3.333333333333333e-01 1.666666666666665e-01
1.666666666666667e-01 3.333333333333333e-01 1.666666666666665e-01
1.666666666666667e-01 3.333333333333333e-01 1.666666666666665e-01
1.666666666666667e-01 3.333333333333333e-01 1.666666666666665e-01
1.666666666666667e-01 3.333333333333333e-01 1.666666666666665e-01
1.666666666666667e-01 3.333333333333333e-01 1.666666666666665e-01
1.666666666666667e-01 3.333333333333333e-01 1.666666666666665e-01
1.666666666666667e-01 3.333333333333333e-01 1.666666666666665e-01
1.666666666666667e-01 3.333333333333333e-01 1.666666666666665e-01
1.666666666666667e-01 3.333333333333333e-01 1.666666666666665e-01
1.666666666666667e-01 3.333333333333333e-01 1.666666666666665e-01
1.666666666666667e-01 3.333333333333333e-01 1.666666666666665e-01
1.666666666666667e-01 3.333333333333333e-01 1.666666666666665e-01
1.666666666666667e-01 3.333333333333333e-01 1.666666666666665e-01
1.666666666666667e-01 3.333333333333333e-01 1.666666666666665e-01
1.666666666666667e-01 3.333333333333333e-01 1.666666666666665e-01
1.666666666666667e-01 3.333333333333333e-01 1.666666666666665e-01
1.666666666666667e-01 3.333333333333333e-01 1.666666666666665e-01
1.666666666666667e-01 3.333333333333333e-01 1.666666666666665e-01
1.666666666666667e-01 3.333333333333333e-01 1.666666666666665e-01
1.666666666666667e-01 3.333333333333333e-01 1.666666666666665e-01
1.666666666666667e-01 3.333333333333333e-01 1.666666666666665e-01
1.666666666666667e-01 3.333333333333333e-01 1.666666666666665e-01
1.666666666666667e-01 3.333333333333333e-01 1.666666666666665e-01
1.666666666666667e-01 3.333333333333333e-01 1.666666666666665e-01
1.666666666666667e-01 3.333333333333333e-01 1.666666666666665e-01
1.666666666666667e-01 3.333333333333333e-01 1.666666666666665e-01
1.666666666666667e-01 3.333333333333333e-01 1.666666666666665e-01
1.666666666666667e-01 3.333333333333333e-01 1.666666666666665e-01
1.666666666666667e-01 3.333333333333333e-01 1.666666666666665e-01
1.666666666666667e-01 3.333333333333333e-01 1.666666666666665e-01
1.666666666666667e-01 3.333333333333333e-01 1.666666666666665e-01
1.666666666666667e-01 3.333333333333333e-01 1.666666666666665e-01
1.666666666666667e-01 3.333333333333333e-01 1.666666666666665e-01
1.666666666666667e-01 3.333333333333333e-01 1.666666666666665e-01
1.666666666666667e-01 3.333333333333333e-01 1.666666666666665e-01
1.666666666666667e-01 3.333333333333333e-01 1.666666666666665e-01
1.666666666666667e-01 3.333333333333333e-01 1.666666666666665e-01
1.666666666666667e-01 3.333333333333333e-01 1.666666666666665e-01
1.666666666666667e-01 3.333333333333333e-01 1.666666666666665e-01
1.666666666666667e-01 3.333333333333333e-01 1.666666666666665e-01
1.666666666666667e-01 3.333333333333333e-01 1.666666666666665e-01
1.666666666666667e-01 3.333333333333333e-01 1.666666666666665e-01
1.666666666666667e-01 3.333333333333333e-01 1.666666666666665e-01
1.666666666666667e-01 3.333333333333333e-01 1.666666666666665e-01
1.666666666666667e-01 3.333333333333333e-01 1.666666666666665e-01
1.666666666666667e-01 3.333333333333333e-01 1.666666666666665e-01
1.666666666666667e-01 3.333333333333333e-01 1.666666666666665e-01
1.666666666666667e-01 3.333333333333333e-01 1.666666666666665e-01
1.666666666666667e-01 3.333333333333333e-01 1.666666666666665e-01
1.666666666666667e-01 3.333333333333333e-01 1.666666666666665e-01
1.666666666666667e-01 3.333333333333333e-01 1.666666666666665e-01
1.666666666666667e-01 3.333333333333333e-01 1.666666666666665e-01
1.666666666666667e-01 3.333333333333333e-01 1.666666666666665e-01
1.666666666666667e-01 3.333333333333333e-01 1.666666666666665e-01
1.666666666666667e-01 3.333333333333333e-01 1.666666666666665e-01
1.666666666666667e-01 3.333333333333333e-01 1.666666666666665e-01
1.666666666666667e-01 3.333333333333333e-01 1.666666666666665e-01
1.666666666666667e-01 3.333333333333333e-01 1.666666666666665e-01
1.666666666666667e-01 3.333333333333333e-01 1.666666666666665e-01
1.666666666666667e-01 3.333333333333333e-01 1.666666666666665e-01
1.666666666666667e-01 3.333333333333333e-01 1.666666666666665e-01
1.666666666666667e-01 3.333333333333333e-01 1.666666666666665e-01
1.666666666666667e-01 3.333333333333333e-01 1.666666666666665e-01
1.666666666666667e-01 3.333333333333333e-01 1.666666666666665e-01
1.666666666666667e-01 3.333333333333333e-01 1.666666666666665e-01
1.666666666666667e-01 3.333333333333333e-01 1.666666666666665e-01
1.666666666666667e-01 3.333333333333333e-01 1.666666666666665e-01
1.666666666666667e-01 3.333333333333333e-01 1.666666666666665e-01
1.666666666666667e-01 3.333333333333333e-01 1.666666666666665e-01
1.666666666666667e-01 3.333333333333333e-01 1.666666666666665e-01
1.666666666666667e-01 3.333333333333333e-01 1.666666666666665e-01
1.666666666666667e-01 3.333333333333333e-01 1.666666666666665e-01
1.666666666666667e-01 3.333333333333333e-01 1.666666666666665e-01
1.666666666666667e-01 3.333333333333333e-01 1.666666666666665e-01
1.666666666666667e-01 3.333333333333333e-01 1.666666666666665e-01
1.666666666666667e-01 3.333333333333333e-01 1.666666666666665e-01
1.666666666666667e-01 3.333333333333333e-01 1.666666666666665e-01
1.666666666666667e-01 3.333333333333333e-01 1.666666666666665e-01
1.666666666666667e-01 3.333333333333333e-01 1.666666666666665e-01
1.666666666666667e-01 3.333333333333333e-01 1.666666666666665e-01
1.666666666666667e-01 3.333333333333333e-01 1.666666666666665e-01
1.666666666666667e-01 3.333333333333333e-01 1.666666666666665e-01
1.666666666666667e-01 3.333333333333333e-01 1.666666666666665e-01
1.666666666666667e-01 3.333333333333333e-01 1.666666666666665e-01
1.666666666666667e-01 3.333333333333333e-01 1.666666666666665e-01
1.666666666666667e-01 3.333333333333333e-01 1.666666666666665e-01
1.666666666666667e-01 3.333333333333333e-01 1.666666666666665e-01
1.666666666666667e-01 3.333333333333333e-01 1.666666666666665e-01
1.666666666666667e-01 3.333333333333333e-01 1.666666666666665e-01
1.666666666666667e-01 3.333333333333333e-01 1.666666666666665e-01
1.666666666666667e-01 3.333333333333333e-01 1.666666666666665e-01
1.666666666666667e-01 3.333333333333333e-01 1.666666666666665e-01
1.666666666666667e-01 3.333333333333333e-01 1.666666666666665e-01
1.666666666666667e-01 3.333333333333333e-01 1.666666666666665e-01
1.666666666666667e-01 3.333333333333333e-01 1.666666666666665e-01
1.666666666666667e-01 3.333333333333333e-01 1.666666666666665e-01
1.666666666666667e-01 3.333333333333333e-01 1.666666666666665e-01
1.666666666666667e-01 3.333333333333333e-01 1.666666666666665e-01
1.666666666666667e-01 3.333333333333333e-01 1.666666666666665e-01
1.666666666666667e-01 3.333333333333333e-01 1.666666666666665e-01
1.666666666666667e-01 3.333333333333333e-01 1.666666666666665e-01
1.666666666666667e-01 3.333333333333333e-01 1.666666666666665e-01
1.666666666666667e-01 3.333333333333333e-01 1.666666666666665e-01
1.666666666666667e-01 3.333333333333333e-01 1.666666666666665e-01
1.666666666666667e-01 3.333333333333333e-01 1.666666666666665e-01
1.666666666666667e-01 3.333333333333333e-01 1.666666666666665e-01
1.666666666666667e-01 3.333333333333333e-01 1.666666666666665e-01
1.666666666666667e-01 3.333333333333333e-01 1.666666666666665e-01
1.666666666666667e-01 3.333333333333333e-01 1.666666666666665e-01
1.666666666666667e-01 3.333333333333333e-01 1.666666666666665e-01
1.666666666666667e-01 3.333333333333333e-01 1.666666666666665e-01
1.666666666666667e-01 3.333333333333333e-01 1.666666666666665e-01
1.666666666666667e-01 3.333333333333333e-01 1.666666666666665e-01
1.666666666666667e-01 3.333333333333333e-01 1.666666666666665e-01
1.666666666666667e-01 3.333333333333333e-01 1.666666666666665e-01
1.666666666666667e-01 3.333333333333333e-01 1.666666666666665e-01
1.666666666666667e-01 3.333333333333333e-01 1.666666666666665e-01
1.666666666666667e-01 3.333333333333333e-01 1.666666666666665e-01
1.666666666666667e-01 3.333333333333333e-01 1.666666666666665e-01
1.666666666666667e-01 3.333333333333333e-01 1.666666666666665e-01
1.666666666666667e-01 3.333333333333333e-01 1.666666666666665e-01
1.666666666666667e-01 3.333333333333333e-01 1.666666666666665e-01
1.666666666666667e-01 3.333333333333333e-01 1.666666666666665e-01
1.666666666666667e-01 3.333333333333333e-01 1.666666666666665e-01
1.666666666666667e-01 3.333333333333333e-01 1.666666666666665e-01
1.666666666666667e-01 3.333333333333333e-01 1.666666666666665e-01
1.666666666666667e-01 3.333333333333333e-01 1.666666666666665e-01
1.666666666666667e-01 3.333333333333333e-01 1.666666666666665e-01
1.666666666666667e-01 3.333333333333333e-01 1.666666666666665e-01
1.666666666666667e-01 3.333333333333333e-01 1.666666666666665e-01
1.666666666666667e-01 3.333333333333333e-01 1.666666666666665e-01
1.666666666666667e-01 3.333333333333333e-01 1.666666666666665e-01
1.666666666666667e-01 3.333333333333333e-01 1.666666666666665e-01
1.666666666666667e-01 3.333333333333333e-01 1.666666666666665e-01
1.666666666666667e-01 3.333333333333333e-01 1.666666666666665e-01
1.666666666666667e-01 3.333333333333333e-01 1.666666666666665e-01
1.666666666666667e-01 3.333333333333333e-01 1.666666666666665e-01
1.666666666666667e-01 3.333333333333333e-01 1.666666666666665e-01
1.666666666666667e-01 3.333333333333333e-01 1.666666666666665e-01
1.666666666666667e-01 3.333333333333333e-01 1.666666666666665e-01
1.666666666666667e-01 3.333333333333333e-01 1.666666666666665e-01
1.666666666666667e-01 3.333333333333333e-01 1.666666666666665e-01
1.666666666666667e-01 3.333333333333333e-01 1.666666666666665e-01
1.666666666666667e-01 3.333333333333333e-01 1.666666666666665e-01
1.666666666666667e-01 3.333333333333333e-01 1.666666666666665e-01
1.666666666666667e-01 3.333333333333333e-01 1.666666666666665e-01
1.666666666666667e-01 3.333333333333333e-01 1.666666666666665e-01
1.666666666666667e-01 3.333333333333333e-01 1.666666666666665e-01
1.666666666666667e-01 3.333333333333333e-01 1.666666666666665e-01
1.666666666666667e-01 3.333333333333333e-01 1.666666666666665e-01
1.666666666666667e-01 3.333333333333333e-01 1.666666666666665e-01
1.666666666666667e-01 3.333333333333333e-01 1.666666666666665e-01
1.666666666666667e-01 3.333333333333333e-01 1.666666666666665e-01
1.666666666666667e-01 3.333333333333333e-01 1.666666666666665e-01
1.666666666666667e-01 3.333333333333333e-01 1.666666666666665e-01
1.666666666666667e-01 3.333333333333333e-01 1.666666666666665e-01
1.666666666666667e-01 3.333333333333333e-01 1.666666666666665e-01
1.666666666666667e-01 3.333333333333333e-01 1.666666666666665e-01
1.666666666666667e-01 3.333333333333333e-01 1.666666666666665e-01
1.666666666666667e-01 3.333333333333333e-01 1.666666666666665e-01
1.666666666666667e-01 3.333333333333333e-01 1.666666666666665e-01
1.666666666666667e-01 3.333333333333333e-01 1.666666666666665e-01
1.666666666666667e-01 3.333333333333333e-01 1.666666666666665e-01
1.666666666666667e-01 3.333333333333333e-01 1.666666666666665e-01
1.666666666666667e-01 3.333333333333333e-01 1.666666666666665e-01
1.666666666666667e-01 3.333333333333333e-01 1.666666666666665e-01
1.666666666666667e-01 3.333333333333333e-01 1.666666666666665e-01
1.666666666666667e-01 3.333333333333333e-01 1.666666666666665e-01
1.666666666666667e-01 3.333333333333333e-01 1.666666666666665e-01
1.666666666666667e-01 3.333333333333333e-01 1.666666666666665e-01
1.666666666666667e-01 3.333333333333333e-01 1.666666666666665e-01
1.666666666666667e-01 3.333333333333333e-01 1.666666666666665e-01
1.666666666666667e-01 3.333333333333333e-01 1.666666666666665e-01
1.666666666666667e-01 3.333333333333333e-01 1.666666666666665e-01
1.666666666666667e-01 3.333333333333333e-01 1.666666666666665e-01
1.666666666666667e-01 3.333333333333333e-01 1.666666666666665e-01
1.666666666666667e-01 3.333333333333333e-01 1.666666666666665e-01
1.666666666666667e-01 3.333333333333333e-01 1.666666666666665e-01
 1.666666666666667e-01 -1.666666666666665e-01 -3.333333333333333e-01
-1.666666666666667e-01  1.666666666666665e-01  3.333333333333333e-01
 1.666666666666667e-01 -1.666666666666665e-01 -3.333333333333333e-01
 1.666666666666667e-01 -1.666666666666665e-01 -3.333333333333333e-01
 1.666666666666667e-01 -1.666666666666665e-01 -3.333333333333333e-01
 1.666666666666667e-01 -1.666666666666665e-01 -3.333333333333333e-01
 1.666666666666667e-01 -1.666666666666665e-01 -3.333333333333333e-01
 1.666666666666667e-01 -1.666666666666665e-01 -3.333333333333333e-01
 1.666666666666667e-01 -1.666666666666665e-01 -3.333333333333333e-01
 1.666666666666667e-01 -1.666666666666665e-01 -3.333333333333333e-01
 1.666666666666667e-01 -1.666666666666665e-01 -3.333333333333333e-01
 1.666666666666667e-01 -1.666666666666665e-01 -3.333333333333333e-01
 1.666666666666667e-01 -1.666666666666665e-01 -3.333333333333333e-01
 1.666666666666667e-01 -1.666666666666665e-01 -3.333333333333333e-01
 1.666666666666667e-01 -1.666666666666665e-01 -3.333333333333333e-01
 1.666666666666667e-01 -1.666666666666665e-01 -3.333333333333333e-01
 1.666666666666667e-01 -1.666666666666665e-01 -3.333333333333333e-01
 1.666666666666667e-01 -1.666666666666665e-01 -3.333333333333333e-01
 1.666666666666667e-01 -1.666666666666665e-01 -3.333333333333333e-01
 1.666666666666667e-01 -1.666666666666665e-01 -3.333333333333333e-01
 1.666666666666667e-01 -1.666666666666665e-01 -3.333333333333333e-01
 1.666666666666667e-01 -1.666666666666665e-01 -3.333333333333333e-01
 1.666666666666667e-01 -1.666666666666665e-01 -3.333333333333333e-01
 1.666666666666667e-01 -1.666666666666665e-01 -3.333333333333333e-01
 1.666666666666667e-01 -1.666666666666665e-01 -3.333333333333333e-01
 1.666666666666667e-01 -1.666666666666665e-01 -3.333333333333333e-01
 1.666666666666667e-01 -1.666666666666665e-01 -3.333333333333333e-01
 1.666666666666667e-01 -1.666666666666665e-01 -3.333333333333333e-01
 1.666666666666667e-01 -1.666666666666665e-01 -3.333333333333333e-01
 1.666666666666667e-01 -1.666666666666665e-01 -3.333333333333333e-01
 1.666666666666667e-01 -1.666666666666665e-01 -3.333333333333333e-01
 1.666666666666667e-01 -1.666666666666665e-01 -3.333333333333333e-01
 1.666666666666667e-01 -1.666666666666665e-01 -3.333333333333333e-01
 1.666666666666667e-01 -1.666666666666665e-01 -3.333333333333333e-01
 1.666666666666667e-01 -1.666666666666665e-01 -3.333333333333333e-01
 1.666666666666667e-01 -1.666666666666665e-01 -3.333333333333333e-01
 1.666666666666667e-01 -1.666666666666665e-01 -3.333333333333333e-01
 1.666666666666667e-01 -1.666666666666665e-01 -3.333333333333333e-01
 1.666666666666667e-01 -1.666666666666665e-01 -3.333333333333333e-01
 1.666666666666667e-01 -1.666666666666665e-01 -3.333333333333333e-01
 1.666666666666667e-01 -1.666666666666665e-01 -3.333333333333333e-01
 1.666666666666667e-01 -1.666666666666665e-01 -3.333333333333333e-01
 1.666666666666667e-01 -1.666666666666665e-01 -3.333333333333333e-01
 1.666666666666667e-01 -1.666666666666665e-01 -3.333333333333333e-01
 1.666666666666667e-01 -1.666666666666665e-01 -3.333333333333333e-01
 1.666666666666667e-01 -1.666666666666665e-01 -3.333333333333333e-01
 1.666666666666667e-01 -1.666666666666665e-01 -3.333333333333333e-01
 1.666666666666667e-01 -1.666666666666665e-01 -3.333333333333333e-01
 1.666666666666667e-01 -1.666666666666665e-01 -3.333333333333333e-01
 1.666666666666667e-01 -1.666666666666665e-01 -3.333333333333333e-01
 1.666666666666667e-01 -1.666666666666665e-01 -3.333333333333333e-01
 1.666666666666667e-01 -1.666666666666665e-01 -3.333333333333333e-01
 1.666666666666667e-01 -1.666666666666665e-01 -3.333333333333333e-01
 1.666666666666667e-01 -1.666666666666665e-01 -3.333333333333333e-01
 1.666666666666667e-01 -1.666666666666665e-01 -3.333333333333333e-01
 1.666666666666667e-01 -1.666666666666665e-01 -3.333333333333333e-01
 1.666666666666667e-01 -1.666666666666665e-01 -3.333333333333333e-01
 1.666666666666667e-01 -1.666666666666665e-01 -3.333333333333333e-01
 1.666666666666667e-01 -1.666666666666665e-01 -3.333333333333333e-01
 1.666666666666667e-01 -1.666666666666665e-01 -3.333333333333333e-01
 1.666666666666667e-01 -1.666666666666665e-01 -3.333333333333333e-01
 1.666666666666667e-01 -1.666666666666665e-01 -3.333333333333333e-01
 1.666666666666667e-01 -1.666666666666665e-01 -3.333333333333333e-01
 1.666666666666667e-01 -1.666666666666665e-01 -3.333333333333333e-01
 1.666666666666667e-01 -1.666666666666665e-01 -3.333333333333333e-01
 1.666666666666667e-01 -1.666666666666665e-01 -3.333333333333333e-01
 1.666666666666667e-01 -1.666666666666665e-01 -3.333333333333333e-01
 1.666666666666667e-01 -1.666666666666665e-01 -3.333333333333333e-01
 1.666666666666667e-01 -1.666666666666665e-01 -3.333333333333333e-01
 1.666666666666667e-01 -1.666666666666665e-01 -3.333333333333333e-01
 1.666666666666667e-01 -1.666666666666665e-01 -3.333333333333333e-01
 1.666666666666667e-01 -1.666666666666665e-01 -3.333333333333333e-01
 1.666666666666667e-01 -1.666666666666665e-01 -3.333333333333333e-01
 1.666666666666667e-01 -1.666666666666665e-01 -3.333333333333333e-01
 1.666666666666667e-01 -1.666666666666665e-01 -3.333333333333333e-01
 1.666666666666667e-01 -1.666666666666665e-01 -3.333333333333333e-01
 1.666666666666667e-01 -1.666666666666665e-01 -3.333333333333333e-01
 1.666666666666667e-01 -1.666666666666665e-01 -3.333333333333333e-01
 1.666666666666667e-01 -1.666666666666665e-01 -3.333333333333333e-01
 1.666666666666667e-01 -1.666666666666665e-01 -3.333333333333333e-01
 1.666666666666667e-01 -1.666666666666665e-01 -3.333333333333333e-01
 1.666666666666667e-01 -1.666666666666665e-01 -3.333333333333333e-01
 1.666666666666667e-01 -1.666666666666665e-01 -3.333333333333333e-01
 1.666666666666667e-01 -1.666666666666665e-01 -3.333333333333333e-01
 1.666666666666667e-01 -1.666666666666665e-01 -3.333333333333333e-01
 1.666666666666667e-01 -1.666666666666665e-01 -3.333333333333333e-01
 1.666666666666667e-01 -1.666666666666665e-01 -3.333333333333333e-01
 1.666666666666667e-01 -1.666666666666665e-01 -3.333333333333333e-01
 1.666666666666667e-01 -1.666666666666665e-01 -3.333333333333333e-01
 1.666666666666667e-01 -1.666666666666665e-01 -3.333333333333333e-01
 1.666666666666667e-01 -1.666666666666665e-01 -3.333333333333333e-01
 1.666666666666667e-01 -1.666666666666665e-01 -3.333333333333333e-01
 1.666666666666667e-01 -1.666666666666665e-01 -3.333333333333333e-01
 1.666666666666667e-01 -1.666666666666665e-01 -3.333333333333333e-01
 1.666666666666667e-01 -1.666666666666665e-01 -3.333333333333333e-01
 1.666666666666667e-01 -1.666666666666665e-01 -3.333333333333333e-01
 1.666666666666667e-01 -1.666666666666665e-01 -3.333333333333333e-01
 1.666666666666667e-01 -1.666666666666665e-01 -3.333333333333333e-01
 1.666666666666667e-01 -1.666666666666665e-01 -3.333333333333333e-01
 1.666666666666667e-01 -1.666666666666665e-01 -3.333333333333333e-01
 1.666666666666667e-01 -1.666666666666665e-01 -3.333333333333333e-01
 1.666666666666667e-01 -1.666666666666665e-01 -3.333333333333333e-01
 1.666666666666667e-01 -1.666666666666665e-01 -3.333333333333333e-01
 1.666666666666667e-01 -1.666666666666665e-01 -3.333333333333333e-01
 1.666666666666667e-01 -1.666666666666665e-01 -3.333333333333333e-01
 1.666666666666667e-01 -1.666666666666665e-01 -3.333333333333333e-01
 1.666666666666667e-01 -1.666666666666665e-01 -3.333333333333333e-01
 1.666666666666667e-01 -1.666666666666665e-01 -3.333333333333333e-01
 1.666666666666667e-01 -1.666666666666665e-01 -3.333333333333333e-01
 1.666666666666667e-01 -1.666666666666665e-01 -3.333333333333333e-01
 1.666666666666667e-01 -1.666666666666665e-01 -3.333333333333333e-01
 1.666666666666667e-01 -1.666666666666665e-01 -3.333333333333333e-01
 1.666666666666667e-01 -1.666666666666665e-01 -3.333333333333333e-01
 1.666666666666667e-01 -1.666666666666665e-01 -3.333333333333333e-01
 1.666666666666667e-01 -1.666666666666665e-01 -3.333333333333333e-01
 1.666666666666667e-01 -1.666666666666665e-01 -3.333333333333333e-01
 1.666666666666667e-01 -1.666666666666665e-01 -3.333333333333333e-01
 1.666666666666667e-01 -1.666666666666665e-01 -3.333333333333333e-01
 1.666666666666667e-01 -1.666666666666665e-01 -3.333333333333333e-01
 1.666666666666667e-01 -1.666666666666665e-01 -3.333333333333333e-01
 1.666666666666667e-01 -1.666666666666665e-01 -3.333333333333333e-01
 1.666666666666667e-01 -1.666666666666665e-01 -3.333333333333333e-01
 1.666666666666667e-01 -1.666666666666665e-01 -3.333333333333333e-01
 1.666666666666667e-01 -1.666666666666665e-01 -3.333333333333333e-01
 1.666666666666667e-01 -1.666666666666665e-01 -3.333333333333333e-01
 1.666666666666667e-01 -1.666666666666665e-01 -3.333333333333333e-01
 1.666666666666667e-01 -1.666666666666665e-01 -3.333333333333333e-01
 1.666666666666667e-01 -1.666666666666665e-01 -3.333333333333333e-01
 1.666666666666667e-01 -1.666666666666665e-01 -3.333333333333333e-01
 1.666666666666667e-01 -1.666666666666665e-01 -3.333333333333333e-01
 1.666666666666667e-01 -1.666666666666665e-01 -3.333333333333333e-01
 1.666666666666667e-01 -1.666666666666665e-01 -3.333333333333333e-01
 1.666666666666667e-01 -1.666666666666665e-01 -3.333333333333333e-01
 1.666666666666667e-01 -1.666666666666665e-01 -3.333333333333333e-01
 1.666666666666667e-01 -1.666666666666665e-01 -3.333333333333333e-01
 1.666666666666667e-01 -1.666666666666665e-01 -3.333333333333333e-01
 1.666666666666667e-01 -1.666666666666665e-01 -3.333333333333333e-01
 1.666666666666667e-01 -1.666666666666665e-01 -3.333333333333333e-01
 1.666666666666667e-01 -1.666666666666665e-01 -3.333333333333333e-01
 1.666666666666667e-01 -1.666666666666665e-01 -3.333333333333333e-01
 1.666666666666667e-01 -1.666666666666665e-01 -3.333333333333333e-01
 1.666666666666667e-01 -1.666666666666665e-01 -3.333333333333333e-01
 1.666666666666667e-01 -1.666666666666665e-01 -3.333333333333333e-01
 1.666666666666667e-01 -1.666666666666665e-01 -3.333333333333333e-01
 1.666666666666667e-01 -1.666666666666665e-01 -3.333333333333333e-01
 1.666666666666667e-01 -1.666666666666665e-01 -3.333333333333333e-01
 1.666666666666667e-01 -1.666666666666665e-01 -3.333333333333333e-01
 1.666666666666667e-01 -1.666666666666665e-01 -3.333333333333333e-01
 1.666666666666667e-01 -1.666666666666665e-01 -3.333333333333333e-01
 1.666666666666667e-01 -1.666666666666665e-01 -3.333333333333333e-01
 1.666666666666667e-01 -1.666666666666665e-01 -3.333333333333333e-01
 1.666666666666667e-01 -1.666666666666665e-01 -3.333333333333333e-01
 1.666666666666667e-01 -1.666666666666665e-01 -3.333333333333333e-01
 1.666666666666667e-01 -1.666666666666665e-01 -3.333333333333333e-01
 1.666666666666667e-01 -1.666666666666665e-01 -3.333333333333333e-01
 1.666666666666667e-01 -1.666666666666665e-01 -3.333333333333333e-01
 1.666666666666667e-01 -1.666666666666665e-01 -3.333333333333333e-01
 1.666666666666667e-01 -1.666666666666665e-01 -3.333333333333333e-01
 1.666666666666667e-01 -1.666666666666665e-01 -3.333333333333333e-01
 1.666666666666667e-01 -1.666666666666665e-01 -3.333333333333333e-01
 1.666666666666667e-01 -1.666666666666665e-01 -3.333333333333333e-01
 1.666666666666667e-01 -1.666666666666665e-01 -3.333333333333333e-01
 1.666666666666667e-01 -1.666666666666665e-01 -3.333333333333333e-01
 1.666666666666667e-01 -1.666666666666665e-01 -3.333333333333333e-01
 1.666666666666667e-01 -1.666666666666665e-01 -3.333333333333333e-01
 1.666666666666667e-01 -1.666666666666665e-01 -3.333333333333333e-01
 1.666666666666667e-01 -1.666666666666665e-01 -3.333333333333333e-01
 1.666666666666667e-01 -1.666666666666665e-01 -3.333333333333333e-01
 1.666666666666667e-01 -1.666666666666665e-01 -3.333333333333333e-01
 1.666666666666667e-01 -1.666666666666665e-01 -3.333333333333333e-01
 1.666666666666667e-01 -1.666666666666665e-01 -3.333333333333333e-01
 1.666666666666667e-01 -1.666666666666665e-01 -3.333333333333333e-01
 1.666666666666667e-01 -1.666666666666665e-01 -3.333333333333333e-01
 1.666666666666667e-01 -1.666666666666665e-01 -3.333333333333333e-01
 1.666666666666667e-01 -1.666666666666665e-01 -3.333333333333333e-01
 1.666666666666667e-01 -1.666666666666665e-01 -3.333333333333333e-01
 1.666666666666667e-01 -1.666666666666665e-01 -3.333333333333333e-01
 1.666666666666667e-01 -1.666666666666665e-01 -3.333333333333333e-01
 1.666666666666667e-01 -1.666666666666665e-01 -3.333333333333333e-01
 1.666666666666667e-01 -1.666666666666665e-01 -3.333333333333333e-01
 1.666666666666667e-01 -1.666666666666665e-01 -3.333333333333333e-01
 1.666666666666667e-01 -1.666666666666665e-01 -3.333333333333333e-01
 1.666666666666667e-01 -1.666666666666665e-01 -3.333333333333333e-01
 1.666666666666667e-01 -1.666666666666665e-01 -3.333333333333333e-01
 1.666666666666667e-01 -1.666666666666665e-01 -3.333333333333333e-01
 1.666666666666667e-01 -1.666666666666665e-01 -3.333333333333333e-01
 1.666666666666667e-01 -1.666666666666665e-01 -3.333333333333333e-01
 1.666666666666667e-01 -1.666666666666665e-01 -3.333333333333333e-01
 1.666666666666667e-01 -1.666666666666665e-01 -3.333333333333333e-01
 1.666666666666667e-01 -1.666666666666665e-01 -3.333333333333333e-01
 1.666666666666667e-01 -1.666666666666665e-01 -3.333333333333333e-01
 1.666666666666667e-01 -1.666666666666665e-01 -3.333333333333333e-01
 1.666666666666667e-01 -1.666666666666665e-01 -3.333333333333333e-01
 1.666666666666667e-01 -1.666666666666665e-01 -3.333333333333333e-01
 1.666666666666667e-01 -1.666666666666665e-01 -3.333333333333333e-01
 1.666666666666667e-01 -1.666666666666665e-01 -3.333333333333333e-01
 1.666666666666667e-01 -1.666666666666665e-01 -3.333333333333333e-01
 1.666666666666667e-01 -1.666666666666665e-01 -3.333333333333333e-01
 1.666666666666667e-01 -1.666666666666665e-01 -3.333333333333333e-01
 1.666666666666667e-01 -1.666666666666665e-01 -3.333333333333333e-01
 1.666666666666667e-01 -1.666666666666665e-01 -3.333333333333333e-01
 1.666666666666667e-01 -1.666666666666665e-01 -3.333333333333333e-01
 1.666666666666667e-01 -1.666666666666665e-01 -3.333333333333333e-01
 1.666666666666667e-01 -1.666666666666665e-01 -3.333333333333333e-01
 1.666666666666667e-01 -1.666666666666665e-01 -3.333333333333333e-01
 1.666666666666667e-01 -1.666666666666665e-01 -3.333333333333333e-01
 1.666666666666667e-01 -1.666666666666665e-01 -3.333333333333333e-01
 1.666666666666667e-01 -1.666666666666665e-01 -3.333333333333333e-01
 1.666666666666667e-01 -1.666666666666665e-01 -3.333333333333333e-01
 1.666666666666667e-01 -1.666666666666665e-01 -3.333333333333333e-01
 1.666666666666667e-01 -1.666666666666665e-01 -3.333333333333333e-01
 1.666666666666667e-01 -1.666666666666665e-01 -3.333333333333333e-01
 1.666666666666667e-01 -1.666666666666665e-01 -3.333333333333333e-01
 1.666666666666667e-01 -1.666666666666665e-01 -3.333333333333333e-01
 1.666666666666667e-01 -1.666666666666665e-01 -3.333333333333333e-01
 1.666666666666667e-01 -1.666666666666665e-01 -3.333333333333333e-01
 1.666666666666667e-01 -1.666666666666665e-01 -3.333333333333333e-01
 1.666666666666667e-01 -1.666666666666665e-01 -3.333333333333333e-01
 1.666666666666667e-01 -1.666666666666665e-01 -3.333333333333333e-01
 1.666666666666667e-01 -1.666666666666665e-01 -3.333333333333333e-01
 1.666666666666667e-01 -1.666666666666665e-01 -3.333333333333333e-01
 1.666666666666667e-01 -1.666666666666665e-01 -3.333333333333333e-01
 1.666666666666667e-01 -1.666666666666665e-01 -3.333333333333333e-01
 1.666666666666667e-01 -1.666666666666665e-01 -3.333333333333333e-01
 1.666666666666667e-01 -1.666666666666665e-01 -3.333333333333333e-01
 1.666666666666667e-01 -1.666666666666665e-01 -3.333333333333333e-01
 1.666666666666667e-01 -1.666666666666665e-01 -3.333333333333333e-01
 1.666666666666667e-01 -1.666666666666665e-01 -3.333333333333333e-01
 1.666666666666667e-01 -1.666666666666665e-01 -3.333333333333333e-01
 1.666666666666667e-01 -1.666666666666665e-01 -3.333333333333333e-01
 1.666666666666667e-01 -1.666666666666665e-01 -3.333333333333333e-01
 1.666666666666667e-01 -1.666666666666665e-01 -3.333333333333333e-01
 1.666666666666667e-01 -1.666666666666665e-01 -3.333333333333333e-01
 1.666666666666667e-01 -1.666666666666665e-01 -3.333333333333333e-01
 1.666666666666667e-01 -1.666666666666665e-01 -3.333333333333333e-01
 1.666666666666667e-01 -1.666666666666665e-01 -3.333333333333333e-01
-1.666666666666667e-01  1.666666666666665e-01  3.333333333333333e-01
 1.666666666666667e-01 -1.666666666666665e-01 -3.333333333333333e-01
 1.666666666666667e-01 -1.666666666666665e-01 -3.333333333333333e-01
 1.666666666666667e-01 -1.666666666666665e-01 -3.333333333333333e-01
 1.666666666666667e-01 -1.666666666666665e-01 -3.333333333333333e-01
 1.666666666666667e-01 -1.666666666666665e-01 -3.333333333333333e-01
 1.666666666666667e-01 -1.666666666666665e-01 -3.333333333333333e-01
 1.666666666666667e-01 -1.666666666666665e-01 -3.333333333333333e-01
 1.666666666666667e-01 -1.666666666666665e-01 -3.333333333333333e-01
 1.666666666666667e-01 -1.666666666666665e-01 -3.333333333333333e-01
 1.666666666666667e-01 -1.666666666666665e-01 -3.333333333333333e-01
 1.666666666666667e-01 -1.666666666666665e-01 -3.333333333333333e-01
 1.666666666666667e-01 -1.666666666666665e-01 -3.333333333333333e-01
 1.666666666666667e-01 -1.666666666666665e-01 -3.333333333333333e-01
 1.666666666666667e-01 -1.666666666666665e-01 -3.333333333333333e-01
 1.666666666666667e-01 -1.666666666666665e-01 -3.333333333333333e-01
 1.666666666666667e-01 -1.666666666666665e-01 -3.333333333333333e-01
 1.666666666666667e-01 -1.666666666666665e-01 -3.333333333333333e-01
 1.666666666666667e-01 -1.666666666666665e-01 -3.333333333333333e-01
 1.666666666666667e-01 -1.666666666666665e-01 -3.333333333333333e-01
 1.666666666666667e-01 -1.666666666666665e-01 -3.333333333333333e-01
 1.666666666666667e-01 -1.666666666666665e-01 -3.333333333333333e-01
 1.666666666666667e-01 -1.666666666666665e-01 -3.333333333333333e-01
 1.666666666666667e-01 -1.666666666666665e-01 -3.333333333333333e-01
 1.666666666666667e-01 -1.666666666666665e-01 -3.333333333333333e-01
 1.666666666666667e-01 -1.666666666666665e-01 -3.333333333333333e-01
 1.666666666666667e-01 -1.666666666666665e-01 -3.333333333333333e-01
 1.666666666666667e-01 -1.666666666666665e-01 -3.333333333333333e-01
 1.666666666666667e-01 -1.666666666666665e-01 -3.333333333333333e-01
 1.666666666666667e-01 -1.666666666666665e-01 -3.333333333333333e-01
 1.666666666666667e-01 -1.666666666666665e-01 -3.333333333333333e-01
 1.666666666666667e-01 -1.666666666666665e-01 -3.333333333333333e-01
 1.666666666666667e-01 -1.666666666666665e-01 -3.333333333333333e-01
 1.666666666666667e-01 -1.666666666666665e-01 -3.333333333333333e-01
 1.666666666666667e-01 -1.666666666666665e-01 -3.333333333333333e-01
 1.666666666666667e-01 -1.666666666666665e-01 -3.333333333333333e-01
 1.666666666666667e-01 -1.666666666666665e-01 -3.333333333333333e-01
 1.666666666666667e-01 -1.666666666666665e-01 -3.333333333333333e-01
 1.666666666666667e-01 -1.666666666666665e-01 -3.333333333333333e-01
 1.666666666666667e-01 -1.666666666666665e-01 -3.333333333333333e-01
 1.666666666666667e-01 -1.666666666666665e-01 -3.333333333333333e-01
 1.666666666666667e-01 -1.666666666666665e-01 -3.333333333333333e-01
 1.666666666666667e-01 -1.666666666666665e-01 -3.333333333333333e-01
 1.666666666666667e-01 -1.666666666666665e-01 -3.333333333333333e-01
 1.666666666666667e-01 -1.666666666666665e-01 -3.333333333333333e-01
 1.666666666666667e-01 -1.666666666666665e-01 -3.333333333333333e-01
 1.666666666666667e-01 -1.666666666666665e-01 -3.333333333333333e-01
 1.666666666666667e-01 -1.666666666666665e-01 -3.333333333333333e-01
 1.666666666666667e-01 -1.666666666666665e-01 -3.333333333333333e-01
 1.666666666666667e-01 -1.666666666666665e-01 -3.333333333333333e-01
 1.666666666666667e-01 -1.666666666666665e-01 -3.333333333333333e-01
 1.666666666666667e-01 -1.666666666666665e-01 -3.333333333333333e-01
 1.666666666666667e-01 -1.666666666666665e-01 -3.333333333333333e-01
 1.666666666666667e-01 -1.666666666666665e-01 -3.333333333333333e-01
 1.666666666666667e-01 -1.666666666666665e-01 -3.333333333333333e-01
 1.666666666666667e-01 -1.666666666666665e-01 -3.333333333333333e-01
 1.666666666666667e-01 -1.666666666666665e-01 -3.333333333333333e-01
 1.666666666666667e-01 -1.666666666666665e-01 -3.333333333333333e-01
 1.666666666666667e-01 -1.666666666666665e-01 -3.333333333333333e-01
 1.666666666666667e-01 -1.666666666666665e-01 -3.333333333333333e-01
 1.666666666666667e-01 -1.666666666666665e-01 -3.333333333333333e-01
 1.666666666666667e-01 -1.666666666666665e-01 -3.333333333333333e-01
 1.666666666666667e-01 -1.666666666666665e-01 -3.333333333333333e-01
 1.666666666666667e-01 -1.666666666666665e-01 -3.333333333333333e-01
 1.666666666666667e-01 -1.666666666666665e-01 -3.333333333333333e-01
 1.666666666666667e-01 -1.666666666666665e-01 -3.333333333333333e-01
 1.666666666666667e-01 -1.666666666666665e-01 -3.333333333333333e-01
 1.666666666666667e-01 -1.666666666666665e-01 -3.333333333333333e-01
 1.666666666666667e-01 -1.666666666666665e-01 -3.333333333333333e-01
 1.666666666666667e-01 -1.666666666666665e-01 -3.333333333333333e-01
 1.666666666666667e-01 -1.666666666666665e-01 -3.333333333333333e-01
 1.666666666666667e-01 -1.666666666666665e-01 -3.333333333333333e-01
 1.666666666666667e-01 -1.666666666666665e-01 -3.333333333333333e-01
 1.666666666666667e-01 -1.666666666666665e-01 -3.333333333333333e-01
 1.666666666666667e-01 -1.666666666666665e-01 -3.333333333333333e-01
 1.666666666666667e-01 -1.666666666666665e-01 -3.333333333333333e-01
 1.666666666666667e-01 -1.666666666666665e-01 -3.333333333333333e-01
 1.666666666666667e-01 -1.666666666666665e-01 -3.333333333333333e-01
 1.666666666666667e-01 -1.666666666666665e-01 -3.333333333333333e-01
 1.666666666666667e-01 -1.666666666666665e-01 -3.333333333333333e-01
 1.666666666666667e-01 -1.666666666666665e-01 -3.333333333333333e-01
 1.666666666666667e-01 -1.666666666666665e-01 -3.333333333333333e-01
 1.666666666666667e-01 -1.666666666666665e-01 -3.333333333333333e-01
 1.666666666666667e-01 -1.666666666666665e-01 -3.333333333333333e-01
 1.666666666666667e-01 -1.666666666666665e-01 -3.333333333333333e-01
 1.666666666666667e-01 -1.666666666666665e-01 -3.333333333333333e-01
 1.666666666666667e-01 -1.666666666666665e-01 -3.333333333333333e-01
 1.666666666666667e-01 -1.666666666666665e-01 -3.333333333333333e-01
 1.666666666666667e-01 -1.666666666666665e-01 -3.333333333333333e-01
 1.666666666666667e-01 -1.666666666666665e-01 -3.333333333333333e-01
 1.666666666666667e-01 -1.666666666666665e-01 -3.333333333333333e-01
 1.666666666666667e-01 -1.666666666666665e-01 -3.333333333333333e-01
 1.666666666666667e-01 -1.666666666666665e-01 -3.333333333333333e-01
 1.666666666666667e-01 -1.666666666666665e-01 -3.333333333333333e-01
 1.666666666666667e-01 -1.666666666666665e-01 -3.333333333333333e-01
 1.666666666666667e-01 -1.666666666666665e-01 -3.333333333333333e-01
 1.666666666666667e-01 -1.666666666666665e-01 -3.333333333333333e-01
 1.666666666666667e-01 -1.666666666666665e-01 -3.333333333333333e-01
 1.666666666666667e-01 -1.666666666666665e-01 -3.333333333333333e-01
 1.666666666666667e-01 -1.666666666666665e-01 -3.333333333333333e-01
 1.666666666666667e-01 -1.666666666666665e-01 -3.333333333333333e-01
 1.666666666666667e-01 -1.666666666666665e-01 -3.333333333333333e-01
 1.666666666666667e-01 -1.666666666666665e-01 -3.333333333333333e-01
 1.666666666666667e-01 -1.666666666666665e-01 -3.333333333333333e-01
 1.666666666666667e-01 -1.666666666666665e-01 -3.333333333333333e-01
 1.666666666666667e-01 -1.666666666666665e-01 -3.333333333333333e-01
 1.666666666666667e-01 -1.666666666666665e-01 -3.333333333333333e-01
 1.666666666666667e-01 -1.666666666666665e-01 -3.333333333333333e-01
 1.666666666666667e-01 -1.666666666666665e-01 -3.333333333333333e-01
 1.666666666666667e-01 -1.666666666666665e-01 -3.333333333333333e-01
 1.666666666666667e-01 -1.666666666666665e-01 -3.333333333333333e-01
 1.666666666666667e-01 -1.666666666666665e-01 -3.333333333333333e-01
 1.666666666666667e-01 -1.666666666666665e-01 -3.333333333333333e-01
 1.666666666666667e-01 -1.666666666666665e-01 -3.333333333333333e-01
 1.666666666666667e-01 -1.666666666666665e-01 -3.333333333333333e-01
 1.666666666666667e-01 -1.666666666666665e-01 -3.333333333333333e-01
 1.666666666666667e-01 -1.666666666666665e-01 -3.333333333333333e-01
 1.666666666666667e-01 -1.666666666666665e-01 -3.333333333333333e-01
 1.666666666666667e-01 -1.666666666666665e-01 -3.333333333333333e-01
 1.666666666666667e-01 -1.666666666666665e-01 -3.333333333333333e-01
 1.666666666666667e-01 -1.666666666666665e-01 -3.333333333333333e-01
 1.666666666666667e-01 -1.666666666666665e-01 -3.333333333333333e-01
 1.666666666666667e-01 -1.666666666666665e-01 -3.333333333333333e-01
 1.666666666666667e-01 -1.666666666666665e-01 -3.333333333333333e-01
 1.666666666666667e-01 -1.666666666666665e-01 -3.333333333333333e-01
 1.666666666666667e-01 -1.666666666666665e-01 -3.333333333333333e-01
 1.666666666666667e-01 -1.666666666666665e-01 -3.333333333333333e-01
 1.666666666666667e-01 -1.666666666666665e-01 -3.333333333333333e-01
 1.666666666666667e-01 -1.666666666666665e-01 -3.333333333333333e-01
 1.666666666666667e-01 -1.666666666666665e-01 -3.333333333333333e-01
 1.666666666666667e-01 -1.666666666666665e-01 -3.333333333333333e-01
 1.666666666666667e-01 -1.666666666666665e-01 -3.333333333333333e-01
 1.666666666666667e-01 -1.666666666666665e-01 -3.333333333333333e-01
 1.666666666666667e-01 -1.666666666666665e-01 -3.333333333333333e-01
 1.666666666666667e-01 -1.666666666666665e-01 -3.333333333333333e-01
 1.666666666666667e-01 -1.666666666666665e-01 -3.333333333333333e-01
 1.666666666666667e-01 -1.666666666666665e-01 -3.333333333333333e-01
 1.666666666666667e-01 -1.666666666666665e-01 -3.333333333333333e-01
 1.666666666666667e-01 -1.666666666666665e-01 -3.333333333333333e-01
 1.666666666666667e-01 -1.666666666666665e-01 -3.333333333333333e-01
 1.666666666666667e-01 -1.666666666666665e-01 -3.333333333333333e-01
 1.666666666666667e-01 -1.666666666666665e-01 -3.333333333333333e-01
 1.666666666666667e-01 -1.666666666666665e-01 -3.333333333333333e-01
 1.666666666666667e-01 -1.666666666666665e-01 -3.333333333333333e-01
 1.666666666666667e-01 -1.666666666666665e-01 -3.333333333333333e-01
 1.666666666666667e-01 -1.666666666666665e-01 -3.333333333333333e-01
 1.666666666666667e-01 -1.666666666666665e-01 -3.333333333333333e-01
 1.666666666666667e-01 -1.666666666666665e-01 -3.333333333333333e-01
 1.666666666666667e-01 -1.666666666666665e-01 -3.333333333333333e-01
 1.666666666666667e-01 -1.666666666666665e-01 -3.333333333333333e-01
 1.666666666666667e-01 -1.666666666666665e-01 -3.333333333333333e-01
 1.666666666666667e-01 -1.666666666666665e-01 -3.333333333333333e-01
 1.666666666666667e-01 -1.666666666666665e-01 -3.333333333333333e-01
 1.666666666666667e-01 -1.666666666666665e-01 -3.333333333333333e-01
 1.666666666666667e-01 -1.666666666666665e-01 -3.333333333333333e-01
 1.666666666666667e-01 -1.666666666666665e-01 -3.333333333333333e-01
 1.666666666666667e-01 -1.666666666666665e-01 -3.333333333333333e-01
 1.666666666666667e-01 -1.666666666666665e-01 -3.333333333333333e-01
 1.666666666666667e-01 -1.666666666666665e-01 -3.333333333333333e-01
 1.666666666666667e-01 -1.666666666666665e-01 -3.333333333333333e-01
 1.666666666666667e-01 -1.666666666666665e-01 -3.333333333333333e-01
 1.666666666666667e-01 -1.666666666666665e-01 -3.333333333333333e-01
 1.666666666666667e-01 -1.666666666666665e-01 -3.333333333333333e-01
 1.666666666666667e-01 -1.666666666666665e-01 -3.333333333333333e-01
 1.666666666666667e-01 -1.666666666666665e-01 -3.333333333333333e-01
 1.666666666666667e-01 -1.666666666666665e-01 -3.333333333333333e-01
 1.666666666666667e-01 -1.666666666666665e-01 -3.333333333333333e-01
 1.666666666666667e-01 -1.666666666666665e-01 -3.333333333333333e-01
 1.666666666666667e-01 -1.666666666666665e-01 -3.333333333333333e-01
 1.666666666666667e-01 -1.666666666666665e-01 -3.333333333333333e-01
 1.666666666666667e-01 -1.666666666666665e-01 -3.333333333333333e-01
 1.666666666666667e-01 -1.666666666666665e-01 -3.333333333333333e-01
 1.666666666666667e-01 -1.666666666666665e-01 -3.333333333333333e-01
 1.666666666666667e-01 -1.666666666666665e-01 -3.333333333333333e-01
 1.666666666666667e-01 -1.666666666666665e-01 -3.333333333333333e-01
 1.666666666666667e-01 -1.666666666666665e-01 -3.333333333333333e-01
 1.666666666666667e-01 -1.666666666666665e-01 -3.333333333333333e-01
 1.666666666666667e-01 -1.666666666666665e-01 -3.333333333333333e-01
 1.666666666666667e-01 -1.666666666666665e-01 -3.333333333333333e-01
 1.666666666666667e-01 -1.666666666666665e-01 -3.333333333333333e-01
 1.666666666666667e-01 -1.666666666666665e-01 -3.333333333333333e-01
 1.666666666666667e-01 -1.666666666666665e-01 -3.333333333333333e-01
 1.666666666666667e-01 -1.666666666666665e-01 -3.333333333333333e-01
 1.666666666666667e-01 -1.666666666666665e-01 -3.333333333333333e-01
 1.666666666666667e-01 -1.666666666666665e-01 -3.333333333333333e-01
 1.666666666666667e-01 -1.666666666666665e-01 -3.333333333333333e-01
 1.666666666666667e-01 -1.666666666666665e-01 -3.333333333333333e-01
 1.666666666666667e-01 -1.666666666666665e-01 -3.333333333333333e-01
 1.666666666666667e-01 -1.666666666666665e-01 -3.333333333333333e-01
 1.666666666666667e-01 -1.666666666666665e-01 -3.333333333333333e-01
 1.666666666666667e-01 -1.666666666666665e-01 -3.333333333333333e-01
 1.666666666666667e-01 -1.666666666666665e-01 -3.333333333333333e-01
 1.666666666666667e-01 -1.666666666666665e-01 -3.333333333333333e-01
 1.666666666666667e-01 -1.666666666666665e-01 -3.333333333333333e-01
 1.666666666666667e-01 -1.666666666666665e-01 -3.333333333333333e-01
 1.666666666666667e-01 -1.666666666666665e-01 -3.333333333333333e-01
 1.666666666666667e-01 -1.666666666666665e-01 -3.333333333333333e-01
-1.666666666666667e-01  1.666666666666665e-01  3.333333333333333e-01
 1.666666666666667e-01 -1.666666666666665e-01 -3.333333333333333e-01
-1.666666666666667e-01  1.666666666666665e-01  3.333333333333333e-01
-1.666666666666667e-01  1.666666666666665e-01  3.333333333333333e-01
-1.666666666666667e-01  1.666666666666665e-01  3.333333333333333e-01
-1.666666666666667e-01  1.666666666666665e-01  3.333333333333333e-01
-1.666666666666667e-01  1.666666666666665e-01  3.333333333333333e-01
-1.666666666666667e-01  1.666666666666665e-01  3.333333333333333e-01
-1.666666666666667e-01  1.666666666666665e-01  3.333333333333333e-01
-1.666666666666667e-01  1.666666666666665e-01  3.333333333333333e-01
-1.666666666666667e-01  1.666666666666665e-01  3.333333333333333e-01
-1.666666666666667e-01  1.666666666666665e-01  3.333333333333333e-01
-1.666666666666667e-01  1.666666666666665e-01  3.333333333333333e-01
-1.666666666666667e-01  1.666666666666665e-01  3.333333333333333e-01
-1.666666666666667e-01  1.666666666666665e-01  3.333333333333333e-01
-1.666666666666667e-01  1.666666666666665e-01  3.333333333333333e-01
-1.666666666666667e-01  1.666666666666665e-01  3.333333333333333e-01
-1.666666666666667e-01  1.666666666666665e-01  3.333333333333333e-01
-1.666666666666667e-01  1.666666666666665e-01  3.333333333333333e-01
-1.666666666666667e-01  1.666666666666665e-01  3.333333333333333e-01
-1.666666666666667e-01  1.666666666666665e-01  3.333333333333333e-01
-1.666666666666667e-01  1.666666666666665e-01  3.333333333333333e-01
-1.666666666666667e-01  1.666666666666665e-01  3.333333333333333e-01
-1.666666666666667e-01  1.666666666666665e-01  3.333333333333333e-01
-1.666666666666667e-01  1.666666666666665e-01  3.333333333333333e-01
-1.666666666666667e-01  1.666666666666665e-01  3.333333333333333e-01
-1.666666666666667e-01  1.666666666666665e-01  3.333333333333333e-01
-1.666666666666667e-01  1.666666666666665e-01  3.333333333333333e-01
-1.666666666666667e-01  1.666666666666665e-01  3.333333333333333e-01
-1.666666666666667e-01  1.666666666666665e-01  3.333333333333333e-01
-1.666666666666667e-01  1.666666666666665e-01  3.333333333333333e-01
-1.666666666666667e-01  1.666666666666665e-01  3.333333333333333e-01
-1.666666666666667e-01  1.666666666666665e-01  3.333333333333333e-01
-1.666666666666667e-01  1.666666666666665e-01  3.333333333333333e-01
-1.666666666666667e-01  1.666666666666665e-01  3.333333333333333e-01
-1.666666666666667e-01  1.666666666666665e-01  3.333333333333333e-01
-1.666666666666667e-01  1.666666666666665e-01  3.333333333333333e-01
-1.666666666666667e-01  1.666666666666665e-01  3.333333333333333e-01
-1.666666666666667e-01  1.666666666666665e-01  3.333333333333333e-01
-1.666666666666667e-01  1.666666666666665e-01  3.333333333333333e-01
-1.666666666666667e-01  1.666666666666665e-01  3.333333333333333e-01
-1.666666666666667e-01  1.666666666666665e-01  3.333333333333333e-01
-1.666666666666667e-01  1.666666666666665e-01  3.333333333333333e-01
-1.666666666666667e-01  1.666666666666665e-01  3.333333333333333e-01
-1.666666666666667e-01  1.666666666666665e-01  3.333333333333333e-01
-1.666666666666667e-01  1.666666666666665e-01  3.333333333333333e-01
-1.666666666666667e-01  1.666666666666665e-01  3.333333333333333e-01
-1.666666666666667e-01  1.666666666666665e-01  3.333333333333333e-01
-1.666666666666667e-01  1.666666666666665e-01  3.333333333333333e-01
-1.666666666666667e-01  1.666666666666665e-01  3.333333333333333e-01
-1.666666666666667e-01  1.666666666666665e-01  3.333333333333333e-01
-1.666666666666667e-01  1.666666666666665e-01  3.333333333333333e-01
-1.666666666666667e-01  1.666666666666665e-01  3.333333333333333e-01
-1.666666666666667e-01  1.666666666666665e-01  3.333333333333333e-01
-1.666666666666667e-01  1.666666666666665e-01  3.333333333333333e-01
-1.666666666666667e-01  1.666666666666665e-01  3.333333333333333e-01
-1.666666666666667e-01  1.666666666666665e-01  3.333333333333333e-01
-1.666666666666667e-01  1.666666666666665e-01  3.333333333333333e-01
-1.666666666666667e-01  1.666666666666665e-01  3.333333333333333e-01
-1.666666666666667e-01  1.666666666666665e-01  3.333333333333333e-01
-1.666666666666667e-01  1.666666666666665e-01  3.333333333333333e-01
-1.666666666666667e-01  1.666666666666665e-01  3.333333333333333e-01
-1.666666666666667e-01  1.666666666666665e-01  3.333333333333333e-01
-1.666666666666667e-01  1.666666666666665e-01  3.333333333333333e-01
-1.666666666666667e-01  1.666666666666665e-01  3.333333333333333e-01
-1.666666666666667e-01  1.666666666666665e-01  3.333333333333333e-01
-1.666666666666667e-01  1.666666666666665e-01  3.333333333333333e-01
-1.666666666666667e-01  1.666666666666665e-01  3.333333333333333e-01
-1.666666666666667e-01  1.666666666666665e-01  3.333333333333333e-01
-1.666666666666667e-01  1.666666666666665e-01  3.333333333333333e-01
-1.666666666666667e-01  1.666666666666665e-01  3.333333333333333e-01
-1.666666666666667e-01  1.666666666666665e-01  3.333333333333333e-01
-1.666666666666667e-01  1.666666666666665e-01  3.333333333333333e-01
-1.666666666666667e-01  1.666666666666665e-01  3.333333333333333e-01
-1.666666666666667e-01  1.666666666666665e-01  3.333333333333333e-01
-1.666666666666667e-01  1.666666666666665e-01  3.333333333333333e-01
-1.666666666666667e-01  1.666666666666665e-01  3.333333333333333e-01
-1.666666666666667e-01  1.666666666666665e-01  3.333333333333333e-01
-1.666666666666667e-01  1.666666666666665e-01  3.333333333333333e-01
-1.666666666666667e-01  1.666666666666665e-01  3.333333333333333e-01
-1.666666666666667e-01  1.666666666666665e-01  3.333333333333333e-01
-1.666666666666667e-01  1.666666666666665e-01  3.333333333333333e-01
-1.666666666666667e-01  1.666666666666665e-01  3.333333333333333e-01
-1.666666666666667e-01  1.666666666666665e-01  3.333333333333333e-01
-1.666666666666667e-01  1.666666666666665e-01  3.333333333333333e-01
-1.666666666666667e-01  1.666666666666665e-01  3.333333333333333e-01
-1.666666666666667e-01  1.666666666666665e-01  3.333333333333333e-01
-1.666666666666667e-01  1.666666666666665e-01  3.333333333333333e-01
-1.666666666666667e-01  1.666666666666665e-01  3.333333333333333e-01
-1.666666666666667e-01  1.666666666666665e-01  3.333333333333333e-01
-1.666666666666667e-01  1.666666666666665e-01  3.333333333333333e-01
-1.666666666666667e-01  1.666666666666665e-01  3.333333333333333e-01
-1.666666666666667e-01  1.666666666666665e-01  3.333333333333333e-01
-1.666666666666667e-01  1.666666666666665e-01  3.333333333333333e-01
-1.666666666666667e-01  1.666666666666665e-01  3.333333333333333e-01
-1.666666666666667e-01  1.666666666666665e-01  3.333333333333333e-01
-1.666666666666667e-01  1.666666666666665e-01  3.333333333333333e-01
-1.666666666666667e-01  1.666666666666665e-01  3.333333333333333e-01
-1.666666666666667e-01  1.666666666666665e-01  3.333333333333333e-01
-1.666666666666667e-01  1.666666666666665e-01  3.333333333333333e-01
-1.666666666666667e-01  1.666666666666665e-01  3.333333333333333e-01
-1.666666666666667e-01  1.666666666666665e-01  3.333333333333333e-01
-1.666666666666667e-01  1.666666666666665e-01  3.333333333333333e-01
-1.666666666666667e-01  1.666666666666665e-01  3.333333333333333e-01
-1.666666666666667e-01  1.666666666666665e-01  3.333333333333333e-01
-1.666666666666667e-01  1.666666666666665e-01  3.333333333333333e-01
-1.666666666666667e-01  1.666666666666665e-01  3.333333333333333e-01
-1.666666666666667e-01  1.666666666666665e-01  3.333333333333333e-01
-1.666666666666667e-01  1.666666666666665e-01  3.333333333333333e-01
-1.666666666666667e-01  1.666666666666665e-01  3.333333333333333e-01
-1.666666666666667e-01  1.666666666666665e-01  3.333333333333333e-01
-1.666666666666667e-01  1.666666666666665e-01  3.333333333333333e-01
-1.666666666666667e-01  1.666666666666665e-01  3.333333333333333e-01
-1.666666666666667e-01  1.666666666666665e-01  3.333333333333333e-01
-1.666666666666667e-01  1.666666666666665e-01  3.333333333333333e-01
-1.666666666666667e-01  1.666666666666665e-01  3.333333333333333e-01
-1.666666666666667e-01  1.666666666666665e-01  3.333333333333333e-01
-1.666666666666667e-01  1.666666666666665e-01  3.333333333333333e-01
-1.666666666666667e-01  1.666666666666665e-01  3.333333333333333e-01
-1.666666666666667e-01  1.666666666666665e-01  3.333333333333333e-01
-1.666666666666667e-01  1.666666666666665e-01  3.333333333333333e-01
-1.666666666666667e-01  1.666666666666665e-01  3.333333333333333e-01
-1.666666666666667e-01  1.666666666666665e-01  3.333333333333333e-01
-1.666666666666667e-01  1.666666666666665e-01  3.333333333333333e-01
-1.666666666666667e-01  1.666666666666665e-01  3.333333333333333e-01
-1.666666666666667e-01  1.666666666666665e-01  3.333333333333333e-01
-1.666666666666667e-01  1.666666666666665e-01  3.333333333333333e-01
-1.666666666666667e-01  1.666666666666665e-01  3.333333333333333e-01
-1.666666666666667e-01  1.666666666666665e-01  3.333333333333333e-01
-1.666666666666667e-01  1.666666666666665e-01  3.333333333333333e-01
-1.666666666666667e-01  1.666666666666665e-01  3.333333333333333e-01
-1.666666666666667e-01  1.666666666666665e-01  3.333333333333333e-01
-1.666666666666667e-01  1.666666666666665e-01  3.333333333333333e-01
-1.666666666666667e-01  1.666666666666665e-01  3.333333333333333e-01
-1.666666666666667e-01  1.666666666666665e-01  3.333333333333333e-01
-1.666666666666667e-01  1.666666666666665e-01  3.333333333333333e-01
-1.666666666666667e-01  1.666666666666665e-01  3.333333333333333e-01
-1.666666666666667e-01  1.666666666666665e-01  3.333333333333333e-01
-1.666666666666667e-01  1.666666666666665e-01  3.333333333333333e-01
-1.666666666666667e-01  1.666666666666665e-01  3.333333333333333e-01
-1.666666666666667e-01  1.666666666666665e-01  3.333333333333333e-01
-1.666666666666667e-01  1.666666666666665e-01  3.333333333333333e-01
-1.666666666666667e-01  1.666666666666665e-01  3.333333333333333e-01
-1.666666666666667e-01  1.666666666666665e-01  3.333333333333333e-01
-1.666666666666667e-01  1.666666666666665e-01  3.333333333333333e-01
-1.666666666666667e-01  1.666666666666665e-01  3.333333333333333e-01
-1.666666666666667e-01  1.666666666666665e-01  3.333333333333333e-01
-1.666666666666667e-01  1.666666666666665e-01  3.333333333333333e-01
-1.666666666666667e-01  1.666666666666665e-01  3.333333333333333e-01
-1.666666666666667e-01  1.666666666666665e-01  3.333333333333333e-01
-1.666666666666667e-01  1.666666666666665e-01  3.333333333333333e-01
-1.666666666666667e-01  1.666666666666665e-01  3.333333333333333e-01
-1.666666666666667e-01  1.666666666666665e-01  3.333333333333333e-01
-1.666666666666667e-01  1.666666666666665e-01  3.333333333333333e-01
-1.666666666666667e-01  1.666666666666665e-01  3.333333333333333e-01
-1.666666666666667e-01  1.666666666666665e-01  3.333333333333333e-01
-1.666666666666667e-01  1.666666666666665e-01  3.333333333333333e-01
-1.666666666666667e-01  1.666666666666665e-01  3.333333333333333e-01
-1.666666666666667e-01  1.666666666666665e-01  3.333333333333333e-01
-1.666666666666667e-01  1.666666666666665e-01  3.333333333333333e-01
-1.666666666666667e-01  1.666666666666665e-01  3.333333333333333e-01
-1.666666666666667e-01  1.666666666666665e-01  3.333333333333333e-01
-1.666666666666667e-01  1.666666666666665e-01  3.333333333333333e-01
-1.666666666666667e-01  1.666666666666665e-01  3.333333333333333e-01
-1.666666666666667e-01  1.666666666666665e-01  3.333333333333333e-01
-1.666666666666667e-01  1.666666666666665e-01  3.333333333333333e-01
-1.666666666666667e-01  1.666666666666665e-01  3.333333333333333e-01
-1.666666666666667e-01  1.666666666666665e-01  3.333333333333333e-01
-1.666666666666667e-01  1.666666666666665e-01  3.333333333333333e-01
-1.666666666666667e-01  1.666666666666665e-01  3.333333333333333e-01
-1.666666666666667e-01  1.666666666666665e-01  3.333333333333333e-01
-1.666666666666667e-01  1.666666666666665e-01  3.333333333333333e-01
-1.666666666666667e-01  1.666666666666665e-01  3.333333333333333e-01
-1.666666666666667e-01  1.666666666666665e-01  3.333333333333333e-01
-1.666666666666667e-01  1.666666666666665e-01  3.333333333333333e-01
-1.666666666666667e-01  1.666666666666665e-01  3.333333333333333e-01
-1.666666666666667e-01  1.666666666666665e-01  3.333333333333333e-01
-1.666666666666667e-01  1.666666666666665e-01  3.333333333333333e-01
-1.666666666666667e-01  1.666666666666665e-01  3.333333333333333e-01
-1.666666666666667e-01  1.666666666666665e-01  3.333333333333333e-01
-1.666666666666667e-01  1.666666666666665e-01  3.333333333333333e-01
-1.666666666666667e-01  1.666666666666665e-01  3.333333333333333e-01
-1.666666666666667e-01  1.666666666666665e-01  3.333333333333333e-01
-1.666666666666667e-01  1.666666666666665e-01  3.333333333333333e-01
-1.666666666666667e-01  1.666666666666665e-01  3.333333333333333e-01
 1.666666666666667e-01 -1.666666666666665e-01 -3.333333333333333e-01
-1.666666666666667e-01  1.666666666666665e-01  3.333333333333333e-01
-1.666666666666667e-01  1.666666666666665e-01  3.333333333333333e-01
-1.666666666666667e-01  1.666666666666665e-01  3.333333333333333e-01
-1.666666666666667e-01  1.666666666666665e-01  3.333333333333333e-01
-1.666666666666667e-01  1.666666666666665e-01  3.333333333333333e-01
-1.666666666666667e-01  1.666666666666665e-01  3.333333333333333e-01
-1.666666666666667e-01  1.666666666666665e-01  3.333333333333333e-01
-1.666666666666667e-01  1.666666666666665e-01  3.333333333333333e-01
-1.666666666666667e-01  1.666666666666665e-01  3.333333333333333e-01
-1.666666666666667e-01  1.666666666666665e-01  3.333333333333333e-01
-1.666666666666667e-01  1.666666666666665e-01  3.333333333333333e-01
-1.666666666666667e-01  1.666666666666665e-01  3.333333333333333e-01
-1.666666666666667e-01  1.666666666666665e-01  3.333333333333333e-01
-1.666666666666667e-01  1.666666666666665e-01  3.333333333333333e-01
-1.666666666666667e-01  1.666666666666665e-01  3.333333333333333e-01
-1.666666666666667e-01  1.666666666666665e-01  3.333333333333333e-01
-1.666666666666667e-01  1.666666666666665e-01  3.333333333333333e-01
-1.666666666666667e-01  1.666666666666665e-01  3.333333333333333e-01
-1.666666666666667e-01  1.666666666666665e-01  3.333333333333333e-01
-1.666666666666667e-01  1.666666666666665e-01  3.333333333333333e-01
-1.666666666666667e-01  1.666666666666665e-01  3.333333333333333e-01
-1.666666666666667e-01  1.666666666666665e-01  3.333333333333333e-01
-1.666666666666667e-01  1.666666666666665e-01  3.333333333333333e-01
-1.666666666666667e-01  1.666666666666665e-01  3.333333333333333e-01
-1.666666666666667e-01  1.666666666666665e-01  3.333333333333333e-01
-1.666666666666667e-01  1.666666666666665e-01  3.333333333333333e-01
-1.666666666666667e-01  1.666666666666665e-01  3.333333333333333e-01
-1.666666666666667e-01  1.666666666666665e-01  3.333333333333333e-01
-1.666666666666667e-01  1.666666666666665e-01  3.333333333333333e-01
-1.666666666666667e-01  1.666666666666665e-01  3.333333333333333e-01
-1.666666666666667e-01  1.666666666666665e-01  3.333333333333333e-01
-1.666666666666667e-01  1.666666666666665e-01  3.333333333333333e-01
-1.666666666666667e-01  1.666666666666665e-01  3.333333333333333e-01
-1.666666666666667e-01  1.666666666666665e-01  3.333333333333333e-01
-1.666666666666667e-01  1.666666666666665e-01  3.333333333333333e-01
-1.666666666666667e-01  1.666666666666665e-01  3.333333333333333e-01
-1.666666666666667e-01  1.666666666666665e-01  3.333333333333333e-01
-1.666666666666667e-01  1.666666666666665e-01  3.333333333333333e-01
-1.666666666666667e-01  1.666666666666665e-01  3.333333333333333e-01
-1.666666666666667e-01  1.666666666666665e-01  3.333333333333333e-01
-1.666666666666667e-01  1.666666666666665e-01  3.333333333333333e-01
-1.666666666666667e-01  1.666666666666665e-01  3.333333333333333e-01
-1.666666666666667e-01  1.666666666666665e-01  3.333333333333333e-01
-1.666666666666667e-01  1.666666666666665e-01  3.333333333333333e-01
-1.666666666666667e-01  1.666666666666665e-01  3.333333333333333e-01
-1.666666666666667e-01  1.666666666666665e-01  3.333333333333333e-01
-1.666666666666667e-01  1.666666666666665e-01  3.333333333333333e-01
-1.666666666666667e-01  1.666666666666665e-01  3.333333333333333e-01
-1.666666666666667e-01  1.666666666666665e-01  3.333333333333333e-01
-1.666666666666667e-01  1.666666666666665e-01  3.333333333333333e-01
-1.666666666666667e-01  1.666666666666665e-01  3.333333333333333e-01
-1.666666666666667e-01  1.666666666666665e-01  3.333333333333333e-01
-1.666666666666667e-01  1.666666666666665e-01  3.333333333333333e-01
-1.666666666666667e-01  1.666666666666665e-01  3.333333333333333e-01
-1.666666666666667e-01  1.666666666666665e-01  3.333333333333333e-01
-1.666666666666667e-01  1.666666666666665e-01  3.333333333333333e-01
-1.666666666666667e-01  1.666666666666665e-01  3.333333333333333e-01
-1.666666666666667e-01  1.666666666666665e-01  3.333333333333333e-01
-1.666666666666667e-01  1.666666666666665e-01  3.333333333333333e-01
-1.666666666666667e-01  1.666666666666665e-01  3.333333333333333e-01
-1.666666666666667e-01  1.666666666666665e-01  3.333333333333333e-01
-1.666666666666667e-01  1.666666666666665e-01  3.333333333333333e-01
-1.666666666666667e-01  1.666666666666665e-01  3.333333333333333e-01
-1.666666666666667e-01  1.666666666666665e-01  3.333333333333333e-01
-1.666666666666667e-01  1.666666666666665e-01  3.333333333333333e-01
-1.666666666666667e-01  1.666666666666665e-01  3.333333333333333e-01
-1.666666666666667e-01  1.666666666666665e-01  3.333333333333333e-01
-1.666666666666667e-01  1.666666666666665e-01  3.333333333333333e-01
-1.666666666666667e-01  1.666666666666665e-01  3.333333333333333e-01
-1.666666666666667e-01  1.666666666666665e-01  3.333333333333333e-01
-1.666666666666667e-01  1.666666666666665e-01  3.333333333333333e-01
-1.666666666666667e-01  1.666666666666665e-01  3.333333333333333e-01
-1.666666666666667e-01  1.666666666666665e-01  3.333333333333333e-01
-1.666666666666667e-01  1.666666666666665e-01  3.333333333333333e-01
-1.666666666666667e-01  1.666666666666665e-01  3.333333333333333e-01
-1.666666666666667e-01  1.666666666666665e-01  3.333333333333333e-01
-1.666666666666667e-01  1.666666666666665e-01  3.333333333333333e-01
-1.666666666666667e-01  1.666666666666665e-01  3.333333333333333e-01
-1.666666666666667e-01  1.666666666666665e-01  3.333333333333333e-01
-1.666666666666667e-01  1.666666666666665e-01  3.333333333333333e-01
-1.666666666666667e-01  1.666666666666665e-01  3.333333333333333e-01
-1.666666666666667e-01  1.666666666666665e-01  3.333333333333333e-01
-1.666666666666667e-01  1.666666666666665e-01  3.333333333333333e-01
-1.666666666666667e-01  1.666666666666665e-01  3.333333333333333e-01
-1.666666666666667e-01  1.666666666666665e-01  3.333333333333333e-01
-1.666666666666667e-01  1.666666666666665e-01  3.333333333333333e-01
-1.666666666666667e-01  1.666666666666665e-01  3.333333333333333e-01
-1.666666666666667e-01  1.666666666666665e-01  3.333333333333333e-01
-1.666666666666667e-01  1.666666666666665e-01  3.333333333333333e-01
-1.666666666666667e-01  1.666666666666665e-01  3.333333333333333e-01
-1.666666666666667e-01  1.666666666666665e-01  3.333333333333333e-01
-1.666666666666667e-01  1.666666666666665e-01  3.333333333333333e-01
-1.666666666666667e-01  1.666666666666665e-01  3.333333333333333e-01
-1.666666666666667e-01  1.666666666666665e-01  3.333333333333333e-01
-1.666666666666667e-01  1.666666666666665e-01  3.333333333333333e-01
-1.666666666666667e-01  1.666666666666665e-01  3.333333333333333e-01
-1.666666666666667e-01  1.666666666666665e-01  3.333333333333333e-01
-1.666666666666667e-01  1.666666666666665e-01  3.333333333333333e-01
-1.666666666666667e-01  1.666666666666665e-01  3.333333333333333e-01
-1.666666666666667e-01  1.666666666666665e-01  3.333333333333333e-01
-1.666666666666667e-01  1.666666666666665e-01  3.333333333333333e-01
-1.666666666666667e-01  1.666666666666665e-01  3.333333333333333e-01
-1.666666666666667e-01  1.666666666666665e-01  3.333333333333333e-01
-1.666666666666667e-01  1.666666666666665e-01  3.333333333333333e-01
-1.666666666666667e-01  1.666666666666665e-01  3.333333333333333e-01
-1.666666666666667e-01  1.666666666666665e-01  3.333333333333333e-01
-1.666666666666667e-01  1.666666666666665e-01  3.333333333333333e-01
-1.666666666666667e-01  1.666666666666665e-01  3.333333333333333e-01
-1.666666666666667e-01  1.666666666666665e-01  3.333333333333333e-01
-1.666666666666667e-01  1.666666666666665e-01  3.333333333333333e-01
-1.666666666666667e-01  1.666666666666665e-01  3.333333333333333e-01
-1.666666666666667e-01  1.666666666666665e-01  3.333333333333333e-01
-1.666666666666667e-01  1.666666666666665e-01  3.333333333333333e-01
-1.666666666666667e-01  1.666666666666665e-01  3.333333333333333e-01
-1.666666666666667e-01  1.666666666666665e-01  3.333333333333333e-01
-1.666666666666667e-01  1.666666666666665e-01  3.333333333333333e-01
-1.666666666666667e-01  1.666666666666665e-01  3.333333333333333e-01
-1.666666666666667e-01  1.666666666666665e-01  3.333333333333333e-01
-1.666666666666667e-01  1.666666666666665e-01  3.333333333333333e-01
-1.666666666666667e-01  1.666666666666665e-01  3.333333333333333e-01
-1.666666666666667e-01  1.666666666666665e-01  3.333333333333333e-01
-1.666666666666667e-01  1.666666666666665e-01  3.333333333333333e-01
-1.666666666666667e-01  1.666666666666665e-01  3.333333333333333e-01
-1.666666666666667e-01  1.666666666666665e-01  3.333333333333333e-01
-1.666666666666667e-01  1.666666666666665e-01  3.333333333333333e-01
-1.666666666666667e-01  1.666666666666665e-01  3.333333333333333e-01
-1.666666666666667e-01  1.666666666666665e-01  3.333333333333333e-01
-1.666666666666667e-01  1.666666666666665e-01  3.333333333333333e-01
-1.666666666666667e-01  1.666666666666665e-01  3.333333333333333e-01
-1.666666666666667e-01  1.666666666666665e-01  3.333333333333333e-01
-1.666666666666667e-01  1.666666666666665e-01  3.333333333333333e-01
-1.666666666666667e-01  1.666666666666665e-01  3.333333333333333e-01
-1.666666666666667e-01  1.666666666666665e-01  3.333333333333333e-01
-1.666666666666667e-01  1.666666666666665e-01  3.333333333333333e-01
-1.666666666666667e-01  1.666666666666665e-01  3.333333333333333e-01
-1.666666666666667e-01  1.666666666666665e-01  3.333333333333333e-01
-1.666666666666667e-01  1.666666666666665e-01  3.333333333333333e-01
-1.666666666666667e-01  1.666666666666665e-01  3.333333333333333e-01
-1.666666666666667e-01  1.666666666666665e-01  3.333333333333333e-01
-1.666666666666667e-01  1.666666666666665e-01  3.333333333333333e-01
-1.666666666666667e-01  1.666666666666665e-01  3.333333333333333e-01
-1.666666666666667e-01  1.666666666666665e-01  3.333333333333333e-01
-1.666666666666667e-01  1.666666666666665e-01  3.333333333333333e-01
-1.666666666666667e-01  1.666666666666665e-01  3.333333333333333e-01
-1.666666666666667e-01  1.666666666666665e-01  3.333333333333333e-01
-1.666666666666667e-01  1.666666666666665e-01  3.333333333333333e-01
-1.666666666666667e-01  1.666666666666665e-01  3.333333333333333e-01
-1.666666666666667e-01  1.666666666666665e-01  3.333333333333333e-01
-1.666666666666667e-01  1.666666666666665e-01  3.333333333333333e-01
-1.666666666666667e-01  1.666666666666665e-01  3.333333333333333e-01
-1.666666666666667e-01  1.666666666666665e-01  3.333333333333333e-01
-1.666666666666667e-01  1.666666666666665e-01  3.333333333333333e-01
-1.666666666666667e-01  1.666666666666665e-01  3.333333333333333e-01
-1.666666666666667e-01  1.666666666666665e-01  3.333333333333333e-01
-1.666666666666667e-01  1.666666666666665e-01  3.333333333333333e-01
-1.666666666666667e-01  1.666666666666665e-01  3.333333333333333e-01
-1.666666666666667e-01  1.666666666666665e-01  3.333333333333333e-01
-1.666666666666667e-01  1.666666666666665e-01  3.333333333333333e-01
-1.666666666666667e-01  1.666666666666665e-01  3.333333333333333e-01
-1.666666666666667e-01  1.666666666666665e-01  3.333333333333333e-01
-1.666666666666667e-01  1.666666666666665e-01  3.333333333333333e-01
-1.666666666666667e-01  1.666666666666665e-01  3.333333333333333e-01
-1.666666666666667e-01  1.666666666666665e-01  3.333333333333333e-01
-1.666666666666667e-01  1.666666666666665e-01  3.333333333333333e-01
-1.666666666666667e-01  1.666666666666665e-01  3.333333333333333e-01
-1.666666666666667e-01  1.666666666666665e-01  3.333333333333333e-01
-1.666666666666667e-01  1.666666666666665e-01  3.333333333333333e-01
-1.666666666666667e-01  1.666666666666665e-01  3.333333333333333e-01
-1.666666666666667e-01  1.666666666666665e-01  3.333333333333333e-01
-1.666666666666667e-01  1.666666666666665e-01  3.333333333333333e-01
-1.666666666666667e-01  1.666666666666665e-01  3.333333333333333e-01
-1.666666666666667e-01  1.666666666666665e-01  3.333333333333333e-01
-1.666666666666667e-01  1.666666666666665e-01  3.333333333333333e-01
-1.666666666666667e-01  1.666666666666665e-01  3.333333333333333e-01
-1.666666666666667e-01  1.666666666666665e-01  3.333333333333333e-01
-1.666666666666667e-01  1.666666666666665e-01  3.333333333333333e-01
-1.666666666666667e-01  1.666666666666665e-01  3.333333333333333e-01
-1.666666666666667e-01  1.666666666666665e-01  3.333333333333333e-01
-1.666666666666667e-01  1.666666666666665e-01  3.333333333333333e-01
-1.666666666666667e-01  1.666666666666665e-01  3.333333333333333e-01
-1.666666666666667e-01  1.666666666666665e-01  3.333333333333333e-01
-1.666666666666667e-01  1.666666666666665e-01  3.333333333333333e-01
-1.666666666666667e-01  1.666666666666665e-01  3.333333333333333e-01
-1.666666666666667e-01  1.666666666666665e-01  3.333333333333333e-01
-1.666666666666667e-01  1.666666666666665e-01  3.333333333333333e-01
-1.666666666666667e-01  1.666666666666665e-01  3.333333333333333e-01
-1.666666666666667e-01  1.666666666666665e-01  3.333333333333333e-01
-1.666666666666667e-01  1.666666666666665e-01  3.333333333333333e-01
-1.666666666666667e-01  1.666666666666665e-01  3.333333333333333e-01
-1.666666666666667e-01  1.666666666666665e-01  3.333333333333333e-01
-1.666666666666667e-01  1.666666666666665e-01  3.333333333333333e-01
-1.666666666666667e-01  1.666666666666665e-01  3.333333333333333e-01
-1.666666666666667e-01  1.666666666666665e-01  3.333333333333333e-01
-1.666666666666667e-01  1.666666666666665e-01  3.333333333333333e-01
-1.666666666666667e-01  1.666666666666665e-01  3.333333333333333e-01
-1.666666666666667e-01  1.666666666666665e-01  3.333333333333333e-01
-1.666666666666667e-01  1.666666666666665e-01  3.333333333333333e-01
-1.666666666666667e-01  1.666666666666665e-01  3.333333333333333e-01
-1.666666666666667e-01  1.666666666666665e-01  3.333333333333333e-01
-1.666666666666667e-01  1.666666666666665e-01  3.333333333333333e-01
-1.666666666666667e-01  1.666666666666665e-01  3.333333333333333e-01
-1.666666666666667e-01  1.666666666666665e-01  3.333333333333333e-01
-1.666666666666667e-01  1.666666666666665e-01  3.333333333333333e-01
-1.666666666666667e-01  1.666666666666665e-01  3.333333333333333e-01
-1.666666666666667e-01  1.666666666666665e-01  3.333333333333333e-01
-1.666666666666667e-01  1.666666666666665e-01  3.333333333333333e-01
-1.666666666666667e-01  1.666666666666665e-01  3.333333333333333e-01
