# vtk DataFile Version 3.0
# Dislocation lines converted from MoDELib file
ASCII
DATASET UNSTRUCTURED_GRID
POINTS 2901 double
-1.429999999999877e+00  3.863858941524650e+02 -2.918975276816622e+03
-1.429999999999897e+00 -3.863858941524674e+02 -2.918975276816622e+03
-1.429999999999897e+00  0.000000000000000e+00 -2.918975276816622e+03
-1.430000000000221e+00  0.000000000000000e+00  2.918975276816619e+03
-1.430000000000221e+00 -3.863858941524674e+02  2.918975276816619e+03
-1.430000000000201e+00  3.863858941524653e+02  2.918975276816619e+03
-1.148424410113327e+03  1.103108873747542e+00 -2.918975276816622e+03
-1.148398167967187e+03 -1.061820130451897e+00 -2.918975276816622e+03
-1.148511542489944e+03 -1.743841097611492e+00 -2.918975276816622e+03
-1.148588405645407e+03 -3.925756686061811e+00 -2.918975276816622e+03
-1.148438256917727e+03 -5.235328854311977e+00 -2.918975276816622e+03
-1.148350031439440e+03 -6.334002296175611e+00 -2.918975276816622e+03
-1.148386230886420e+03 -8.190879290525720e+00 -2.918975276816622e+03
-1.148432460728707e+03 -1.298348931529358e+01 -2.918975276816622e+03
-1.148354354855515e+03 -1.364782742198616e+01 -2.918975276816622e+03
-1.148226678936904e+03 -1.661318883365977e+01 -2.918975276816622e+03
-1.148298970765301e+03 -2.009760868429916e+01 -2.918975276816622e+03
-1.148309074962300e+03 -2.290317051131100e+01 -2.918975276816622e+03
-1.148306670912435e+03 -2.691488973904302e+01 -2.918975276816622e+03
-1.148188497543136e+03 -2.804171631440809e+01 -2.918975276816622e+03
-1.148111612953174e+03 -3.455739809513649e+01 -2.918975276816622e+03
-1.148181959732810e+03 -3.540894876938725e+01 -2.918975276816622e+03
-1.148154576493423e+03 -3.851551613973077e+01 -2.918975276816622e+03
-1.148091199542484e+03 -4.348307430835354e+01 -2.918975276816622e+03
-1.148226240559576e+03 -4.492818018709723e+01 -2.918975276816622e+03
-1.147764036091203e+03 -5.006640642033894e+01 -2.918975276816622e+03
-1.148052790815693e+03 -5.596841622377177e+01 -2.918975276816622e+03
-1.148065814241217e+03 -5.828190693440985e+01 -2.918975276816622e+03
-1.148404430516573e+03 -6.008820910816910e+01 -2.918975276816622e+03
-1.147933530230450e+03 -6.138194306594851e+01 -2.918975276816622e+03
-1.147629695482690e+03 -6.326589865655196e+01 -2.918975276816622e+03
-1.147995096404994e+03 -6.429195951134535e+01 -2.918975276816622e+03
-1.147901227765926e+03 -6.639440675918954e+01 -2.918975276816622e+03
-1.147862355137012e+03 -6.740578506369962e+01 -2.918975276816622e+03
-1.147802434598024e+03 -6.994104603882404e+01 -2.918975276816622e+03
-1.147952807718345e+03 -7.063424839102294e+01 -2.918975276816622e+03
-1.147769983358131e+03 -7.212876618823276e+01 -2.918975276816622e+03
-1.147884794001852e+03 -7.418540157949074e+01 -2.918975276816622e+03
-1.147725515134706e+03 -7.531403068618643e+01 -2.918975276816622e+03
-1.147846736194111e+03 -7.637480551573893e+01 -2.918975276816622e+03
-1.147689465811868e+03 -7.837092548749655e+01 -2.918975276816622e+03
-1.147829748144925e+03 -8.038225042749644e+01 -2.918975276816622e+03
-1.147686211074397e+03 -8.148381562820336e+01 -2.918975276816622e+03
-1.147835926373751e+03 -8.370605437831279e+01 -2.918975276816622e+03
-1.147659451220684e+03 -8.525311986256480e+01 -2.918975276816622e+03
-1.147785397779260e+03 -8.728597765802546e+01 -2.918975276816622e+03
-1.147629554596367e+03 -8.948563492605099e+01 -2.918975276816622e+03
-1.147750382572809e+03 -9.037291425598667e+01 -2.918975276816622e+03
-1.147610544651640e+03 -9.209699655446170e+01 -2.918975276816622e+03
-1.147716357482854e+03 -9.484750731791446e+01 -2.918975276816622e+03
-1.147626550987590e+03 -9.555065621613068e+01 -2.918975276816622e+03
-1.147720090067115e+03 -9.845176089288915e+01 -2.918975276816622e+03
-1.147628298117825e+03 -1.003537958163380e+02 -2.918975276816622e+03
-1.147689858695037e+03 -1.013920208236812e+02 -2.918975276816622e+03
-1.147582183896858e+03 -1.032471909593408e+02 -2.918975276816622e+03
-1.147672074304824e+03 -1.042512597688696e+02 -2.918975276816622e+03
-1.147605843681831e+03 -1.062266164124463e+02 -2.918975276816622e+03
-1.147634246112219e+03 -1.072781397719877e+02 -2.918975276816622e+03
-1.147466632334634e+03 -1.097048372936371e+02 -2.918975276816622e+03
-1.147629180021943e+03 -1.105592087047264e+02 -2.918975276816622e+03
-1.147769072735988e+03 -1.122527020421617e+02 -2.918975276816622e+03
-1.147625930265265e+03 -1.141069907593035e+02 -2.918975276816622e+03
-1.147529112649533e+03 -1.142014906473979e+02 -2.918975276816622e+03
-1.147587702502098e+03 -1.157429352801734e+02 -2.918975276816622e+03
-1.147604788398279e+03 -1.183239271657178e+02 -2.918975276816622e+03
-1.147614434623818e+03 -1.201165449587771e+02 -2.918975276816622e+03
-1.147567361048157e+03 -1.213428366603961e+02 -2.918975276816622e+03
-1.147586375003591e+03 -1.236078968818979e+02 -2.918975276816622e+03
-1.147590864910644e+03 -1.248559725473606e+02 -2.918975276816622e+03
-1.147597896329105e+03 -1.295015843782206e+02 -2.918975276816622e+03
-1.147593386553222e+03 -1.297637154612592e+02 -2.918975276816622e+03
-1.147633366242379e+03 -1.319568421378887e+02 -2.918975276816622e+03
-1.147618104329093e+03 -1.340783585419886e+02 -2.918975276816622e+03
-1.147614353480851e+03 -1.343768861861202e+02 -2.918975276816622e+03
-1.147618318217139e+03 -1.357584369987107e+02 -2.918975276816622e+03
-1.147653345681423e+03 -1.383906720448350e+02 -2.918975276816622e+03
-1.147657432013942e+03 -1.400694983928925e+02 -2.918975276816622e+03
-1.147669079097450e+03 -1.412835936649765e+02 -2.918975276816622e+03
-1.147685941042997e+03 -1.431670653273748e+02 -2.918975276816622e+03
-1.147689227817274e+03 -1.441692731556239e+02 -2.918975276816622e+03
-1.147711758582931e+03 -1.461338893727805e+02 -2.918975276816622e+03
-1.147711481284202e+03 -1.471528042857089e+02 -2.918975276816622e+03
-1.147746181395304e+03 -1.496673755353715e+02 -2.918975276816622e+03
-1.147737279897798e+03 -1.503678794255895e+02 -2.918975276816622e+03
-1.147760147515899e+03 -1.520369092144081e+02 -2.918975276816622e+03
-1.147760686077042e+03 -1.540266471839059e+02 -2.918975276816622e+03
-1.147765157756260e+03 -1.540594730250507e+02 -2.918975276816622e+03
-1.147773986656411e+03 -1.559567524190867e+02 -2.918975276816622e+03
-1.147868580501618e+03 -1.601690092856049e+02 -2.918975276816622e+03
-1.147821451016915e+03 -1.612247636460774e+02 -2.918975276816622e+03
-1.147788737520569e+03 -1.631885018120418e+02 -2.918975276816622e+03
-1.147853433679152e+03 -1.647261360824374e+02 -2.918975276816622e+03
-1.147911969813110e+03 -1.723223560635258e+02 -2.918975276816622e+03
-1.147920456125444e+03 -1.756643731215390e+02 -2.918975276816622e+03
-1.147928651881383e+03 -1.783163680283093e+02 -2.918975276816622e+03
-1.147940685885929e+03 -1.802167481110032e+02 -2.918975276816622e+03
-1.147954316300252e+03 -1.812744554316045e+02 -2.918975276816622e+03
-1.147957000663095e+03 -1.831434501208780e+02 -2.918975276816622e+03
-1.147958495773181e+03 -1.847069334574408e+02 -2.918975276816622e+03
-1.147976737149689e+03 -1.894826317468953e+02 -2.918975276816622e+03
-1.147964520978624e+03 -1.900481597443840e+02 -2.918975276816622e+03
-1.147989600627978e+03 -1.919414137636427e+02 -2.918975276816622e+03
-1.147978618280791e+03 -1.938932197338108e+02 -2.918975276816622e+03
-1.147980380041856e+03 -1.942854162555694e+02 -2.918975276816622e+03
-1.147926226171209e+03 -1.960461904740539e+02 -2.918975276816622e+03
-1.147966317724590e+03 -2.000697047762814e+02 -2.918975276816622e+03
-1.147933995160073e+03 -2.010927431662264e+02 -2.918975276816622e+03
-1.147943639746258e+03 -2.030836500940141e+02 -2.918975276816622e+03
-1.147969663850604e+03 -2.040486307702952e+02 -2.918975276816622e+03
-1.147963049025753e+03 -2.060359432562116e+02 -2.918975276816622e+03
-1.147766618792547e+03 -2.070798980719923e+02 -2.918975276816622e+03
-1.147891359221277e+03 -2.096391135145562e+02 -2.918975276816622e+03
-1.147982514066532e+03 -2.104263075669539e+02 -2.918975276816622e+03
-1.147888447989815e+03 -2.123927532811894e+02 -2.918975276816622e+03
-1.147682482227966e+03 -2.155941117093305e+02 -2.918975276816622e+03
-1.147773773483431e+03 -2.182391950614729e+02 -2.918975276816622e+03
-1.147748085099809e+03 -2.200738602936186e+02 -2.918975276816622e+03
-1.147639258144832e+03 -2.212030606323794e+02 -2.918975276816622e+03
-1.147485601341873e+03 -2.231498760679321e+02 -2.918975276816622e+03
-1.147653003803228e+03 -2.246367130593597e+02 -2.918975276816622e+03
-1.147476830323549e+03 -2.294517172426955e+02 -2.918975276816622e+03
-1.147437804180972e+03 -2.301830714435431e+02 -2.918975276816622e+03
-1.147350630446801e+03 -2.319927361453510e+02 -2.918975276816622e+03
-1.147236218940732e+03 -2.338012284543255e+02 -2.918975276816622e+03
-1.147278292308694e+03 -2.339024565524000e+02 -2.918975276816622e+03
-1.147464675524273e+03 -2.355453996112292e+02 -2.918975276816622e+03
-1.147450568706646e+03 -2.381336261949878e+02 -2.918975276816622e+03
-1.147409265110206e+03 -2.400803849582392e+02 -2.918975276816622e+03
-1.147556006645607e+03 -2.411811975302631e+02 -2.918975276816622e+03
-1.147864453982781e+03 -2.431589941365637e+02 -2.918975276816622e+03
-1.147658684804323e+03 -2.444789682505795e+02 -2.918975276816622e+03
-1.147827694232194e+03 -2.470199117765513e+02 -2.918975276816622e+03
-1.147839835629439e+03 -2.470577220506538e+02 -2.918975276816622e+03
-1.147802868341170e+03 -2.497773944751155e+02 -2.918975276816622e+03
-1.147784597208644e+03 -2.508559400620395e+02 -2.918975276816622e+03
-1.147767812130896e+03 -2.516887593228401e+02 -2.918975276816622e+03
-1.147766013115755e+03 -2.538528571538737e+02 -2.918975276816622e+03
-1.147782795074935e+03 -2.552309156682661e+02 -2.918975276816622e+03
-1.147764595381939e+03 -2.574745873360186e+02 -2.918975276816622e+03
-1.147761425046422e+03 -2.577203041790709e+02 -2.918975276816622e+03
-1.147760889576313e+03 -2.601534619013181e+02 -2.918975276816622e+03
-1.147768625461335e+03 -2.609426958186488e+02 -2.918975276816622e+03
-1.147776826938550e+03 -2.634033496377418e+02 -2.918975276816622e+03
-1.147782650406583e+03 -2.661364326477666e+02 -2.918975276816622e+03
-1.147798544476264e+03 -2.710889992204364e+02 -2.918975276816622e+03
-1.147815524731195e+03 -2.738734189791329e+02 -2.918975276816622e+03
-1.147807011284657e+03 -2.755627239734864e+02 -2.918975276816622e+03
-1.147833439441180e+03 -2.773775425411510e+02 -2.918975276816622e+03
-1.147917089136730e+03 -2.802820660888858e+02 -2.918975276816622e+03
-1.147865971823703e+03 -2.843440453790879e+02 -2.918975276816622e+03
-1.147732068712054e+03 -2.858608599699444e+02 -2.918975276816622e+03
-1.147947614251219e+03 -2.877656709015537e+02 -2.918975276816622e+03
-1.147850466939778e+03 -2.950749252471909e+02 -2.918975276816622e+03
-1.147823465840285e+03 -2.986166016124571e+02 -2.918975276816622e+03
-1.147850303360964e+03 -3.003112679860694e+02 -2.918975276816622e+03
-1.147838895382935e+03 -3.036477635982099e+02 -2.918975276816622e+03
-1.147761895209305e+03 -3.042729976679236e+02 -2.918975276816622e+03
-1.147785481324953e+03 -3.073846118872142e+02 -2.918975276816622e+03
-1.147801780762001e+03 -3.106705748488869e+02 -2.918975276816622e+03
-1.147731950776349e+03 -3.139493736092251e+02 -2.918975276816622e+03
-1.147643175454830e+03 -3.181067485605129e+02 -2.918975276816622e+03
-1.147593150334755e+03 -3.231517158385313e+02 -2.918975276816622e+03
-1.147449032287272e+03 -3.266287064457231e+02 -2.918975276816622e+03
-1.147426151501518e+03 -3.266387704793725e+02 -2.918975276816622e+03
-1.147662889421908e+03 -3.304535693843573e+02 -2.918975276816622e+03
-1.147855082501390e+03 -3.339447095167709e+02 -2.918975276816622e+03
-1.147549198614731e+03 -3.347548262518803e+02 -2.918975276816622e+03
-1.147545133794966e+03 -3.387004482640908e+02 -2.918975276816622e+03
-1.147862825134278e+03 -3.432292650301011e+02 -2.918975276816622e+03
-1.147848621755054e+03 -3.472715470597699e+02 -2.918975276816622e+03
-1.147644794489479e+03 -3.479598250653559e+02 -2.918975276816622e+03
-1.147673934846295e+03 -3.528679855664203e+02 -2.918975276816622e+03
-1.147936680436377e+03 -3.543901701418724e+02 -2.918975276816622e+03
-1.147833988384686e+03 -3.583814680755621e+02 -2.918975276816622e+03
-1.147631617805494e+03 -3.621371390262615e+02 -2.918975276816622e+03
-1.147918510246361e+03 -3.696694427385949e+02 -2.918975276816622e+03
-1.148004238469763e+03 -3.717819900425150e+02 -2.918975276816622e+03
-1.147943471218058e+03 -3.741002125745925e+02 -2.918975276816622e+03
-1.147924596190476e+03 -3.743953762750441e+02 -2.918975276816622e+03
-1.147863115792383e+03 -3.763776548747203e+02 -2.918975276816622e+03
-1.147933878537524e+03 -3.775420797009839e+02 -2.918975276816622e+03
-1.147968314934881e+03 -3.796467646501276e+02 -2.918975276816622e+03
-1.147960927652895e+03 -3.799800177620970e+02 -2.918975276816622e+03
-1.147963185084605e+03 -3.823259802794672e+02 -2.918975276816622e+03
-1.147962666790499e+03 -3.860603471376406e+02 -2.918975276816622e+03
-1.147962424670656e+03  3.832685747432004e+02 -2.918975276816622e+03
-1.147944819884775e+03  3.785186058055268e+02 -2.918975276816622e+03
-1.147966105129052e+03  3.770765955483352e+02 -2.918975276816622e+03
-1.147993300195743e+03  3.763623192224810e+02 -2.918975276816622e+03
-1.147960420660946e+03  3.737487070158559e+02 -2.918975276816622e+03
-1.147943487523256e+03  3.685195399614423e+02 -2.918975276816622e+03
-1.147897379633675e+03  3.602111236818540e+02 -2.918975276816622e+03
-1.147922642067462e+03  3.590963597007859e+02 -2.918975276816622e+03
-1.147949572397601e+03  3.548463384379932e+02 -2.918975276816622e+03
-1.147858851734669e+03  3.527606730242249e+02 -2.918975276816622e+03
-1.147936108393850e+03  3.510003593137848e+02 -2.918975276816622e+03
-1.147906585477836e+03  3.485384933236321e+02 -2.918975276816622e+03
-1.147854198650804e+03  3.459112052403287e+02 -2.918975276816622e+03
-1.147855900236985e+03  3.443521962155615e+02 -2.918975276816622e+03
-1.147927860634078e+03  3.413905287010075e+02 -2.918975276816622e+03
-1.147839443906391e+03  3.404415985823223e+02 -2.918975276816622e+03
-1.147829081214411e+03  3.383533335955725e+02 -2.918975276816622e+03
-1.147757075332373e+03  3.296873074353804e+02 -2.918975276816622e+03
-1.147727311414539e+03  3.276917225410260e+02 -2.918975276816622e+03
-1.147711857352732e+03  3.260469717993903e+02 -2.918975276816622e+03
-1.147639504471806e+03  3.234635556004275e+02 -2.918975276816622e+03
-1.147644589915231e+03  3.234212346958719e+02 -2.918975276816622e+03
-1.147725400879941e+03  3.209067460588089e+02 -2.918975276816622e+03
-1.147691135208779e+03  3.200592733338032e+02 -2.918975276816622e+03
-1.147780028956358e+03  3.172114503944223e+02 -2.918975276816622e+03
-1.147832812761778e+03  3.132551694943608e+02 -2.918975276816622e+03
-1.147812092807307e+03  3.098346353439677e+02 -2.918975276816622e+03
-1.147841188649663e+03  3.073260892709810e+02 -2.918975276816622e+03
-1.147838786413049e+03  3.053451631104477e+02 -2.918975276816622e+03
-1.147853964721661e+03  3.033545554625268e+02 -2.918975276816622e+03
-1.147840098866541e+03  3.012132009325161e+02 -2.918975276816622e+03
-1.147873056645410e+03  2.936915853818587e+02 -2.918975276816622e+03
-1.147894452535910e+03  2.890541911068892e+02 -2.918975276816622e+03
-1.147873515335516e+03  2.885606114407623e+02 -2.918975276816622e+03
-1.147893078688410e+03  2.862411384382804e+02 -2.918975276816622e+03
-1.147889267961920e+03  2.831813398177940e+02 -2.918975276816622e+03
-1.147901751671329e+03  2.820402493000091e+02 -2.918975276816622e+03
-1.147889061820945e+03  2.800980069986222e+02 -2.918975276816622e+03
-1.147905741920631e+03  2.780109186369158e+02 -2.918975276816622e+03
-1.147888941047989e+03  2.761723436773122e+02 -2.918975276816622e+03
-1.147899990609150e+03  2.756772431135763e+02 -2.918975276816622e+03
-1.147881007478875e+03  2.742070990235279e+02 -2.918975276816622e+03
-1.147898222606691e+03  2.717526234244159e+02 -2.918975276816622e+03
-1.147914727380128e+03  2.709919518810644e+02 -2.918975276816622e+03
-1.147902230239383e+03  2.691426174850820e+02 -2.918975276816622e+03
-1.147876914842895e+03  2.667047038460810e+02 -2.918975276816622e+03
-1.147887842689510e+03  2.655177173585041e+02 -2.918975276816622e+03
-1.147875417787242e+03  2.630903166371415e+02 -2.918975276816622e+03
-1.147882811947985e+03  2.611220643353914e+02 -2.918975276816622e+03
-1.147866599340094e+03  2.599551622609857e+02 -2.918975276816622e+03
-1.147868445115708e+03  2.578476274117480e+02 -2.918975276816622e+03
-1.147862633192485e+03  2.565946297300472e+02 -2.918975276816622e+03
-1.147839216640064e+03  2.513985748856715e+02 -2.918975276816622e+03
-1.147852363819091e+03  2.502936026116727e+02 -2.918975276816622e+03
-1.147821502002227e+03  2.494540411622430e+02 -2.918975276816622e+03
-1.147763434755616e+03  2.471095869018524e+02 -2.918975276816622e+03
-1.147802550334614e+03  2.457593937521255e+02 -2.918975276816622e+03
-1.147708321782495e+03  2.435001789274135e+02 -2.918975276816622e+03
-1.147784227229761e+03  2.432402507069015e+02 -2.918975276816622e+03
-1.147647101454307e+03  2.406597781592505e+02 -2.918975276816622e+03
-1.147840485619402e+03  2.400495560182146e+02 -2.918975276816622e+03
-1.147679520676740e+03  2.384775461846442e+02 -2.918975276816622e+03
-1.147515624553298e+03  2.360960208347913e+02 -2.918975276816622e+03
-1.147776580595223e+03  2.352122290126109e+02 -2.918975276816622e+03
-1.148492898655330e+03  2.338217579063032e+02 -2.918975276816622e+03
-1.149122603438064e+03  2.314005258240873e+02 -2.918975276816622e+03
-1.147776193947050e+03  2.297825311711304e+02 -2.918975276816622e+03
-1.147848376871478e+03  2.278721481296830e+02 -2.918975276816622e+03
-1.148627795082643e+03  2.276954973593273e+02 -2.918975276816622e+03
-1.148072597180990e+03  2.244953031271332e+02 -2.918975276816622e+03
-1.147817822885625e+03  2.231578362297668e+02 -2.918975276816622e+03
-1.147531715736773e+03  2.200525443482843e+02 -2.918975276816622e+03
-1.147467747188896e+03  2.170918129604784e+02 -2.918975276816622e+03
-1.147211203981939e+03  2.164962928655648e+02 -2.918975276816622e+03
-1.147265022428845e+03  2.144331068140216e+02 -2.918975276816622e+03
-1.147501497330649e+03  2.137984121547842e+02 -2.918975276816622e+03
-1.147177364302049e+03  2.119977077951470e+02 -2.918975276816622e+03
-1.147083288012517e+03  2.100499807052900e+02 -2.918975276816622e+03
-1.147180388810534e+03  2.093156775636141e+02 -2.918975276816622e+03
-1.147426186402078e+03  2.071774930146755e+02 -2.918975276816622e+03
-1.147172888414603e+03  2.046105548916736e+02 -2.918975276816622e+03
-1.147132298733179e+03  1.986050463515316e+02 -2.918975276816622e+03
-1.147112897137804e+03  1.963261819895588e+02 -2.918975276816622e+03
-1.147122001289700e+03  1.922036918682516e+02 -2.918975276816622e+03
-1.147097438433060e+03  1.902492147530604e+02 -2.918975276816622e+03
-1.147104637302448e+03  1.891419137960393e+02 -2.918975276816622e+03
-1.147077511912750e+03  1.872307323506687e+02 -2.918975276816622e+03
-1.147092216296523e+03  1.862640082737894e+02 -2.918975276816622e+03
-1.147083220225532e+03  1.844455565805218e+02 -2.918975276816622e+03
-1.147090322585500e+03  1.833526106346173e+02 -2.918975276816622e+03
-1.147120621611990e+03  1.804877611559904e+02 -2.918975276816622e+03
-1.147093325068018e+03  1.788847144474311e+02 -2.918975276816622e+03
-1.147058174487084e+03  1.782953690747767e+02 -2.918975276816622e+03
-1.147102405593616e+03  1.759930892937303e+02 -2.918975276816622e+03
-1.147169666511093e+03  1.735406820151191e+02 -2.918975276816622e+03
-1.147112400086084e+03  1.718385846984770e+02 -2.918975276816622e+03
-1.147070357282813e+03  1.702015599240923e+02 -2.918975276816622e+03
-1.147140691703320e+03  1.689603863007975e+02 -2.918975276816622e+03
-1.147241904381235e+03  1.674270732286222e+02 -2.918975276816622e+03
-1.147130884379261e+03  1.662547480607938e+02 -2.918975276816622e+03
-1.147128996554226e+03  1.639757835851028e+02 -2.918975276816622e+03
-1.147210832157863e+03  1.635014602103968e+02 -2.918975276816622e+03
-1.147165774622249e+03  1.610056471402927e+02 -2.918975276816622e+03
-1.147151555553955e+03  1.602925687395082e+02 -2.918975276816622e+03
-1.147165810738784e+03  1.582509646409781e+02 -2.918975276816622e+03
-1.147277387875047e+03  1.532328278565980e+02 -2.918975276816622e+03
-1.147173908128244e+03  1.515731322265552e+02 -2.918975276816622e+03
-1.146976804714449e+03  1.499973947867133e+02 -2.918975276816622e+03
-1.147191181027332e+03  1.492060843813032e+02 -2.918975276816622e+03
-1.147210817441944e+03  1.474807580396730e+02 -2.918975276816622e+03
-1.147173945325972e+03  1.463344662111769e+02 -2.918975276816622e+03
-1.147172783473146e+03  1.443910089518500e+02 -2.918975276816622e+03
-1.147187315210790e+03  1.433523508819111e+02 -2.918975276816622e+03
-1.147199489134705e+03  1.410189828011968e+02 -2.918975276816622e+03
-1.147203065372475e+03  1.408027499347898e+02 -2.918975276816622e+03
-1.147203659140596e+03  1.386094735812708e+02 -2.918975276816622e+03
-1.147209799603779e+03  1.370816164760719e+02 -2.918975276816622e+03
-1.147238075248683e+03  1.365744559912061e+02 -2.918975276816622e+03
-1.147347992056763e+03  1.340523685009381e+02 -2.918975276816622e+03
-1.147303635762594e+03  1.330359161342926e+02 -2.918975276816622e+03
-1.147311820266614e+03  1.304491903432138e+02 -2.918975276816622e+03
-1.147313225177081e+03  1.291615421459884e+02 -2.918975276816622e+03
-1.147254425897948e+03  1.273615286865928e+02 -2.918975276816622e+03
-1.147391608812781e+03  1.256905780907944e+02 -2.918975276816622e+03
-1.147441196190301e+03  1.211375601910741e+02 -2.918975276816622e+03
-1.147383251896857e+03  1.201435072910328e+02 -2.918975276816622e+03
-1.147495256176354e+03  1.178236540962680e+02 -2.918975276816622e+03
-1.147547161398917e+03  1.148654628227218e+02 -2.918975276816622e+03
-1.147560740518750e+03  1.127865608207244e+02 -2.918975276816622e+03
-1.147325774810962e+03  1.118240368112397e+02 -2.918975276816622e+03
-1.147607880510295e+03  1.103684150409791e+02 -2.918975276816622e+03
-1.147516778014539e+03  1.094080622590893e+02 -2.918975276816622e+03
-1.147653028873439e+03  1.070146315441205e+02 -2.918975276816622e+03
-1.147527280877072e+03  1.060551815753909e+02 -2.918975276816622e+03
-1.147678361034007e+03  1.047869282516005e+02 -2.918975276816622e+03
-1.147556584279009e+03  1.034358155590264e+02 -2.918975276816622e+03
-1.147702950173052e+03  1.010742833717466e+02 -2.918975276816622e+03
-1.147583471527898e+03  1.000309224638478e+02 -2.918975276816622e+03
-1.147717974549885e+03  9.865579776689849e+01 -2.918975276816622e+03
-1.147635849195508e+03  9.708430678493525e+01 -2.918975276816622e+03
-1.147726727011785e+03  9.518982155239222e+01 -2.918975276816622e+03
-1.147662144793446e+03  9.150121278477931e+01 -2.918975276816622e+03
-1.147751059748053e+03  8.882581728288599e+01 -2.918975276816622e+03
-1.147761347828695e+03  8.565364607896197e+01 -2.918975276816622e+03
-1.147798925296088e+03  8.233508845809362e+01 -2.918975276816622e+03
-1.147707333817079e+03  8.086635586358793e+01 -2.918975276816622e+03
-1.147483166839568e+03  7.894961772237765e+01 -2.918975276816622e+03
-1.147815026630492e+03  7.617647802246182e+01 -2.918975276816622e+03
-1.148046074687054e+03  7.382603651869897e+01 -2.918975276816622e+03
-1.147806178093053e+03  7.168662509682308e+01 -2.918975276816622e+03
-1.147743792101857e+03  7.060038989475841e+01 -2.918975276816622e+03
-1.147837406873134e+03  6.817339960492757e+01 -2.918975276816622e+03
-1.147897094535720e+03  6.760268377367282e+01 -2.918975276816622e+03
-1.147865549755586e+03  6.561791667083722e+01 -2.918975276816622e+03
-1.147893547364121e+03  6.198061086170707e+01 -2.918975276816622e+03
-1.147935131667769e+03  5.512158879186391e+01 -2.918975276816622e+03
-1.148125764783264e+03  5.315002945532881e+01 -2.918975276816622e+03
-1.147998749148400e+03  5.152876318219344e+01 -2.918975276816622e+03
-1.147654760233035e+03  4.970302559165017e+01 -2.918975276816622e+03
-1.148063220973322e+03  4.742175590071231e+01 -2.918975276816622e+03
-1.148448309866828e+03  4.451492365099663e+01 -2.918975276816622e+03
-1.148212737769723e+03  4.138991746771164e+01 -2.918975276816622e+03
-1.147829214542222e+03  3.966442669479837e+01 -2.918975276816622e+03
-1.148246820210910e+03  3.833741670801108e+01 -2.918975276816622e+03
-1.148266353781492e+03  3.544717733114744e+01 -2.918975276816622e+03
-1.148344894787600e+03  3.170311487928734e+01 -2.918975276816622e+03
-1.148350391791417e+03  2.909025243294873e+01 -2.918975276816622e+03
-1.148434541282994e+03  2.326933532456086e+01 -2.918975276816622e+03
-1.148422128564217e+03  2.290394879955257e+01 -2.918975276816622e+03
-1.148454033884463e+03  2.117996814517743e+01 -2.918975276816622e+03
-1.148458971909168e+03  2.015196185272720e+01 -2.918975276816622e+03
-1.148479686930285e+03  1.791166569248357e+01 -2.918975276816622e+03
-1.148495443631055e+03  1.602347557137274e+01 -2.918975276816622e+03
-1.148463008785017e+03  1.388159473464514e+01 -2.918975276816622e+03
-1.148470780441717e+03  7.648304802864422e+00 -2.918975276816622e+03
-1.148480447592119e+03  6.187594910200333e+00 -2.918975276816622e+03
-1.148485126297200e+03  5.239675264705165e+00 -2.918975276816622e+03
1.145762025595707e+03 5.235608233268954e-01 2.918975276816622e+03
1.145852933543194e+03 1.312411383797076e-01 2.918975276816622e+03
 1.145912688388809e+03 -9.076618462139570e-01  2.918975276816622e+03
 1.145722538822803e+03 -3.527023369542504e+00  2.918975276816622e+03
 1.145651799588019e+03 -4.452766402536627e+00  2.918975276816622e+03
 1.145591814182229e+03 -8.819666233806419e+00  2.918975276816622e+03
 1.145592072052714e+03 -9.819765823166621e+00  2.918975276816622e+03
 1.145562653868779e+03 -1.177036074543764e+01  2.918975276816622e+03
 1.145530288165373e+03 -1.343011003522145e+01  2.918975276816622e+03
 1.145453493753895e+03 -1.701802034157540e+01  2.918975276816622e+03
 1.145351142536255e+03 -2.154149859860160e+01  2.918975276816622e+03
 1.145327556511287e+03 -2.385566612254390e+01  2.918975276816622e+03
 1.145276175430796e+03 -2.616029032443279e+01  2.918975276816622e+03
 1.145243167043782e+03 -2.780771944384372e+01  2.918975276816622e+03
 1.145194873845553e+03 -2.979152000162835e+01  2.918975276816622e+03
 1.145199623147774e+03 -3.018782014010248e+01  2.918975276816622e+03
 1.145206020132656e+03 -3.191648081351690e+01  2.918975276816622e+03
 1.145150020071503e+03 -3.332622843415363e+01  2.918975276816622e+03
 1.145058956760411e+03 -3.799657438566853e+01  2.918975276816622e+03
 1.145087567953441e+03 -3.936845124413509e+01  2.918975276816622e+03
 1.145099400405802e+03 -4.206968462904313e+01  2.918975276816622e+03
 1.145128147679572e+03 -4.471769390390445e+01  2.918975276816622e+03
 1.145018464723578e+03 -4.556011349801168e+01  2.918975276816622e+03
 1.145034579539358e+03 -4.768501341308414e+01  2.918975276816622e+03
 1.144988079196190e+03 -5.063441650093035e+01  2.918975276816622e+03
 1.145010385432919e+03 -5.433858156854061e+01  2.918975276816622e+03
 1.144918268601381e+03 -5.633937985967337e+01  2.918975276816622e+03
 1.144980613336299e+03 -5.865040731993528e+01  2.918975276816622e+03
 1.144895472519634e+03 -6.037687126239422e+01  2.918975276816622e+03
 1.144941502968692e+03 -6.238035206683787e+01  2.918975276816622e+03
 1.144860456629823e+03 -6.371166668808635e+01  2.918975276816622e+03
 1.144964979055732e+03 -6.455030524318175e+01  2.918975276816622e+03
 1.145003959959022e+03 -6.533581755454505e+01  2.918975276816622e+03
 1.144906848592788e+03 -6.694997868676268e+01  2.918975276816622e+03
 1.144746133623040e+03 -6.861931381118215e+01  2.918975276816622e+03
 1.144978198942991e+03 -7.028825412235426e+01  2.918975276816622e+03
 1.144909261611828e+03 -7.501633295312109e+01  2.918975276816622e+03
 1.144900869377616e+03 -7.872409439503633e+01  2.918975276816622e+03
 1.144896712353922e+03 -8.070426903960454e+01  2.918975276816622e+03
 1.144931327217590e+03 -8.229810903835649e+01  2.918975276816622e+03
 1.144901145009005e+03 -8.397518301097941e+01  2.918975276816622e+03
 1.144902948599509e+03 -8.500737474856422e+01  2.918975276816622e+03
 1.144948453831149e+03 -8.508973001263003e+01  2.918975276816622e+03
 1.144952101425277e+03 -8.617046552094139e+01  2.918975276816622e+03
 1.144916141893722e+03 -8.726193962095950e+01  2.918975276816622e+03
 1.144927841708877e+03 -8.891464984672253e+01  2.918975276816622e+03
 1.144927705021669e+03 -9.020863785572284e+01  2.918975276816622e+03
 1.144915783046274e+03 -9.472669280181292e+01  2.918975276816622e+03
 1.144916681215145e+03 -9.800587837386843e+01  2.918975276816622e+03
 1.144929597523305e+03 -9.938459409088445e+01  2.918975276816622e+03
 1.144923207596047e+03 -1.017356850744548e+02  2.918975276816622e+03
 1.144933680570573e+03 -1.027932191576848e+02  2.918975276816622e+03
 1.144912445012524e+03 -1.041321568205311e+02  2.918975276816622e+03
 1.144942072432117e+03 -1.042525792294352e+02  2.918975276816622e+03
 1.144923051846991e+03 -1.055341179569046e+02  2.918975276816622e+03
 1.144909435936813e+03 -1.063461909295077e+02  2.918975276816622e+03
 1.144845521595220e+03 -1.075231469862955e+02  2.918975276816622e+03
 1.144846681491684e+03 -1.100561534970155e+02  2.918975276816622e+03
 1.144891503467954e+03 -1.101998929443868e+02  2.918975276816622e+03
 1.144836711194644e+03 -1.145903173885697e+02  2.918975276816622e+03
 1.144816337996359e+03 -1.194498567945245e+02  2.918975276816622e+03
 1.144815924650355e+03 -1.217886355773877e+02  2.918975276816622e+03
 1.144788660368751e+03 -1.264646630731538e+02  2.918975276816622e+03
 1.144810846090621e+03 -1.287387257306160e+02  2.918975276816622e+03
 1.144790195268438e+03 -1.302014958326930e+02  2.918975276816622e+03
 1.144771896196085e+03 -1.347684852734737e+02  2.918975276816622e+03
 1.144784162238712e+03 -1.379749792671774e+02  2.918975276816622e+03
 1.144797894054596e+03 -1.392891307301058e+02  2.918975276816622e+03
 1.144800083151500e+03 -1.430048556176498e+02  2.918975276816622e+03
 1.144793335123127e+03 -1.447998599583787e+02  2.918975276816622e+03
 1.144797791664489e+03 -1.468239466534800e+02  2.918975276816622e+03
 1.144804580906995e+03 -1.488073577951813e+02  2.918975276816622e+03
 1.144807086297429e+03 -1.502562880026616e+02  2.918975276816622e+03
 1.144782524687388e+03 -1.549903500878254e+02  2.918975276816622e+03
 1.144808668111338e+03 -1.586279976279993e+02  2.918975276816622e+03
 1.144877333863928e+03 -1.604659505236995e+02  2.918975276816622e+03
 1.144840301402716e+03 -1.621621613708289e+02  2.918975276816622e+03
 1.144778024470604e+03 -1.639373023603054e+02  2.918975276816622e+03
 1.144809683967391e+03 -1.651463066553855e+02  2.918975276816622e+03
 1.144855560146149e+03 -1.655885977108156e+02  2.918975276816622e+03
 1.144863497376516e+03 -1.671747082735233e+02  2.918975276816622e+03
 1.144828133039169e+03 -1.686640638875016e+02  2.918975276816622e+03
 1.144823212293958e+03 -1.701599182640080e+02  2.918975276816622e+03
 1.144839196702502e+03 -1.750467828120269e+02  2.918975276816622e+03
 1.144842931483875e+03 -1.785302864798986e+02  2.918975276816622e+03
 1.144837192830427e+03 -1.802645485497595e+02  2.918975276816622e+03
 1.144839328154227e+03 -1.815586028547563e+02  2.918975276816622e+03
 1.144839044756068e+03 -1.856938937970170e+02  2.918975276816622e+03
 1.144840416335141e+03 -1.873636202863381e+02  2.918975276816622e+03
 1.144854049633369e+03 -1.889527724620337e+02  2.918975276816622e+03
 1.144846737465844e+03 -1.902484877945487e+02  2.918975276816622e+03
 1.144821998415543e+03 -1.949424723280544e+02  2.918975276816622e+03
 1.144855258294338e+03 -1.987744082491570e+02  2.918975276816622e+03
 1.144873351349663e+03 -2.029069769572771e+02  2.918975276816622e+03
 1.144866826327813e+03 -2.067942552891704e+02  2.918975276816622e+03
 1.144835030241155e+03 -2.083979111215754e+02  2.918975276816622e+03
 1.144824922246400e+03 -2.101013564318661e+02  2.918975276816622e+03
 1.144864591159495e+03 -2.148043961745407e+02  2.918975276816622e+03
 1.144865580461378e+03 -2.169527088187676e+02  2.918975276816622e+03
 1.144863390389701e+03 -2.186595398380029e+02  2.918975276816622e+03
 1.144884394305118e+03 -2.237435192222758e+02  2.918975276816622e+03
 1.144889608763566e+03 -2.251339777389072e+02  2.918975276816622e+03
 1.144893304573153e+03 -2.288523400646906e+02  2.918975276816622e+03
 1.144889231635277e+03 -2.301862178423391e+02  2.918975276816622e+03
 1.144911638801254e+03 -2.328849408506525e+02  2.918975276816622e+03
 1.144903658158453e+03 -2.341764987509619e+02  2.918975276816622e+03
 1.144935165519451e+03 -2.368089242051846e+02  2.918975276816622e+03
 1.144926250477650e+03 -2.389163686501037e+02  2.918975276816622e+03
 1.144958166043524e+03 -2.414179740776821e+02  2.918975276816622e+03
 1.144961121838438e+03 -2.449569511038372e+02  2.918975276816622e+03
 1.144993144937871e+03 -2.480068803469611e+02  2.918975276816622e+03
 1.144996025332930e+03 -2.489274018046796e+02  2.918975276816622e+03
 1.144984298585283e+03 -2.536443235356608e+02  2.918975276816622e+03
 1.145063760736273e+03 -2.606987167540768e+02  2.918975276816622e+03
 1.145065891465109e+03 -2.658388822880902e+02  2.918975276816622e+03
 1.145068283491190e+03 -2.690384396426156e+02  2.918975276816622e+03
 1.145080522054123e+03 -2.700191766289208e+02  2.918975276816622e+03
 1.145093755737351e+03 -2.727492970441010e+02  2.918975276816622e+03
 1.145087659174401e+03 -2.733912564939926e+02  2.918975276816622e+03
 1.145062577265150e+03 -2.758357705711996e+02  2.918975276816622e+03
 1.145088894871859e+03 -2.785644507193401e+02  2.918975276816622e+03
 1.145106993742579e+03 -2.833270235327004e+02  2.918975276816622e+03
 1.145103327987653e+03 -2.867492641877687e+02  2.918975276816622e+03
 1.145078307695994e+03 -2.885830709905209e+02  2.918975276816622e+03
 1.145119122521138e+03 -2.907952214980389e+02  2.918975276816622e+03
 1.145114096142977e+03 -2.931319758048874e+02  2.918975276816622e+03
 1.145122839357915e+03 -2.950544330560973e+02  2.918975276816622e+03
 1.145106994895507e+03 -2.987522444280821e+02  2.918975276816622e+03
 1.145114858517816e+03 -2.990019059725838e+02  2.918975276816622e+03
 1.145074299472284e+03 -3.026539197773623e+02  2.918975276816622e+03
 1.145085784909904e+03 -3.036822510559346e+02  2.918975276816622e+03
 1.145123597893069e+03 -3.082454030555717e+02  2.918975276816622e+03
 1.145035803701866e+03 -3.100744435018977e+02  2.918975276816622e+03
 1.145031808768780e+03 -3.123619844356077e+02  2.918975276816622e+03
 1.145118151119699e+03 -3.137075049514884e+02  2.918975276816622e+03
 1.145019051623556e+03 -3.149359923416610e+02  2.918975276816622e+03
 1.145042349496310e+03 -3.179816589840411e+02  2.918975276816622e+03
 1.144981137714419e+03 -3.190814310061141e+02  2.918975276816622e+03
 1.145037482324485e+03 -3.215681695253688e+02  2.918975276816622e+03
 1.144935868715831e+03 -3.234262560770367e+02  2.918975276816622e+03
 1.145009468055839e+03 -3.261496390851339e+02  2.918975276816622e+03
 1.144947050021309e+03 -3.265121522754142e+02  2.918975276816622e+03
 1.145036680250543e+03 -3.290319753130615e+02  2.918975276816622e+03
 1.144907596014426e+03 -3.316830730867688e+02  2.918975276816622e+03
 1.145022016828399e+03 -3.344707281416819e+02  2.918975276816622e+03
 1.144880779641592e+03 -3.376364204146187e+02  2.918975276816622e+03
 1.144987621568047e+03 -3.382669262006915e+02  2.918975276816622e+03
 1.144798656667353e+03 -3.406113129795259e+02  2.918975276816622e+03
 1.144949474530071e+03 -3.431429144250802e+02  2.918975276816622e+03
 1.144800068797304e+03 -3.450361536973440e+02  2.918975276816622e+03
 1.145059170227732e+03 -3.487258731244010e+02  2.918975276816622e+03
 1.145056180147340e+03 -3.519031207395280e+02  2.918975276816622e+03
 1.144467252564163e+03 -3.533379549940277e+02  2.918975276816622e+03
 1.144773037321291e+03 -3.570641221792144e+02  2.918975276816622e+03
 1.145095270326127e+03 -3.595608864904182e+02  2.918975276816622e+03
 1.144811208338812e+03 -3.598215700635006e+02  2.918975276816622e+03
 1.144797955969957e+03 -3.617815413781843e+02  2.918975276816622e+03
 1.144889029626261e+03 -3.668993576392959e+02  2.918975276816622e+03
 1.144889442602741e+03 -3.685846952182878e+02  2.918975276816622e+03
 1.144894366252560e+03 -3.713898988121145e+02  2.918975276816622e+03
 1.144896684418567e+03 -3.717025818794788e+02  2.918975276816622e+03
 1.144929705444498e+03 -3.752673006781507e+02  2.918975276816622e+03
 1.144942961467977e+03 -3.778667368941448e+02  2.918975276816622e+03
 1.144982616176207e+03 -3.828964282342985e+02  2.918975276816622e+03
 1.144980805721428e+03 -3.834832376103997e+02  2.918975276816622e+03
1.145022494021914e+03 3.848363684495841e+02 2.918975276816622e+03
1.145060985274464e+03 3.813420496542250e+02 2.918975276816622e+03
1.145080356933407e+03 3.788096306749395e+02 2.918975276816622e+03
1.145090908546918e+03 3.778687526952959e+02 2.918975276816622e+03
1.145088672003780e+03 3.763991942478499e+02 2.918975276816622e+03
1.145133574220403e+03 3.736858778464111e+02 2.918975276816622e+03
1.145151339577046e+03 3.728444829781837e+02 2.918975276816622e+03
1.145175707582043e+03 3.712254393612756e+02 2.918975276816622e+03
1.145176972258864e+03 3.672979395630368e+02 2.918975276816622e+03
1.145241415091450e+03 3.653750646969835e+02 2.918975276816622e+03
1.145266486608321e+03 3.626197195571330e+02 2.918975276816622e+03
1.145323190223746e+03 3.599550901717579e+02 2.918975276816622e+03
1.145285677157789e+03 3.581748680447912e+02 2.918975276816622e+03
1.145337796925538e+03 3.571264202739850e+02 2.918975276816622e+03
1.145320627187861e+03 3.554372902154698e+02 2.918975276816622e+03
1.145404126495093e+03 3.537418601242546e+02 2.918975276816622e+03
1.145382729906764e+03 3.516988246276456e+02 2.918975276816622e+03
1.145431677637634e+03 3.504182291601974e+02 2.918975276816622e+03
1.145397540886524e+03 3.480827716878106e+02 2.918975276816622e+03
1.145519616818498e+03 3.467856780494129e+02 2.918975276816622e+03
1.145536775437212e+03 3.446230246779197e+02 2.918975276816622e+03
1.145459985074067e+03 3.435572293366076e+02 2.918975276816622e+03
1.145515782817256e+03 3.415378823831209e+02 2.918975276816622e+03
1.145727265215718e+03 3.399489740981237e+02 2.918975276816622e+03
1.145599075867918e+03 3.382166424328020e+02 2.918975276816622e+03
1.145597508343556e+03 3.346213541809367e+02 2.918975276816622e+03
1.145727345984677e+03 3.315483625952976e+02 2.918975276816622e+03
1.145720027998229e+03 3.288180936614273e+02 2.918975276816622e+03
1.145876463956108e+03 3.288053293657690e+02 2.918975276816622e+03
1.145713807231859e+03 3.260833874478209e+02 2.918975276816622e+03
1.145773976543676e+03 3.235147087470799e+02 2.918975276816622e+03
1.145611821447174e+03 3.214426953853218e+02 2.918975276816622e+03
1.145775148110653e+03 3.193448626248755e+02 2.918975276816622e+03
1.145717057185307e+03 3.186294129264315e+02 2.918975276816622e+03
1.145854703820048e+03 3.161422235945900e+02 2.918975276816622e+03
1.145631726727838e+03 3.135143645162389e+02 2.918975276816622e+03
1.145732837005893e+03 3.118621807703980e+02 2.918975276816622e+03
1.145876525112455e+03 3.116768729377143e+02 2.918975276816622e+03
1.145758026815635e+03 3.097246804419133e+02 2.918975276816622e+03
1.145667145911415e+03 3.078306394900422e+02 2.918975276816622e+03
1.145653294312642e+03 3.065171865588844e+02 2.918975276816622e+03
1.145608595392679e+03 3.021166096995795e+02 2.918975276816622e+03
1.145610392877804e+03 3.018519635234258e+02 2.918975276816622e+03
1.145581212121554e+03 2.989079657950589e+02 2.918975276816622e+03
1.145557648064824e+03 2.975038769135754e+02 2.918975276816622e+03
1.145527257786952e+03 2.952846394449855e+02 2.918975276816622e+03
1.145508283679811e+03 2.937544354754043e+02 2.918975276816622e+03
1.145475062023024e+03 2.919792893041121e+02 2.918975276816622e+03
1.145407215989759e+03 2.871031210613829e+02 2.918975276816622e+03
1.145389936002861e+03 2.849341775168406e+02 2.918975276816622e+03
1.145359547054922e+03 2.827436317484209e+02 2.918975276816622e+03
1.145327867843642e+03 2.812105605889504e+02 2.918975276816622e+03
1.145278168028382e+03 2.773783165885682e+02 2.918975276816622e+03
1.145250711344112e+03 2.752968470467470e+02 2.918975276816622e+03
1.145200444920474e+03 2.711842962731880e+02 2.918975276816622e+03
1.145115835551336e+03 2.665809572264975e+02 2.918975276816622e+03
1.145130428232702e+03 2.652363738631230e+02 2.918975276816622e+03
1.145113213160145e+03 2.623872878441946e+02 2.918975276816622e+03
1.145180820288671e+03 2.583938540371734e+02 2.918975276816622e+03
1.145031595337983e+03 2.579538478437975e+02 2.918975276816622e+03
1.144974489521488e+03 2.533216837626653e+02 2.918975276816622e+03
1.144958657272889e+03 2.511836734796572e+02 2.918975276816622e+03
1.145116737765646e+03 2.502499891390568e+02 2.918975276816622e+03
1.144947426355351e+03 2.485594948469237e+02 2.918975276816622e+03
1.144973183978657e+03 2.470764168688199e+02 2.918975276816622e+03
1.144946814193165e+03 2.458282795146585e+02 2.918975276816622e+03
1.145014157630827e+03 2.445470781805256e+02 2.918975276816622e+03
1.144947569891097e+03 2.428378100691736e+02 2.918975276816622e+03
1.144959974024872e+03 2.355091559120719e+02 2.918975276816622e+03
1.144970384848338e+03 2.339654074427244e+02 2.918975276816622e+03
1.144965621737505e+03 2.313362986981353e+02 2.918975276816622e+03
1.144942641344677e+03 2.285609658031223e+02 2.918975276816622e+03
1.144974691462410e+03 2.274193467741729e+02 2.918975276816622e+03
1.145078659766931e+03 2.262962015652826e+02 2.918975276816622e+03
1.144983869377786e+03 2.237568423650927e+02 2.918975276816622e+03
1.144341475636470e+03 2.218020976000157e+02 2.918975276816622e+03
1.145010740364697e+03 2.202360976123351e+02 2.918975276816622e+03
1.145024661199025e+03 2.158031249724401e+02 2.918975276816622e+03
1.144561387675303e+03 2.127510335693048e+02 2.918975276816622e+03
1.145049589346712e+03 2.111911561588846e+02 2.918975276816622e+03
1.145147690207597e+03 2.086743475675988e+02 2.918975276816622e+03
1.144995010535230e+03 2.076342601371636e+02 2.918975276816622e+03
1.144994671265617e+03 2.062757059779056e+02 2.918975276816622e+03
1.145086121662201e+03 2.060745658879873e+02 2.918975276816622e+03
1.145091259427193e+03 2.046300825595054e+02 2.918975276816622e+03
1.145009889107236e+03 2.039885193534807e+02 2.918975276816622e+03
1.145038510032988e+03 2.024753188957884e+02 2.918975276816622e+03
1.144962273331530e+03 2.010605002772417e+02 2.918975276816622e+03
1.145016716281205e+03 2.002562491584043e+02 2.918975276816622e+03
1.144944511826533e+03 1.953948422014031e+02 2.918975276816622e+03
1.144907980698242e+03 1.922376757867015e+02 2.918975276816622e+03
1.144938380579679e+03 1.879237811252900e+02 2.918975276816622e+03
1.144849999220099e+03 1.863156021868865e+02 2.918975276816622e+03
1.144772804619038e+03 1.836073801313648e+02 2.918975276816622e+03
1.144833209299421e+03 1.814245133740478e+02 2.918975276816622e+03
1.144821126669912e+03 1.803689965908397e+02 2.918975276816622e+03
1.144656847982487e+03 1.756000386201553e+02 2.918975276816622e+03
1.144703202274251e+03 1.726259669001797e+02 2.918975276816622e+03
1.145103535205081e+03 1.710209511255155e+02 2.918975276816622e+03
1.144785649560185e+03 1.689141422696336e+02 2.918975276816622e+03
1.144749945872646e+03 1.678589190796556e+02 2.918975276816622e+03
1.144849932498214e+03 1.663010858545441e+02 2.918975276816622e+03
1.144745080953669e+03 1.569996523234272e+02 2.918975276816622e+03
1.145016447183057e+03 1.541997496325786e+02 2.918975276816622e+03
1.145252582842329e+03 1.510395242051304e+02 2.918975276816622e+03
1.145354558228579e+03 1.475259717287613e+02 2.918975276816622e+03
1.145456975729501e+03 1.460655389273579e+02 2.918975276816622e+03
1.145507430162335e+03 1.450589731051213e+02 2.918975276816622e+03
1.145575448509506e+03 1.449920223928996e+02 2.918975276816622e+03
1.145424354527203e+03 1.438805207650404e+02 2.918975276816622e+03
1.145322042145900e+03 1.418351806490136e+02 2.918975276816622e+03
1.145253998003533e+03 1.404017278654354e+02 2.918975276816622e+03
1.145117408136655e+03 1.360045591138947e+02 2.918975276816622e+03
1.145067973446249e+03 1.328983069512224e+02 2.918975276816622e+03
1.145046238364560e+03 1.312671373194297e+02 2.918975276816622e+03
1.145121137757397e+03 1.289077089128466e+02 2.918975276816622e+03
1.145026803738660e+03 1.277907238366322e+02 2.918975276816622e+03
1.145060125237243e+03 1.264615865631026e+02 2.918975276816622e+03
1.145106053182135e+03 1.262931005726134e+02 2.918975276816622e+03
1.145162925846803e+03 1.249985077980287e+02 2.918975276816622e+03
1.145129776810003e+03 1.249789456148385e+02 2.918975276816622e+03
1.144992487841602e+03 1.236556568894527e+02 2.918975276816622e+03
1.145071487887049e+03 1.218996833985613e+02 2.918975276816622e+03
1.145243938909398e+03 1.205282349570448e+02 2.918975276816622e+03
1.144489904788991e+03 1.159692606176044e+02 2.918975276816622e+03
1.144877938965335e+03 1.124050872997623e+02 2.918975276816622e+03
1.145177056445446e+03 1.106394326086339e+02 2.918975276816622e+03
1.144740858752175e+03 1.093117702223032e+02 2.918975276816622e+03
1.144921615028166e+03 1.069513738001801e+02 2.918975276816622e+03
1.145750102302106e+03 1.053379865068247e+02 2.918975276816622e+03
1.145441205641857e+03 1.020123679120252e+02 2.918975276816622e+03
1.144919066102100e+03 1.006066308886338e+02 2.918975276816622e+03
1.145228200102305e+03 9.560801463838287e+01 2.918975276816622e+03
1.145302570461116e+03 9.376329061713739e+01 2.918975276816622e+03
1.145307453120978e+03 8.352900191529739e+01 2.918975276816622e+03
1.145654568213408e+03 8.037669228529141e+01 2.918975276816622e+03
1.145730382238928e+03 7.596241955213964e+01 2.918975276816622e+03
1.145858544014118e+03 7.041784755040841e+01 2.918975276816622e+03
1.146020804991672e+03 6.451712805253064e+01 2.918975276816622e+03
1.146043791419160e+03 6.275816518308780e+01 2.918975276816622e+03
1.146151593800144e+03 5.765287354317425e+01 2.918975276816622e+03
1.146106180113997e+03 5.715343901580621e+01 2.918975276816622e+03
1.146132634141195e+03 5.503543578924342e+01 2.918975276816622e+03
1.146215353652170e+03 5.312218339938006e+01 2.918975276816622e+03
1.146253663109500e+03 5.065342987246542e+01 2.918975276816622e+03
1.146189842039774e+03 4.937871892925028e+01 2.918975276816622e+03
1.146030350313816e+03 4.777784709339255e+01 2.918975276816622e+03
1.146191548746052e+03 4.703617284705268e+01 2.918975276816622e+03
1.146193076478692e+03 4.416417815638826e+01 2.918975276816622e+03
1.146275798421127e+03 4.249797366112784e+01 2.918975276816622e+03
1.146164558282500e+03 4.203090161804639e+01 2.918975276816622e+03
1.146153350524563e+03 4.032150114648522e+01 2.918975276816622e+03
1.146117638940079e+03 3.824731229586218e+01 2.918975276816622e+03
1.146186448173657e+03 3.609799711967601e+01 2.918975276816622e+03
1.146142359831958e+03 3.385613959115085e+01 2.918975276816622e+03
1.146168814379684e+03 2.914849035586222e+01 2.918975276816622e+03
1.146049934839748e+03 2.724110791823598e+01 2.918975276816622e+03
1.145790262103735e+03 2.363134102771041e+01 2.918975276816622e+03
1.146077739860797e+03 2.074100742333970e+01 2.918975276816622e+03
1.146199324320685e+03 1.751246982431439e+01 2.918975276816622e+03
1.145722852603727e+03 1.293744244341267e+01 2.918975276816622e+03
1.145913335345110e+03 1.078106331147910e+01 2.918975276816622e+03
1.146276086002837e+03 9.711139280965279e+00 2.918975276816622e+03
1.145963239020120e+03 7.878072213838635e+00 2.918975276816622e+03
1.145844237752157e+03 4.465718558711265e+00 2.918975276816622e+03
1.145796357347922e+03 2.832229121949760e+00 2.918975276816622e+03
-1.157382480670535e+03  1.134314262069367e+00 -2.918975276816622e+03
-1.157205048477933e+03 -5.925443109398198e+00 -2.918975276816622e+03
-1.157192620607779e+03 -1.050047210557416e+01 -2.918975276816622e+03
-1.157313785103731e+03 -1.062889384575548e+01 -2.918975276816622e+03
-1.157325858982708e+03 -1.379959970274533e+01 -2.918975276816622e+03
-1.156951902073444e+03 -1.516708957600740e+01 -2.918975276816622e+03
-1.156863844916166e+03 -1.686782740096267e+01 -2.918975276816622e+03
-1.156981476267124e+03 -2.136208463280143e+01 -2.918975276816622e+03
-1.157272557008189e+03 -2.200408400156304e+01 -2.918975276816622e+03
-1.157186583435513e+03 -2.575819909956764e+01 -2.918975276816622e+03
-1.157057615567603e+03 -2.845052650288302e+01 -2.918975276816622e+03
-1.157031297488854e+03 -3.288123991070421e+01 -2.918975276816622e+03
-1.157055611851419e+03 -3.445462355058418e+01 -2.918975276816622e+03
-1.156985380766702e+03 -3.600064106661640e+01 -2.918975276816622e+03
-1.156949602914876e+03 -3.717529213894448e+01 -2.918975276816622e+03
-1.156914258968048e+03 -4.052502459227436e+01 -2.918975276816622e+03
-1.157215643707253e+03 -4.136303211208494e+01 -2.918975276816622e+03
-1.156873331414738e+03 -4.359839745542899e+01 -2.918975276816622e+03
-1.156890137252894e+03 -4.526802236490783e+01 -2.918975276816622e+03
-1.156876373164216e+03 -4.565318801893753e+01 -2.918975276816622e+03
-1.156989981729906e+03 -4.740660759687132e+01 -2.918975276816622e+03
-1.156824363065155e+03 -4.974720394869540e+01 -2.918975276816622e+03
-1.156891229876647e+03 -5.040624771163790e+01 -2.918975276816622e+03
-1.156777487991829e+03 -5.206757184791385e+01 -2.918975276816622e+03
-1.156859551855893e+03 -5.510261883796830e+01 -2.918975276816622e+03
-1.156758846208572e+03 -5.618581881101698e+01 -2.918975276816622e+03
-1.156843144018934e+03 -5.862658820679787e+01 -2.918975276816622e+03
-1.156734014667273e+03 -6.055375425003236e+01 -2.918975276816622e+03
-1.156788009748398e+03 -6.141092993651232e+01 -2.918975276816622e+03
-1.156706119354456e+03 -6.355230262671049e+01 -2.918975276816622e+03
-1.156754911978324e+03 -6.493278236588303e+01 -2.918975276816622e+03
-1.156702549184091e+03 -6.576830376755659e+01 -2.918975276816622e+03
-1.156734782463053e+03 -6.743686475939768e+01 -2.918975276816622e+03
-1.156681694929215e+03 -6.992396897397634e+01 -2.918975276816622e+03
-1.156697943830516e+03 -7.043656943610115e+01 -2.918975276816622e+03
-1.156662169337947e+03 -7.198121322229584e+01 -2.918975276816622e+03
-1.156665284662681e+03 -7.331392695126365e+01 -2.918975276816622e+03
-1.156641608244821e+03 -7.528675629310283e+01 -2.918975276816622e+03
-1.156641947138840e+03 -7.626231594997178e+01 -2.918975276816622e+03
-1.156630850186542e+03 -7.688206292553475e+01 -2.918975276816622e+03
-1.156618950905572e+03 -7.863724100350271e+01 -2.918975276816622e+03
-1.156608763399928e+03 -8.042258166637019e+01 -2.918975276816622e+03
-1.156606018084325e+03 -8.128027923508630e+01 -2.918975276816622e+03
-1.156590905501470e+03 -8.344723737280999e+01 -2.918975276816622e+03
-1.156590076664606e+03 -8.482236580227801e+01 -2.918975276816622e+03
-1.156574102278575e+03 -8.595716909810179e+01 -2.918975276816622e+03
-1.156581290733130e+03 -8.737735381143034e+01 -2.918975276816622e+03
-1.156550554354885e+03 -8.977068489485204e+01 -2.918975276816622e+03
-1.156563912358775e+03 -9.039768402985588e+01 -2.918975276816622e+03
-1.156528002819667e+03 -9.198763558256665e+01 -2.918975276816622e+03
-1.156541574388626e+03 -9.524201261405445e+01 -2.918975276816622e+03
-1.156507423382991e+03 -9.639845698034782e+01 -2.918975276816622e+03
-1.156526133739595e+03 -9.895075602025982e+01 -2.918975276816622e+03
-1.156485521042629e+03 -1.011885764004571e+02 -2.918975276816622e+03
-1.156498833793001e+03 -1.013804573380927e+02 -2.918975276816622e+03
-1.156464989920998e+03 -1.035821374298229e+02 -2.918975276816622e+03
-1.156477671130349e+03 -1.052616593743238e+02 -2.918975276816622e+03
-1.156449910270815e+03 -1.065693568616194e+02 -2.918975276816622e+03
-1.156468370425535e+03 -1.071403360536068e+02 -2.918975276816622e+03
-1.156445212575834e+03 -1.095344402394000e+02 -2.918975276816622e+03
-1.156448421312295e+03 -1.108321606764168e+02 -2.918975276816622e+03
-1.156413595925781e+03 -1.128607211050621e+02 -2.918975276816622e+03
-1.156428860066079e+03 -1.134770926084473e+02 -2.918975276816622e+03
-1.156425517003924e+03 -1.182533055321973e+02 -2.918975276816622e+03
-1.156410916064923e+03 -1.204120080402017e+02 -2.918975276816622e+03
-1.156443771099352e+03 -1.212149112860573e+02 -2.918975276816622e+03
-1.156394278550071e+03 -1.234290771136595e+02 -2.918975276816622e+03
-1.156357087149370e+03 -1.250058561168936e+02 -2.918975276816622e+03
-1.156396587577350e+03 -1.259280266143707e+02 -2.918975276816622e+03
-1.156470114886536e+03 -1.272882101844602e+02 -2.918975276816622e+03
-1.156375387031594e+03 -1.298425708841406e+02 -2.918975276816622e+03
-1.156452568919735e+03 -1.316011783553292e+02 -2.918975276816622e+03
-1.156387196848983e+03 -1.324206976859052e+02 -2.918975276816622e+03
-1.156469556862221e+03 -1.332696745239887e+02 -2.918975276816622e+03
-1.156391956836317e+03 -1.351582024008646e+02 -2.918975276816622e+03
-1.156491999163683e+03 -1.361718225895249e+02 -2.918975276816622e+03
-1.156410974963950e+03 -1.385054275056895e+02 -2.918975276816622e+03
-1.156540112231557e+03 -1.403901955128082e+02 -2.918975276816622e+03
-1.156423080347911e+03 -1.413260952648230e+02 -2.918975276816622e+03
-1.156594891533638e+03 -1.435037756148821e+02 -2.918975276816622e+03
-1.156545205714038e+03 -1.449795449477886e+02 -2.918975276816622e+03
-1.156606855913969e+03 -1.458231184449212e+02 -2.918975276816622e+03
-1.156493368686455e+03 -1.476688366687639e+02 -2.918975276816622e+03
-1.156684165530346e+03 -1.516241558527840e+02 -2.918975276816622e+03
-1.156546447993693e+03 -1.550138037957164e+02 -2.918975276816622e+03
-1.156698286672445e+03 -1.562167042399553e+02 -2.918975276816622e+03
-1.156581341339384e+03 -1.586021494931031e+02 -2.918975276816622e+03
-1.156734697286486e+03 -1.604356848628317e+02 -2.918975276816622e+03
-1.156507911781705e+03 -1.610450697808029e+02 -2.918975276816622e+03
-1.156687429658635e+03 -1.633857483911365e+02 -2.918975276816622e+03
-1.156768388244594e+03 -1.644235286055048e+02 -2.918975276816622e+03
-1.156772453538392e+03 -1.659691885655457e+02 -2.918975276816622e+03
-1.156630243124502e+03 -1.674295369120516e+02 -2.918975276816622e+03
-1.156764491405439e+03 -1.700967991912849e+02 -2.918975276816622e+03
-1.156776527229739e+03 -1.721790233003147e+02 -2.918975276816622e+03
-1.156759789869534e+03 -1.730862840944345e+02 -2.918975276816622e+03
-1.156771798329959e+03 -1.770661996263675e+02 -2.918975276816622e+03
-1.156813450849359e+03 -1.823126065615271e+02 -2.918975276816622e+03
-1.156825852439294e+03 -1.844934946309676e+02 -2.918975276816622e+03
-1.156835181334407e+03 -1.864153972554858e+02 -2.918975276816622e+03
-1.156832979360524e+03 -1.869066132833639e+02 -2.918975276816622e+03
-1.156846418866240e+03 -1.894220485120220e+02 -2.918975276816622e+03
-1.156851037710080e+03 -1.914802129598690e+02 -2.918975276816622e+03
-1.156857315085586e+03 -1.949118778626371e+02 -2.918975276816622e+03
-1.156858301674914e+03 -1.973374684429871e+02 -2.918975276816622e+03
-1.156873278811425e+03 -1.985267572605878e+02 -2.918975276816622e+03
-1.156882305710321e+03 -2.003175671712191e+02 -2.918975276816622e+03
-1.156857763341023e+03 -2.009333069907541e+02 -2.918975276816622e+03
-1.156801093150430e+03 -2.031374461870676e+02 -2.918975276816622e+03
-1.156852320907099e+03 -2.045897639889584e+02 -2.918975276816622e+03
-1.156911810939017e+03 -2.056391889688602e+02 -2.918975276816622e+03
-1.156819707226467e+03 -2.073128768215886e+02 -2.918975276816622e+03
-1.156560876546281e+03 -2.097609999741698e+02 -2.918975276816622e+03
-1.156697659152813e+03 -2.151987673905385e+02 -2.918975276816622e+03
-1.156871693130650e+03 -2.155422608279597e+02 -2.918975276816622e+03
-1.156684328433420e+03 -2.182537393755173e+02 -2.918975276816622e+03
-1.156496638011342e+03 -2.208100088192609e+02 -2.918975276816622e+03
-1.156507186240392e+03 -2.208576390730592e+02 -2.918975276816622e+03
-1.156373708630234e+03 -2.232319301455348e+02 -2.918975276816622e+03
-1.156259707151054e+03 -2.253156208131395e+02 -2.918975276816622e+03
-1.156589244509659e+03 -2.255529492961346e+02 -2.918975276816622e+03
-1.156322569424996e+03 -2.269833016396518e+02 -2.918975276816622e+03
-1.156332366116369e+03 -2.300223578401302e+02 -2.918975276816622e+03
-1.156427665020586e+03 -2.410110521404330e+02 -2.918975276816622e+03
-1.156440800360433e+03 -2.440711215417894e+02 -2.918975276816622e+03
-1.156440676497167e+03 -2.467395791584432e+02 -2.918975276816622e+03
-1.156436360339889e+03 -2.490722645312960e+02 -2.918975276816622e+03
-1.157084346238239e+03 -2.501871118399644e+02 -2.918975276816622e+03
-1.156389174108882e+03 -2.517760636406927e+02 -2.918975276816622e+03
-1.156444413905936e+03 -2.546146051512742e+02 -2.918975276816622e+03
-1.157079413720543e+03 -2.564980877363399e+02 -2.918975276816622e+03
-1.156944814231070e+03 -2.605829388519077e+02 -2.918975276816622e+03
-1.155279459610799e+03 -2.624509234833334e+02 -2.918975276816622e+03
-1.157243366361167e+03 -2.629164700400585e+02 -2.918975276816622e+03
-1.156530386785069e+03 -2.649411653308295e+02 -2.918975276816622e+03
-1.156720003388632e+03 -2.667544056608797e+02 -2.918975276816622e+03
-1.156400459144783e+03 -2.681155123256972e+02 -2.918975276816622e+03
-1.156803248464955e+03 -2.692315992078670e+02 -2.918975276816622e+03
-1.156444489443599e+03 -2.702807172642148e+02 -2.918975276816622e+03
-1.156881335243428e+03 -2.717624735984363e+02 -2.918975276816622e+03
-1.156481365301480e+03 -2.733530212111575e+02 -2.918975276816622e+03
-1.156814142796444e+03 -2.772065035036277e+02 -2.918975276816622e+03
-1.156617648039213e+03 -2.795921524386097e+02 -2.918975276816622e+03
-1.156872969363587e+03 -2.819430816472271e+02 -2.918975276816622e+03
-1.156727452717317e+03 -2.861149900070716e+02 -2.918975276816622e+03
-1.156842462769937e+03 -2.870028387631485e+02 -2.918975276816622e+03
-1.156687631441287e+03 -2.892664753632757e+02 -2.918975276816622e+03
-1.156805477406535e+03 -2.932817721995063e+02 -2.918975276816622e+03
-1.156726677796236e+03 -2.948934477176745e+02 -2.918975276816622e+03
-1.156702888907293e+03 -3.010653859683362e+02 -2.918975276816622e+03
-1.156700376326060e+03 -3.018236008114730e+02 -2.918975276816622e+03
-1.156733722599764e+03 -3.039440284385428e+02 -2.918975276816622e+03
-1.156660728018918e+03 -3.054750156002519e+02 -2.918975276816622e+03
-1.156576586112020e+03 -3.078531749084686e+02 -2.918975276816622e+03
-1.156688433074030e+03 -3.095325440718254e+02 -2.918975276816622e+03
-1.156707780103383e+03 -3.151895238440171e+02 -2.918975276816622e+03
-1.156644431770270e+03 -3.177230747518919e+02 -2.918975276816622e+03
-1.156385112511580e+03 -3.189336298588140e+02 -2.918975276816622e+03
-1.156591239290514e+03 -3.201314204028956e+02 -2.918975276816622e+03
-1.156762305836874e+03 -3.219174671299562e+02 -2.918975276816622e+03
-1.156602343042721e+03 -3.236101022709103e+02 -2.918975276816622e+03
-1.156637733346680e+03 -3.243914761862000e+02 -2.918975276816622e+03
-1.156545117546603e+03 -3.261764224441242e+02 -2.918975276816622e+03
-1.156640922332730e+03 -3.269580340016201e+02 -2.918975276816622e+03
-1.156506041215213e+03 -3.288511426426669e+02 -2.918975276816622e+03
-1.156572513056862e+03 -3.299025991052275e+02 -2.918975276816622e+03
-1.156500832975797e+03 -3.312406136878247e+02 -2.918975276816622e+03
-1.156597846903669e+03 -3.346304335111023e+02 -2.918975276816622e+03
-1.156477427265516e+03 -3.352316432268684e+02 -2.918975276816622e+03
-1.156471646423294e+03 -3.365217885636197e+02 -2.918975276816622e+03
-1.156461920061380e+03 -3.384617464835607e+02 -2.918975276816622e+03
-1.156537076477521e+03 -3.413534793303126e+02 -2.918975276816622e+03
-1.156473265719842e+03 -3.427719828784934e+02 -2.918975276816622e+03
-1.156513115459019e+03 -3.441095748462417e+02 -2.918975276816622e+03
-1.156463363151352e+03 -3.485481288575289e+02 -2.918975276816622e+03
-1.156432700481920e+03 -3.485950817293830e+02 -2.918975276816622e+03
-1.156543171295101e+03 -3.533200018305996e+02 -2.918975276816622e+03
-1.156595417465830e+03 -3.575664979037720e+02 -2.918975276816622e+03
-1.156611793851684e+03 -3.587053565519358e+02 -2.918975276816622e+03
-1.156656789264516e+03 -3.622813614012330e+02 -2.918975276816622e+03
-1.156640929165304e+03 -3.629031342013861e+02 -2.918975276816622e+03
-1.156685268828515e+03 -3.647485171430023e+02 -2.918975276816622e+03
-1.156697642893723e+03 -3.672209558395458e+02 -2.918975276816622e+03
-1.156746321859039e+03 -3.710886623660110e+02 -2.918975276816622e+03
-1.156684541760206e+03 -3.725451347696364e+02 -2.918975276816622e+03
-1.156776419020021e+03 -3.741777268787822e+02 -2.918975276816622e+03
-1.156783621745449e+03 -3.767851272732307e+02 -2.918975276816622e+03
-1.156782969556962e+03 -3.776245349043259e+02 -2.918975276816622e+03
-1.156753746671807e+03 -3.798778698100483e+02 -2.918975276816622e+03
-1.156803557187852e+03 -3.802886846487932e+02 -2.918975276816622e+03
-1.156795569625270e+03 -3.825114569389978e+02 -2.918975276816622e+03
-1.156795985925122e+03 -3.861365555869776e+02 -2.918975276816622e+03
-1.156811246984535e+03  3.833415343110936e+02 -2.918975276816622e+03
-1.156823325880586e+03  3.823234553858743e+02 -2.918975276816622e+03
-1.156825742623792e+03  3.786848110023049e+02 -2.918975276816622e+03
-1.156767098407257e+03  3.775820520401292e+02 -2.918975276816622e+03
-1.156816403627748e+03  3.765353245908757e+02 -2.918975276816622e+03
-1.156832981095495e+03  3.736141853526442e+02 -2.918975276816622e+03
-1.156806534209822e+03  3.694475288199050e+02 -2.918975276816622e+03
-1.156793095254493e+03  3.642071785741861e+02 -2.918975276816622e+03
-1.156781616640455e+03  3.601564979893869e+02 -2.918975276816622e+03
-1.156787711248701e+03  3.563824821321498e+02 -2.918975276816622e+03
-1.156781650294364e+03  3.553013601196951e+02 -2.918975276816622e+03
-1.156700805822748e+03  3.532570969887316e+02 -2.918975276816622e+03
-1.156788791366637e+03  3.470834172514846e+02 -2.918975276816622e+03
-1.156767745656756e+03  3.433414407709078e+02 -2.918975276816622e+03
-1.156744568469077e+03  3.380517062573405e+02 -2.918975276816622e+03
-1.156739032377632e+03  3.354034943110034e+02 -2.918975276816622e+03
-1.156761580024679e+03  3.277254524620456e+02 -2.918975276816622e+03
-1.156744001525133e+03  3.265196083331402e+02 -2.918975276816622e+03
-1.156712755080506e+03  3.231616835515088e+02 -2.918975276816622e+03
-1.156908636940403e+03  3.220503532895228e+02 -2.918975276816622e+03
-1.156683411379232e+03  3.199752880944062e+02 -2.918975276816622e+03
-1.156557063203233e+03  3.173123698017350e+02 -2.918975276816622e+03
-1.156713070267003e+03  3.124397088907606e+02 -2.918975276816622e+03
-1.156693739369961e+03  3.105253975032077e+02 -2.918975276816622e+03
-1.156687102005818e+03  3.077160823729573e+02 -2.918975276816622e+03
-1.156653738898234e+03  3.027875775651235e+02 -2.918975276816622e+03
-1.156593931126162e+03  3.027036993558403e+02 -2.918975276816622e+03
-1.156692760050040e+03  2.977425047877849e+02 -2.918975276816622e+03
-1.156702487785368e+03  2.954050562592223e+02 -2.918975276816622e+03
-1.156727623417604e+03  2.942801402064921e+02 -2.918975276816622e+03
-1.156715281656459e+03  2.917426885093698e+02 -2.918975276816622e+03
-1.156760452824942e+03  2.901908348436786e+02 -2.918975276816622e+03
-1.156734132414586e+03  2.879343089661507e+02 -2.918975276816622e+03
-1.156778144821462e+03  2.865045417327519e+02 -2.918975276816622e+03
-1.156751249595656e+03  2.845166118238671e+02 -2.918975276816622e+03
-1.157161425294133e+03  2.819787380091296e+02 -2.918975276816622e+03
-1.156886655131522e+03  2.780313926098999e+02 -2.918975276816622e+03
-1.156804376865102e+03  2.777070814237328e+02 -2.918975276816622e+03
-1.156626868437920e+03  2.753446586797508e+02 -2.918975276816622e+03
-1.156939442764272e+03  2.739500136161466e+02 -2.918975276816622e+03
-1.156819365900571e+03  2.716907761502733e+02 -2.918975276816622e+03
-1.156844168851808e+03  2.713664471145885e+02 -2.918975276816622e+03
-1.156679336913007e+03  2.695795679588839e+02 -2.918975276816622e+03
-1.156896052913559e+03  2.661377887079931e+02 -2.918975276816622e+03
-1.156718891727603e+03  2.648928799528385e+02 -2.918975276816622e+03
-1.156926294455227e+03  2.625785767570791e+02 -2.918975276816622e+03
-1.156735574209270e+03  2.607962835930190e+02 -2.918975276816622e+03
-1.156911621659123e+03  2.600324755015172e+02 -2.918975276816622e+03
-1.156768725888012e+03  2.577158979701485e+02 -2.918975276816622e+03
-1.157010389062480e+03  2.568264812094410e+02 -2.918975276816622e+03
-1.156796701396244e+03  2.551936343349203e+02 -2.918975276816622e+03
-1.156975991622915e+03  2.540911386201246e+02 -2.918975276816622e+03
-1.156939805450393e+03  2.516046082433124e+02 -2.918975276816622e+03
-1.157373606089355e+03  2.504606760317020e+02 -2.918975276816622e+03
-1.157151184312234e+03  2.501956413404033e+02 -2.918975276816622e+03
-1.156980691210486e+03  2.473674259808433e+02 -2.918975276816622e+03
-1.156925950725713e+03  2.459820057448039e+02 -2.918975276816622e+03
-1.156918387828475e+03  2.443464058403154e+02 -2.918975276816622e+03
-1.156717860332420e+03  2.431208078086808e+02 -2.918975276816622e+03
-1.156695610302394e+03  2.409168793683805e+02 -2.918975276816622e+03
-1.156931880487383e+03  2.400880392573002e+02 -2.918975276816622e+03
-1.156595357345901e+03  2.385153099203147e+02 -2.918975276816622e+03
-1.156369656958587e+03  2.353946807103942e+02 -2.918975276816622e+03
-1.156621427081951e+03  2.341719185890815e+02 -2.918975276816622e+03
-1.156799248760891e+03  2.317022803715471e+02 -2.918975276816622e+03
-1.156634024407294e+03  2.298603669633658e+02 -2.918975276816622e+03
-1.156467414213488e+03  2.292027564062607e+02 -2.918975276816622e+03
-1.156433412589691e+03  2.270008515815834e+02 -2.918975276816622e+03
-1.156527350033738e+03  2.256890581771564e+02 -2.918975276816622e+03
-1.156404203804564e+03  2.248918207559493e+02 -2.918975276816622e+03
-1.156411407641305e+03  2.232883311595851e+02 -2.918975276816622e+03
-1.156438627117081e+03  2.207330338098123e+02 -2.918975276816622e+03
-1.156378876927583e+03  2.197325107356916e+02 -2.918975276816622e+03
-1.156098531764996e+03  2.183846591491453e+02 -2.918975276816622e+03
-1.156016572694751e+03  2.154351686287154e+02 -2.918975276816622e+03
-1.156384755479522e+03  2.143444681766663e+02 -2.918975276816622e+03
-1.156235747825194e+03  2.119857105613650e+02 -2.918975276816622e+03
-1.156007249722039e+03  2.100025411902615e+02 -2.918975276816622e+03
-1.156125617242946e+03  2.091483632748567e+02 -2.918975276816622e+03
-1.156112093124586e+03  2.070650010047504e+02 -2.918975276816622e+03
-1.156089480202484e+03  2.054093780993161e+02 -2.918975276816622e+03
-1.156047538912188e+03  2.045249740884903e+02 -2.918975276816622e+03
-1.156064957877056e+03  2.033214773802248e+02 -2.918975276816622e+03
-1.156005027802554e+03  2.009151951417590e+02 -2.918975276816622e+03
-1.156047435124155e+03  1.998957028308472e+02 -2.918975276816622e+03
-1.156006260446543e+03  1.979725311248547e+02 -2.918975276816622e+03
-1.156017038078577e+03  1.949884796310257e+02 -2.918975276816622e+03
-1.155970041437379e+03  1.901413604891405e+02 -2.918975276816622e+03
-1.156006510481528e+03  1.894150438024394e+02 -2.918975276816622e+03
-1.156008984433346e+03  1.872114348348200e+02 -2.918975276816622e+03
-1.156147398122672e+03  1.859223919979912e+02 -2.918975276816622e+03
-1.155988654870242e+03  1.845676638777661e+02 -2.918975276816622e+03
-1.155809070922861e+03  1.832130262819104e+02 -2.918975276816622e+03
-1.155916228238850e+03  1.808839268213945e+02 -2.918975276816622e+03
-1.156227570706748e+03  1.802221780028503e+02 -2.918975276816622e+03
-1.156004298703574e+03  1.787436265986824e+02 -2.918975276816622e+03
-1.155976346721721e+03  1.753869860383148e+02 -2.918975276816622e+03
-1.155991751870971e+03  1.743694054780493e+02 -2.918975276816622e+03
-1.156045271786557e+03  1.719386651746268e+02 -2.918975276816622e+03
-1.156003212517543e+03  1.701146661647246e+02 -2.918975276816622e+03
-1.156025549632116e+03  1.691495675850153e+02 -2.918975276816622e+03
-1.156012370786046e+03  1.671096692366152e+02 -2.918975276816622e+03
-1.156035286307584e+03  1.657480298451484e+02 -2.918975276816622e+03
-1.156022096515083e+03  1.646222770249487e+02 -2.918975276816622e+03
-1.156042271079863e+03  1.632560671000322e+02 -2.918975276816622e+03
-1.156031059365654e+03  1.608840067381005e+02 -2.918975276816622e+03
-1.156046843657940e+03  1.600760022739503e+02 -2.918975276816622e+03
-1.156047288534725e+03  1.585811966029233e+02 -2.918975276816622e+03
-1.156060734894752e+03  1.556732310358796e+02 -2.918975276816622e+03
-1.156061064690808e+03  1.544737718656663e+02 -2.918975276816622e+03
-1.156035726332493e+03  1.519127997867089e+02 -2.918975276816622e+03
-1.156083911824690e+03  1.501725575083900e+02 -2.918975276816622e+03
-1.156130164330471e+03  1.493641801742818e+02 -2.918975276816622e+03
-1.156104896427639e+03  1.471016965250985e+02 -2.918975276816622e+03
-1.156044584869922e+03  1.456085326104163e+02 -2.918975276816622e+03
-1.156114682936464e+03  1.447831306865990e+02 -2.918975276816622e+03
-1.156090787716350e+03  1.433517143480675e+02 -2.918975276816622e+03
-1.156143244585006e+03  1.408612667748425e+02 -2.918975276816622e+03
-1.156103843188740e+03  1.400678043454443e+02 -2.918975276816622e+03
-1.156177945267669e+03  1.385247742160327e+02 -2.918975276816622e+03
-1.156118419415809e+03  1.355165261619666e+02 -2.918975276816622e+03
-1.156212423627075e+03  1.343540006685803e+02 -2.918975276816622e+03
-1.156103195920776e+03  1.318664483045112e+02 -2.918975276816622e+03
-1.156239949584541e+03  1.296988350287115e+02 -2.918975276816622e+03
-1.156176025783579e+03  1.292453825515242e+02 -2.918975276816622e+03
-1.156333574013578e+03  1.270825640206121e+02 -2.918975276816622e+03
-1.156191490271812e+03  1.258849532174036e+02 -2.918975276816622e+03
-1.156364588053271e+03  1.244451039891424e+02 -2.918975276816622e+03
-1.156215182251905e+03  1.231632856699816e+02 -2.918975276816622e+03
-1.156417461270993e+03  1.209702442622002e+02 -2.918975276816622e+03
-1.156272786659796e+03  1.200759738736433e+02 -2.918975276816622e+03
-1.156482031228131e+03  1.187708978364090e+02 -2.918975276816622e+03
-1.156369145279306e+03  1.153519180772413e+02 -2.918975276816622e+03
-1.156447772092405e+03  1.143703786114521e+02 -2.918975276816622e+03
-1.156422512556244e+03  1.118907566259420e+02 -2.918975276816622e+03
-1.156850355344252e+03  1.104624443469339e+02 -2.918975276816622e+03
-1.156462422259342e+03  1.095733206760299e+02 -2.918975276816622e+03
-1.156513822272270e+03  1.074523018287282e+02 -2.918975276816622e+03
-1.156487487429125e+03  1.061617177790225e+02 -2.918975276816622e+03
-1.156587764663342e+03  1.047143438004591e+02 -2.918975276816622e+03
-1.156515601527820e+03  1.033076802627646e+02 -2.918975276816622e+03
-1.156642257683636e+03  1.010866272952269e+02 -2.918975276816622e+03
-1.156548290187450e+03  1.003434329936457e+02 -2.918975276816622e+03
-1.156638190765860e+03  9.822841127356766e+01 -2.918975276816622e+03
-1.156559402316824e+03  9.694717704456430e+01 -2.918975276816622e+03
-1.156614339552140e+03  9.517110946643199e+01 -2.918975276816622e+03
-1.156571144602808e+03  9.118445269990771e+01 -2.918975276816622e+03
-1.156692873369800e+03  8.994298057860561e+01 -2.918975276816622e+03
-1.156582345592319e+03  8.808442314308998e+01 -2.918975276816622e+03
-1.156551195037978e+03  8.685056082827207e+01 -2.918975276816622e+03
-1.156649842608957e+03  8.652194502817592e+01 -2.918975276816622e+03
-1.156732894581475e+03  8.511998554290751e+01 -2.918975276816622e+03
-1.156602479003146e+03  8.267476881460360e+01 -2.918975276816622e+03
-1.156603019594915e+03  7.913900308232084e+01 -2.918975276816622e+03
-1.156763549485235e+03  7.355259749333189e+01 -2.918975276816622e+03
-1.156648677917018e+03  7.169480163510630e+01 -2.918975276816622e+03
-1.156303670818904e+03  6.916672516424126e+01 -2.918975276816622e+03
-1.156804855604675e+03  6.721658278480285e+01 -2.918975276816622e+03
-1.156833094653743e+03  6.347788279282950e+01 -2.918975276816622e+03
-1.156543071292706e+03  6.288658753685162e+01 -2.918975276816622e+03
-1.156860608903180e+03  5.828427018007402e+01 -2.918975276816622e+03
-1.156769488945583e+03  5.633095421974424e+01 -2.918975276816622e+03
-1.156820059478423e+03  5.355179816953401e+01 -2.918975276816622e+03
-1.156950178830057e+03  5.094658838463563e+01 -2.918975276816622e+03
-1.156984665976185e+03  4.967697302302963e+01 -2.918975276816622e+03
-1.156880982240856e+03  4.794364769989735e+01 -2.918975276816622e+03
-1.156954718233582e+03  4.659919904521850e+01 -2.918975276816622e+03
-1.156918250345686e+03  4.421958401807778e+01 -2.918975276816622e+03
-1.157164889859155e+03  4.210497829671431e+01 -2.918975276816622e+03
-1.157027898326927e+03  4.159474785970789e+01 -2.918975276816622e+03
-1.157173226507939e+03  3.894803195893915e+01 -2.918975276816622e+03
-1.157160578795540e+03  3.611608587911699e+01 -2.918975276816622e+03
-1.157243013782490e+03  2.988930563124749e+01 -2.918975276816622e+03
-1.157259799408143e+03  2.879328815652995e+01 -2.918975276816622e+03
-1.157363893948259e+03  2.362168834103754e+01 -2.918975276816622e+03
-1.157345261407356e+03  1.904351925000963e+01 -2.918975276816622e+03
-1.157345589781934e+03  1.723666994086723e+01 -2.918975276816622e+03
-1.157400578503930e+03  1.586619596304112e+01 -2.918975276816622e+03
-1.157370250992269e+03  1.471026618596087e+01 -2.918975276816622e+03
-1.157328708672165e+03  1.331343471811729e+01 -2.918975276816622e+03
-1.157382139657372e+03  1.195340093976039e+01 -2.918975276816622e+03
-1.157312281776511e+03  7.574297454128610e+00 -2.918975276816622e+03
1.154291405676900e+03 5.926847561672343e-01 2.918975276816622e+03
 1.154725025193482e+03 -1.430498360137242e+00  2.918975276816622e+03
 1.154276323586589e+03 -1.949665067359117e+00  2.918975276816622e+03
 1.154363444395699e+03 -4.602188774814768e+00  2.918975276816622e+03
 1.154648519590218e+03 -9.307629064699579e+00  2.918975276816622e+03
 1.154156699319445e+03 -1.649934723797837e+01  2.918975276816622e+03
 1.154367425883195e+03 -2.117577296987788e+01  2.918975276816622e+03
 1.154162470855319e+03 -2.662349909535864e+01  2.918975276816622e+03
 1.153977734758175e+03 -2.676363742068598e+01  2.918975276816622e+03
 1.153875071002210e+03 -3.024145755345283e+01  2.918975276816622e+03
 1.153941144414153e+03 -3.482359552896018e+01  2.918975276816622e+03
 1.153940224355338e+03 -3.782896516568478e+01  2.918975276816622e+03
 1.153841452017708e+03 -4.289860937153271e+01  2.918975276816622e+03
 1.153866144183104e+03 -4.586189062212091e+01  2.918975276816622e+03
 1.153778465526230e+03 -4.899909042661227e+01  2.918975276816622e+03
 1.153737340651458e+03 -5.102185834891230e+01  2.918975276816622e+03
 1.153713430485395e+03 -5.266392846742719e+01  2.918975276816622e+03
 1.154012193763259e+03 -5.415447255706503e+01  2.918975276816622e+03
 1.153673363081741e+03 -5.661885147231530e+01  2.918975276816622e+03
 1.153731368581520e+03 -5.877448037574770e+01  2.918975276816622e+03
 1.153661897145596e+03 -6.058075771949341e+01  2.918975276816622e+03
 1.153753472641951e+03 -6.177870015594480e+01  2.918975276816622e+03
 1.153664552840283e+03 -6.338526446240657e+01  2.918975276816622e+03
 1.153709247658417e+03 -6.529933627524642e+01  2.918975276816622e+03
 1.153658225125003e+03 -6.635835125944747e+01  2.918975276816622e+03
 1.153695902360626e+03 -6.928841166287390e+01  2.918975276816622e+03
 1.153673027608415e+03 -7.089718049938155e+01  2.918975276816622e+03
 1.153682779201564e+03 -7.197656617566251e+01  2.918975276816622e+03
 1.153665529260225e+03 -7.450305033197354e+01  2.918975276816622e+03
 1.153682313693570e+03 -7.810442931278145e+01  2.918975276816622e+03
 1.153670588221019e+03 -8.074228722246758e+01  2.918975276816622e+03
 1.153682413791499e+03 -8.184666515291737e+01  2.918975276816622e+03
 1.153670787905098e+03 -8.478479447311942e+01  2.918975276816622e+03
 1.153679104722425e+03 -8.604900845772774e+01  2.918975276816622e+03
 1.153667331742480e+03 -8.892722962020494e+01  2.918975276816622e+03
 1.153685864782451e+03 -9.068899512964532e+01  2.918975276816622e+03
 1.153664311305784e+03 -9.233770039266960e+01  2.918975276816622e+03
 1.153681963373209e+03 -9.467520168484184e+01  2.918975276816622e+03
 1.153653439818558e+03 -9.737053171259815e+01  2.918975276816622e+03
 1.153668002811376e+03 -9.787464624533281e+01  2.918975276816622e+03
 1.153642419186286e+03 -1.004407885574804e+02  2.918975276816622e+03
 1.153653928397557e+03 -1.036513283786268e+02  2.918975276816622e+03
 1.153686842308888e+03 -1.052012392182969e+02  2.918975276816622e+03
 1.153637432814003e+03 -1.060977217066803e+02  2.918975276816622e+03
 1.153563578178562e+03 -1.089808678079674e+02  2.918975276816622e+03
 1.153655407304460e+03 -1.105930268776115e+02  2.918975276816622e+03
 1.153653251594874e+03 -1.122057123913740e+02  2.918975276816622e+03
 1.153565673532545e+03 -1.146174126311098e+02  2.918975276816622e+03
 1.153358344944431e+03 -1.172119275207727e+02  2.918975276816622e+03
 1.153586736779736e+03 -1.204337701758705e+02  2.918975276816622e+03
 1.153655447755405e+03 -1.249972332686689e+02  2.918975276816622e+03
 1.153424173808961e+03 -1.251546534441436e+02  2.918975276816622e+03
 1.153484851290395e+03 -1.289966614406629e+02  2.918975276816622e+03
 1.153659019100259e+03 -1.331206823711130e+02  2.918975276816622e+03
 1.153599562501466e+03 -1.433369358414882e+02  2.918975276816622e+03
 1.153603853904488e+03 -1.457943412448131e+02  2.918975276816622e+03
 1.153587543926874e+03 -1.488940777680003e+02  2.918975276816622e+03
 1.153618487512980e+03 -1.506997506975399e+02  2.918975276816622e+03
 1.153588116293168e+03 -1.523247905063200e+02  2.918975276816622e+03
 1.153629001112322e+03 -1.543435453481572e+02  2.918975276816622e+03
 1.153588590723875e+03 -1.578240783847991e+02  2.918975276816622e+03
 1.153650624144650e+03 -1.603548491233746e+02  2.918975276816622e+03
 1.153597483601411e+03 -1.616092366340891e+02  2.918975276816622e+03
 1.153654768357329e+03 -1.624401330196012e+02  2.918975276816622e+03
 1.153596443911459e+03 -1.636342378628976e+02  2.918975276816622e+03
 1.153667405314396e+03 -1.656184696613767e+02  2.918975276816622e+03
 1.153605808309196e+03 -1.664579703920216e+02  2.918975276816622e+03
 1.153682677371939e+03 -1.686948535141949e+02  2.918975276816622e+03
 1.153602000879404e+03 -1.705131334998333e+02  2.918975276816622e+03
 1.153682138497453e+03 -1.721217633039535e+02  2.918975276816622e+03
 1.153594652598385e+03 -1.743264427754745e+02  2.918975276816622e+03
 1.153682777708129e+03 -1.779441579948231e+02  2.918975276816622e+03
 1.153596535799978e+03 -1.806192790142140e+02  2.918975276816622e+03
 1.153678618358955e+03 -1.839164759726278e+02  2.918975276816622e+03
 1.153601072178283e+03 -1.862449329929361e+02  2.918975276816622e+03
 1.153668282671568e+03 -1.881982336831418e+02  2.918975276816622e+03
 1.153607031007046e+03 -1.913639326664782e+02  2.918975276816622e+03
 1.153661321005851e+03 -1.942733335895558e+02  2.918975276816622e+03
 1.153636451921190e+03 -1.978397556716407e+02  2.918975276816622e+03
 1.153639705109611e+03 -2.009854701024184e+02  2.918975276816622e+03
 1.153618267616056e+03 -2.087256003007315e+02  2.918975276816622e+03
 1.153756310883870e+03 -2.110702999444080e+02  2.918975276816622e+03
 1.153754585886760e+03 -2.178588077332746e+02  2.918975276816622e+03
 1.153544112484343e+03 -2.204365963541221e+02  2.918975276816622e+03
 1.153595144976803e+03 -2.233930348492941e+02  2.918975276816622e+03
 1.153740210306370e+03 -2.241281516279590e+02  2.918975276816622e+03
 1.153798021333389e+03 -2.257157296819038e+02  2.918975276816622e+03
 1.153684375290449e+03 -2.288005944194588e+02  2.918975276816622e+03
 1.153560159654812e+03 -2.304317470240370e+02  2.918975276816622e+03
 1.153733822869379e+03 -2.317968076088957e+02  2.918975276816622e+03
 1.154378308207097e+03 -2.344413295554928e+02  2.918975276816622e+03
 1.153705318268548e+03 -2.396116947635511e+02  2.918975276816622e+03
 1.153673726722245e+03 -2.407131162074996e+02  2.918975276816622e+03
 1.153757232836386e+03 -2.445992973072079e+02  2.918975276816622e+03
 1.153781844344841e+03 -2.476500594198044e+02  2.918975276816622e+03
 1.153803945089357e+03 -2.527740229787806e+02  2.918975276816622e+03
 1.153819811533261e+03 -2.554477440238113e+02  2.918975276816622e+03
 1.153826529364694e+03 -2.572498521182722e+02  2.918975276816622e+03
 1.153826962972970e+03 -2.608158365209102e+02  2.918975276816622e+03
 1.153845675938898e+03 -2.614399804839023e+02  2.918975276816622e+03
 1.153858471174718e+03 -2.657840049923803e+02  2.918975276816622e+03
 1.153869134052647e+03 -2.685534120204881e+02  2.918975276816622e+03
 1.153874414909321e+03 -2.715200878863825e+02  2.918975276816622e+03
 1.153880331974786e+03 -2.723155567064902e+02  2.918975276816622e+03
 1.153880291734794e+03 -2.743172052231594e+02  2.918975276816622e+03
 1.153892042102752e+03 -2.774877584089297e+02  2.918975276816622e+03
 1.153897847573177e+03 -2.794503712161714e+02  2.918975276816622e+03
 1.153899063493418e+03 -2.801624148793987e+02  2.918975276816622e+03
 1.153899790401832e+03 -2.834666833647573e+02  2.918975276816622e+03
 1.153899964934102e+03 -2.861098816165484e+02  2.918975276816622e+03
 1.153921865851747e+03 -2.914047221520089e+02  2.918975276816622e+03
 1.153944508667998e+03 -2.951231914479983e+02  2.918975276816622e+03
 1.153919510293517e+03 -2.965529402826857e+02  2.918975276816622e+03
 1.153903800357293e+03 -2.975097617537505e+02  2.918975276816622e+03
 1.153927698729475e+03 -2.978303508572838e+02  2.918975276816622e+03
 1.153926446228584e+03 -2.987984216869809e+02  2.918975276816622e+03
 1.153937885562804e+03 -3.032395889754034e+02  2.918975276816622e+03
 1.153889051068790e+03 -3.038017214288368e+02  2.918975276816622e+03
 1.153876931321251e+03 -3.073990671505190e+02  2.918975276816622e+03
 1.153888028104393e+03 -3.094286447651590e+02  2.918975276816622e+03
 1.153874695571300e+03 -3.100676841948148e+02  2.918975276816622e+03
 1.153851442217531e+03 -3.110969529917916e+02  2.918975276816622e+03
 1.153865373465606e+03 -3.116021678540285e+02  2.918975276816622e+03
 1.153856578285758e+03 -3.134185851042171e+02  2.918975276816622e+03
 1.153847627020129e+03 -3.145295512911000e+02  2.918975276816622e+03
 1.153831302454184e+03 -3.176882123959635e+02  2.918975276816622e+03
 1.153809911104536e+03 -3.214117542991721e+02  2.918975276816622e+03
 1.153785216219295e+03 -3.260613254722887e+02  2.918975276816622e+03
 1.153776598988586e+03 -3.285485491347891e+02  2.918975276816622e+03
 1.153764842372983e+03 -3.314446429363496e+02  2.918975276816622e+03
 1.153756053425087e+03 -3.322961620647906e+02  2.918975276816622e+03
 1.153747370592000e+03 -3.348194854716260e+02  2.918975276816622e+03
 1.153777051181802e+03 -3.385180368108811e+02  2.918975276816622e+03
 1.153743540289761e+03 -3.396097793655875e+02  2.918975276816622e+03
 1.153293915022480e+03 -3.439425185871870e+02  2.918975276816622e+03
 1.153819294537870e+03 -3.466325115158763e+02  2.918975276816622e+03
 1.154448640945208e+03 -3.505594351385673e+02  2.918975276816622e+03
 1.153976997771448e+03 -3.526722480422393e+02  2.918975276816622e+03
 1.153618644990882e+03 -3.548416419199798e+02  2.918975276816622e+03
 1.153601621141810e+03 -3.572096799387396e+02  2.918975276816622e+03
 1.153699780424442e+03 -3.601424557193881e+02  2.918975276816622e+03
 1.153775375389371e+03 -3.631415742183361e+02  2.918975276816622e+03
 1.153684616815347e+03 -3.646730207705185e+02  2.918975276816622e+03
 1.153574061449704e+03 -3.659251915757398e+02  2.918975276816622e+03
 1.153691651488569e+03 -3.667867492068586e+02  2.918975276816622e+03
 1.153688467882969e+03 -3.687837125183863e+02  2.918975276816622e+03
 1.153700828072629e+03 -3.709387188860870e+02  2.918975276816622e+03
 1.153713172178938e+03 -3.743004914181238e+02  2.918975276816622e+03
 1.153721223786785e+03 -3.760337277149990e+02  2.918975276816622e+03
 1.153756774944207e+03 -3.815135837159418e+02  2.918975276816622e+03
 1.153766387429804e+03 -3.833981939229245e+02  2.918975276816622e+03
 1.153773251866281e+03 -3.838570536803365e+02  2.918975276816622e+03
1.153803049400061e+03 3.851964326245289e+02 2.918975276816622e+03
1.153805214345847e+03 3.839986692480318e+02 2.918975276816622e+03
1.153839624265366e+03 3.815445515524285e+02 2.918975276816622e+03
1.153843973209329e+03 3.811064964377522e+02 2.918975276816622e+03
1.153872748065128e+03 3.765632600076908e+02 2.918975276816622e+03
1.153908773371632e+03 3.733476661016222e+02 2.918975276816622e+03
1.153988525668384e+03 3.723187947084904e+02 2.918975276816622e+03
1.153905254926485e+03 3.708621939813920e+02 2.918975276816622e+03
1.153860750470157e+03 3.675356192887010e+02 2.918975276816622e+03
1.153997508005700e+03 3.665186036185614e+02 2.918975276816622e+03
1.154170433274285e+03 3.648354037268069e+02 2.918975276816622e+03
1.154032429857761e+03 3.625612971905959e+02 2.918975276816622e+03
1.154035619980858e+03 3.593090123083140e+02 2.918975276816622e+03
1.154045576251274e+03 3.578319026033452e+02 2.918975276816622e+03
1.154120733331903e+03 3.558546523884118e+02 2.918975276816622e+03
1.154158155118291e+03 3.532138280504685e+02 2.918975276816622e+03
1.154139868383164e+03 3.522060035800086e+02 2.918975276816622e+03
1.154118136641652e+03 3.504868586561671e+02 2.918975276816622e+03
1.154220351818786e+03 3.452111933568381e+02 2.918975276816622e+03
1.154242331347701e+03 3.430726076731657e+02 2.918975276816622e+03
1.154246010426198e+03 3.419058287127963e+02 2.918975276816622e+03
1.154261919625960e+03 3.397571321803250e+02 2.918975276816622e+03
1.154286916170977e+03 3.325926567251053e+02 2.918975276816622e+03
1.154450114904071e+03 3.325667561599291e+02 2.918975276816622e+03
1.154419009974459e+03 3.278992094989239e+02 2.918975276816622e+03
1.154405969314758e+03 3.266077703628711e+02 2.918975276816622e+03
1.154407272457280e+03 3.216876683187951e+02 2.918975276816622e+03
1.154434680689723e+03 3.192904594638682e+02 2.918975276816622e+03
1.154460439975880e+03 3.163321823328521e+02 2.918975276816622e+03
1.154423168601294e+03 3.137394985258593e+02 2.918975276816622e+03
1.154301640737638e+03 3.112618389458198e+02 2.918975276816622e+03
1.154219409673620e+03 3.084429919286616e+02 2.918975276816622e+03
1.154384980097537e+03 3.017617935018501e+02 2.918975276816622e+03
1.154331745840880e+03 2.997503927389366e+02 2.918975276816622e+03
1.154186672592174e+03 2.948293645896553e+02 2.918975276816622e+03
1.154312314996503e+03 2.937487658305143e+02 2.918975276816622e+03
1.154304433788549e+03 2.880174549020394e+02 2.918975276816622e+03
1.154146375873796e+03 2.877954885194217e+02 2.918975276816622e+03
1.154092614307622e+03 2.817398029589141e+02 2.918975276816622e+03
1.154060113692135e+03 2.798213434971506e+02 2.918975276816622e+03
1.154058392896508e+03 2.769132533411285e+02 2.918975276816622e+03
1.154066445307696e+03 2.748711531102882e+02 2.918975276816622e+03
1.153990941084344e+03 2.709977569421211e+02 2.918975276816622e+03
1.153873841206697e+03 2.683043223356119e+02 2.918975276816622e+03
1.153889378601526e+03 2.644120404835805e+02 2.918975276816622e+03
1.153856058449373e+03 2.638340815231477e+02 2.918975276816622e+03
1.153879062087615e+03 2.606767276430166e+02 2.918975276816622e+03
1.153754278997131e+03 2.579239629914346e+02 2.918975276816622e+03
1.153827725112410e+03 2.562663196508948e+02 2.918975276816622e+03
1.153715492144889e+03 2.546597045606462e+02 2.918975276816622e+03
1.153891019897207e+03 2.531380059095924e+02 2.918975276816622e+03
1.153698096897140e+03 2.524365106457259e+02 2.918975276816622e+03
1.153707058079352e+03 2.505578697356734e+02 2.918975276816622e+03
1.153676934315784e+03 2.488698787202030e+02 2.918975276816622e+03
1.153796493438297e+03 2.483701397932144e+02 2.918975276816622e+03
1.153600380398437e+03 2.465005275813453e+02 2.918975276816622e+03
1.153764970081475e+03 2.456903576928398e+02 2.918975276816622e+03
1.153730474358207e+03 2.432507423336334e+02 2.918975276816622e+03
1.153729460334066e+03 2.418898520815043e+02 2.918975276816622e+03
1.153609191392515e+03 2.400638424139627e+02 2.918975276816622e+03
1.153734979585707e+03 2.382787421124954e+02 2.918975276816622e+03
1.153656898726354e+03 2.359529128452361e+02 2.918975276816622e+03
1.153717565702309e+03 2.331105202414002e+02 2.918975276816622e+03
1.153660599809635e+03 2.328685273174498e+02 2.918975276816622e+03
1.153729318354299e+03 2.299534530914044e+02 2.918975276816622e+03
1.153547114367350e+03 2.286368366106819e+02 2.918975276816622e+03
1.153568546079285e+03 2.266608123087910e+02 2.918975276816622e+03
1.153800974501916e+03 2.254720317876077e+02 2.918975276816622e+03
1.153767585632900e+03 2.244067720284188e+02 2.918975276816622e+03
1.153628040993189e+03 2.212538254818697e+02 2.918975276816622e+03
1.153660974999216e+03 2.181458127854364e+02 2.918975276816622e+03
1.153777937940057e+03 2.106022601642239e+02 2.918975276816622e+03
1.153746762423739e+03 2.095709722781169e+02 2.918975276816622e+03
1.153615847740783e+03 2.036532903294863e+02 2.918975276816622e+03
1.154133009746122e+03 2.009111977438343e+02 2.918975276816622e+03
1.153672340015898e+03 1.956873411208028e+02 2.918975276816622e+03
1.153668924063158e+03 1.924180167947422e+02 2.918975276816622e+03
1.153836081973796e+03 1.923741147691516e+02 2.918975276816622e+03
1.153791547886627e+03 1.899124760988518e+02 2.918975276816622e+03
1.153652129510499e+03 1.875377078449350e+02 2.918975276816622e+03
1.153586995934943e+03 1.841736092717244e+02 2.918975276816622e+03
1.153669367641556e+03 1.819524060064615e+02 2.918975276816622e+03
1.153677193528972e+03 1.760073197621206e+02 2.918975276816622e+03
1.153616590507047e+03 1.679886079526219e+02 2.918975276816622e+03
1.153636728407608e+03 1.662690923983274e+02 2.918975276816622e+03
1.153670014244286e+03 1.590888194641998e+02 2.918975276816622e+03
1.153650240313550e+03 1.576506093786011e+02 2.918975276816622e+03
1.153676823313400e+03 1.531451735482437e+02 2.918975276816622e+03
1.153846439424353e+03 1.531511968791991e+02 2.918975276816622e+03
1.153696525616452e+03 1.497781616197349e+02 2.918975276816622e+03
1.153723671995249e+03 1.484720125403751e+02 2.918975276816622e+03
1.153648775498172e+03 1.450084401661590e+02 2.918975276816622e+03
1.153714389613614e+03 1.416697466360881e+02 2.918975276816622e+03
1.153740421653943e+03 1.393375005221271e+02 2.918975276816622e+03
1.153631602016286e+03 1.388827154301714e+02 2.918975276816622e+03
1.153619853984344e+03 1.363076672280389e+02 2.918975276816622e+03
1.153588682959617e+03 1.302940408459220e+02 2.918975276816622e+03
1.153535424477378e+03 1.280506830668075e+02 2.918975276816622e+03
1.153534453115330e+03 1.268972623049847e+02 2.918975276816622e+03
1.153571831847607e+03 1.258778474935626e+02 2.918975276816622e+03
1.153453977983904e+03 1.246129850700937e+02 2.918975276816622e+03
1.153225702855310e+03 1.211844863123302e+02 2.918975276816622e+03
1.153444244768517e+03 1.199482036547635e+02 2.918975276816622e+03
1.153406325101818e+03 1.187545879909812e+02 2.918975276816622e+03
1.153384468654191e+03 1.162927248313586e+02 2.918975276816622e+03
1.153409766950333e+03 1.131497049395258e+02 2.918975276816622e+03
1.153544290962168e+03 1.113576488687021e+02 2.918975276816622e+03
1.153692703364677e+03 1.101929852871385e+02 2.918975276816622e+03
1.153484942534886e+03 1.070904606103282e+02 2.918975276816622e+03
1.153885433634762e+03 1.057587460131980e+02 2.918975276816622e+03
1.153480838715304e+03 1.044176218034878e+02 2.918975276816622e+03
1.154011637406679e+03 1.013906694241695e+02 2.918975276816622e+03
1.153766789989047e+03 9.942084163874586e+01 2.918975276816622e+03
1.153973330505298e+03 9.360687714392087e+01 2.918975276816622e+03
1.153998548268944e+03 9.137559884762319e+01 2.918975276816622e+03
1.154270601645464e+03 8.764517132181113e+01 2.918975276816622e+03
1.154147854447351e+03 8.586872511863540e+01 2.918975276816622e+03
1.154358288905818e+03 8.271802130634268e+01 2.918975276816622e+03
1.154387341428979e+03 7.989684138695247e+01 2.918975276816622e+03
1.154542539925463e+03 7.828045653458651e+01 2.918975276816622e+03
1.154668327839627e+03 6.764048949215137e+01 2.918975276816622e+03
1.155069401665547e+03 6.600800442976052e+01 2.918975276816622e+03
1.154796833354120e+03 6.254682984006833e+01 2.918975276816622e+03
1.153797455263595e+03 5.920381952650819e+01 2.918975276816622e+03
1.154861467859557e+03 5.520752241659680e+01 2.918975276816622e+03
1.155271280633642e+03 5.438185234605200e+01 2.918975276816622e+03
1.154818978843002e+03 5.152075616882651e+01 2.918975276816622e+03
1.154966475781710e+03 5.011266098002332e+01 2.918975276816622e+03
1.154614667668773e+03 4.780065134523424e+01 2.918975276816622e+03
1.155065156226560e+03 4.755672360567885e+01 2.918975276816622e+03
1.154791651720698e+03 4.456517646178512e+01 2.918975276816622e+03
1.154939983220627e+03 4.271137325144149e+01 2.918975276816622e+03
1.154790193267113e+03 4.195357254919765e+01 2.918975276816622e+03
1.154916134696224e+03 4.067040983581487e+01 2.918975276816622e+03
1.154818407793964e+03 3.905748200706361e+01 2.918975276816622e+03
1.154952335771218e+03 3.555335416273827e+01 2.918975276816622e+03
1.154817318012574e+03 3.414187252910434e+01 2.918975276816622e+03
1.154942974608463e+03 3.207521035812442e+01 2.918975276816622e+03
1.155011954981667e+03 3.020143901937231e+01 2.918975276816622e+03
1.154913434680836e+03 2.832585292762763e+01 2.918975276816622e+03
1.154792766280837e+03 2.545573608617056e+01 2.918975276816622e+03
1.154801988832754e+03 1.597504932516413e+01 2.918975276816622e+03
1.154783870361174e+03 1.443957361343758e+01 2.918975276816622e+03
1.154811227096113e+03 1.347907770176322e+01 2.918975276816622e+03
1.154756960752354e+03 1.160567975369668e+01 2.918975276816622e+03
1.154772990344398e+03 1.024217104157418e+01 2.918975276816622e+03
1.154704477560212e+03 5.444005838585685e+00 2.918975276816622e+03
1.154645095640300e+03 4.349711768065719e+00 2.918975276816622e+03
1.154600809514450e+03 2.475481987637965e+00 2.918975276816622e+03
1.154790945008212e+03 8.952858687550952e-01 2.918975276816622e+03
-1.147962643896381e+03 -3.863858941524650e+02 -2.918975276816622e+03
-1.147962643896381e+03  3.863858941524653e+02 -2.918975276816622e+03
 1.145007984936356e+03 -3.863858941524653e+02  2.918975276816622e+03
1.145007984936356e+03 3.863858941524650e+02 2.918975276816622e+03
-1.156797141213249e+03 -3.863858941524650e+02 -2.918975276816622e+03
-1.156797141213249e+03  3.863858941524653e+02 -2.918975276816622e+03
 1.153793517355580e+03 -3.863858941524653e+02  2.918975276816622e+03
1.153793517355580e+03 3.863858941524650e+02 2.918975276816622e+03
-1.148411289040257e+03  2.064437164782248e-02 -2.918975276816622e+03
-1.148454768205264e+03  3.171392069226352e+00 -2.918975276816622e+03
-1.148454855228566e+03 -1.402830614031694e+00 -2.918975276816622e+03
-1.148549974067676e+03 -2.834798891836651e+00 -2.918975276816622e+03
-1.148513331281567e+03 -4.580542770186895e+00 -2.918975276816622e+03
-1.148394144178584e+03 -5.784665575243793e+00 -2.918975276816622e+03
-1.148368131162930e+03 -7.262440793350666e+00 -2.918975276816622e+03
-1.148397788346992e+03 -9.389031796717683e+00 -2.918975276816622e+03
-1.148420903268136e+03 -1.178533680910162e+01 -2.918975276816622e+03
-1.148393407792111e+03 -1.331565836863987e+01 -2.918975276816622e+03
-1.148290516896209e+03 -1.513050812782297e+01 -2.918975276816622e+03
-1.148262824851103e+03 -1.835539875897947e+01 -2.918975276816622e+03
-1.148304022863800e+03 -2.150038959780508e+01 -2.918975276816622e+03
-1.148307872937368e+03 -2.490903012517701e+01 -2.918975276816622e+03
-1.148247584227786e+03 -2.747830302672556e+01 -2.918975276816622e+03
-1.148169276395646e+03 -2.967063675959020e+01 -2.918975276816622e+03
-1.148130834100664e+03 -3.292847764995440e+01 -2.918975276816622e+03
-1.148146786342992e+03 -3.498317343226186e+01 -2.918975276816622e+03
-1.148168268113117e+03 -3.696223245455901e+01 -2.918975276816622e+03
-1.148138732255689e+03 -3.975740568188647e+01 -2.918975276816622e+03
-1.148107043780219e+03 -4.224118476619785e+01 -2.918975276816622e+03
-1.148158720051030e+03 -4.420562724772537e+01 -2.918975276816622e+03
-1.148110689442482e+03 -4.621273674540766e+01 -2.918975276816622e+03
-1.147879587208296e+03 -4.878184986202851e+01 -2.918975276816622e+03
-1.147836224772326e+03 -5.154190887119715e+01 -2.918975276816622e+03
-1.147980602134571e+03 -5.449291377291355e+01 -2.918975276816622e+03
-1.148059302528455e+03 -5.712516157909080e+01 -2.918975276816622e+03
-1.148235122378895e+03 -5.918505802128946e+01 -2.918975276816622e+03
-1.148168980373511e+03 -6.073507608705881e+01 -2.918975276816622e+03
-1.147781612856570e+03 -6.232392086125024e+01 -2.918975276816622e+03
-1.147812395943842e+03 -6.377892908394865e+01 -2.918975276816622e+03
-1.147948162085460e+03 -6.534318313526744e+01 -2.918975276816622e+03
-1.147881791451469e+03 -6.690009591144457e+01 -2.918975276816622e+03
-1.147832394867518e+03 -6.867341555126184e+01 -2.918975276816622e+03
-1.147877621158184e+03 -7.028764721492351e+01 -2.918975276816622e+03
-1.147861395538238e+03 -7.138150728962785e+01 -2.918975276816622e+03
-1.147827388679991e+03 -7.315708388386174e+01 -2.918975276816622e+03
-1.147805154568279e+03 -7.474971613283857e+01 -2.918975276816622e+03
-1.147786125664409e+03 -7.584441810096267e+01 -2.918975276816622e+03
-1.147768101002989e+03 -7.737286550161775e+01 -2.918975276816622e+03
-1.147759606978396e+03 -7.937658795749648e+01 -2.918975276816622e+03
-1.147757979609661e+03 -8.093303302784989e+01 -2.918975276816622e+03
-1.147761068724074e+03 -8.259493500325809e+01 -2.918975276816622e+03
-1.147747688797218e+03 -8.447958712043879e+01 -2.918975276816622e+03
-1.147722424499972e+03 -8.626954876029512e+01 -2.918975276816622e+03
-1.147707476187813e+03 -8.838580629203823e+01 -2.918975276816622e+03
-1.147689968584588e+03 -8.992927459101882e+01 -2.918975276816622e+03
-1.147680463612225e+03 -9.123495540522416e+01 -2.918975276816622e+03
-1.147663451067247e+03 -9.347225193618806e+01 -2.918975276816622e+03
-1.147671454235222e+03 -9.519908176702256e+01 -2.918975276816622e+03
-1.147673320527352e+03 -9.700120855450992e+01 -2.918975276816622e+03
-1.147674194092470e+03 -9.940277835461359e+01 -2.918975276816622e+03
-1.147659078406431e+03 -1.008729083200096e+02 -2.918975276816622e+03
-1.147636021295947e+03 -1.023196058915110e+02 -2.918975276816622e+03
-1.147627129100841e+03 -1.037492253641052e+02 -2.918975276816622e+03
-1.147638958993328e+03 -1.052389380906579e+02 -2.918975276816622e+03
-1.147620044897025e+03 -1.067523780922170e+02 -2.918975276816622e+03
-1.147550439223427e+03 -1.084914885328124e+02 -2.918975276816622e+03
-1.147547906178289e+03 -1.101320229991818e+02 -2.918975276816622e+03
-1.147699126378966e+03 -1.114059553734440e+02 -2.918975276816622e+03
-1.147697501500626e+03 -1.131798464007326e+02 -2.918975276816622e+03
-1.147577521457399e+03 -1.141542407033507e+02 -2.918975276816622e+03
-1.147558407575816e+03 -1.149722129637857e+02 -2.918975276816622e+03
-1.147596245450188e+03 -1.170334312229456e+02 -2.918975276816622e+03
-1.147609611511048e+03 -1.192202360622475e+02 -2.918975276816622e+03
-1.147590897835988e+03 -1.207296908095866e+02 -2.918975276816622e+03
-1.147576868025874e+03 -1.224753667711470e+02 -2.918975276816622e+03
-1.147588619957118e+03 -1.242319347146293e+02 -2.918975276816622e+03
-1.147592622765260e+03 -1.260173755050756e+02 -2.918975276816622e+03
-1.147596138474490e+03 -1.283401814205056e+02 -2.918975276816622e+03
-1.147595641441163e+03 -1.296326499197399e+02 -2.918975276816622e+03
-1.147613376397800e+03 -1.308602787995739e+02 -2.918975276816622e+03
-1.147625735285736e+03 -1.330176003399386e+02 -2.918975276816622e+03
-1.147616228904972e+03 -1.342276223640544e+02 -2.918975276816622e+03
-1.147616335848996e+03 -1.350676615924154e+02 -2.918975276816622e+03
-1.147635831949282e+03 -1.370745545217728e+02 -2.918975276816622e+03
-1.147655388847683e+03 -1.392300852188638e+02 -2.918975276816622e+03
-1.147663255555696e+03 -1.406765460289345e+02 -2.918975276816622e+03
-1.147677510070223e+03 -1.422253294961757e+02 -2.918975276816622e+03
-1.147687584430135e+03 -1.436681692414994e+02 -2.918975276816622e+03
-1.147700493200103e+03 -1.451515812642022e+02 -2.918975276816622e+03
-1.147711619933566e+03 -1.466433468292447e+02 -2.918975276816622e+03
-1.147728831339753e+03 -1.484100899105402e+02 -2.918975276816622e+03
-1.147741730646551e+03 -1.500176274804805e+02 -2.918975276816622e+03
-1.147748713706849e+03 -1.512023943199988e+02 -2.918975276816622e+03
-1.147760416796471e+03 -1.530317781991570e+02 -2.918975276816622e+03
-1.147762921916651e+03 -1.540430601044783e+02 -2.918975276816622e+03
-1.147769572206335e+03 -1.550081127220687e+02 -2.918975276816622e+03
-1.147821283579015e+03 -1.580628808523458e+02 -2.918975276816622e+03
-1.147845015759267e+03 -1.606968864658411e+02 -2.918975276816622e+03
-1.147805094268743e+03 -1.622066327290596e+02 -2.918975276816622e+03
-1.147821085599861e+03 -1.639573189472396e+02 -2.918975276816622e+03
-1.147863189701479e+03 -1.659921727459521e+02 -2.918975276816622e+03
-1.147882701746131e+03 -1.685242460729816e+02 -2.918975276816622e+03
-1.147902213790783e+03 -1.710563194000111e+02 -2.918975276816622e+03
-1.147916212969277e+03 -1.739933645925324e+02 -2.918975276816622e+03
-1.147924554003414e+03 -1.769903705749241e+02 -2.918975276816622e+03
-1.147934668883655e+03 -1.792665580696562e+02 -2.918975276816622e+03
-1.147947501093090e+03 -1.807456017713038e+02 -2.918975276816622e+03
-1.147955658481673e+03 -1.822089527762412e+02 -2.918975276816622e+03
-1.147957748218138e+03 -1.839251917891594e+02 -2.918975276816622e+03
-1.147963056117308e+03 -1.859008580298044e+02 -2.918975276816622e+03
-1.147972176805562e+03 -1.882887071745317e+02 -2.918975276816622e+03
-1.147970629064157e+03 -1.897653957456397e+02 -2.918975276816622e+03
-1.147977060803301e+03 -1.909947867540134e+02 -2.918975276816622e+03
-1.147984109454384e+03 -1.929173167487268e+02 -2.918975276816622e+03
-1.147979499161324e+03 -1.940893179946901e+02 -2.918975276816622e+03
-1.147953303106533e+03 -1.951658033648117e+02 -2.918975276816622e+03
-1.147946271947899e+03 -1.980579476251676e+02 -2.918975276816622e+03
-1.147950156442331e+03 -2.005812239712539e+02 -2.918975276816622e+03
-1.147938817453166e+03 -2.020881966301203e+02 -2.918975276816622e+03
-1.147956651798431e+03 -2.035661404321546e+02 -2.918975276816622e+03
-1.147966356438178e+03 -2.050422870132534e+02 -2.918975276816622e+03
-1.147864833909150e+03 -2.065579206641020e+02 -2.918975276816622e+03
-1.147828989006912e+03 -2.083595057932742e+02 -2.918975276816622e+03
-1.147936936643905e+03 -2.100327105407550e+02 -2.918975276816622e+03
-1.147935481028174e+03 -2.114095304240716e+02 -2.918975276816622e+03
-1.147785465108891e+03 -2.139934324952599e+02 -2.918975276816622e+03
-1.147728127855699e+03 -2.169166533854016e+02 -2.918975276816622e+03
-1.147760929291620e+03 -2.191565276775457e+02 -2.918975276816622e+03
-1.147693671622321e+03 -2.206384604629991e+02 -2.918975276816622e+03
-1.147562429743352e+03 -2.221764683501558e+02 -2.918975276816622e+03
-1.147569302572551e+03 -2.238932945636459e+02 -2.918975276816622e+03
-1.147608960433309e+03 -2.258404641051937e+02 -2.918975276816622e+03
-1.147520873693469e+03 -2.282479661968616e+02 -2.918975276816622e+03
-1.147457317252261e+03 -2.298173943431193e+02 -2.918975276816622e+03
-1.147394217313887e+03 -2.310879037944470e+02 -2.918975276816622e+03
-1.147293424693766e+03 -2.328969822998382e+02 -2.918975276816622e+03
-1.147257255624713e+03 -2.338518425033627e+02 -2.918975276816622e+03
-1.147371483916483e+03 -2.347239280818146e+02 -2.918975276816622e+03
-1.147457622115460e+03 -2.368395129031086e+02 -2.918975276816622e+03
-1.147429916908426e+03 -2.391070055766135e+02 -2.918975276816622e+03
-1.147482635877906e+03 -2.406307912442511e+02 -2.918975276816622e+03
-1.147710230314194e+03 -2.421700958334134e+02 -2.918975276816622e+03
-1.147761569393552e+03 -2.438189811935716e+02 -2.918975276816622e+03
-1.147743189518259e+03 -2.457494400135654e+02 -2.918975276816622e+03
-1.147833764930817e+03 -2.470388169136025e+02 -2.918975276816622e+03
-1.147821351985304e+03 -2.484175582628847e+02 -2.918975276816622e+03
-1.147793732774907e+03 -2.503166672685775e+02 -2.918975276816622e+03
-1.147776204669770e+03 -2.512723496924399e+02 -2.918975276816622e+03
-1.147766912623326e+03 -2.527708082383569e+02 -2.918975276816622e+03
-1.147774404095346e+03 -2.545418864110699e+02 -2.918975276816622e+03
-1.147773695228437e+03 -2.563527515021424e+02 -2.918975276816622e+03
-1.147763010214180e+03 -2.575974457575447e+02 -2.918975276816622e+03
-1.147761157311367e+03 -2.589368830401945e+02 -2.918975276816622e+03
-1.147764757518824e+03 -2.605480788599834e+02 -2.918975276816622e+03
-1.147772726199942e+03 -2.621730227281953e+02 -2.918975276816622e+03
-1.147779738672567e+03 -2.647698911427542e+02 -2.918975276816622e+03
-1.147786623924003e+03 -2.673745742909341e+02 -2.918975276816622e+03
-1.147794570958844e+03 -2.698508575772690e+02 -2.918975276816622e+03
-1.147807034603729e+03 -2.724812090997847e+02 -2.918975276816622e+03
-1.147811268007926e+03 -2.747180714763097e+02 -2.918975276816622e+03
-1.147820225362918e+03 -2.764701332573187e+02 -2.918975276816622e+03
-1.147875264288955e+03 -2.788298043150184e+02 -2.918975276816622e+03
-1.147891530480216e+03 -2.823130557339869e+02 -2.918975276816622e+03
-1.147799020267878e+03 -2.851024526745161e+02 -2.918975276816622e+03
-1.147839841481637e+03 -2.868132654357490e+02 -2.918975276816622e+03
-1.147931423032645e+03 -2.889838799591598e+02 -2.918975276816622e+03
-1.147899040595498e+03 -2.914202980743723e+02 -2.918975276816622e+03
-1.147866658158351e+03 -2.938567161895849e+02 -2.918975276816622e+03
-1.147836966390031e+03 -2.968457634298239e+02 -2.918975276816622e+03
-1.147836884600624e+03 -2.994639347992632e+02 -2.918975276816622e+03
-1.147844599371950e+03 -3.019795157921396e+02 -2.918975276816622e+03
-1.147800395296120e+03 -3.039603806330666e+02 -2.918975276816622e+03
-1.147773688267129e+03 -3.058288047775690e+02 -2.918975276816622e+03
-1.147793631043477e+03 -3.090275933680507e+02 -2.918975276816622e+03
-1.147766865769175e+03 -3.123099742290559e+02 -2.918975276816622e+03
-1.147687563115590e+03 -3.160280610848690e+02 -2.918975276816622e+03
-1.147630669174812e+03 -3.193679903800177e+02 -2.918975276816622e+03
-1.147605656614774e+03 -3.218904740190268e+02 -2.918975276816622e+03
-1.147521091311014e+03 -3.248902111421272e+02 -2.918975276816622e+03
-1.147437591894395e+03 -3.266337384625478e+02 -2.918975276816622e+03
-1.147544520461713e+03 -3.285461699318651e+02 -2.918975276816622e+03
-1.147758985961649e+03 -3.321991394505641e+02 -2.918975276816622e+03
-1.147702140558061e+03 -3.343497678843256e+02 -2.918975276816622e+03
-1.147547166204849e+03 -3.367276372579854e+02 -2.918975276816622e+03
-1.147624556629794e+03 -3.398326524555931e+02 -2.918975276816622e+03
-1.147783402299450e+03 -3.420970608385985e+02 -2.918975276816622e+03
-1.147855723444666e+03 -3.452504060449355e+02 -2.918975276816622e+03
-1.147746708122267e+03 -3.476156860625629e+02 -2.918975276816622e+03
-1.147652079578683e+03 -3.491868651906220e+02 -2.918975276816622e+03
-1.147666649757091e+03 -3.516409454411543e+02 -2.918975276816622e+03
-1.147805307641336e+03 -3.536290778541463e+02 -2.918975276816622e+03
-1.147885334410532e+03 -3.563858191087174e+02 -2.918975276816622e+03
-1.147732803095090e+03 -3.602593035509119e+02 -2.918975276816622e+03
-1.147679433212306e+03 -3.633925229783171e+02 -2.918975276816622e+03
-1.147775064025928e+03 -3.659032908824282e+02 -2.918975276816622e+03
-1.147870694839550e+03 -3.684140587865395e+02 -2.918975276816622e+03
-1.147961374358062e+03 -3.707257163905550e+02 -2.918975276816622e+03
-1.147973854843911e+03 -3.729411013085538e+02 -2.918975276816622e+03
-1.147934033704267e+03 -3.742477944248183e+02 -2.918975276816622e+03
-1.147893855991430e+03 -3.753865155748822e+02 -2.918975276816622e+03
-1.147898497164953e+03 -3.769598672878521e+02 -2.918975276816622e+03
-1.147951096736202e+03 -3.785944221755556e+02 -2.918975276816622e+03
-1.147964621293888e+03 -3.798133912061123e+02 -2.918975276816622e+03
-1.147962056368750e+03 -3.811529990207823e+02 -2.918975276816622e+03
-1.147962925937552e+03 -3.841931637085539e+02 -2.918975276816622e+03
-1.147962655343440e+03 -3.862231206450528e+02 -2.918975276816622e+03
-1.147958023474185e+03  3.820810825087819e+02 -2.918975276816622e+03
-1.147949221081245e+03  3.797060980399449e+02 -2.918975276816622e+03
-1.147962534283518e+03  3.848272344478328e+02 -2.918975276816622e+03
-1.147955462506914e+03  3.777976006769310e+02 -2.918975276816622e+03
-1.147979702662398e+03  3.767194573854080e+02 -2.918975276816622e+03
-1.147976860428345e+03  3.750555131191683e+02 -2.918975276816622e+03
-1.147956187376524e+03  3.724414152522524e+02 -2.918975276816622e+03
-1.147947720807678e+03  3.698268317250455e+02 -2.918975276816622e+03
-1.147935802874993e+03  3.671348039148444e+02 -2.918975276816622e+03
-1.147920433578466e+03  3.643653318216483e+02 -2.918975276816622e+03
-1.147905064281939e+03  3.615958597284522e+02 -2.918975276816622e+03
-1.147910010850569e+03  3.596537416913198e+02 -2.918975276816622e+03
-1.147936107232532e+03  3.569713490693893e+02 -2.918975276816622e+03
-1.147904212066135e+03  3.538035057311088e+02 -2.918975276816622e+03
-1.147897480064259e+03  3.518805161690046e+02 -2.918975276816622e+03
-1.147921346935843e+03  3.497694263187084e+02 -2.918975276816622e+03
-1.147880392064320e+03  3.472248492819803e+02 -2.918975276816622e+03
-1.147855049443894e+03  3.451317007279450e+02 -2.918975276816622e+03
-1.147891880435531e+03  3.428713624582847e+02 -2.918975276816622e+03
-1.147883652270235e+03  3.409160636416649e+02 -2.918975276816622e+03
-1.147834262560401e+03  3.393974660889473e+02 -2.918975276816622e+03
-1.147817080234071e+03  3.369089959022070e+02 -2.918975276816622e+03
-1.147793078273392e+03  3.340203205154764e+02 -2.918975276816622e+03
-1.147769076312713e+03  3.311316451287456e+02 -2.918975276816622e+03
-1.147742193373456e+03  3.286895149882033e+02 -2.918975276816622e+03
-1.147719584383636e+03  3.268693471702081e+02 -2.918975276816622e+03
-1.147675680912269e+03  3.247552636999090e+02 -2.918975276816622e+03
-1.147642047193518e+03  3.234423951481497e+02 -2.918975276816622e+03
-1.147684995397586e+03  3.221639903773403e+02 -2.918975276816622e+03
-1.147708268044360e+03  3.204830096963061e+02 -2.918975276816622e+03
-1.147735582082569e+03  3.186353618641127e+02 -2.918975276816622e+03
-1.147806420859068e+03  3.152333099443917e+02 -2.918975276816622e+03
-1.147822452784543e+03  3.115449024191644e+02 -2.918975276816622e+03
-1.147826640728485e+03  3.085803623074744e+02 -2.918975276816622e+03
-1.147839987531356e+03  3.063356261907144e+02 -2.918975276816622e+03
-1.147846375567355e+03  3.043498592864873e+02 -2.918975276816622e+03
-1.147847031794101e+03  3.022838781975215e+02 -2.918975276816622e+03
-1.147845591829686e+03  2.999595983407400e+02 -2.918975276816622e+03
-1.147856577755976e+03  2.974523931571875e+02 -2.918975276816622e+03
-1.147867563682265e+03  2.949451879736347e+02 -2.918975276816622e+03
-1.147878405618035e+03  2.925322368131163e+02 -2.918975276816622e+03
-1.147889103563285e+03  2.902135396756316e+02 -2.918975276816622e+03
-1.147883983935713e+03  2.888074012738257e+02 -2.918975276816622e+03
-1.147883297011963e+03  2.874008749395215e+02 -2.918975276816622e+03
-1.147891173325165e+03  2.847112391280373e+02 -2.918975276816622e+03
-1.147895509816625e+03  2.826107945589015e+02 -2.918975276816622e+03
-1.147895406746137e+03  2.810691281493156e+02 -2.918975276816622e+03
-1.147897401870788e+03  2.790544628177690e+02 -2.918975276816622e+03
-1.147897341484310e+03  2.770916311571140e+02 -2.918975276816622e+03
-1.147894465828570e+03  2.759247933954442e+02 -2.918975276816622e+03
-1.147890499044012e+03  2.749421710685521e+02 -2.918975276816622e+03
-1.147889615042783e+03  2.729798612239719e+02 -2.918975276816622e+03
-1.147906474993409e+03  2.713722876527401e+02 -2.918975276816622e+03
-1.147908478809755e+03  2.700672846830732e+02 -2.918975276816622e+03
-1.147889572541139e+03  2.679236606655815e+02 -2.918975276816622e+03
-1.147882378766202e+03  2.661112106022926e+02 -2.918975276816622e+03
-1.147881630238376e+03  2.643040169978228e+02 -2.918975276816622e+03
-1.147879114867613e+03  2.621061904862665e+02 -2.918975276816622e+03
-1.147874705644040e+03  2.605386132981886e+02 -2.918975276816622e+03
-1.147867522227901e+03  2.589013948363668e+02 -2.918975276816622e+03
-1.147865539154096e+03  2.572211285708976e+02 -2.918975276816622e+03
-1.147856779054380e+03  2.552956160189533e+02 -2.918975276816622e+03
-1.147845070778169e+03  2.526975885967655e+02 -2.918975276816622e+03
-1.147845790229577e+03  2.508460887486721e+02 -2.918975276816622e+03
-1.147836932910659e+03  2.498738218869578e+02 -2.918975276816622e+03
-1.147792468378922e+03  2.482818140320477e+02 -2.918975276816622e+03
-1.147782992545114e+03  2.464344903269889e+02 -2.918975276816622e+03
-1.147755436058554e+03  2.446297863397695e+02 -2.918975276816622e+03
-1.147746274506128e+03  2.433702148171575e+02 -2.918975276816622e+03
-1.147715664342034e+03  2.419500144330760e+02 -2.918975276816622e+03
-1.147743793536855e+03  2.403546670887325e+02 -2.918975276816622e+03
-1.147760003148072e+03  2.392635511014294e+02 -2.918975276816622e+03
-1.147597572615020e+03  2.372867835097177e+02 -2.918975276816622e+03
-1.147646102574261e+03  2.356541249237011e+02 -2.918975276816622e+03
-1.148134739625277e+03  2.345169934594570e+02 -2.918975276816622e+03
-1.148807751046697e+03  2.326111418651952e+02 -2.918975276816622e+03
-1.148449398692557e+03  2.305915284976088e+02 -2.918975276816622e+03
-1.147812285409265e+03  2.288273396504067e+02 -2.918975276816622e+03
-1.148238085977061e+03  2.277838227445051e+02 -2.918975276816622e+03
-1.148350196131817e+03  2.260954002432302e+02 -2.918975276816622e+03
-1.147945210033308e+03  2.238265696784500e+02 -2.918975276816622e+03
-1.147674769311199e+03  2.216051902890256e+02 -2.918975276816622e+03
-1.147499731462835e+03  2.185721786543813e+02 -2.918975276816622e+03
-1.147339475585417e+03  2.167940529130216e+02 -2.918975276816622e+03
-1.147238113205392e+03  2.154646998397932e+02 -2.918975276816622e+03
-1.147383259879747e+03  2.141157594844029e+02 -2.918975276816622e+03
-1.147339430816349e+03  2.128980599749656e+02 -2.918975276816622e+03
-1.147130326157283e+03  2.110238442502185e+02 -2.918975276816622e+03
-1.147131838411525e+03  2.096828291344521e+02 -2.918975276816622e+03
-1.147303287606306e+03  2.082465852891448e+02 -2.918975276816622e+03
-1.147299537408340e+03  2.058940239531745e+02 -2.918975276816622e+03
-1.147162740994246e+03  2.031091777566381e+02 -2.918975276816622e+03
-1.147142446153535e+03  2.001064234865671e+02 -2.918975276816622e+03
-1.147122597935491e+03  1.974656141705452e+02 -2.918975276816622e+03
-1.147117449213752e+03  1.942649369289052e+02 -2.918975276816622e+03
-1.147109719861380e+03  1.912264533106560e+02 -2.918975276816622e+03
-1.147101037867754e+03  1.896955642745499e+02 -2.918975276816622e+03
-1.147091074607599e+03  1.881863230733540e+02 -2.918975276816622e+03
-1.147084864104637e+03  1.867473703122291e+02 -2.918975276816622e+03
-1.147087718261028e+03  1.853547824271556e+02 -2.918975276816622e+03
-1.147086771405516e+03  1.838990836075696e+02 -2.918975276816622e+03
-1.147105472098745e+03  1.819201858953039e+02 -2.918975276816622e+03
-1.147106973340004e+03  1.796862378017108e+02 -2.918975276816622e+03
-1.147075749777551e+03  1.785900417611039e+02 -2.918975276816622e+03
-1.147080290040350e+03  1.771442291842535e+02 -2.918975276816622e+03
-1.147136036052355e+03  1.747668856544248e+02 -2.918975276816622e+03
-1.147141033298588e+03  1.726896333567981e+02 -2.918975276816622e+03
-1.147091378684449e+03  1.710200723112847e+02 -2.918975276816622e+03
-1.147105524493067e+03  1.695809731124449e+02 -2.918975276816622e+03
-1.147191298042277e+03  1.681937297647099e+02 -2.918975276816622e+03
-1.147186394380248e+03  1.668409106447080e+02 -2.918975276816622e+03
-1.147129940466743e+03  1.651152658229483e+02 -2.918975276816622e+03
-1.147169914356044e+03  1.637386218977498e+02 -2.918975276816622e+03
-1.147188303390056e+03  1.622535536753447e+02 -2.918975276816622e+03
-1.147158665088102e+03  1.606491079399004e+02 -2.918975276816622e+03
-1.147158683146369e+03  1.592717666902432e+02 -2.918975276816622e+03
-1.147193705022850e+03  1.569964304448831e+02 -2.918975276816622e+03
-1.147249493590981e+03  1.544873620526930e+02 -2.918975276816622e+03
-1.147225648001645e+03  1.524029800415766e+02 -2.918975276816622e+03
-1.147075356421346e+03  1.507852635066342e+02 -2.918975276816622e+03
-1.147083992870890e+03  1.496017395840083e+02 -2.918975276816622e+03
-1.147200999234638e+03  1.483434212104881e+02 -2.918975276816622e+03
-1.147192381383957e+03  1.469076121254250e+02 -2.918975276816622e+03
-1.147173364399559e+03  1.453627375815135e+02 -2.918975276816622e+03
-1.147180049341968e+03  1.438716799168806e+02 -2.918975276816622e+03
-1.147193402172748e+03  1.421856668415540e+02 -2.918975276816622e+03
-1.147201277253590e+03  1.409108663679933e+02 -2.918975276816622e+03
-1.147203362256536e+03  1.397061117580303e+02 -2.918975276816622e+03
-1.147206729372188e+03  1.378455450286714e+02 -2.918975276816622e+03
-1.147223937426231e+03  1.368280362336390e+02 -2.918975276816622e+03
-1.147293033652723e+03  1.353134122460721e+02 -2.918975276816622e+03
-1.147325813909679e+03  1.335441423176154e+02 -2.918975276816622e+03
-1.147307728014604e+03  1.317425532387532e+02 -2.918975276816622e+03
-1.147312522721848e+03  1.298053662446011e+02 -2.918975276816622e+03
-1.147283825537514e+03  1.282615354162906e+02 -2.918975276816622e+03
-1.147323017355364e+03  1.265260533886936e+02 -2.918975276816622e+03
-1.147404005657161e+03  1.245523236158643e+02 -2.918975276816622e+03
-1.147428799345921e+03  1.222758146660042e+02 -2.918975276816622e+03
-1.147412224043579e+03  1.206405337410534e+02 -2.918975276816622e+03
-1.147439254036605e+03  1.189835806936504e+02 -2.918975276816622e+03
-1.147521208787635e+03  1.163445584594949e+02 -2.918975276816622e+03
-1.147553950958833e+03  1.138260118217230e+02 -2.918975276816622e+03
-1.147443257664856e+03  1.123052988159820e+02 -2.918975276816622e+03
-1.147466827660628e+03  1.110962259261094e+02 -2.918975276816622e+03
-1.147562329262417e+03  1.098882386500342e+02 -2.918975276816622e+03
-1.147584903443989e+03  1.082113469016049e+02 -2.918975276816622e+03
-1.147590154875256e+03  1.065349065597557e+02 -2.918975276816622e+03
-1.147602820955539e+03  1.054210549134957e+02 -2.918975276816622e+03
-1.147617472656508e+03  1.041113719053135e+02 -2.918975276816622e+03
-1.147629767226030e+03  1.022550494653865e+02 -2.918975276816622e+03
-1.147643210850475e+03  1.005526029177972e+02 -2.918975276816622e+03
-1.147650723038891e+03  9.934336011537314e+01 -2.918975276816622e+03
-1.147676911872697e+03  9.787005227591685e+01 -2.918975276816622e+03
-1.147681288103646e+03  9.613706416866374e+01 -2.918975276816622e+03
-1.147694435902615e+03  9.334551716858577e+01 -2.918975276816622e+03
-1.147706602270750e+03  9.016351503383264e+01 -2.918975276816622e+03
-1.147756203788374e+03  8.723973168092395e+01 -2.918975276816622e+03
-1.147780136562392e+03  8.399436726852777e+01 -2.918975276816622e+03
-1.147753129556583e+03  8.160072216084077e+01 -2.918975276816622e+03
-1.147595250328324e+03  7.990798679298281e+01 -2.918975276816622e+03
-1.147649096735030e+03  7.756304787241973e+01 -2.918975276816622e+03
-1.147930550658773e+03  7.500125727058038e+01 -2.918975276816622e+03
-1.147926126390053e+03  7.275633080776102e+01 -2.918975276816622e+03
-1.147774985097455e+03  7.114350749579076e+01 -2.918975276816622e+03
-1.147790599487496e+03  6.938689474984298e+01 -2.918975276816622e+03
-1.147867250704427e+03  6.788804168930020e+01 -2.918975276816622e+03
-1.147881322145653e+03  6.661030022225502e+01 -2.918975276816622e+03
-1.147879548559853e+03  6.379926376627215e+01 -2.918975276816622e+03
-1.147903943440033e+03  6.026585534424629e+01 -2.918975276816622e+03
-1.147924735591857e+03  5.683634430932469e+01 -2.918975276816622e+03
-1.148030448225517e+03  5.413580912359635e+01 -2.918975276816622e+03
-1.148062256965832e+03  5.233939631876112e+01 -2.918975276816622e+03
-1.147826754690717e+03  5.061589438692181e+01 -2.918975276816622e+03
-1.147858990603178e+03  4.856239074618125e+01 -2.918975276816622e+03
-1.148255765420075e+03  4.596833977585446e+01 -2.918975276816622e+03
-1.148330523818276e+03  4.295242055935414e+01 -2.918975276816622e+03
-1.148020976155972e+03  4.052717208125500e+01 -2.918975276816622e+03
-1.148038017376566e+03  3.900092170140472e+01 -2.918975276816622e+03
-1.148256586996201e+03  3.689229701957926e+01 -2.918975276816622e+03
-1.148305624284546e+03  3.357514610521738e+01 -2.918975276816622e+03
-1.148347643289509e+03  3.039668365611804e+01 -2.918975276816622e+03
-1.148371429164312e+03  2.763502315585177e+01 -2.918975276816622e+03
-1.148413503910100e+03  2.472456460165782e+01 -2.918975276816622e+03
-1.148428334923606e+03  2.308664206205671e+01 -2.918975276816622e+03
-1.148438081224340e+03  2.204195847236500e+01 -2.918975276816622e+03
-1.148456502896815e+03  2.066596499895232e+01 -2.918975276816622e+03
-1.148469329419727e+03  1.903181377260539e+01 -2.918975276816622e+03
-1.148487565280670e+03  1.696757063192815e+01 -2.918975276816622e+03
-1.148479226208035e+03  1.495253515300894e+01 -2.918975276816622e+03
-1.148464951699192e+03  1.232327225169997e+01 -2.918975276816622e+03
-1.148468837527542e+03  9.206627285809601e+00 -2.918975276816622e+03
-1.148475614016918e+03  6.917949856532377e+00 -2.918975276816622e+03
-1.148482786944659e+03  5.713635087452750e+00 -2.918975276816622e+03
 1.145882810966001e+03 -3.882103539171248e-01  2.918975276816622e+03
1.145824645445558e+03 1.481735130164734e+00 2.918975276816622e+03
 1.145817613605805e+03 -2.217342607878231e+00  2.918975276816622e+03
 1.145687169205411e+03 -3.989894886039565e+00  2.918975276816622e+03
 1.145636803236572e+03 -5.544491360354074e+00  2.918975276816622e+03
 1.145606810533677e+03 -7.727941275988971e+00  2.918975276816622e+03
 1.145591943117472e+03 -9.319716028486519e+00  2.918975276816622e+03
 1.145577362960747e+03 -1.079506328430213e+01  2.918975276816622e+03
 1.145546471017077e+03 -1.260023539032954e+01  2.918975276816622e+03
 1.145491890959634e+03 -1.522406518839843e+01  2.918975276816622e+03
 1.145427905949485e+03 -1.814888990583195e+01  2.918975276816622e+03
 1.145376730340665e+03 -2.041062903434505e+01  2.918975276816622e+03
 1.145339349523771e+03 -2.269858236057275e+01  2.918975276816622e+03
 1.145301865971041e+03 -2.500797822348834e+01  2.918975276816622e+03
 1.145259671237288e+03 -2.698400488413825e+01  2.918975276816622e+03
 1.145219020444667e+03 -2.879961972273604e+01  2.918975276816622e+03
 1.145197248496663e+03 -2.998967007086542e+01  2.918975276816622e+03
 1.145202821640214e+03 -3.105215047680969e+01  2.918975276816622e+03
 1.145178020102079e+03 -3.262135462383527e+01  2.918975276816622e+03
 1.145127254243730e+03 -3.449381492203236e+01  2.918975276816622e+03
 1.145081722588184e+03 -3.682898789778980e+01  2.918975276816622e+03
 1.145073262356926e+03 -3.868251281490181e+01  2.918975276816622e+03
 1.145093484179622e+03 -4.071906793658912e+01  2.918975276816622e+03
 1.145113774042687e+03 -4.339368926647381e+01  2.918975276816622e+03
 1.145073306201575e+03 -4.513890370095807e+01  2.918975276816622e+03
 1.145026522131468e+03 -4.662256345554790e+01  2.918975276816622e+03
 1.145011329367774e+03 -4.915971495700725e+01  2.918975276816622e+03
 1.144999232314555e+03 -5.248649903473548e+01  2.918975276816622e+03
 1.144964327017150e+03 -5.533898071410700e+01  2.918975276816622e+03
 1.144949440968840e+03 -5.749489358980433e+01  2.918975276816622e+03
 1.144938042927967e+03 -5.951363929116474e+01  2.918975276816622e+03
 1.144918487744163e+03 -6.137861166461605e+01  2.918975276816622e+03
 1.144900979799257e+03 -6.304600937746211e+01  2.918975276816622e+03
 1.144912717842777e+03 -6.413098596563404e+01  2.918975276816622e+03
 1.144984469507377e+03 -6.494306139886342e+01  2.918975276816622e+03
 1.144955404275905e+03 -6.614289812065387e+01  2.918975276816622e+03
 1.144826491107914e+03 -6.778464624897242e+01  2.918975276816622e+03
 1.144862166283015e+03 -6.945378396676820e+01  2.918975276816622e+03
 1.144960964610200e+03 -7.147027383004597e+01  2.918975276816622e+03
 1.144926495944619e+03 -7.383431324542940e+01  2.918975276816622e+03
 1.144905065494722e+03 -7.687021367407873e+01  2.918975276816622e+03
 1.144898790865769e+03 -7.971418171732044e+01  2.918975276816622e+03
 1.144914019785756e+03 -8.150118903898051e+01  2.918975276816622e+03
 1.144916236113298e+03 -8.313664602466795e+01  2.918975276816622e+03
 1.144902046804257e+03 -8.449127887977181e+01  2.918975276816622e+03
 1.144925701215329e+03 -8.504855238059713e+01  2.918975276816622e+03
 1.144950277628213e+03 -8.563009776678571e+01  2.918975276816622e+03
 1.144934121659500e+03 -8.671620257095046e+01  2.918975276816622e+03
 1.144921991801300e+03 -8.808829473384101e+01  2.918975276816622e+03
 1.144927773365272e+03 -8.956164385122268e+01  2.918975276816622e+03
 1.144924724527820e+03 -9.133815159224535e+01  2.918975276816622e+03
 1.144918763540122e+03 -9.359717906529043e+01  2.918975276816622e+03
 1.144916232130709e+03 -9.636628558784069e+01  2.918975276816622e+03
 1.144923139369225e+03 -9.869523623237644e+01  2.918975276816622e+03
 1.144926402559676e+03 -1.005601395826697e+02  2.918975276816622e+03
 1.144928444083311e+03 -1.022644521160699e+02  2.918975276816622e+03
 1.144923062791549e+03 -1.034626879891079e+02  2.918975276816622e+03
 1.144927258722320e+03 -1.041923680249831e+02  2.918975276816622e+03
 1.144932562139554e+03 -1.048933485931699e+02  2.918975276816622e+03
 1.144916243891902e+03 -1.059401544432061e+02  2.918975276816622e+03
 1.144877478766016e+03 -1.069346689579016e+02  2.918975276816622e+03
 1.144846101543452e+03 -1.087896502416555e+02  2.918975276816622e+03
 1.144869092479819e+03 -1.101280232207012e+02  2.918975276816622e+03
 1.144877805399627e+03 -1.112974990554325e+02  2.918975276816622e+03
 1.144850409262971e+03 -1.134927112775239e+02  2.918975276816622e+03
 1.144831617895072e+03 -1.158052022400584e+02  2.918975276816622e+03
 1.144821431295930e+03 -1.182349719430358e+02  2.918975276816622e+03
 1.144816131323357e+03 -1.206192461859561e+02  2.918975276816622e+03
 1.144809108579954e+03 -1.229576424513292e+02  2.918975276816622e+03
 1.144795476439152e+03 -1.252956561992123e+02  2.918975276816622e+03
 1.144799753229686e+03 -1.276016944018849e+02  2.918975276816622e+03
 1.144800520679529e+03 -1.294701107816545e+02  2.918975276816622e+03
 1.144785620500350e+03 -1.313432431928882e+02  2.918975276816622e+03
 1.144776470964173e+03 -1.336267379132785e+02  2.918975276816622e+03
 1.144778029217398e+03 -1.363717322703256e+02  2.918975276816622e+03
 1.144791028146654e+03 -1.386320549986416e+02  2.918975276816622e+03
 1.144798988603048e+03 -1.411469931738778e+02  2.918975276816622e+03
 1.144796709137313e+03 -1.439023577880143e+02  2.918975276816622e+03
 1.144795563393808e+03 -1.458119033059293e+02  2.918975276816622e+03
 1.144801186285742e+03 -1.478156522243306e+02  2.918975276816622e+03
 1.144805833602212e+03 -1.495318228989215e+02  2.918975276816622e+03
 1.144800945894919e+03 -1.514398035239526e+02  2.918975276816622e+03
 1.144788665089898e+03 -1.538068345665345e+02  2.918975276816622e+03
 1.144795596399362e+03 -1.568091738579124e+02  2.918975276816622e+03
 1.144843000987633e+03 -1.595469740758494e+02  2.918975276816622e+03
 1.144858817633322e+03 -1.613140559472642e+02  2.918975276816622e+03
 1.144809162936660e+03 -1.630497318655671e+02  2.918975276816622e+03
 1.144793854218998e+03 -1.645418045078455e+02  2.918975276816622e+03
 1.144832622056770e+03 -1.653674521831006e+02  2.918975276816622e+03
 1.144859528761333e+03 -1.663816529921694e+02  2.918975276816622e+03
 1.144845815207843e+03 -1.679193860805124e+02  2.918975276816622e+03
 1.144825672666563e+03 -1.694119910757548e+02  2.918975276816622e+03
 1.144827208396094e+03 -1.713816344010128e+02  2.918975276816622e+03
 1.144835200600366e+03 -1.738250666750222e+02  2.918975276816622e+03
 1.144841064093188e+03 -1.767885346459627e+02  2.918975276816622e+03
 1.144840062157151e+03 -1.793974175148291e+02  2.918975276816622e+03
 1.144838260492327e+03 -1.809115757022579e+02  2.918975276816622e+03
 1.144839186455147e+03 -1.836262483258866e+02  2.918975276816622e+03
 1.144839730545604e+03 -1.865287570416775e+02  2.918975276816622e+03
 1.144847232984255e+03 -1.881581963741859e+02  2.918975276816622e+03
 1.144850393549607e+03 -1.896006301282912e+02  2.918975276816622e+03
 1.144840552703269e+03 -1.914219839279251e+02  2.918975276816622e+03
 1.144828183178119e+03 -1.937689761946780e+02  2.918975276816622e+03
 1.144838628354941e+03 -1.968584402886057e+02  2.918975276816622e+03
 1.144864304822001e+03 -2.008406926032170e+02  2.918975276816622e+03
 1.144870088838738e+03 -2.048506161232237e+02  2.918975276816622e+03
 1.144850928284484e+03 -2.075960832053729e+02  2.918975276816622e+03
 1.144829976243777e+03 -2.092496337767207e+02  2.918975276816622e+03
 1.144834839474674e+03 -2.112771163675348e+02  2.918975276816622e+03
 1.144854673931221e+03 -2.136286362388721e+02  2.918975276816622e+03
 1.144865085810436e+03 -2.158785524966542e+02  2.918975276816622e+03
 1.144864485425539e+03 -2.178061243283852e+02  2.918975276816622e+03
 1.144868641368555e+03 -2.199305346840711e+02  2.918975276816622e+03
 1.144879143326264e+03 -2.224725243762076e+02  2.918975276816622e+03
 1.144887001534342e+03 -2.244387484805915e+02  2.918975276816622e+03
 1.144891456668360e+03 -2.269931589017989e+02  2.918975276816622e+03
 1.144891268104215e+03 -2.295192789535148e+02  2.918975276816622e+03
 1.144900435218265e+03 -2.315355793464958e+02  2.918975276816622e+03
 1.144907648479853e+03 -2.335307198008072e+02  2.918975276816622e+03
 1.144919411838952e+03 -2.354927114780732e+02  2.918975276816622e+03
 1.144930707998550e+03 -2.378626464276441e+02  2.918975276816622e+03
 1.144942208260587e+03 -2.401671713638929e+02  2.918975276816622e+03
 1.144959643940981e+03 -2.431874625907597e+02  2.918975276816622e+03
 1.144977133388154e+03 -2.464819157253992e+02  2.918975276816622e+03
 1.144994585135401e+03 -2.484671410758204e+02  2.918975276816622e+03
 1.144993093646018e+03 -2.501066322374249e+02  2.918975276816622e+03
 1.144987230272194e+03 -2.524650931029155e+02  2.918975276816622e+03
 1.145004164123030e+03 -2.554079218402648e+02  2.918975276816622e+03
 1.145043895198525e+03 -2.589351184494728e+02  2.918975276816622e+03
 1.145064293418482e+03 -2.619837581375802e+02  2.918975276816622e+03
 1.145065358782899e+03 -2.645538409045869e+02  2.918975276816622e+03
 1.145067087478149e+03 -2.674386609653529e+02  2.918975276816622e+03
 1.145074402772656e+03 -2.695288081357681e+02  2.918975276816622e+03
 1.145087138895737e+03 -2.713842368365109e+02  2.918975276816622e+03
 1.145090707455876e+03 -2.730702767690468e+02  2.918975276816622e+03
 1.145075118219776e+03 -2.746135135325961e+02  2.918975276816622e+03
 1.145075736068505e+03 -2.772001106452699e+02  2.918975276816622e+03
 1.145093419589539e+03 -2.797550939226801e+02  2.918975276816622e+03
 1.145102469024899e+03 -2.821363803293603e+02  2.918975276816622e+03
 1.145105160865116e+03 -2.850381438602346e+02  2.918975276816622e+03
 1.145090817841823e+03 -2.876661675891449e+02  2.918975276816622e+03
 1.145098715108566e+03 -2.896891462442800e+02  2.918975276816622e+03
 1.145116609332057e+03 -2.919635986514630e+02  2.918975276816622e+03
 1.145118467750446e+03 -2.940932044304923e+02  2.918975276816622e+03
 1.145114917126710e+03 -2.969033387420898e+02  2.918975276816622e+03
 1.145110926706662e+03 -2.988770752003331e+02  2.918975276816622e+03
 1.145094578995051e+03 -3.008279128749729e+02  2.918975276816622e+03
 1.145080042191094e+03 -3.031680854166484e+02  2.918975276816622e+03
 1.145095238155696e+03 -3.048230390558439e+02  2.918975276816622e+03
 1.145114144647278e+03 -3.071046150556624e+02  2.918975276816622e+03
 1.145079700797467e+03 -3.091599232787348e+02  2.918975276816622e+03
 1.145033806235323e+03 -3.112182139687527e+02  2.918975276816622e+03
 1.145074979944240e+03 -3.130347446935480e+02  2.918975276816622e+03
 1.145068601371627e+03 -3.143217486465748e+02  2.918975276816622e+03
 1.145030700559933e+03 -3.164588256628510e+02  2.918975276816622e+03
 1.145011743605364e+03 -3.185315449950774e+02  2.918975276816622e+03
 1.145009310019452e+03 -3.203248002657414e+02  2.918975276816622e+03
 1.144986675520157e+03 -3.224972128012026e+02  2.918975276816622e+03
 1.144972668385835e+03 -3.247879475810853e+02  2.918975276816622e+03
 1.144978259038574e+03 -3.263308956802741e+02  2.918975276816622e+03
 1.144991865135926e+03 -3.277720637942379e+02  2.918975276816622e+03
 1.144972138132484e+03 -3.303575241999152e+02  2.918975276816622e+03
 1.144964806421412e+03 -3.330769006142252e+02  2.918975276816622e+03
 1.144951398234995e+03 -3.360535742781503e+02  2.918975276816622e+03
 1.144934200604819e+03 -3.379516733076550e+02  2.918975276816622e+03
 1.144893139117700e+03 -3.394391195901089e+02  2.918975276816622e+03
 1.144874065598712e+03 -3.418771137023031e+02  2.918975276816622e+03
 1.144874771663687e+03 -3.440895340612121e+02  2.918975276816622e+03
 1.144929619512518e+03 -3.468810134108725e+02  2.918975276816622e+03
 1.145057675187536e+03 -3.503144969319647e+02  2.918975276816622e+03
 1.144761716355751e+03 -3.526205378667780e+02  2.918975276816622e+03
 1.144620144942727e+03 -3.552010385866211e+02  2.918975276816622e+03
 1.144934153823709e+03 -3.583125043348164e+02  2.918975276816622e+03
 1.144953239332470e+03 -3.596912282769594e+02  2.918975276816622e+03
 1.144804582154384e+03 -3.608015557208425e+02  2.918975276816622e+03
 1.144820724384033e+03 -3.630609954434623e+02  2.918975276816622e+03
 1.144866261212185e+03 -3.656199035740182e+02  2.918975276816622e+03
 1.144889236114501e+03 -3.677420264287919e+02  2.918975276816622e+03
 1.144891904427650e+03 -3.699872970152010e+02  2.918975276816622e+03
 1.144895525335563e+03 -3.715462403457967e+02  2.918975276816622e+03
 1.144913194931532e+03 -3.734849412788148e+02  2.918975276816622e+03
 1.144936333456237e+03 -3.765670187861476e+02  2.918975276816622e+03
 1.144952875145034e+03 -3.791241597291831e+02  2.918975276816622e+03
 1.144972702499150e+03 -3.816390053992602e+02  2.918975276816622e+03
 1.144981710948818e+03 -3.831898329223490e+02  2.918975276816622e+03
 1.144994395328892e+03 -3.849345658814324e+02  2.918975276816622e+03
1.145041739648189e+03 3.830892090519044e+02 2.918975276816622e+03
1.145015239479135e+03 3.856111313010248e+02 2.918975276816622e+03
1.145070671103935e+03 3.800758401645822e+02 2.918975276816622e+03
1.145085632740162e+03 3.783391916851176e+02 2.918975276816622e+03
1.145089790275349e+03 3.771339734715727e+02 2.918975276816622e+03
1.145111123112092e+03 3.750425360471307e+02 2.918975276816622e+03
1.145142456898725e+03 3.732651804122976e+02 2.918975276816622e+03
1.145163523579545e+03 3.720349611697295e+02 2.918975276816622e+03
1.145176339920453e+03 3.692616894621560e+02 2.918975276816622e+03
1.145209193675157e+03 3.663365021300101e+02 2.918975276816622e+03
1.145253950849886e+03 3.639973921270581e+02 2.918975276816622e+03
1.145294838416033e+03 3.612874048644455e+02 2.918975276816622e+03
1.145304433690768e+03 3.590649791082746e+02 2.918975276816622e+03
1.145311737041663e+03 3.576506441593880e+02 2.918975276816622e+03
1.145329212056700e+03 3.562818552447274e+02 2.918975276816622e+03
1.145362376841477e+03 3.545895751698623e+02 2.918975276816622e+03
1.145393428200929e+03 3.527203423759501e+02 2.918975276816622e+03
1.145407203772199e+03 3.510585268939214e+02 2.918975276816622e+03
1.145414609262079e+03 3.492505004240040e+02 2.918975276816622e+03
1.145458578852511e+03 3.474342248686118e+02 2.918975276816622e+03
1.145528196127855e+03 3.457043513636661e+02 2.918975276816622e+03
1.145498380255640e+03 3.440901270072638e+02 2.918975276816622e+03
1.145487883945661e+03 3.425475558598642e+02 2.918975276816622e+03
1.145621524016487e+03 3.407434282406223e+02 2.918975276816622e+03
1.145663170541818e+03 3.390828082654630e+02 2.918975276816622e+03
1.145598292105737e+03 3.364189983068692e+02 2.918975276816622e+03
1.145662427164117e+03 3.330848583881170e+02 2.918975276816622e+03
1.145723686991453e+03 3.301832281283624e+02 2.918975276816622e+03
1.145798245977168e+03 3.288117115135982e+02 2.918975276816622e+03
1.145795135593984e+03 3.274443584067948e+02 2.918975276816622e+03
1.145743891887767e+03 3.247990480974502e+02 2.918975276816622e+03
1.145692898995425e+03 3.224787020662009e+02 2.918975276816622e+03
1.145693484778913e+03 3.203937790050986e+02 2.918975276816622e+03
1.145746102647980e+03 3.189871377756535e+02 2.918975276816622e+03
1.145785880502677e+03 3.173858182605107e+02 2.918975276816622e+03
1.145743215273943e+03 3.148282940554146e+02 2.918975276816622e+03
1.145682281866865e+03 3.126882726433183e+02 2.918975276816622e+03
1.145804681059174e+03 3.117695268540562e+02 2.918975276816622e+03
1.145817275964045e+03 3.107007766898138e+02 2.918975276816622e+03
1.145712586363525e+03 3.087776599659778e+02 2.918975276816622e+03
1.145660220112028e+03 3.071739130244633e+02 2.918975276816622e+03
1.145642119582652e+03 3.054170423440582e+02 2.918975276816622e+03
1.145619770122670e+03 3.032167539144058e+02 2.918975276816622e+03
1.145609494135241e+03 3.019842866115026e+02 2.918975276816622e+03
1.145595802499679e+03 3.003799646592421e+02 2.918975276816622e+03
1.145569430093190e+03 2.982059213543170e+02 2.918975276816622e+03
1.145542452925889e+03 2.963942581792804e+02 2.918975276816622e+03
1.145517770733382e+03 2.945195374601949e+02 2.918975276816622e+03
1.145491672851418e+03 2.928668623897582e+02 2.918975276816622e+03
1.145458100514708e+03 2.907602472434297e+02 2.918975276816622e+03
1.145424177498076e+03 2.883221631220651e+02 2.918975276816622e+03
1.145398575996310e+03 2.860186492891116e+02 2.918975276816622e+03
1.145374741528891e+03 2.838389046326307e+02 2.918975276816622e+03
1.145343707449282e+03 2.819770961686856e+02 2.918975276816622e+03
1.145303017936012e+03 2.792944385887594e+02 2.918975276816622e+03
1.145264439686247e+03 2.763375818176576e+02 2.918975276816622e+03
1.145225578132293e+03 2.732405716599675e+02 2.918975276816622e+03
1.145179292578189e+03 2.700334615115153e+02 2.918975276816622e+03
1.145136987893620e+03 2.677317919881701e+02 2.918975276816622e+03
1.145123131892019e+03 2.659086655448103e+02 2.918975276816622e+03
1.145121820696423e+03 2.638118308536588e+02 2.918975276816622e+03
1.145147016724408e+03 2.603905709406840e+02 2.918975276816622e+03
1.145106207813327e+03 2.581738509404854e+02 2.918975276816622e+03
1.145017318883859e+03 2.567958068235145e+02 2.918975276816622e+03
1.144988765975612e+03 2.544797247829483e+02 2.918975276816622e+03
1.144966573397188e+03 2.522526786211613e+02 2.918975276816622e+03
1.145037697519268e+03 2.507168313093570e+02 2.918975276816622e+03
1.145032082060499e+03 2.494047419929902e+02 2.918975276816622e+03
1.144960305167004e+03 2.478179558578718e+02 2.918975276816622e+03
1.144959999085911e+03 2.464523481917392e+02 2.918975276816622e+03
1.144980485911996e+03 2.451876788475921e+02 2.918975276816622e+03
1.144980863760962e+03 2.436924441248496e+02 2.918975276816622e+03
1.144949637246727e+03 2.416163677096567e+02 2.918975276816622e+03
1.144953771957985e+03 2.391734829906228e+02 2.918975276816622e+03
1.144957906669243e+03 2.367305982715889e+02 2.918975276816622e+03
1.144965179436605e+03 2.347372816773982e+02 2.918975276816622e+03
1.144968003292921e+03 2.326508530704299e+02 2.918975276816622e+03
1.144954131541090e+03 2.299486322506288e+02 2.918975276816622e+03
1.144958666403543e+03 2.279901562886476e+02 2.918975276816622e+03
1.145026675614671e+03 2.268577741697278e+02 2.918975276816622e+03
1.145031264572358e+03 2.250265219651877e+02 2.918975276816622e+03
1.144662672507128e+03 2.227794699825542e+02 2.918975276816622e+03
1.144676108000583e+03 2.210190976061754e+02 2.918975276816622e+03
1.145014220573279e+03 2.191278544523614e+02 2.918975276816622e+03
1.145021180990442e+03 2.169113681324139e+02 2.918975276816622e+03
1.144793024437164e+03 2.142770792708724e+02 2.918975276816622e+03
1.144805488511008e+03 2.119710948640947e+02 2.918975276816622e+03
1.145098639777155e+03 2.099327518632417e+02 2.918975276816622e+03
1.145071350371414e+03 2.081543038523812e+02 2.918975276816622e+03
1.144994840900424e+03 2.069549830575346e+02 2.918975276816622e+03
1.145040396463909e+03 2.061751359329465e+02 2.918975276816622e+03
1.145088690544697e+03 2.053523242237464e+02 2.918975276816622e+03
1.145050574267215e+03 2.043093009564931e+02 2.918975276816622e+03
1.145024199570112e+03 2.032319191246346e+02 2.918975276816622e+03
1.145000391682259e+03 2.017679095865151e+02 2.918975276816622e+03
1.144989494806367e+03 2.006583747178230e+02 2.918975276816622e+03
1.144998665167537e+03 1.990408974191540e+02 2.918975276816622e+03
1.144962562940201e+03 1.966101939406534e+02 2.918975276816622e+03
1.144926246262387e+03 1.938162589940523e+02 2.918975276816622e+03
1.144915580668601e+03 1.911592021213486e+02 2.918975276816622e+03
1.144930780609320e+03 1.890022547906429e+02 2.918975276816622e+03
1.144894189899889e+03 1.871196916560883e+02 2.918975276816622e+03
1.144811401919568e+03 1.849614911591256e+02 2.918975276816622e+03
1.144803006959229e+03 1.825159467527063e+02 2.918975276816622e+03
1.144827167984666e+03 1.808967549824438e+02 2.918975276816622e+03
1.144780056998055e+03 1.791767570981686e+02 2.918975276816622e+03
1.144697917654343e+03 1.767922781128264e+02 2.918975276816622e+03
1.144680025128369e+03 1.741130027601675e+02 2.918975276816622e+03
1.144903368739666e+03 1.718234590128476e+02 2.918975276816622e+03
1.144944592382633e+03 1.699675466975745e+02 2.918975276816622e+03
1.144767797716416e+03 1.683865306746446e+02 2.918975276816622e+03
1.144799939185430e+03 1.670800024670998e+02 2.918975276816622e+03
1.144832457240790e+03 1.647508469326912e+02 2.918975276816622e+03
1.144797506725941e+03 1.616503690889856e+02 2.918975276816622e+03
1.144762556211093e+03 1.585498912452801e+02 2.918975276816622e+03
1.144880764068363e+03 1.555997009780029e+02 2.918975276816622e+03
1.145134515012693e+03 1.526196369188545e+02 2.918975276816622e+03
1.145303570535454e+03 1.492827479669458e+02 2.918975276816622e+03
1.145405766979040e+03 1.467957553280596e+02 2.918975276816622e+03
1.145482202945918e+03 1.455622560162396e+02 2.918975276816622e+03
1.145541439335920e+03 1.450254977490104e+02 2.918975276816622e+03
1.145499901518355e+03 1.444362715789700e+02 2.918975276816622e+03
1.145373198336552e+03 1.428578507070270e+02 2.918975276816622e+03
1.145288020074717e+03 1.411184542572245e+02 2.918975276816622e+03
1.145219850536814e+03 1.393024356775502e+02 2.918975276816622e+03
1.145151555603375e+03 1.371038513017799e+02 2.918975276816622e+03
1.145092690791452e+03 1.344514330325585e+02 2.918975276816622e+03
1.145057105905404e+03 1.320827221353260e+02 2.918975276816622e+03
1.145083688060979e+03 1.300874231161381e+02 2.918975276816622e+03
1.145073970748029e+03 1.283492163747394e+02 2.918975276816622e+03
1.145043464487951e+03 1.271261551998674e+02 2.918975276816622e+03
1.145083089209689e+03 1.263773435678580e+02 2.918975276816622e+03
1.145134489514469e+03 1.256458041853210e+02 2.918975276816622e+03
1.145146351328403e+03 1.249887267064336e+02 2.918975276816622e+03
1.145061132325803e+03 1.243173012521456e+02 2.918975276816622e+03
1.145031987864325e+03 1.227776701440070e+02 2.918975276816622e+03
1.145157713398223e+03 1.212139591778030e+02 2.918975276816622e+03
1.145055430379296e+03 1.193884913721847e+02 2.918975276816622e+03
1.144678413319092e+03 1.171090042024645e+02 2.918975276816622e+03
1.144683921877163e+03 1.141871739586834e+02 2.918975276816622e+03
1.145027497705391e+03 1.115222599541981e+02 2.918975276816622e+03
1.144958957598810e+03 1.099756014154686e+02 2.918975276816622e+03
1.144831236890170e+03 1.081315720112417e+02 2.918975276816622e+03
1.145335858665136e+03 1.061446801535024e+02 2.918975276816622e+03
1.145595653971982e+03 1.036751772094249e+02 2.918975276816622e+03
1.145180135871979e+03 1.013094994003295e+02 2.918975276816622e+03
1.144996349602152e+03 9.935697682607103e+01 2.918975276816622e+03
1.145150916602254e+03 9.685766870094561e+01 2.918975276816622e+03
1.145265385281710e+03 9.468565262776009e+01 2.918975276816622e+03
1.145303180793598e+03 9.248400452940733e+01 2.918975276816622e+03
1.145304401458564e+03 8.992543235394737e+01 2.918975276816622e+03
1.145305622123529e+03 8.736686017848737e+01 2.918975276816622e+03
1.145306842788495e+03 8.480828800302739e+01 2.918975276816622e+03
1.145481010667193e+03 8.195284710029441e+01 2.918975276816622e+03
1.145673521719788e+03 7.927312410200345e+01 2.918975276816622e+03
1.145711428732548e+03 7.706598773542757e+01 2.918975276816622e+03
1.145762422682726e+03 7.457627655170680e+01 2.918975276816622e+03
1.145826503570320e+03 7.180399055084121e+01 2.918975276816622e+03
1.145899109258506e+03 6.894266767593896e+01 2.918975276816622e+03
1.145980239747283e+03 6.599230792700008e+01 2.918975276816622e+03
1.146032298205416e+03 6.363764661780921e+01 2.918975276816622e+03
1.146070742014406e+03 6.148184227310939e+01 2.918975276816622e+03
1.146124643204898e+03 5.892919645315263e+01 2.918975276816622e+03
1.146128886957071e+03 5.740315627949024e+01 2.918975276816622e+03
1.146119407127596e+03 5.609443740252480e+01 2.918975276816622e+03
1.146173993896682e+03 5.407880959431173e+01 2.918975276816622e+03
1.146234508380835e+03 5.188780663592274e+01 2.918975276816622e+03
1.146221752574637e+03 5.001607440085785e+01 2.918975276816622e+03
1.146110096176795e+03 4.857828301132143e+01 2.918975276816622e+03
1.146110949529934e+03 4.740700997022261e+01 2.918975276816622e+03
1.146192312612372e+03 4.560017550172046e+01 2.918975276816622e+03
1.146234437449910e+03 4.333107590875807e+01 2.918975276816622e+03
1.146220178351814e+03 4.226443763958714e+01 2.918975276816622e+03
1.146158954403532e+03 4.117620138226580e+01 2.918975276816622e+03
1.146135494732320e+03 3.928440672117370e+01 2.918975276816622e+03
1.146152043556868e+03 3.717265470776909e+01 2.918975276816622e+03
1.146164404002807e+03 3.497706835541342e+01 2.918975276816622e+03
1.146148973468889e+03 3.267922728232868e+01 2.918975276816622e+03
1.146162200742753e+03 3.032540266468438e+01 2.918975276816622e+03
1.146109374609716e+03 2.819479913704910e+01 2.918975276816622e+03
1.145920098471742e+03 2.543622447297320e+01 2.918975276816622e+03
1.145934000982266e+03 2.218617422552505e+01 2.918975276816622e+03
1.146138532090741e+03 1.912673862382704e+01 2.918975276816622e+03
1.146080206391446e+03 1.636871297908896e+01 2.918975276816622e+03
1.145841970532967e+03 1.408119928863809e+01 2.918975276816622e+03
1.145818093974418e+03 1.185925287744588e+01 2.918975276816622e+03
1.146094710673974e+03 1.024610129622219e+01 2.918975276816622e+03
1.146119662511479e+03 8.794605747401958e+00 2.918975276816622e+03
1.145903738386139e+03 6.171895386274949e+00 2.918975276816622e+03
1.145820297550040e+03 3.648973840330513e+00 2.918975276816622e+03
-1.157338122622384e+03 -6.306250807975239e-01 -2.918975276816622e+03
-1.157249406526084e+03 -4.160503766531306e+00 -2.918975276816622e+03
-1.157364930947029e+03  2.744310060084178e+00 -2.918975276816622e+03
-1.157329831500017e+03  5.964301656113800e+00 -2.918975276816622e+03
-1.157201941510394e+03 -7.069200358442188e+00 -2.918975276816622e+03
-1.157195727575318e+03 -9.356714856530168e+00 -2.918975276816622e+03
-1.157253202855755e+03 -1.056468297566482e+01 -2.918975276816622e+03
-1.157319822043220e+03 -1.221424677425041e+01 -2.918975276816622e+03
-1.157138880528076e+03 -1.448334463937636e+01 -2.918975276816622e+03
-1.156907873494805e+03 -1.601745848848504e+01 -2.918975276816622e+03
-1.156893252753905e+03 -1.799139170892236e+01 -2.918975276816622e+03
-1.156952068429384e+03 -2.023852032484174e+01 -2.918975276816622e+03
-1.157127016637656e+03 -2.168308431718224e+01 -2.918975276816622e+03
-1.157229570221851e+03 -2.388114155056534e+01 -2.918975276816622e+03
-1.157122099501558e+03 -2.710436280122533e+01 -2.918975276816622e+03
-1.157051036047916e+03 -2.955820485483832e+01 -2.918975276816622e+03
-1.157037877008541e+03 -3.177356155874893e+01 -2.918975276816622e+03
-1.157043454670137e+03 -3.366793173064421e+01 -2.918975276816622e+03
-1.157020496309061e+03 -3.522763230860031e+01 -2.918975276816622e+03
-1.156967491840789e+03 -3.658796660278042e+01 -2.918975276816622e+03
-1.156931930941462e+03 -3.885015836560942e+01 -2.918975276816622e+03
-1.157064951337651e+03 -4.094402835217964e+01 -2.918975276816622e+03
-1.157044487560996e+03 -4.248071478375696e+01 -2.918975276816622e+03
-1.156881734333816e+03 -4.443320991016842e+01 -2.918975276816622e+03
-1.156883255208555e+03 -4.546060519192269e+01 -2.918975276816622e+03
-1.156933177447061e+03 -4.652989780790443e+01 -2.918975276816622e+03
-1.156907172397531e+03 -4.857690577278336e+01 -2.918975276816622e+03
-1.156857796470901e+03 -5.007672583016667e+01 -2.918975276816622e+03
-1.156834358934238e+03 -5.123690977977589e+01 -2.918975276816622e+03
-1.156818519923861e+03 -5.358509534294107e+01 -2.918975276816622e+03
-1.156809199032233e+03 -5.564421882449264e+01 -2.918975276816622e+03
-1.156800995113753e+03 -5.740620350890742e+01 -2.918975276816622e+03
-1.156788579343103e+03 -5.959017122841511e+01 -2.918975276816622e+03
-1.156761012207835e+03 -6.098234209327234e+01 -2.918975276816622e+03
-1.156747064551427e+03 -6.248161628161141e+01 -2.918975276816622e+03
-1.156730515666390e+03 -6.424254249629676e+01 -2.918975276816622e+03
-1.156728730581207e+03 -6.535054306671981e+01 -2.918975276816622e+03
-1.156718665823572e+03 -6.660258426347714e+01 -2.918975276816622e+03
-1.156708238696134e+03 -6.868041686668700e+01 -2.918975276816622e+03
-1.156689819379865e+03 -7.018026920503875e+01 -2.918975276816622e+03
-1.156680056584232e+03 -7.120889132919851e+01 -2.918975276816622e+03
-1.156663727000314e+03 -7.264757008677975e+01 -2.918975276816622e+03
-1.156653446453751e+03 -7.430034162218325e+01 -2.918975276816622e+03
-1.156641777691830e+03 -7.577453612153731e+01 -2.918975276816622e+03
-1.156636398662691e+03 -7.657218943775327e+01 -2.918975276816622e+03
-1.156624900546057e+03 -7.775965196451875e+01 -2.918975276816622e+03
-1.156613857152750e+03 -7.952991133493646e+01 -2.918975276816622e+03
-1.156607390742127e+03 -8.085143045072826e+01 -2.918975276816622e+03
-1.156598461792898e+03 -8.236375830394815e+01 -2.918975276816622e+03
-1.156590491083038e+03 -8.413480158754399e+01 -2.918975276816622e+03
-1.156582089471591e+03 -8.538976745018991e+01 -2.918975276816622e+03
-1.156577696505853e+03 -8.666726145476605e+01 -2.918975276816622e+03
-1.156565922544008e+03 -8.857401935314121e+01 -2.918975276816622e+03
-1.156557233356830e+03 -9.008418446235397e+01 -2.918975276816622e+03
-1.156545957589221e+03 -9.119265980621128e+01 -2.918975276816622e+03
-1.156534788604146e+03 -9.361482409831058e+01 -2.918975276816622e+03
-1.156524498885808e+03 -9.582023479720114e+01 -2.918975276816622e+03
-1.156516778561293e+03 -9.767460650030384e+01 -2.918975276816622e+03
-1.156505827391112e+03 -1.000696662103584e+02 -2.918975276816622e+03
-1.156492177417816e+03 -1.012845168692749e+02 -2.918975276816622e+03
-1.156481911857000e+03 -1.024812973839578e+02 -2.918975276816622e+03
-1.156471330525674e+03 -1.044218984020733e+02 -2.918975276816622e+03
-1.156463790700582e+03 -1.059155081179715e+02 -2.918975276816622e+03
-1.156459140348175e+03 -1.068548464576130e+02 -2.918975276816622e+03
-1.156456791500684e+03 -1.083373881465034e+02 -2.918975276816622e+03
-1.156446816944064e+03 -1.101833004579084e+02 -2.918975276816622e+03
-1.156431008619038e+03 -1.118464408907394e+02 -2.918975276816622e+03
-1.156421227995930e+03 -1.131689068567547e+02 -2.918975276816622e+03
-1.156428024300540e+03 -1.146711458393848e+02 -2.918975276816622e+03
-1.156426352769463e+03 -1.170592523012598e+02 -2.918975276816622e+03
-1.156418216534423e+03 -1.193326567861995e+02 -2.918975276816622e+03
-1.156427343582138e+03 -1.208134596631295e+02 -2.918975276816622e+03
-1.156419024824711e+03 -1.223219941998584e+02 -2.918975276816622e+03
-1.156375682849721e+03 -1.242174666152766e+02 -2.918975276816622e+03
-1.156376837363360e+03 -1.254669413656321e+02 -2.918975276816622e+03
-1.156433351231943e+03 -1.266081183994155e+02 -2.918975276816622e+03
-1.156422750959065e+03 -1.285653905343004e+02 -2.918975276816622e+03
-1.156413977975665e+03 -1.307218746197349e+02 -2.918975276816622e+03
-1.156419882884359e+03 -1.320109380206172e+02 -2.918975276816622e+03
-1.156428376855602e+03 -1.328451861049469e+02 -2.918975276816622e+03
-1.156430756849269e+03 -1.342139384624267e+02 -2.918975276816622e+03
-1.156441978000000e+03 -1.356650124951948e+02 -2.918975276816622e+03
-1.156451487063816e+03 -1.373386250476073e+02 -2.918975276816622e+03
-1.156475543597753e+03 -1.394478115092489e+02 -2.918975276816622e+03
-1.156481596289734e+03 -1.408581453888156e+02 -2.918975276816622e+03
-1.156508985940775e+03 -1.424149354398526e+02 -2.918975276816622e+03
-1.156570048623838e+03 -1.442416602813354e+02 -2.918975276816622e+03
-1.156576030814004e+03 -1.454013316963549e+02 -2.918975276816622e+03
-1.156550112300212e+03 -1.467459775568425e+02 -2.918975276816622e+03
-1.156588767108401e+03 -1.496464962607740e+02 -2.918975276816622e+03
-1.156615306762020e+03 -1.533189798242502e+02 -2.918975276816622e+03
-1.156622367333069e+03 -1.556152540178358e+02 -2.918975276816622e+03
-1.156639814005914e+03 -1.574094268665292e+02 -2.918975276816622e+03
-1.156658019312935e+03 -1.595189171779674e+02 -2.918975276816622e+03
-1.156621304534095e+03 -1.607403773218173e+02 -2.918975276816622e+03
-1.156597670720170e+03 -1.622154090859697e+02 -2.918975276816622e+03
-1.156727908951614e+03 -1.639046384983206e+02 -2.918975276816622e+03
-1.156770420891493e+03 -1.651963585855253e+02 -2.918975276816622e+03
-1.156701348331447e+03 -1.666993627387986e+02 -2.918975276816622e+03
-1.156697367264971e+03 -1.687631680516683e+02 -2.918975276816622e+03
-1.156770509317589e+03 -1.711379112457998e+02 -2.918975276816622e+03
-1.156768158549637e+03 -1.726326536973746e+02 -2.918975276816622e+03
-1.156765794099746e+03 -1.750762418604010e+02 -2.918975276816622e+03
-1.156782211459809e+03 -1.783778013601574e+02 -2.918975276816622e+03
-1.156803037719509e+03 -1.810010048277371e+02 -2.918975276816622e+03
-1.156819651644326e+03 -1.834030505962474e+02 -2.918975276816622e+03
-1.156830516886850e+03 -1.854544459432267e+02 -2.918975276816622e+03
-1.156834080347465e+03 -1.866610052694248e+02 -2.918975276816622e+03
-1.156839699113382e+03 -1.881643308976930e+02 -2.918975276816622e+03
-1.156848728288160e+03 -1.904511307359455e+02 -2.918975276816622e+03
-1.156854176397833e+03 -1.931960454112531e+02 -2.918975276816622e+03
-1.156857808380250e+03 -1.961246731528121e+02 -2.918975276816622e+03
-1.156865790243169e+03 -1.979321128517875e+02 -2.918975276816622e+03
-1.156877792260873e+03 -1.994221622159035e+02 -2.918975276816622e+03
-1.156870034525672e+03 -2.006254370809866e+02 -2.918975276816622e+03
-1.156829428245727e+03 -2.020353765889109e+02 -2.918975276816622e+03
-1.156826707028765e+03 -2.038636050880130e+02 -2.918975276816622e+03
-1.156882065923058e+03 -2.051144764789093e+02 -2.918975276816622e+03
-1.156865759082742e+03 -2.064760328952244e+02 -2.918975276816622e+03
-1.156690291886374e+03 -2.085369383978792e+02 -2.918975276816622e+03
-1.156595072197914e+03 -2.111204418282620e+02 -2.918975276816622e+03
-1.156663463501180e+03 -2.138393255364463e+02 -2.918975276816622e+03
-1.156784676141732e+03 -2.153705141092491e+02 -2.918975276816622e+03
-1.156778010782035e+03 -2.168980001017385e+02 -2.918975276816622e+03
-1.156590483222381e+03 -2.195318740973891e+02 -2.918975276816622e+03
-1.156501912125867e+03 -2.208338239461600e+02 -2.918975276816622e+03
-1.156440447435313e+03 -2.220447846092970e+02 -2.918975276816622e+03
-1.156316707890644e+03 -2.242737754793372e+02 -2.918975276816622e+03
-1.156424475830357e+03 -2.254342850546371e+02 -2.918975276816622e+03
-1.156455906967328e+03 -2.262681254678932e+02 -2.918975276816622e+03
-1.156327467770682e+03 -2.285028297398910e+02 -2.918975276816622e+03
-1.156344278479396e+03 -2.313959446276680e+02 -2.918975276816622e+03
-1.156368103205450e+03 -2.341431182027438e+02 -2.918975276816622e+03
-1.156391927931505e+03 -2.368902917778195e+02 -2.918975276816622e+03
-1.156415752657559e+03 -2.396374653528952e+02 -2.918975276816622e+03
-1.156434232690510e+03 -2.425410868411112e+02 -2.918975276816622e+03
-1.156440738428800e+03 -2.454053503501163e+02 -2.918975276816622e+03
-1.156438518418528e+03 -2.479059218448696e+02 -2.918975276816622e+03
-1.156760353289064e+03 -2.496296881856302e+02 -2.918975276816622e+03
-1.156736760173560e+03 -2.509815877403286e+02 -2.918975276816622e+03
-1.156416794007409e+03 -2.531953343959834e+02 -2.918975276816622e+03
-1.156761913813239e+03 -2.555563464438071e+02 -2.918975276816622e+03
-1.157012113975806e+03 -2.585405132941238e+02 -2.918975276816622e+03
-1.156112136920934e+03 -2.615169311676206e+02 -2.918975276816622e+03
-1.156261412985983e+03 -2.626836967616960e+02 -2.918975276816622e+03
-1.156886876573118e+03 -2.639288176854440e+02 -2.918975276816622e+03
-1.156625195086851e+03 -2.658477854958546e+02 -2.918975276816622e+03
-1.156560231266708e+03 -2.674349589932884e+02 -2.918975276816622e+03
-1.156601853804870e+03 -2.686735557667821e+02 -2.918975276816622e+03
-1.156623868954277e+03 -2.697561582360409e+02 -2.918975276816622e+03
-1.156662912343514e+03 -2.710215954313255e+02 -2.918975276816622e+03
-1.156681350272454e+03 -2.725577474047968e+02 -2.918975276816622e+03
-1.156647754048962e+03 -2.752797623573926e+02 -2.918975276816622e+03
-1.156715895417829e+03 -2.783993279711187e+02 -2.918975276816622e+03
-1.156745308701400e+03 -2.807676170429184e+02 -2.918975276816622e+03
-1.156800211040452e+03 -2.840290358271494e+02 -2.918975276816622e+03
-1.156784957743628e+03 -2.865589143851100e+02 -2.918975276816622e+03
-1.156765047105612e+03 -2.881346570632121e+02 -2.918975276816622e+03
-1.156746554423911e+03 -2.912741237813910e+02 -2.918975276816622e+03
-1.156766077601385e+03 -2.940876099585904e+02 -2.918975276816622e+03
-1.156720730574000e+03 -2.964364322803401e+02 -2.918975276816622e+03
-1.156708836129529e+03 -2.995224014056708e+02 -2.918975276816622e+03
-1.156701632616676e+03 -3.014444933899047e+02 -2.918975276816622e+03
-1.156717049462912e+03 -3.028838146250079e+02 -2.918975276816622e+03
-1.156697225309341e+03 -3.047095220193974e+02 -2.918975276816622e+03
-1.156618657065469e+03 -3.066640952543602e+02 -2.918975276816622e+03
-1.156632509593024e+03 -3.086928594901469e+02 -2.918975276816622e+03
-1.156693269831368e+03 -3.109467890148734e+02 -2.918975276816622e+03
-1.156702943346045e+03 -3.137752789009693e+02 -2.918975276816622e+03
-1.156676105936827e+03 -3.164562992979546e+02 -2.918975276816622e+03
-1.156514772140925e+03 -3.183283523053531e+02 -2.918975276816622e+03
-1.156488175901047e+03 -3.195325251308547e+02 -2.918975276816622e+03
-1.156676772563694e+03 -3.210244437664258e+02 -2.918975276816622e+03
-1.156682324439797e+03 -3.227637847004333e+02 -2.918975276816622e+03
-1.156620038194701e+03 -3.240007892285550e+02 -2.918975276816622e+03
-1.156591425446641e+03 -3.252839493151623e+02 -2.918975276816622e+03
-1.156593019939666e+03 -3.265672282228722e+02 -2.918975276816622e+03
-1.156573481773971e+03 -3.279045883221437e+02 -2.918975276816622e+03
-1.156539277136038e+03 -3.293768708739472e+02 -2.918975276816622e+03
-1.156536673016330e+03 -3.305716063965261e+02 -2.918975276816622e+03
-1.156549339939733e+03 -3.329355235994634e+02 -2.918975276816622e+03
-1.156537637084592e+03 -3.349310383689854e+02 -2.918975276816622e+03
-1.156474536844405e+03 -3.358767158952442e+02 -2.918975276816622e+03
-1.156466783242337e+03 -3.374917675235901e+02 -2.918975276816622e+03
-1.156499498269450e+03 -3.399076129069367e+02 -2.918975276816622e+03
-1.156505171098681e+03 -3.420627311044032e+02 -2.918975276816622e+03
-1.156493190589430e+03 -3.434407788623675e+02 -2.918975276816622e+03
-1.156500677382102e+03 -3.452192133490635e+02 -2.918975276816622e+03
-1.156475801228268e+03 -3.474384903547071e+02 -2.918975276816622e+03
-1.156448031816636e+03 -3.485716052934558e+02 -2.918975276816622e+03
-1.156460318185215e+03 -3.497763117546870e+02 -2.918975276816622e+03
-1.156515553591805e+03 -3.521387718052953e+02 -2.918975276816622e+03
-1.156569294380465e+03 -3.554432498671857e+02 -2.918975276816622e+03
-1.156603605658757e+03 -3.581359272278539e+02 -2.918975276816622e+03
-1.156634291558100e+03 -3.604933589765845e+02 -2.918975276816622e+03
-1.156648859214910e+03 -3.625922478013096e+02 -2.918975276816622e+03
-1.156663098996910e+03 -3.638258256721944e+02 -2.918975276816622e+03
-1.156691455861119e+03 -3.659847364912742e+02 -2.918975276816622e+03
-1.156721982376381e+03 -3.691548091027786e+02 -2.918975276816622e+03
-1.156715431809622e+03 -3.718168985678239e+02 -2.918975276816622e+03
-1.156730480390113e+03 -3.733614308242093e+02 -2.918975276816622e+03
-1.156780020382735e+03 -3.754814270760064e+02 -2.918975276816622e+03
-1.156783295651205e+03 -3.772048310887782e+02 -2.918975276816622e+03
-1.156768358114384e+03 -3.787512023571871e+02 -2.918975276816622e+03
-1.156778651929829e+03 -3.800832772294206e+02 -2.918975276816622e+03
-1.156799563406561e+03 -3.814000707938953e+02 -2.918975276816622e+03
-1.156795777775196e+03 -3.843240062629877e+02 -2.918975276816622e+03
-1.156796563569186e+03 -3.862612248697213e+02 -2.918975276816622e+03
-1.156817286432560e+03  3.828324948484840e+02 -2.918975276816622e+03
-1.156804194098892e+03  3.848637142317794e+02 -2.918975276816622e+03
-1.156824534252189e+03  3.805041331940895e+02 -2.918975276816622e+03
-1.156796420515525e+03  3.781334315212171e+02 -2.918975276816622e+03
-1.156791751017503e+03  3.770586883155026e+02 -2.918975276816622e+03
-1.156824692361622e+03  3.750747549717600e+02 -2.918975276816622e+03
-1.156819757652658e+03  3.715308570862746e+02 -2.918975276816622e+03
-1.156803174470990e+03  3.681374412584752e+02 -2.918975276816622e+03
-1.156796454993325e+03  3.655172661356158e+02 -2.918975276816622e+03
-1.156787355947474e+03  3.621818382817864e+02 -2.918975276816622e+03
-1.156784663944578e+03  3.582694900607685e+02 -2.918975276816622e+03
-1.156784680771533e+03  3.558419211259226e+02 -2.918975276816622e+03
-1.156741228058556e+03  3.542792285542135e+02 -2.918975276816622e+03
-1.156722802208720e+03  3.517136770544200e+02 -2.918975276816622e+03
-1.156766794980665e+03  3.486268371857963e+02 -2.918975276816622e+03
-1.156778268511697e+03  3.452124290111960e+02 -2.918975276816622e+03
-1.156761951359837e+03  3.420190071425159e+02 -2.918975276816622e+03
-1.156750362765997e+03  3.393741398857323e+02 -2.918975276816622e+03
-1.156741800423355e+03  3.367276002841719e+02 -2.918975276816622e+03
-1.156742790318806e+03  3.341238206695106e+02 -2.918975276816622e+03
-1.156750306201155e+03  3.315644733865246e+02 -2.918975276816622e+03
-1.156757822083504e+03  3.290051261035388e+02 -2.918975276816622e+03
-1.156752790774906e+03  3.271225303975930e+02 -2.918975276816622e+03
-1.156728378302819e+03  3.248406459423245e+02 -2.918975276816622e+03
-1.156810696010455e+03  3.226060184205158e+02 -2.918975276816622e+03
-1.156796024159817e+03  3.210128206919645e+02 -2.918975276816622e+03
-1.156620237291232e+03  3.186438289480706e+02 -2.918975276816622e+03
-1.156596064969176e+03  3.160942045739916e+02 -2.918975276816622e+03
-1.156674068501060e+03  3.136578741185041e+02 -2.918975276816622e+03
-1.156703404818482e+03  3.114825531969840e+02 -2.918975276816622e+03
-1.156690420687889e+03  3.091207399380824e+02 -2.918975276816622e+03
-1.156678761228922e+03  3.064839561709989e+02 -2.918975276816622e+03
-1.156662079675130e+03  3.040197037670819e+02 -2.918975276816622e+03
-1.156623835012198e+03  3.027456384604818e+02 -2.918975276816622e+03
-1.156618638357132e+03  3.014634007138265e+02 -2.918975276816622e+03
-1.156668052819071e+03  2.989828034297988e+02 -2.918975276816622e+03
-1.156697623917704e+03  2.965737805235036e+02 -2.918975276816622e+03
-1.156715055601486e+03  2.948425982328573e+02 -2.918975276816622e+03
-1.156721452537032e+03  2.930114143579308e+02 -2.918975276816622e+03
-1.156737867240701e+03  2.909667616765241e+02 -2.918975276816622e+03
-1.156747292619764e+03  2.890625719049145e+02 -2.918975276816622e+03
-1.156756138618024e+03  2.872194253494514e+02 -2.918975276816622e+03
-1.156764697208559e+03  2.855105767783095e+02 -2.918975276816622e+03
-1.156956337444894e+03  2.832476749164983e+02 -2.918975276816622e+03
-1.157024040212828e+03  2.800050653095147e+02 -2.918975276816622e+03
-1.156845515998312e+03  2.778692370168163e+02 -2.918975276816622e+03
-1.156715622651511e+03  2.765258700517418e+02 -2.918975276816622e+03
-1.156783155601096e+03  2.746473361479486e+02 -2.918975276816622e+03
-1.156879404332422e+03  2.728203948832099e+02 -2.918975276816622e+03
-1.156831767376190e+03  2.715286116324309e+02 -2.918975276816622e+03
-1.156761752882408e+03  2.704730075367362e+02 -2.918975276816622e+03
-1.156787694913283e+03  2.678586783334385e+02 -2.918975276816622e+03
-1.156807472320581e+03  2.655153343304158e+02 -2.918975276816622e+03
-1.156822593091415e+03  2.637357283549588e+02 -2.918975276816622e+03
-1.156830934332248e+03  2.616874301750491e+02 -2.918975276816622e+03
-1.156823597934196e+03  2.604143795472681e+02 -2.918975276816622e+03
-1.156840173773567e+03  2.588741867358328e+02 -2.918975276816622e+03
-1.156889557475246e+03  2.572711895897947e+02 -2.918975276816622e+03
-1.156903545229361e+03  2.560100577721806e+02 -2.918975276816622e+03
-1.156886346509579e+03  2.546423864775224e+02 -2.918975276816622e+03
-1.156957898536654e+03  2.528478734317185e+02 -2.918975276816622e+03
-1.157156705769874e+03  2.510326421375072e+02 -2.918975276816622e+03
-1.157262395200794e+03  2.503281586860527e+02 -2.918975276816622e+03
-1.157065937761360e+03  2.487815336606233e+02 -2.918975276816622e+03
-1.156953320968100e+03  2.466747158628236e+02 -2.918975276816622e+03
-1.156922169277094e+03  2.451642057925597e+02 -2.918975276816622e+03
-1.156818124080447e+03  2.437336068244981e+02 -2.918975276816622e+03
-1.156706735317407e+03  2.420188435885307e+02 -2.918975276816622e+03
-1.156813745394889e+03  2.405024593128404e+02 -2.918975276816622e+03
-1.156763618916643e+03  2.393016745888075e+02 -2.918975276816622e+03
-1.156482507152245e+03  2.369549953153545e+02 -2.918975276816622e+03
-1.156495542020269e+03  2.347832996497378e+02 -2.918975276816622e+03
-1.156710337921421e+03  2.329370994803143e+02 -2.918975276816622e+03
-1.156716636584093e+03  2.307813236674564e+02 -2.918975276816622e+03
-1.156550719310392e+03  2.295315616848133e+02 -2.918975276816622e+03
-1.156450413401589e+03  2.281018039939221e+02 -2.918975276816622e+03
-1.156480381311715e+03  2.263449548793699e+02 -2.918975276816622e+03
-1.156465776919151e+03  2.252904394665529e+02 -2.918975276816622e+03
-1.156407805722934e+03  2.240900759577672e+02 -2.918975276816622e+03
-1.156425017379193e+03  2.220106824846987e+02 -2.918975276816622e+03
-1.156408752022333e+03  2.202327722727519e+02 -2.918975276816622e+03
-1.156238704346290e+03  2.190585849424184e+02 -2.918975276816622e+03
-1.156057552229874e+03  2.169099138889304e+02 -2.918975276816622e+03
-1.156200664087136e+03  2.148898184026908e+02 -2.918975276816622e+03
-1.156310251652357e+03  2.131650893690156e+02 -2.918975276816622e+03
-1.156121498773616e+03  2.109941258758133e+02 -2.918975276816622e+03
-1.156066433482492e+03  2.095754522325591e+02 -2.918975276816622e+03
-1.156118855183765e+03  2.081066821398036e+02 -2.918975276816622e+03
-1.156100786663535e+03  2.062371895520332e+02 -2.918975276816622e+03
-1.156068509557336e+03  2.049671760939032e+02 -2.918975276816622e+03
-1.156056248394622e+03  2.039232257343576e+02 -2.918975276816622e+03
-1.156034992839805e+03  2.021183362609919e+02 -2.918975276816622e+03
-1.156026231463355e+03  2.004054489863031e+02 -2.918975276816622e+03
-1.156026847785349e+03  1.989341169778509e+02 -2.918975276816622e+03
-1.156011649262560e+03  1.964805053779402e+02 -2.918975276816622e+03
-1.156005288918277e+03  1.937766998455544e+02 -2.918975276816622e+03
-1.155981790597678e+03  1.913531402746118e+02 -2.918975276816622e+03
-1.155988275959453e+03  1.897782021457900e+02 -2.918975276816622e+03
-1.156007747457437e+03  1.883132393186297e+02 -2.918975276816622e+03
-1.156078191278009e+03  1.865669134164056e+02 -2.918975276816622e+03
-1.156068026496457e+03  1.852450279378786e+02 -2.918975276816622e+03
-1.155898862896551e+03  1.838903450798382e+02 -2.918975276816622e+03
-1.155862649580855e+03  1.820484765516524e+02 -2.918975276816622e+03
-1.156071899472799e+03  1.805530524121224e+02 -2.918975276816622e+03
-1.156115934705161e+03  1.794829023007664e+02 -2.918975276816622e+03
-1.155990322712647e+03  1.770653063184986e+02 -2.918975276816622e+03
-1.155984049296346e+03  1.748781957581820e+02 -2.918975276816622e+03
-1.156018511828764e+03  1.731540353263381e+02 -2.918975276816622e+03
-1.156024242152050e+03  1.710266656696757e+02 -2.918975276816622e+03
-1.156014381074830e+03  1.696321168748699e+02 -2.918975276816622e+03
-1.156018960209081e+03  1.681296184108153e+02 -2.918975276816622e+03
-1.156023828546815e+03  1.664288495408818e+02 -2.918975276816622e+03
-1.156028691411333e+03  1.651851534350485e+02 -2.918975276816622e+03
-1.156032183797473e+03  1.639391720624904e+02 -2.918975276816622e+03
-1.156036665222759e+03  1.620700369190663e+02 -2.918975276816622e+03
-1.156038951511797e+03  1.604800045060254e+02 -2.918975276816622e+03
-1.156047066096332e+03  1.593285994384368e+02 -2.918975276816622e+03
-1.156054011714739e+03  1.571272138194015e+02 -2.918975276816622e+03
-1.156060899792780e+03  1.550735014507730e+02 -2.918975276816622e+03
-1.156048395511650e+03  1.531932858261876e+02 -2.918975276816622e+03
-1.156059819078592e+03  1.510426786475495e+02 -2.918975276816622e+03
-1.156107038077581e+03  1.497683688413359e+02 -2.918975276816622e+03
-1.156117530379055e+03  1.482329383496902e+02 -2.918975276816622e+03
-1.156074740648781e+03  1.463551145677574e+02 -2.918975276816622e+03
-1.156079633903193e+03  1.451958316485077e+02 -2.918975276816622e+03
-1.156102735326406e+03  1.440674225173333e+02 -2.918975276816622e+03
-1.156117016150678e+03  1.421064905614550e+02 -2.918975276816622e+03
-1.156123543886873e+03  1.404645355601434e+02 -2.918975276816622e+03
-1.156140894228205e+03  1.392962892807385e+02 -2.918975276816622e+03
-1.156148182341739e+03  1.370206501889997e+02 -2.918975276816622e+03
-1.156165421521442e+03  1.349352634152735e+02 -2.918975276816622e+03
-1.156157809773926e+03  1.331102244865457e+02 -2.918975276816622e+03
-1.156171572752658e+03  1.307826416666113e+02 -2.918975276816622e+03
-1.156207987684060e+03  1.294721087901178e+02 -2.918975276816622e+03
-1.156254799898578e+03  1.281639732860681e+02 -2.918975276816622e+03
-1.156262532142695e+03  1.264837586190079e+02 -2.918975276816622e+03
-1.156278039162542e+03  1.251650286032730e+02 -2.918975276816622e+03
-1.156289885152588e+03  1.238041948295620e+02 -2.918975276816622e+03
-1.156316321761449e+03  1.220667649660908e+02 -2.918975276816622e+03
-1.156345123965395e+03  1.205231090679217e+02 -2.918975276816622e+03
-1.156377408943964e+03  1.194234358550262e+02 -2.918975276816622e+03
-1.156425588253719e+03  1.170614079568251e+02 -2.918975276816622e+03
-1.156408458685856e+03  1.148611483443467e+02 -2.918975276816622e+03
-1.156435142324324e+03  1.131305676186971e+02 -2.918975276816622e+03
-1.156636433950248e+03  1.111766004864379e+02 -2.918975276816622e+03
-1.156656388801797e+03  1.100178825114819e+02 -2.918975276816622e+03
-1.156488122265806e+03  1.085128112523790e+02 -2.918975276816622e+03
-1.156500654850698e+03  1.068070098038753e+02 -2.918975276816622e+03
-1.156537626046234e+03  1.054380307897408e+02 -2.918975276816622e+03
-1.156551683095581e+03  1.040110120316119e+02 -2.918975276816622e+03
-1.156578929605728e+03  1.021971537789958e+02 -2.918975276816622e+03
-1.156595273935543e+03  1.007150301444363e+02 -2.918975276816622e+03
-1.156593240476655e+03  9.928592213360669e+01 -2.918975276816622e+03
-1.156598796541342e+03  9.758779415906598e+01 -2.918975276816622e+03
-1.156586870934482e+03  9.605914325549816e+01 -2.918975276816622e+03
-1.156592742077474e+03  9.317778108316986e+01 -2.918975276816622e+03
-1.156632008986304e+03  9.056371663925667e+01 -2.918975276816622e+03
-1.156637609481059e+03  8.901370186084779e+01 -2.918975276816622e+03
-1.156566770315149e+03  8.746749198568101e+01 -2.918975276816622e+03
-1.156600518823468e+03  8.668625292822398e+01 -2.918975276816622e+03
-1.156691368595216e+03  8.582096528554172e+01 -2.918975276816622e+03
-1.156667686792311e+03  8.389737717875553e+01 -2.918975276816622e+03
-1.156602749299030e+03  8.090688594846223e+01 -2.918975276816622e+03
-1.156643152067495e+03  7.774240168507360e+01 -2.918975276816622e+03
-1.156723417012655e+03  7.494919889057913e+01 -2.918975276816622e+03
-1.156706113701126e+03  7.262369956421909e+01 -2.918975276816622e+03
-1.156476174367961e+03  7.043076339967376e+01 -2.918975276816622e+03
-1.156554263211789e+03  6.819165397452204e+01 -2.918975276816622e+03
-1.156818975129209e+03  6.534723278881617e+01 -2.918975276816622e+03
-1.156688082973224e+03  6.318223516484056e+01 -2.918975276816622e+03
-1.156622455695324e+03  6.173600819765722e+01 -2.918975276816622e+03
-1.156781224500561e+03  5.943484951926843e+01 -2.918975276816622e+03
-1.156815048924382e+03  5.730761219990912e+01 -2.918975276816622e+03
-1.156794774212003e+03  5.494137619463913e+01 -2.918975276816622e+03
-1.156885119154240e+03  5.224919327708483e+01 -2.918975276816622e+03
-1.156967422403121e+03  5.031178070383265e+01 -2.918975276816622e+03
-1.156932824108521e+03  4.881031036146349e+01 -2.918975276816622e+03
-1.156917850237219e+03  4.727142337255793e+01 -2.918975276816622e+03
-1.156936484289634e+03  4.540939153164814e+01 -2.918975276816622e+03
-1.157041570102420e+03  4.316228115739605e+01 -2.918975276816622e+03
-1.157096394093041e+03  4.184986307821110e+01 -2.918975276816622e+03
-1.157100562417433e+03  4.027138990932355e+01 -2.918975276816622e+03
-1.157166902651739e+03  3.753205891902807e+01 -2.918975276816622e+03
-1.157181187542277e+03  3.455939081714960e+01 -2.918975276816622e+03
-1.157222405035753e+03  3.144600069321485e+01 -2.918975276816622e+03
-1.157251406595317e+03  2.934129689388872e+01 -2.918975276816622e+03
-1.157285823043172e+03  2.750038820265684e+01 -2.918975276816622e+03
-1.157337870313230e+03  2.491458829491064e+01 -2.918975276816622e+03
-1.157359235813034e+03  2.247714606828056e+01 -2.918975276816622e+03
-1.157349919542582e+03  2.018806152276661e+01 -2.918975276816622e+03
-1.157345425594645e+03  1.814009459543843e+01 -2.918975276816622e+03
-1.157373084142932e+03  1.655143295195418e+01 -2.918975276816622e+03
-1.157385414748100e+03  1.528823107450099e+01 -2.918975276816622e+03
-1.157349479832217e+03  1.401185045203908e+01 -2.918975276816622e+03
-1.157355424164768e+03  1.263341782893884e+01 -2.918975276816622e+03
-1.157364675187156e+03  1.085862506835244e+01 -2.918975276816622e+03
-1.157329746246726e+03  8.669073325536557e+00 -2.918975276816622e+03
 1.154500674390036e+03 -1.690081713748180e+00  2.918975276816622e+03
 1.154757985100847e+03 -2.676062456910734e-01  2.918975276816622e+03
 1.154319883991144e+03 -3.275926921086943e+00  2.918975276816622e+03
 1.154434713194329e+03 -5.778548847285972e+00  2.918975276816622e+03
 1.154577250791589e+03 -8.131268992228378e+00  2.918975276816622e+03
 1.154566549545089e+03 -1.050624876024605e+01  2.918975276816622e+03
 1.154402609454832e+03 -1.290348815133898e+01  2.918975276816622e+03
 1.154238669364574e+03 -1.530072754243191e+01  2.918975276816622e+03
 1.154209380960383e+03 -1.766845367095325e+01  2.918975276816622e+03
 1.154314744242258e+03 -2.000666653690300e+01  2.918975276816622e+03
 1.154316187126226e+03 -2.253770450124807e+01  2.918975276816622e+03
 1.154213709612288e+03 -2.526156756398845e+01  2.918975276816622e+03
 1.154070102806747e+03 -2.669356825802231e+01  2.918975276816622e+03
 1.153926402880193e+03 -2.850254748706941e+01  2.918975276816622e+03
 1.153891589355195e+03 -3.138699204732966e+01  2.918975276816622e+03
 1.153924626061168e+03 -3.367806103508335e+01  2.918975276816622e+03
 1.153940684384746e+03 -3.632628034732248e+01  2.918975276816622e+03
 1.153915531270931e+03 -3.909637621714677e+01  2.918975276816622e+03
 1.153866145102115e+03 -4.163119832007073e+01  2.918975276816622e+03
 1.153853798100406e+03 -4.438024999682683e+01  2.918975276816622e+03
 1.153822304854667e+03 -4.743049052436658e+01  2.918975276816622e+03
 1.153757903088844e+03 -5.001047438776229e+01  2.918975276816622e+03
 1.153725385568426e+03 -5.184289340816975e+01  2.918975276816622e+03
 1.153862812124327e+03 -5.340920051224612e+01  2.918975276816622e+03
 1.153842778422500e+03 -5.538666201469017e+01  2.918975276816622e+03
 1.153702365831631e+03 -5.769666592403150e+01  2.918975276816622e+03
 1.153696632863558e+03 -5.967761904762055e+01  2.918975276816622e+03
 1.153707684893773e+03 -6.117972893771911e+01  2.918975276816622e+03
 1.153709012741117e+03 -6.258198230917570e+01  2.918975276816622e+03
 1.153686900249350e+03 -6.434230036882650e+01  2.918975276816622e+03
 1.153683736391710e+03 -6.582884376734694e+01  2.918975276816622e+03
 1.153677063742814e+03 -6.782338146116066e+01  2.918975276816622e+03
 1.153684464984521e+03 -7.009279608112770e+01  2.918975276816622e+03
 1.153677903404990e+03 -7.143687333752204e+01  2.918975276816622e+03
 1.153674154230895e+03 -7.323980825381803e+01  2.918975276816622e+03
 1.153673921476898e+03 -7.630373982237749e+01  2.918975276816622e+03
 1.153676450957294e+03 -7.942335826762451e+01  2.918975276816622e+03
 1.153676501006259e+03 -8.129447618769248e+01  2.918975276816622e+03
 1.153676600848298e+03 -8.331572981301838e+01  2.918975276816622e+03
 1.153674946313762e+03 -8.541690146542358e+01  2.918975276816622e+03
 1.153673218232453e+03 -8.748811903896635e+01  2.918975276816622e+03
 1.153676598262466e+03 -8.980811237492514e+01  2.918975276816622e+03
 1.153675088044118e+03 -9.151334776115746e+01  2.918975276816622e+03
 1.153673137339496e+03 -9.350645103875573e+01  2.918975276816622e+03
 1.153667701595883e+03 -9.602286669871998e+01  2.918975276816622e+03
 1.153660721314967e+03 -9.762258897896547e+01  2.918975276816622e+03
 1.153655210998831e+03 -9.915771740140663e+01  2.918975276816622e+03
 1.153648173791922e+03 -1.020460584680536e+02  2.918975276816622e+03
 1.153670385353222e+03 -1.044262837984619e+02  2.918975276816622e+03
 1.153662137561445e+03 -1.056494804624886e+02  2.918975276816622e+03
 1.153600505496282e+03 -1.075392947573239e+02  2.918975276816622e+03
 1.153609492741511e+03 -1.097869473427894e+02  2.918975276816622e+03
 1.153654329449667e+03 -1.113993696344927e+02  2.918975276816622e+03
 1.153609462563709e+03 -1.134115625112419e+02  2.918975276816622e+03
 1.153462009238488e+03 -1.159146700759412e+02  2.918975276816622e+03
 1.153472540862083e+03 -1.188228488483216e+02  2.918975276816622e+03
 1.153603914523653e+03 -1.215746359490701e+02  2.918975276816622e+03
 1.153638270011488e+03 -1.238563674954693e+02  2.918975276816622e+03
 1.153539810782183e+03 -1.250759433564063e+02  2.918975276816622e+03
 1.153454512549678e+03 -1.270756574424033e+02  2.918975276816622e+03
 1.153571935195327e+03 -1.310586719058879e+02  2.918975276816622e+03
 1.153651587025410e+03 -1.343977140549099e+02  2.918975276816622e+03
 1.153636722875712e+03 -1.369517774225037e+02  2.918975276816622e+03
 1.153621858726013e+03 -1.395058407900975e+02  2.918975276816622e+03
 1.153606994576314e+03 -1.420599041576913e+02  2.918975276816622e+03
 1.153601708202977e+03 -1.445656385431506e+02  2.918975276816622e+03
 1.153595698915681e+03 -1.473442095064067e+02  2.918975276816622e+03
 1.153603015719927e+03 -1.497969142327700e+02  2.918975276816622e+03
 1.153603301903074e+03 -1.515122706019299e+02  2.918975276816622e+03
 1.153608558702745e+03 -1.533341679272386e+02  2.918975276816622e+03
 1.153608795918098e+03 -1.560838118664782e+02  2.918975276816622e+03
 1.153619607434263e+03 -1.590894637540868e+02  2.918975276816622e+03
 1.153624053873031e+03 -1.609820428787318e+02  2.918975276816622e+03
 1.153626125979371e+03 -1.620246848268452e+02  2.918975276816622e+03
 1.153625606134394e+03 -1.630371854412494e+02  2.918975276816622e+03
 1.153631924612928e+03 -1.646263537621372e+02  2.918975276816622e+03
 1.153636606811796e+03 -1.660382200266992e+02  2.918975276816622e+03
 1.153644242840568e+03 -1.675764119531083e+02  2.918975276816622e+03
 1.153642339125672e+03 -1.696039935070142e+02  2.918975276816622e+03
 1.153642069688429e+03 -1.713174484018934e+02  2.918975276816622e+03
 1.153638395547919e+03 -1.732241030397140e+02  2.918975276816622e+03
 1.153638715153257e+03 -1.761353003851488e+02  2.918975276816622e+03
 1.153639656754054e+03 -1.792817185045186e+02  2.918975276816622e+03
 1.153637577079466e+03 -1.822678774934209e+02  2.918975276816622e+03
 1.153639845268619e+03 -1.850807044827820e+02  2.918975276816622e+03
 1.153634677424926e+03 -1.872215833380390e+02  2.918975276816622e+03
 1.153637656839307e+03 -1.897810831748100e+02  2.918975276816622e+03
 1.153634176006448e+03 -1.928186331280170e+02  2.918975276816622e+03
 1.153648886463521e+03 -1.960565446305983e+02  2.918975276816622e+03
 1.153638078515401e+03 -1.994126128870295e+02  2.918975276816622e+03
 1.153636132194019e+03 -2.022754918021373e+02  2.918975276816622e+03
 1.153628986362833e+03 -2.048555352015750e+02  2.918975276816622e+03
 1.153621840531648e+03 -2.074355786010127e+02  2.918975276816622e+03
 1.153687289249963e+03 -2.098979501225698e+02  2.918975276816622e+03
 1.153755879634592e+03 -2.127674268916247e+02  2.918975276816622e+03
 1.153755017136038e+03 -2.161616807860580e+02  2.918975276816622e+03
 1.153649349185552e+03 -2.191477020436984e+02  2.918975276816622e+03
 1.153569628730573e+03 -2.219148156017081e+02  2.918975276816622e+03
 1.153667677641586e+03 -2.237605932386265e+02  2.918975276816622e+03
 1.153769115819879e+03 -2.249219406549314e+02  2.918975276816622e+03
 1.153741198311918e+03 -2.272581620506813e+02  2.918975276816622e+03
 1.153622267472630e+03 -2.296161707217479e+02  2.918975276816622e+03
 1.153646991262095e+03 -2.311142773164664e+02  2.918975276816622e+03
 1.154056065538238e+03 -2.331190685821942e+02  2.918975276816622e+03
 1.154210060722460e+03 -2.357339208575074e+02  2.918975276816622e+03
 1.153873565753185e+03 -2.383191034615365e+02  2.918975276816622e+03
 1.153689522495396e+03 -2.401624054855253e+02  2.918975276816622e+03
 1.153715479779315e+03 -2.426562067573537e+02  2.918975276816622e+03
 1.153769538590613e+03 -2.461246783635061e+02  2.918975276816622e+03
 1.153787369530970e+03 -2.489310503095484e+02  2.918975276816622e+03
 1.153798419903228e+03 -2.514930320890365e+02  2.918975276816622e+03
 1.153811878311309e+03 -2.541108835012959e+02  2.918975276816622e+03
 1.153823170448977e+03 -2.563487980710418e+02  2.918975276816622e+03
 1.153826746168832e+03 -2.590328443195912e+02  2.918975276816622e+03
 1.153836319455934e+03 -2.611279085024062e+02  2.918975276816622e+03
 1.153848874747853e+03 -2.625259866110218e+02  2.918975276816622e+03
 1.153855272365763e+03 -2.646979988652608e+02  2.918975276816622e+03
 1.153863802613683e+03 -2.671687085064342e+02  2.918975276816622e+03
 1.153871774480984e+03 -2.700367499534353e+02  2.918975276816622e+03
 1.153877373442053e+03 -2.719178222964363e+02  2.918975276816622e+03
 1.153880311854790e+03 -2.733163809648248e+02  2.918975276816622e+03
 1.153886166918774e+03 -2.759024818160445e+02  2.918975276816622e+03
 1.153894944837965e+03 -2.784690648125506e+02  2.918975276816622e+03
 1.153898455533297e+03 -2.798063930477850e+02  2.918975276816622e+03
 1.153899426947625e+03 -2.818145491220779e+02  2.918975276816622e+03
 1.153899877667967e+03 -2.847882824906529e+02  2.918975276816622e+03
 1.153905440163514e+03 -2.874335917504137e+02  2.918975276816622e+03
 1.153916390622336e+03 -2.900810120181439e+02  2.918975276816622e+03
 1.153933187259873e+03 -2.932639568000037e+02  2.918975276816622e+03
 1.153932009480758e+03 -2.958380658653420e+02  2.918975276816622e+03
 1.153911655325405e+03 -2.970313510182181e+02  2.918975276816622e+03
 1.153915749543384e+03 -2.976700563055173e+02  2.918975276816622e+03
 1.153927072479030e+03 -2.983143862721325e+02  2.918975276816622e+03
 1.153929306062139e+03 -2.999087135090867e+02  2.918975276816622e+03
 1.153935025729249e+03 -3.021292971532976e+02  2.918975276816622e+03
 1.153913468315797e+03 -3.035206552021201e+02  2.918975276816622e+03
 1.153882991195020e+03 -3.056003942896779e+02  2.918975276816622e+03
 1.153882479712822e+03 -3.084138559578391e+02  2.918975276816622e+03
 1.153881361837847e+03 -3.097481644799871e+02  2.918975276816622e+03
 1.153863068894416e+03 -3.105823185933030e+02  2.918975276816622e+03
 1.153858407841569e+03 -3.113495604229102e+02  2.918975276816622e+03
 1.153860975875682e+03 -3.125103764791228e+02  2.918975276816622e+03
 1.153852102652944e+03 -3.139740681976584e+02  2.918975276816622e+03
 1.153839464737157e+03 -3.161088818435319e+02  2.918975276816622e+03
 1.153820606779360e+03 -3.195499833475678e+02  2.918975276816622e+03
 1.153803737383226e+03 -3.225741470924513e+02  2.918975276816622e+03
 1.153791389940606e+03 -3.248989326790095e+02  2.918975276816622e+03
 1.153780907603941e+03 -3.273049373035388e+02  2.918975276816622e+03
 1.153770720680785e+03 -3.299965960355693e+02  2.918975276816622e+03
 1.153760447899035e+03 -3.318704025005701e+02  2.918975276816622e+03
 1.153751712008543e+03 -3.335578237682084e+02  2.918975276816622e+03
 1.153762210886901e+03 -3.366687611412534e+02  2.918975276816622e+03
 1.153760295735781e+03 -3.390639080882342e+02  2.918975276816622e+03
 1.153631133972941e+03 -3.406929641709875e+02  2.918975276816622e+03
 1.153406321339301e+03 -3.428593337817871e+02  2.918975276816622e+03
 1.153556604780175e+03 -3.452875150515317e+02  2.918975276816622e+03
 1.154133967741539e+03 -3.485959733272216e+02  2.918975276816622e+03
 1.154212819358328e+03 -3.516158415904031e+02  2.918975276816622e+03
 1.153797821381165e+03 -3.537569449811094e+02  2.918975276816622e+03
 1.153610133066346e+03 -3.560256609293596e+02  2.918975276816622e+03
 1.153650700783126e+03 -3.586760678290638e+02  2.918975276816622e+03
 1.153737577906906e+03 -3.616420149688620e+02  2.918975276816622e+03
 1.153729996102358e+03 -3.639072974944273e+02  2.918975276816622e+03
 1.153629339132526e+03 -3.652991061731291e+02  2.918975276816622e+03
 1.153632856469137e+03 -3.663559703912991e+02  2.918975276816622e+03
 1.153690059685769e+03 -3.677852308626224e+02  2.918975276816622e+03
 1.153694647977799e+03 -3.698612157022365e+02  2.918975276816622e+03
 1.153707000125783e+03 -3.726196051521054e+02  2.918975276816622e+03
 1.153717197982862e+03 -3.751671095665613e+02  2.918975276816622e+03
 1.153730111576141e+03 -3.774036917152348e+02  2.918975276816622e+03
 1.153747887154851e+03 -3.801436197157061e+02  2.918975276816622e+03
 1.153761581187006e+03 -3.824558888194333e+02  2.918975276816622e+03
 1.153769819648043e+03 -3.836276238016305e+02  2.918975276816622e+03
 1.153783384610931e+03 -3.851214739164009e+02  2.918975276816622e+03
1.153804131872954e+03 3.845975509362804e+02 2.918975276816622e+03
1.153798283377820e+03 3.857911633884971e+02 2.918975276816622e+03
1.153822419305606e+03 3.827716104002302e+02 2.918975276816622e+03
1.153841798737347e+03 3.813255239950905e+02 2.918975276816622e+03
1.153851166923278e+03 3.799706873302368e+02 2.918975276816622e+03
1.153865554351178e+03 3.776990691152061e+02 2.918975276816622e+03
1.153890760718380e+03 3.749554630546564e+02 2.918975276816622e+03
1.153948649520008e+03 3.728332304050562e+02 2.918975276816622e+03
1.153946890297435e+03 3.715904943449414e+02 2.918975276816622e+03
1.153883002698321e+03 3.691989066350465e+02 2.918975276816622e+03
1.153929129237928e+03 3.670271114536312e+02 2.918975276816622e+03
1.154083970639992e+03 3.656770036726841e+02 2.918975276816622e+03
1.154101431566023e+03 3.636983504587012e+02 2.918975276816622e+03
1.154034024919309e+03 3.609351547494550e+02 2.918975276816622e+03
1.154040598116066e+03 3.585704574558297e+02 2.918975276816622e+03
1.154083154791588e+03 3.568432774958786e+02 2.918975276816622e+03
1.154139444225097e+03 3.545342402194401e+02 2.918975276816622e+03
1.154149011750728e+03 3.527099158152384e+02 2.918975276816622e+03
1.154129002512408e+03 3.513464311180878e+02 2.918975276816622e+03
1.154143690435936e+03 3.491679423313350e+02 2.918975276816622e+03
1.154194798024502e+03 3.465301096816705e+02 2.918975276816622e+03
1.154231341583244e+03 3.441419005150020e+02 2.918975276816622e+03
1.154244170886950e+03 3.424892181929810e+02 2.918975276816622e+03
1.154253965026079e+03 3.408314804465608e+02 2.918975276816622e+03
1.154266085716796e+03 3.385630529377885e+02 2.918975276816622e+03
1.154274417898469e+03 3.361748944527153e+02 2.918975276816622e+03
1.154282750080141e+03 3.337867359676421e+02 2.918975276816622e+03
1.154368515537524e+03 3.325797064425172e+02 2.918975276816622e+03
1.154442338671667e+03 3.313998694946777e+02 2.918975276816622e+03
1.154426786206862e+03 3.290660961641750e+02 2.918975276816622e+03
1.154412489644609e+03 3.272534899308975e+02 2.918975276816622e+03
1.154406295100389e+03 3.253777448518520e+02 2.918975276816622e+03
1.154406946671650e+03 3.229176938298139e+02 2.918975276816622e+03
1.154420976573502e+03 3.204890638913315e+02 2.918975276816622e+03
1.154447560332801e+03 3.178113208983602e+02 2.918975276816622e+03
1.154441804288587e+03 3.150358404293558e+02 2.918975276816622e+03
1.154362404669466e+03 3.125006687358396e+02 2.918975276816622e+03
1.154260525205628e+03 3.098524154372407e+02 2.918975276816622e+03
1.154260802279599e+03 3.067726923219587e+02 2.918975276816622e+03
1.154343587491557e+03 3.034320931085530e+02 2.918975276816622e+03
1.154358362969208e+03 3.007560931203932e+02 2.918975276816622e+03
1.154295477528703e+03 2.985201357016161e+02 2.918975276816622e+03
1.154222940904350e+03 2.960596216269755e+02 2.918975276816622e+03
1.154249493794338e+03 2.942890652100848e+02 2.918975276816622e+03
1.154310344694514e+03 2.923159380983953e+02 2.918975276816622e+03
1.154306404090538e+03 2.894502826341580e+02 2.918975276816622e+03
1.154225404831173e+03 2.879064717107304e+02 2.918975276816622e+03
1.154132935482252e+03 2.862815671292948e+02 2.918975276816622e+03
1.154106054699165e+03 2.832537243490410e+02 2.918975276816622e+03
1.154076363999878e+03 2.807805732280324e+02 2.918975276816622e+03
1.154059253294321e+03 2.783672984191396e+02 2.918975276816622e+03
1.154062419102102e+03 2.758922032257084e+02 2.918975276816622e+03
1.154028693196020e+03 2.729344550262047e+02 2.918975276816622e+03
1.153932391145520e+03 2.696510396388665e+02 2.918975276816622e+03
1.153881609904111e+03 2.663581814095962e+02 2.918975276816622e+03
1.153872718525449e+03 2.641230610033641e+02 2.918975276816622e+03
1.153867560268494e+03 2.622554045830822e+02 2.918975276816622e+03
1.153816670542373e+03 2.593003453172256e+02 2.918975276816622e+03
1.153791002054770e+03 2.570951413211647e+02 2.918975276816622e+03
1.153771608628650e+03 2.554630121057706e+02 2.918975276816622e+03
1.153803256021048e+03 2.538988552351194e+02 2.918975276816622e+03
1.153794558397173e+03 2.527872582776592e+02 2.918975276816622e+03
1.153702577488246e+03 2.514971901906997e+02 2.918975276816622e+03
1.153691996197568e+03 2.497138742279382e+02 2.918975276816622e+03
1.153736713877041e+03 2.486200092567088e+02 2.918975276816622e+03
1.153698436918367e+03 2.474353336872799e+02 2.918975276816622e+03
1.153682675239956e+03 2.460954426370925e+02 2.918975276816622e+03
1.153747722219841e+03 2.444705500132366e+02 2.918975276816622e+03
1.153729967346136e+03 2.425702972075689e+02 2.918975276816622e+03
1.153669325863290e+03 2.409768472477335e+02 2.918975276816622e+03
1.153672085489111e+03 2.391712922632291e+02 2.918975276816622e+03
1.153695939156031e+03 2.371158274788658e+02 2.918975276816622e+03
1.153687232214331e+03 2.345317165433181e+02 2.918975276816622e+03
1.153689082755972e+03 2.329895237794250e+02 2.918975276816622e+03
1.153694959081967e+03 2.314109902044271e+02 2.918975276816622e+03
1.153638216360824e+03 2.292951448510432e+02 2.918975276816622e+03
1.153557830223317e+03 2.276488244597365e+02 2.918975276816622e+03
1.153684760290600e+03 2.260664220481993e+02 2.918975276816622e+03
1.153784280067408e+03 2.249394019080133e+02 2.918975276816622e+03
1.153697813313045e+03 2.228302987551443e+02 2.918975276816622e+03
1.153644507996202e+03 2.196998191336531e+02 2.918975276816622e+03
1.153680468822689e+03 2.168885540152343e+02 2.918975276816622e+03
1.153719456469636e+03 2.143740364748302e+02 2.918975276816622e+03
1.153758444116584e+03 2.118595189344260e+02 2.918975276816622e+03
1.153762350181898e+03 2.100866162211704e+02 2.918975276816622e+03
1.153714033753000e+03 2.080915517909592e+02 2.918975276816622e+03
1.153648576411522e+03 2.051327108166440e+02 2.918975276816622e+03
1.153874428743453e+03 2.022822440366603e+02 2.918975276816622e+03
1.154017842313566e+03 1.996052335880765e+02 2.918975276816622e+03
1.153787507448454e+03 1.969933052765607e+02 2.918975276816622e+03
1.153670632039528e+03 1.940526789577725e+02 2.918975276816622e+03
1.153752503018477e+03 1.923960657819469e+02 2.918975276816622e+03
1.153813814930211e+03 1.911432954340017e+02 2.918975276816622e+03
1.153721838698563e+03 1.887250919718934e+02 2.918975276816622e+03
1.153619562722721e+03 1.858556585583297e+02 2.918975276816622e+03
1.153628181788249e+03 1.830630076390929e+02 2.918975276816622e+03
1.153671324113410e+03 1.804661344453763e+02 2.918975276816622e+03
1.153675237057118e+03 1.774935913232058e+02 2.918975276816622e+03
1.153667093025318e+03 1.746708677938708e+02 2.918975276816622e+03
1.153646892018010e+03 1.719979638573713e+02 2.918975276816622e+03
1.153626691010701e+03 1.693250599208717e+02 2.918975276816622e+03
1.153626659457327e+03 1.671288501754747e+02 2.918975276816622e+03
1.153642276047055e+03 1.650723802426395e+02 2.918975276816622e+03
1.153653371325947e+03 1.626789559312636e+02 2.918975276816622e+03
1.153664466604840e+03 1.602855316198877e+02 2.918975276816622e+03
1.153660127278918e+03 1.583697144214004e+02 2.918975276816622e+03
1.153656886063513e+03 1.565242504210117e+02 2.918975276816622e+03
1.153670177563437e+03 1.542715325058330e+02 2.918975276816622e+03
1.153761631368876e+03 1.531481852137214e+02 2.918975276816622e+03
1.153771482520403e+03 1.514646792494670e+02 2.918975276816622e+03
1.153710098805851e+03 1.491250870800550e+02 2.918975276816622e+03
1.153686223746711e+03 1.467402263532671e+02 2.918975276816622e+03
1.153681582555893e+03 1.433390934011235e+02 2.918975276816622e+03
1.153727405633779e+03 1.405036235791076e+02 2.918975276816622e+03
1.153686011835114e+03 1.391101079761492e+02 2.918975276816622e+03
1.153625728000315e+03 1.375951913291052e+02 2.918975276816622e+03
1.153612061228162e+03 1.348042606325097e+02 2.918975276816622e+03
1.153596475715799e+03 1.317974474414513e+02 2.918975276816622e+03
1.153562053718497e+03 1.291723619563647e+02 2.918975276816622e+03
1.153534938796354e+03 1.274739726858961e+02 2.918975276816622e+03
1.153553142481469e+03 1.263875548992736e+02 2.918975276816622e+03
1.153512904915756e+03 1.252454162818282e+02 2.918975276816622e+03
1.153339840419607e+03 1.228987356912119e+02 2.918975276816622e+03
1.153334973811914e+03 1.205663449835469e+02 2.918975276816622e+03
1.153425284935167e+03 1.193513958228724e+02 2.918975276816622e+03
1.153395396878004e+03 1.175236564111699e+02 2.918975276816622e+03
1.153397117802262e+03 1.147212148854422e+02 2.918975276816622e+03
1.153477028956250e+03 1.122536769041140e+02 2.918975276816622e+03
1.153618497163422e+03 1.107753170779203e+02 2.918975276816622e+03
1.153588822949782e+03 1.086417229487334e+02 2.918975276816622e+03
1.153685188084824e+03 1.064246033117631e+02 2.918975276816622e+03
1.153683136175033e+03 1.050881839083430e+02 2.918975276816622e+03
1.153746238060992e+03 1.029041456138287e+02 2.918975276816622e+03
1.153889213697863e+03 1.004057555314577e+02 2.918975276816622e+03
1.153818425118110e+03 9.796735051503964e+01 2.918975276816622e+03
1.153921695376235e+03 9.506036826762714e+01 2.918975276816622e+03
1.153985939387122e+03 9.249123799577204e+01 2.918975276816622e+03
1.154134574957204e+03 8.951038508471717e+01 2.918975276816622e+03
1.154209228046408e+03 8.675694822022325e+01 2.918975276816622e+03
1.154253071676584e+03 8.429337321248904e+01 2.918975276816622e+03
1.154372815167398e+03 8.130743134664758e+01 2.918975276816622e+03
1.154464940677221e+03 7.908864896076950e+01 2.918975276816622e+03
1.154558263414734e+03 7.695046065428211e+01 2.918975276816622e+03
1.154589710393275e+03 7.429046889367335e+01 2.918975276816622e+03
1.154621157371816e+03 7.163047713306456e+01 2.918975276816622e+03
1.154652604350357e+03 6.897048537245577e+01 2.918975276816622e+03
1.154868864752587e+03 6.682424696095595e+01 2.918975276816622e+03
1.154933117509833e+03 6.427741713491444e+01 2.918975276816622e+03
1.154297144308857e+03 6.087532468328829e+01 2.918975276816622e+03
1.154329461561576e+03 5.720567097155249e+01 2.918975276816622e+03
1.155066374246600e+03 5.479468738132440e+01 2.918975276816622e+03
1.155045129738322e+03 5.295130425743924e+01 2.918975276816622e+03
1.154892727312356e+03 5.081670857442491e+01 2.918975276816622e+03
1.154790571725241e+03 4.895665616262878e+01 2.918975276816622e+03
1.154839911947666e+03 4.767868747545655e+01 2.918975276816622e+03
1.154928403973629e+03 4.606095003373198e+01 2.918975276816622e+03
1.154865817470663e+03 4.363827485661329e+01 2.918975276816622e+03
1.154865088243870e+03 4.233247290031957e+01 2.918975276816622e+03
1.154853163981669e+03 4.131199119250627e+01 2.918975276816622e+03
1.154867271245094e+03 3.986394592143925e+01 2.918975276816622e+03
1.154885371782591e+03 3.730541808490094e+01 2.918975276816622e+03
1.154884826891896e+03 3.484761334592130e+01 2.918975276816622e+03
1.154880146310518e+03 3.310854144361438e+01 2.918975276816622e+03
1.154977464795065e+03 3.113832468874836e+01 2.918975276816622e+03
1.154962694831251e+03 2.926364597349996e+01 2.918975276816622e+03
1.154853100480837e+03 2.689079450689909e+01 2.918975276816622e+03
1.154794303372823e+03 2.387562162600282e+01 2.918975276816622e+03
1.154797377556795e+03 2.071539270566734e+01 2.918975276816622e+03
1.154800451740768e+03 1.755516378533187e+01 2.918975276816622e+03
1.154792929596964e+03 1.520731146930085e+01 2.918975276816622e+03
1.154797548728643e+03 1.395932565760040e+01 2.918975276816622e+03
1.154784093924233e+03 1.254237872772995e+01 2.918975276816622e+03
1.154764975548376e+03 1.092392539763543e+01 2.918975276816622e+03
1.154755862148351e+03 9.042629740827056e+00 2.918975276816622e+03
1.154721605756258e+03 6.643547139332809e+00 2.918975276816622e+03
1.154674786600256e+03 4.896858803325703e+00 2.918975276816622e+03
1.154622952577375e+03 3.412596877851841e+00 2.918975276816622e+03
1.154695877261331e+03 1.685383928196530e+00 2.918975276816622e+03

CELLS 1365 5619
3 6 1377 7
3 6 1378 361
3 7 1379 8
3 8 1380 9
3 9 1381 10
3 10 1382 11
3 11 1383 12
4 12 1384 1385 13
3 13 1386 14
3 14 1387 15
3 15 1388 16
3 16 1389 17
3 17 1390 18
3 18 1391 19
4 19 1392 1393 20
3 20 1394 21
3 21 1395 22
4 22 1396 1397 23
3 23 1398 24
4 24 1399 1400 25
4 25 1401 1402 26
3 26 1403 27
3 27 1404 28
3 28 1405 29
3 29 1406 30
3 30 1407 31
3 31 1408 32
3 32 1409 33
3 33 1410 34
3 34 1411 35
3 35 1412 36
3 36 1413 37
3 37 1414 38
3 38 1415 39
3 39 1416 40
3 40 1417 41
3 41 1418 42
3 42 1419 43
3 43 1420 44
3 44 1421 45
3 45 1422 46
3 46 1423 47
3 47 1424 48
3 48 1425 49
3 49 1426 50
3 50 1427 51
3 51 1428 52
3 52 1429 53
3 53 1430 54
3 54 1431 55
3 55 1432 56
3 56 1433 57
3 57 1434 58
3 58 1435 59
3 59 1436 60
3 60 1437 61
3 61 1438 62
3 62 1439 63
3 63 1440 64
3 64 1441 65
3 65 1442 66
3 66 1443 67
3 67 1444 68
4 68 1445 1446 69
3 69 1447 70
3 70 1448 71
3 71 1449 72
3 72 1450 73
3 73 1451 74
3 74 1452 75
3 75 1453 76
3 76 1454 77
3 77 1455 78
3 78 1456 79
3 79 1457 80
3 80 1458 81
3 81 1459 82
3 82 1460 83
3 83 1461 84
3 84 1462 85
3 85 1463 86
3 86 1464 87
3 87 1465 88
3 88 1466 89
3 89 1467 90
3 90 1468 91
5 91 1469 1470 1471 92
3 92 1472 93
3 93 1473 94
3 94 1474 95
3 95 1475 96
3 96 1476 97
3 97 1477 98
4 98 1478 1479 99
3 99 1480 100
3 100 1481 101
3 101 1482 102
3 102 1483 103
3 103 1484 104
3 104 1485 105
3 105 1486 106
3 106 1487 107
3 107 1488 108
3 108 1489 109
3 109 1490 110
3 110 1491 111
3 111 1492 112
3 112 1493 113
3 113 1494 114
3 114 1495 115
3 115 1496 116
3 116 1497 117
3 117 1498 118
3 118 1499 119
4 119 1500 1501 120
3 120 1502 121
3 121 1503 122
3 122 1504 123
3 123 1505 124
3 124 1506 125
3 125 1507 126
3 126 1508 127
3 127 1509 128
3 128 1510 129
3 129 1511 130
3 130 1512 131
3 131 1513 132
3 132 1514 133
3 133 1515 134
3 134 1516 135
3 135 1517 136
3 136 1518 137
3 137 1519 138
3 138 1520 139
3 139 1521 140
3 140 1522 141
3 141 1523 142
3 142 1524 143
4 143 1525 1526 144
3 144 1527 145
3 145 1528 146
3 146 1529 147
3 147 1530 148
3 148 1531 149
3 149 1532 150
3 150 1533 151
5 151 1534 1535 1536 152
3 152 1537 153
3 153 1538 154
3 154 1539 155
3 155 1540 156
3 156 1541 157
3 157 1542 158
3 158 1543 159
3 159 1544 160
4 160 1545 1546 161
3 161 1547 162
3 162 1548 163
3 163 1549 164
3 164 1550 165
3 165 1551 166
3 166 1552 167
4 167 1553 1554 168
3 168 1555 169
3 169 1556 170
4 170 1557 1558 171
3 171 1559 172
3 172 1560 173
3 173 1561 174
5 174 1562 1563 1564 175
3 175 1565 176
3 176 1566 177
3 177 1567 178
3 178 1568 179
3 179 1569 180
3 180 1570 181
3 181 1571 182
3 182 1572 183
3 183 1573 184
3 184 1574 1369
4 185 1575 1576 186
3 185 1577 1370
3 186 1578 187
3 187 1579 188
3 188 1580 189
4 189 1581 1582 190
5 190 1583 1584 1585 191
3 191 1586 192
3 192 1587 193
3 193 1588 194
3 194 1589 195
3 195 1590 196
3 196 1591 197
3 197 1592 198
3 198 1593 199
3 199 1594 200
3 200 1595 201
5 201 1596 1597 1598 202
3 202 1599 203
3 203 1600 204
3 204 1601 205
3 205 1602 206
3 206 1603 207
3 207 1604 208
3 208 1605 209
3 209 1606 210
3 210 1607 211
3 211 1608 212
3 212 1609 213
3 213 1610 214
3 214 1611 215
5 215 1612 1613 1614 216
4 216 1615 1616 217
3 217 1617 218
3 218 1618 219
3 219 1619 220
3 220 1620 221
3 221 1621 222
3 222 1622 223
3 223 1623 224
3 224 1624 225
3 225 1625 226
3 226 1626 227
3 227 1627 228
3 228 1628 229
3 229 1629 230
3 230 1630 231
3 231 1631 232
3 232 1632 233
3 233 1633 234
3 234 1634 235
3 235 1635 236
4 236 1636 1637 237
3 237 1638 238
3 238 1639 239
3 239 1640 240
3 240 1641 241
3 241 1642 242
3 242 1643 243
3 243 1644 244
3 244 1645 245
3 245 1646 246
3 246 1647 247
3 247 1648 248
3 248 1649 249
3 249 1650 250
3 250 1651 251
3 251 1652 252
3 252 1653 253
3 253 1654 254
3 254 1655 255
3 255 1656 256
3 256 1657 257
3 257 1658 258
3 258 1659 259
3 259 1660 260
3 260 1661 261
3 261 1662 262
3 262 1663 263
3 263 1664 264
3 264 1665 265
4 265 1666 1667 266
3 266 1668 267
3 267 1669 268
3 268 1670 269
3 269 1671 270
3 270 1672 271
3 271 1673 272
3 272 1674 273
3 273 1675 274
3 274 1676 275
3 275 1677 276
3 276 1678 277
3 277 1679 278
3 278 1680 279
3 279 1681 280
3 280 1682 281
3 281 1683 282
3 282 1684 283
3 283 1685 284
3 284 1686 285
3 285 1687 286
3 286 1688 287
3 287 1689 288
3 288 1690 289
4 289 1691 1692 290
3 290 1693 291
3 291 1694 292
3 292 1695 293
3 293 1696 294
3 294 1697 295
3 295 1698 296
3 296 1699 297
3 297 1700 298
3 298 1701 299
3 299 1702 300
3 300 1703 301
3 301 1704 302
3 302 1705 303
3 303 1706 304
3 304 1707 305
3 305 1708 306
3 306 1709 307
3 307 1710 308
4 308 1711 1712 309
3 309 1713 310
3 310 1714 311
3 311 1715 312
3 312 1716 313
3 313 1717 314
3 314 1718 315
3 315 1719 316
3 316 1720 317
3 317 1721 318
3 318 1722 319
3 319 1723 320
3 320 1724 321
3 321 1725 322
3 322 1726 323
3 323 1727 324
3 324 1728 325
3 325 1729 326
3 326 1730 327
3 327 1731 328
3 328 1732 329
3 329 1733 330
3 330 1734 331
3 331 1735 332
3 332 1736 333
3 333 1737 334
3 334 1738 335
3 335 1739 336
3 336 1740 337
3 337 1741 338
3 338 1742 339
4 339 1743 1744 340
3 340 1745 341
3 341 1746 342
3 342 1747 343
3 343 1748 344
3 344 1749 345
3 345 1750 346
3 346 1751 347
3 347 1752 348
3 348 1753 349
3 349 1754 350
3 350 1755 351
4 351 1756 1757 352
3 352 1758 353
3 353 1759 354
3 354 1760 355
3 355 1761 356
3 356 1762 357
3 357 1763 358
4 358 1764 1765 359
3 359 1766 360
3 360 1767 361
3 363 1768 364
3 363 1769 692
3 364 1770 365
3 365 1771 366
4 366 1772 1773 367
3 367 1774 368
3 368 1775 369
3 369 1776 370
3 370 1777 371
4 371 1778 1779 372
3 372 1780 373
3 373 1781 374
3 374 1782 375
3 375 1783 376
3 376 1784 377
3 377 1785 378
3 378 1786 379
4 379 1787 1788 380
3 380 1789 381
3 381 1790 382
3 382 1791 383
3 383 1792 384
3 384 1793 385
3 385 1794 386
3 386 1795 387
3 387 1796 388
3 388 1797 389
3 389 1798 390
3 390 1799 391
3 391 1800 392
3 392 1801 393
3 393 1802 394
3 394 1803 395
3 395 1804 396
3 396 1805 397
4 397 1806 1807 398
3 398 1808 399
3 399 1809 400
3 400 1810 401
3 401 1811 402
3 402 1812 403
3 403 1813 404
3 404 1814 405
3 405 1815 406
3 406 1816 407
3 407 1817 408
4 408 1818 1819 409
3 409 1820 410
3 410 1821 411
3 411 1822 412
3 412 1823 413
3 413 1824 414
3 414 1825 415
3 415 1826 416
3 416 1827 417
3 417 1828 418
3 418 1829 419
3 419 1830 420
4 420 1831 1832 421
4 421 1833 1834 422
3 422 1835 423
4 423 1836 1837 424
3 424 1838 425
3 425 1839 426
4 426 1840 1841 427
3 427 1842 428
3 428 1843 429
3 429 1844 430
3 430 1845 431
3 431 1846 432
3 432 1847 433
3 433 1848 434
4 434 1849 1850 435
3 435 1851 436
3 436 1852 437
3 437 1853 438
3 438 1854 439
3 439 1855 440
3 440 1856 441
3 441 1857 442
3 442 1858 443
3 443 1859 444
4 444 1860 1861 445
3 445 1862 446
3 446 1863 447
3 447 1864 448
3 448 1865 449
3 449 1866 450
3 450 1867 451
3 451 1868 452
4 452 1869 1870 453
3 453 1871 454
3 454 1872 455
3 455 1873 456
3 456 1874 457
3 457 1875 458
4 458 1876 1877 459
3 459 1878 460
3 460 1879 461
4 461 1880 1881 462
3 462 1882 463
3 463 1883 464
3 464 1884 465
3 465 1885 466
3 466 1886 467
3 467 1887 468
3 468 1888 469
3 469 1889 470
3 470 1890 471
3 471 1891 472
3 472 1892 473
4 473 1893 1894 474
4 474 1895 1896 475
4 475 1897 1898 476
3 476 1899 477
3 477 1900 478
3 478 1901 479
3 479 1902 480
3 480 1903 481
3 481 1904 482
4 482 1905 1906 483
3 483 1907 484
3 484 1908 485
3 485 1909 486
3 486 1910 487
3 487 1911 488
3 488 1912 489
3 489 1913 490
3 490 1914 491
3 491 1915 492
4 492 1916 1917 493
3 493 1918 494
3 494 1919 495
3 495 1920 496
3 496 1921 497
3 497 1922 498
3 498 1923 499
3 499 1924 500
3 500 1925 501
3 501 1926 502
3 502 1927 503
3 503 1928 504
3 504 1929 505
3 505 1930 506
3 506 1931 507
3 507 1932 508
3 508 1933 509
3 509 1934 510
3 510 1935 511
3 511 1936 512
3 512 1937 513
3 513 1938 514
3 514 1939 515
3 515 1940 516
3 516 1941 517
3 517 1942 518
4 518 1943 1944 519
3 519 1945 520
3 520 1946 521
3 521 1947 522
3 522 1948 523
3 523 1949 524
4 524 1950 1951 525
3 525 1952 526
3 526 1953 1371
3 527 1954 528
3 527 1955 1372
3 528 1956 529
3 529 1957 530
3 530 1958 531
3 531 1959 532
3 532 1960 533
3 533 1961 534
3 534 1962 535
3 535 1963 536
3 536 1964 537
3 537 1965 538
3 538 1966 539
3 539 1967 540
3 540 1968 541
3 541 1969 542
3 542 1970 543
3 543 1971 544
3 544 1972 545
3 545 1973 546
3 546 1974 547
3 547 1975 548
3 548 1976 549
3 549 1977 550
3 550 1978 551
3 551 1979 552
3 552 1980 553
3 553 1981 554
3 554 1982 555
3 555 1983 556
3 556 1984 557
3 557 1985 558
3 558 1986 559
3 559 1987 560
3 560 1988 561
3 561 1989 562
3 562 1990 563
3 563 1991 564
3 564 1992 565
3 565 1993 566
3 566 1994 567
4 567 1995 1996 568
3 568 1997 569
3 569 1998 570
3 570 1999 571
3 571 2000 572
3 572 2001 573
3 573 2002 574
4 574 2003 2004 575
3 575 2005 576
3 576 2006 577
3 577 2007 578
3 578 2008 579
3 579 2009 580
3 580 2010 581
4 581 2011 2012 582
3 582 2013 583
3 583 2014 584
3 584 2015 585
3 585 2016 586
4 586 2017 2018 587
3 587 2019 588
3 588 2020 589
3 589 2021 590
3 590 2022 591
3 591 2023 592
3 592 2024 593
3 593 2025 594
5 594 2026 2027 2028 595
3 595 2029 596
3 596 2030 597
3 597 2031 598
3 598 2032 599
3 599 2033 600
3 600 2034 601
3 601 2035 602
3 602 2036 603
4 603 2037 2038 604
3 604 2039 605
3 605 2040 606
3 606 2041 607
3 607 2042 608
3 608 2043 609
3 609 2044 610
3 610 2045 611
3 611 2046 612
3 612 2047 613
3 613 2048 614
3 614 2049 615
4 615 2050 2051 616
3 616 2052 617
4 617 2053 2054 618
3 618 2055 619
3 619 2056 620
3 620 2057 621
3 621 2058 622
4 622 2059 2060 623
3 623 2061 624
3 624 2062 625
3 625 2063 626
3 626 2064 627
3 627 2065 628
5 628 2066 2067 2068 629
3 629 2069 630
3 630 2070 631
3 631 2071 632
3 632 2072 633
3 633 2073 634
3 634 2074 635
3 635 2075 636
3 636 2076 637
3 637 2077 638
4 638 2078 2079 639
3 639 2080 640
3 640 2081 641
3 641 2082 642
3 642 2083 643
3 643 2084 644
3 644 2085 645
3 645 2086 646
3 646 2087 647
3 647 2088 648
3 648 2089 649
3 649 2090 650
4 650 2091 2092 651
3 651 2093 652
3 652 2094 653
3 653 2095 654
3 654 2096 655
3 655 2097 656
3 656 2098 657
3 657 2099 658
4 658 2100 2101 659
3 659 2102 660
6 660 2103 2104 2105 2106 661
3 661 2107 662
4 662 2108 2109 663
4 663 2110 2111 664
4 664 2112 2113 665
3 665 2114 666
4 666 2115 2116 667
3 667 2117 668
3 668 2118 669
3 669 2119 670
3 670 2120 671
3 671 2121 672
3 672 2122 673
3 673 2123 674
3 674 2124 675
3 675 2125 676
3 676 2126 677
3 677 2127 678
3 678 2128 679
3 679 2129 680
3 680 2130 681
4 681 2131 2132 682
3 682 2133 683
3 683 2134 684
3 684 2135 685
3 685 2136 686
4 686 2137 2138 687
3 687 2139 688
3 688 2140 689
3 689 2141 690
3 690 2142 691
3 691 2143 692
4 693 2144 2145 694
4 693 2146 2147 1066
4 694 2148 2149 695
3 695 2150 696
3 696 2151 697
3 697 2152 698
3 698 2153 699
4 699 2154 2155 700
3 700 2156 701
3 701 2157 702
3 702 2158 703
4 703 2159 2160 704
3 704 2161 705
3 705 2162 706
3 706 2163 707
3 707 2164 708
3 708 2165 709
3 709 2166 710
3 710 2167 711
3 711 2168 712
3 712 2169 713
3 713 2170 714
3 714 2171 715
3 715 2172 716
3 716 2173 717
3 717 2174 718
3 718 2175 719
3 719 2176 720
3 720 2177 721
3 721 2178 722
3 722 2179 723
3 723 2180 724
3 724 2181 725
3 725 2182 726
3 726 2183 727
3 727 2184 728
3 728 2185 729
3 729 2186 730
3 730 2187 731
3 731 2188 732
3 732 2189 733
3 733 2190 734
3 734 2191 735
3 735 2192 736
3 736 2193 737
3 737 2194 738
3 738 2195 739
3 739 2196 740
3 740 2197 741
3 741 2198 742
3 742 2199 743
3 743 2200 744
3 744 2201 745
3 745 2202 746
3 746 2203 747
3 747 2204 748
3 748 2205 749
3 749 2206 750
3 750 2207 751
3 751 2208 752
3 752 2209 753
3 753 2210 754
3 754 2211 755
4 755 2212 2213 756
3 756 2214 757
3 757 2215 758
3 758 2216 759
3 759 2217 760
3 760 2218 761
3 761 2219 762
3 762 2220 763
3 763 2221 764
3 764 2222 765
3 765 2223 766
3 766 2224 767
3 767 2225 768
3 768 2226 769
3 769 2227 770
3 770 2228 771
3 771 2229 772
3 772 2230 773
3 773 2231 774
3 774 2232 775
3 775 2233 776
3 776 2234 777
3 777 2235 778
3 778 2236 779
3 779 2237 780
3 780 2238 781
3 781 2239 782
3 782 2240 783
3 783 2241 784
3 784 2242 785
3 785 2243 786
3 786 2244 787
3 787 2245 788
3 788 2246 789
4 789 2247 2248 790
3 790 2249 791
3 791 2250 792
3 792 2251 793
3 793 2252 794
3 794 2253 795
3 795 2254 796
3 796 2255 797
3 797 2256 798
3 798 2257 799
3 799 2258 800
3 800 2259 801
3 801 2260 802
3 802 2261 803
3 803 2262 804
3 804 2263 805
4 805 2264 2265 806
3 806 2266 807
3 807 2267 808
3 808 2268 809
3 809 2269 810
3 810 2270 811
3 811 2271 812
3 812 2272 813
3 813 2273 814
3 814 2274 815
6 815 2275 2276 2277 2278 816
3 816 2279 817
3 817 2280 818
3 818 2281 819
3 819 2282 820
3 820 2283 821
3 821 2284 822
3 822 2285 823
3 823 2286 824
3 824 2287 825
3 825 2288 826
3 826 2289 827
3 827 2290 828
3 828 2291 829
3 829 2292 830
3 830 2293 831
3 831 2294 832
3 832 2295 833
3 833 2296 834
3 834 2297 835
3 835 2298 836
3 836 2299 837
3 837 2300 838
3 838 2301 839
3 839 2302 840
3 840 2303 841
4 841 2304 2305 842
3 842 2306 843
3 843 2307 844
3 844 2308 845
3 845 2309 846
3 846 2310 847
4 847 2311 2312 848
3 848 2313 849
3 849 2314 850
3 850 2315 851
3 851 2316 852
3 852 2317 853
3 853 2318 854
3 854 2319 855
3 855 2320 856
3 856 2321 857
3 857 2322 858
3 858 2323 859
3 859 2324 860
3 860 2325 861
3 861 2326 862
3 862 2327 863
3 863 2328 864
3 864 2329 865
3 865 2330 866
4 866 2331 2332 867
3 867 2333 868
4 868 2334 2335 869
3 869 2336 870
3 870 2337 871
3 871 2338 872
3 872 2339 873
3 873 2340 874
3 874 2341 875
3 875 2342 876
3 876 2343 877
3 877 2344 878
3 878 2345 879
3 879 2346 880
3 880 2347 881
3 881 2348 882
3 882 2349 883
3 883 2350 884
3 884 2351 1373
3 885 2352 886
3 885 2353 1374
3 886 2354 887
3 887 2355 888
3 888 2356 889
3 889 2357 890
3 890 2358 891
4 891 2359 2360 892
3 892 2361 893
3 893 2362 894
3 894 2363 895
3 895 2364 896
4 896 2365 2366 897
3 897 2367 898
4 898 2368 2369 899
3 899 2370 900
5 900 2371 2372 2373 901
3 901 2374 902
3 902 2375 903
3 903 2376 904
3 904 2377 905
3 905 2378 906
4 906 2379 2380 907
3 907 2381 908
3 908 2382 909
4 909 2383 2384 910
3 910 2385 911
4 911 2386 2387 912
3 912 2388 913
3 913 2389 914
3 914 2390 915
3 915 2391 916
3 916 2392 917
3 917 2393 918
3 918 2394 919
3 919 2395 920
3 920 2396 921
3 921 2397 922
3 922 2398 923
3 923 2399 924
3 924 2400 925
3 925 2401 926
3 926 2402 927
3 927 2403 928
3 928 2404 929
3 929 2405 930
3 930 2406 931
3 931 2407 932
3 932 2408 933
3 933 2409 934
3 934 2410 935
3 935 2411 936
3 936 2412 937
3 937 2413 938
3 938 2414 939
3 939 2415 940
3 940 2416 941
3 941 2417 942
3 942 2418 943
3 943 2419 944
3 944 2420 945
3 945 2421 946
3 946 2422 947
3 947 2423 948
3 948 2424 949
3 949 2425 950
3 950 2426 951
3 951 2427 952
3 952 2428 953
3 953 2429 954
3 954 2430 955
3 955 2431 956
3 956 2432 957
3 957 2433 958
3 958 2434 959
3 959 2435 960
3 960 2436 961
3 961 2437 962
3 962 2438 963
3 963 2439 964
3 964 2440 965
3 965 2441 966
3 966 2442 967
3 967 2443 968
3 968 2444 969
3 969 2445 970
3 970 2446 971
4 971 2447 2448 972
3 972 2449 973
3 973 2450 974
3 974 2451 975
3 975 2452 976
3 976 2453 977
3 977 2454 978
3 978 2455 979
3 979 2456 980
3 980 2457 981
3 981 2458 982
3 982 2459 983
3 983 2460 984
3 984 2461 985
3 985 2462 986
3 986 2463 987
3 987 2464 988
3 988 2465 989
3 989 2466 990
3 990 2467 991
3 991 2468 992
3 992 2469 993
3 993 2470 994
3 994 2471 995
3 995 2472 996
3 996 2473 997
3 997 2474 998
3 998 2475 999
3 999 2476 1000
3 1000 2477 1001
3 1001 2478 1002
3 1002 2479 1003
3 1003 2480 1004
3 1004 2481 1005
3 1005 2482 1006
3 1006 2483 1007
3 1007 2484 1008
3 1008 2485 1009
3 1009 2486 1010
3 1010 2487 1011
3 1011 2488 1012
3 1012 2489 1013
3 1013 2490 1014
3 1014 2491 1015
3 1015 2492 1016
3 1016 2493 1017
3 1017 2494 1018
3 1018 2495 1019
3 1019 2496 1020
3 1020 2497 1021
3 1021 2498 1022
3 1022 2499 1023
3 1023 2500 1024
3 1024 2501 1025
3 1025 2502 1026
3 1026 2503 1027
3 1027 2504 1028
3 1028 2505 1029
3 1029 2506 1030
3 1030 2507 1031
3 1031 2508 1032
3 1032 2509 1033
3 1033 2510 1034
3 1034 2511 1035
3 1035 2512 1036
3 1036 2513 1037
3 1037 2514 1038
4 1038 2515 2516 1039
3 1039 2517 1040
3 1040 2518 1041
3 1041 2519 1042
3 1042 2520 1043
3 1043 2521 1044
4 1044 2522 2523 1045
3 1045 2524 1046
3 1046 2525 1047
3 1047 2526 1048
3 1048 2527 1049
3 1049 2528 1050
3 1050 2529 1051
3 1051 2530 1052
3 1052 2531 1053
3 1053 2532 1054
3 1054 2533 1055
3 1055 2534 1056
4 1056 2535 2536 1057
3 1057 2537 1058
4 1058 2538 2539 1059
4 1059 2540 2541 1060
3 1060 2542 1061
3 1061 2543 1062
3 1062 2544 1063
3 1063 2545 1064
3 1064 2546 1065
4 1065 2547 2548 1066
3 1068 2549 1069
3 1068 2550 1368
3 1069 2551 1070
4 1070 2552 2553 1071
5 1071 2554 2555 2556 1072
4 1072 2557 2558 1073
4 1073 2559 2560 1074
3 1074 2561 1075
3 1075 2562 1076
4 1076 2563 2564 1077
3 1077 2565 1078
4 1078 2566 2567 1079
3 1079 2568 1080
3 1080 2569 1081
3 1081 2570 1082
3 1082 2571 1083
3 1083 2572 1084
3 1084 2573 1085
3 1085 2574 1086
3 1086 2575 1087
3 1087 2576 1088
3 1088 2577 1089
3 1089 2578 1090
3 1090 2579 1091
3 1091 2580 1092
3 1092 2581 1093
3 1093 2582 1094
3 1094 2583 1095
3 1095 2584 1096
3 1096 2585 1097
3 1097 2586 1098
3 1098 2587 1099
3 1099 2588 1100
3 1100 2589 1101
3 1101 2590 1102
3 1102 2591 1103
3 1103 2592 1104
3 1104 2593 1105
3 1105 2594 1106
3 1106 2595 1107
3 1107 2596 1108
3 1108 2597 1109
3 1109 2598 1110
3 1110 2599 1111
3 1111 2600 1112
3 1112 2601 1113
3 1113 2602 1114
3 1114 2603 1115
3 1115 2604 1116
4 1116 2605 2606 1117
3 1117 2607 1118
3 1118 2608 1119
3 1119 2609 1120
6 1120 2610 2611 2612 2613 1121
3 1121 2614 1122
3 1122 2615 1123
3 1123 2616 1124
3 1124 2617 1125
3 1125 2618 1126
3 1126 2619 1127
3 1127 2620 1128
3 1128 2621 1129
3 1129 2622 1130
3 1130 2623 1131
3 1131 2624 1132
3 1132 2625 1133
3 1133 2626 1134
3 1134 2627 1135
3 1135 2628 1136
3 1136 2629 1137
3 1137 2630 1138
3 1138 2631 1139
3 1139 2632 1140
3 1140 2633 1141
3 1141 2634 1142
3 1142 2635 1143
3 1143 2636 1144
3 1144 2637 1145
3 1145 2638 1146
5 1146 2639 2640 2641 1147
3 1147 2642 1148
4 1148 2643 2644 1149
3 1149 2645 1150
3 1150 2646 1151
3 1151 2647 1152
3 1152 2648 1153
3 1153 2649 1154
3 1154 2650 1155
3 1155 2651 1156
3 1156 2652 1157
4 1157 2653 2654 1158
3 1158 2655 1159
3 1159 2656 1160
3 1160 2657 1161
4 1161 2658 2659 1162
3 1162 2660 1163
3 1163 2661 1164
3 1164 2662 1165
3 1165 2663 1166
4 1166 2664 2665 1167
3 1167 2666 1168
3 1168 2667 1169
3 1169 2668 1170
3 1170 2669 1171
3 1171 2670 1172
3 1172 2671 1173
3 1173 2672 1174
3 1174 2673 1175
3 1175 2674 1176
4 1176 2675 2676 1177
3 1177 2677 1178
3 1178 2678 1179
3 1179 2679 1180
3 1180 2680 1181
3 1181 2681 1182
4 1182 2682 2683 1183
3 1183 2684 1184
3 1184 2685 1185
3 1185 2686 1186
3 1186 2687 1187
3 1187 2688 1188
3 1188 2689 1189
3 1189 2690 1190
3 1190 2691 1191
3 1191 2692 1192
3 1192 2693 1193
4 1193 2694 2695 1194
3 1194 2696 1195
3 1195 2697 1196
3 1196 2698 1197
3 1197 2699 1198
3 1198 2700 1199
3 1199 2701 1200
4 1200 2702 2703 1201
3 1201 2704 1202
3 1202 2705 1203
3 1203 2706 1204
3 1204 2707 1205
3 1205 2708 1206
3 1206 2709 1207
3 1207 2710 1208
3 1208 2711 1209
3 1209 2712 1210
3 1210 2713 1211
3 1211 2714 1212
3 1212 2715 1213
3 1213 2716 1214
3 1214 2717 1215
4 1215 2718 2719 1216
3 1216 2720 1217
3 1217 2721 1218
3 1218 2722 1375
3 1219 2723 1220
3 1219 2724 1376
3 1220 2725 1221
3 1221 2726 1222
4 1222 2727 2728 1223
3 1223 2729 1224
3 1224 2730 1225
3 1225 2731 1226
3 1226 2732 1227
3 1227 2733 1228
3 1228 2734 1229
3 1229 2735 1230
3 1230 2736 1231
3 1231 2737 1232
3 1232 2738 1233
3 1233 2739 1234
3 1234 2740 1235
3 1235 2741 1236
4 1236 2742 2743 1237
3 1237 2744 1238
3 1238 2745 1239
3 1239 2746 1240
5 1240 2747 2748 2749 1241
3 1241 2750 1242
4 1242 2751 2752 1243
3 1243 2753 1244
4 1244 2754 2755 1245
3 1245 2756 1246
3 1246 2757 1247
3 1247 2758 1248
3 1248 2759 1249
3 1249 2760 1250
4 1250 2761 2762 1251
3 1251 2763 1252
4 1252 2764 2765 1253
3 1253 2766 1254
4 1254 2767 2768 1255
3 1255 2769 1256
4 1256 2770 2771 1257
3 1257 2772 1258
3 1258 2773 1259
3 1259 2774 1260
3 1260 2775 1261
3 1261 2776 1262
3 1262 2777 1263
3 1263 2778 1264
3 1264 2779 1265
3 1265 2780 1266
3 1266 2781 1267
3 1267 2782 1268
3 1268 2783 1269
3 1269 2784 1270
3 1270 2785 1271
3 1271 2786 1272
3 1272 2787 1273
3 1273 2788 1274
3 1274 2789 1275
3 1275 2790 1276
3 1276 2791 1277
3 1277 2792 1278
3 1278 2793 1279
3 1279 2794 1280
3 1280 2795 1281
3 1281 2796 1282
3 1282 2797 1283
3 1283 2798 1284
3 1284 2799 1285
3 1285 2800 1286
3 1286 2801 1287
3 1287 2802 1288
3 1288 2803 1289
5 1289 2804 2805 2806 1290
3 1290 2807 1291
4 1291 2808 2809 1292
3 1292 2810 1293
4 1293 2811 2812 1294
3 1294 2813 1295
3 1295 2814 1296
3 1296 2815 1297
3 1297 2816 1298
3 1298 2817 1299
3 1299 2818 1300
4 1300 2819 2820 1301
5 1301 2821 2822 2823 1302
3 1302 2824 1303
5 1303 2825 2826 2827 1304
3 1304 2828 1305
4 1305 2829 2830 1306
3 1306 2831 1307
3 1307 2832 1308
3 1308 2833 1309
3 1309 2834 1310
3 1310 2835 1311
3 1311 2836 1312
3 1312 2837 1313
3 1313 2838 1314
4 1314 2839 2840 1315
3 1315 2841 1316
3 1316 2842 1317
3 1317 2843 1318
3 1318 2844 1319
3 1319 2845 1320
3 1320 2846 1321
3 1321 2847 1322
3 1322 2848 1323
3 1323 2849 1324
3 1324 2850 1325
3 1325 2851 1326
3 1326 2852 1327
3 1327 2853 1328
3 1328 2854 1329
3 1329 2855 1330
3 1330 2856 1331
4 1331 2857 2858 1332
3 1332 2859 1333
3 1333 2860 1334
3 1334 2861 1335
3 1335 2862 1336
3 1336 2863 1337
3 1337 2864 1338
6 1338 2865 2866 2867 2868 1339
3 1339 2869 1340
3 1340 2870 1341
3 1341 2871 1342
3 1342 2872 1343
3 1343 2873 1344
3 1344 2874 1345
3 1345 2875 1346
3 1346 2876 1347
3 1347 2877 1348
3 1348 2878 1349
3 1349 2879 1350
3 1350 2880 1351
3 1351 2881 1352
3 1352 2882 1353
3 1353 2883 1354
3 1354 2884 1355
3 1355 2885 1356
3 1356 2886 1357
3 1357 2887 1358
3 1358 2888 1359
5 1359 2889 2890 2891 1360
3 1360 2892 1361
3 1361 2893 1362
3 1362 2894 1363
3 1363 2895 1364
4 1364 2896 2897 1365
3 1365 2898 1366
3 1366 2899 1367
3 1367 2900 1368

CELL_TYPES 1365
4
4
4
4
4
4
4
4
4
4
4
4
4
4
4
4
4
4
4
4
4
4
4
4
4
4
4
4
4
4
4
4
4
4
4
4
4
4
4
4
4
4
4
4
4
4
4
4
4
4
4
4
4
4
4
4
4
4
4
4
4
4
4
4
4
4
4
4
4
4
4
4
4
4
4
4
4
4
4
4
4
4
4
4
4
4
4
4
4
4
4
4
4
4
4
4
4
4
4
4
4
4
4
4
4
4
4
4
4
4
4
4
4
4
4
4
4
4
4
4
4
4
4
4
4
4
4
4
4
4
4
4
4
4
4
4
4
4
4
4
4
4
4
4
4
4
4
4
4
4
4
4
4
4
4
4
4
4
4
4
4
4
4
4
4
4
4
4
4
4
4
4
4
4
4
4
4
4
4
4
4
4
4
4
4
4
4
4
4
4
4
4
4
4
4
4
4
4
4
4
4
4
4
4
4
4
4
4
4
4
4
4
4
4
4
4
4
4
4
4
4
4
4
4
4
4
4
4
4
4
4
4
4
4
4
4
4
4
4
4
4
4
4
4
4
4
4
4
4
4
4
4
4
4
4
4
4
4
4
4
4
4
4
4
4
4
4
4
4
4
4
4
4
4
4
4
4
4
4
4
4
4
4
4
4
4
4
4
4
4
4
4
4
4
4
4
4
4
4
4
4
4
4
4
4
4
4
4
4
4
4
4
4
4
4
4
4
4
4
4
4
4
4
4
4
4
4
4
4
4
4
4
4
4
4
4
4
4
4
4
4
4
4
4
4
4
4
4
4
4
4
4
4
4
4
4
4
4
4
4
4
4
4
4
4
4
4
4
4
4
4
4
4
4
4
4
4
4
4
4
4
4
4
4
4
4
4
4
4
4
4
4
4
4
4
4
4
4
4
4
4
4
4
4
4
4
4
4
4
4
4
4
4
4
4
4
4
4
4
4
4
4
4
4
4
4
4
4
4
4
4
4
4
4
4
4
4
4
4
4
4
4
4
4
4
4
4
4
4
4
4
4
4
4
4
4
4
4
4
4
4
4
4
4
4
4
4
4
4
4
4
4
4
4
4
4
4
4
4
4
4
4
4
4
4
4
4
4
4
4
4
4
4
4
4
4
4
4
4
4
4
4
4
4
4
4
4
4
4
4
4
4
4
4
4
4
4
4
4
4
4
4
4
4
4
4
4
4
4
4
4
4
4
4
4
4
4
4
4
4
4
4
4
4
4
4
4
4
4
4
4
4
4
4
4
4
4
4
4
4
4
4
4
4
4
4
4
4
4
4
4
4
4
4
4
4
4
4
4
4
4
4
4
4
4
4
4
4
4
4
4
4
4
4
4
4
4
4
4
4
4
4
4
4
4
4
4
4
4
4
4
4
4
4
4
4
4
4
4
4
4
4
4
4
4
4
4
4
4
4
4
4
4
4
4
4
4
4
4
4
4
4
4
4
4
4
4
4
4
4
4
4
4
4
4
4
4
4
4
4
4
4
4
4
4
4
4
4
4
4
4
4
4
4
4
4
4
4
4
4
4
4
4
4
4
4
4
4
4
4
4
4
4
4
4
4
4
4
4
4
4
4
4
4
4
4
4
4
4
4
4
4
4
4
4
4
4
4
4
4
4
4
4
4
4
4
4
4
4
4
4
4
4
4
4
4
4
4
4
4
4
4
4
4
4
4
4
4
4
4
4
4
4
4
4
4
4
4
4
4
4
4
4
4
4
4
4
4
4
4
4
4
4
4
4
4
4
4
4
4
4
4
4
4
4
4
4
4
4
4
4
4
4
4
4
4
4
4
4
4
4
4
4
4
4
4
4
4
4
4
4
4
4
4
4
4
4
4
4
4
4
4
4
4
4
4
4
4
4
4
4
4
4
4
4
4
4
4
4
4
4
4
4
4
4
4
4
4
4
4
4
4
4
4
4
4
4
4
4
4
4
4
4
4
4
4
4
4
4
4
4
4
4
4
4
4
4
4
4
4
4
4
4
4
4
4
4
4
4
4
4
4
4
4
4
4
4
4
4
4
4
4
4
4
4
4
4
4
4
4
4
4
4
4
4
4
4
4
4
4
4
4
4
4
4
4
4
4
4
4
4
4
4
4
4
4
4
4
4
4
4
4
4
4
4
4
4
4
4
4
4
4
4
4
4
4
4
4
4
4
4
4
4
4
4
4
4
4
4
4
4
4
4
4
4
4
4
4
4
4
4
4
4
4
4
4
4
4
4
4
4
4
4
4
4
4
4
4
4
4
4
4
4
4
4
4
4
4
4
4
4
4
4
4
4
4
4
4
4
4
4
4
4
4
4
4
4
4
4
4
4
4
4
4
4
4
4
4
4
4
4
4
4
4
4
4
4
4
4
4
4
4
4
4
4
4
4
4
4
4
4
4
4
4
4
4
4
4
4
4
4
4
4
4
4
4
4
4
4
4
4
4
4
4
4
4
4
4
4
4
4
4
4
4
4
4
4
4
4
4
4
4
4
4
4
4
4
4
4
4
4
4
4
4
4
4
4
4
4
4
4
4
4
4
4
4
4
4
4
4
4
4
4
4
4
4
4
4
4
4
4
4
4
4
4
4
4
4
4
4
4
4
4
4
4
4
4
4
4
4
4
4
4
4
4
4
4
4
4
4
4
4
4
4
4
4
4
4
4
4
4
4
4
4
4
4
4
4
4
4
4
4
4
4
4
4
4
4
4
4
4
4
4
4
4
4
4
4
4
4
4
4
4
4
4
4
4
4
4
4
4
4
4
4
4
4
4
4
4
4
4
4
4
4
4
4
4
4
4
4
4
4
4
4
4
4
4
4
4
4
4
4
4
4
4
4
4
4
4
4
4
4
4
4
4
4
4
4
4
4
4
4
4
4
4
4
4
4
4
4
4
4
4
4
4
4
4
4
4
4
4
4
4
4
4
4
4
4
4
4
4
4
4
4
4
4
4
4
4
4
4
4
4
4
4
4
4
4
4
4
4
4
4
4
4
4
4
4
4
4
4
4
4
4
4
4
4
4
4
4
4
4
4
4
4
4
4
4
4
4
4
4
4
4
4
4
4
4
4
4
4
4
4
4
4

POINT_DATA 2901
VECTORS PK_force double
0.000000000000000e+00 0.000000000000000e+00 0.000000000000000e+00
0.000000000000000e+00 0.000000000000000e+00 0.000000000000000e+00
0.000000000000000e+00 0.000000000000000e+00 0.000000000000000e+00
0.000000000000000e+00 0.000000000000000e+00 0.000000000000000e+00
0.000000000000000e+00 0.000000000000000e+00 0.000000000000000e+00
0.000000000000000e+00 0.000000000000000e+00 0.000000000000000e+00
0.000000000000000e+00 0.000000000000000e+00 0.000000000000000e+00
0.000000000000000e+00 0.000000000000000e+00 0.000000000000000e+00
0.000000000000000e+00 0.000000000000000e+00 0.000000000000000e+00
0.000000000000000e+00 0.000000000000000e+00 0.000000000000000e+00
0.000000000000000e+00 0.000000000000000e+00 0.000000000000000e+00
0.000000000000000e+00 0.000000000000000e+00 0.000000000000000e+00
0.000000000000000e+00 0.000000000000000e+00 0.000000000000000e+00
0.000000000000000e+00 0.000000000000000e+00 0.000000000000000e+00
0.000000000000000e+00 0.000000000000000e+00 0.000000000000000e+00
0.000000000000000e+00 0.000000000000000e+00 0.000000000000000e+00
0.000000000000000e+00 0.000000000000000e+00 0.000000000000000e+00
0.000000000000000e+00 0.000000000000000e+00 0.000000000000000e+00
0.000000000000000e+00 0.000000000000000e+00 0.000000000000000e+00
0.000000000000000e+00 0.000000000000000e+00 0.000000000000000e+00
0.000000000000000e+00 0.000000000000000e+00 0.000000000000000e+00
0.000000000000000e+00 0.000000000000000e+00 0.000000000000000e+00
0.000000000000000e+00 0.000000000000000e+00 0.000000000000000e+00
0.000000000000000e+00 0.000000000000000e+00 0.000000000000000e+00
0.000000000000000e+00 0.000000000000000e+00 0.000000000000000e+00
0.000000000000000e+00 0.000000000000000e+00 0.000000000000000e+00
0.000000000000000e+00 0.000000000000000e+00 0.000000000000000e+00
0.000000000000000e+00 0.000000000000000e+00 0.000000000000000e+00
0.000000000000000e+00 0.000000000000000e+00 0.000000000000000e+00
0.000000000000000e+00 0.000000000000000e+00 0.000000000000000e+00
0.000000000000000e+00 0.000000000000000e+00 0.000000000000000e+00
0.000000000000000e+00 0.000000000000000e+00 0.000000000000000e+00
0.000000000000000e+00 0.000000000000000e+00 0.000000000000000e+00
0.000000000000000e+00 0.000000000000000e+00 0.000000000000000e+00
0.000000000000000e+00 0.000000000000000e+00 0.000000000000000e+00
0.000000000000000e+00 0.000000000000000e+00 0.000000000000000e+00
0.000000000000000e+00 0.000000000000000e+00 0.000000000000000e+00
0.000000000000000e+00 0.000000000000000e+00 0.000000000000000e+00
0.000000000000000e+00 0.000000000000000e+00 0.000000000000000e+00
0.000000000000000e+00 0.000000000000000e+00 0.000000000000000e+00
0.000000000000000e+00 0.000000000000000e+00 0.000000000000000e+00
0.000000000000000e+00 0.000000000000000e+00 0.000000000000000e+00
0.000000000000000e+00 0.000000000000000e+00 0.000000000000000e+00
0.000000000000000e+00 0.000000000000000e+00 0.000000000000000e+00
0.000000000000000e+00 0.000000000000000e+00 0.000000000000000e+00
0.000000000000000e+00 0.000000000000000e+00 0.000000000000000e+00
0.000000000000000e+00 0.000000000000000e+00 0.000000000000000e+00
0.000000000000000e+00 0.000000000000000e+00 0.000000000000000e+00
0.000000000000000e+00 0.000000000000000e+00 0.000000000000000e+00
0.000000000000000e+00 0.000000000000000e+00 0.000000000000000e+00
0.000000000000000e+00 0.000000000000000e+00 0.000000000000000e+00
0.000000000000000e+00 0.000000000000000e+00 0.000000000000000e+00
0.000000000000000e+00 0.000000000000000e+00 0.000000000000000e+00
0.000000000000000e+00 0.000000000000000e+00 0.000000000000000e+00
0.000000000000000e+00 0.000000000000000e+00 0.000000000000000e+00
0.000000000000000e+00 0.000000000000000e+00 0.000000000000000e+00
0.000000000000000e+00 0.000000000000000e+00 0.000000000000000e+00
0.000000000000000e+00 0.000000000000000e+00 0.000000000000000e+00
0.000000000000000e+00 0.000000000000000e+00 0.000000000000000e+00
0.000000000000000e+00 0.000000000000000e+00 0.000000000000000e+00
0.000000000000000e+00 0.000000000000000e+00 0.000000000000000e+00
0.000000000000000e+00 0.000000000000000e+00 0.000000000000000e+00
0.000000000000000e+00 0.000000000000000e+00 0.000000000000000e+00
0.000000000000000e+00 0.000000000000000e+00 0.000000000000000e+00
0.000000000000000e+00 0.000000000000000e+00 0.000000000000000e+00
0.000000000000000e+00 0.000000000000000e+00 0.000000000000000e+00
0.000000000000000e+00 0.000000000000000e+00 0.000000000000000e+00
0.000000000000000e+00 0.000000000000000e+00 0.000000000000000e+00
0.000000000000000e+00 0.000000000000000e+00 0.000000000000000e+00
0.000000000000000e+00 0.000000000000000e+00 0.000000000000000e+00
0.000000000000000e+00 0.000000000000000e+00 0.000000000000000e+00
0.000000000000000e+00 0.000000000000000e+00 0.000000000000000e+00
0.000000000000000e+00 0.000000000000000e+00 0.000000000000000e+00
0.000000000000000e+00 0.000000000000000e+00 0.000000000000000e+00
0.000000000000000e+00 0.000000000000000e+00 0.000000000000000e+00
0.000000000000000e+00 0.000000000000000e+00 0.000000000000000e+00
0.000000000000000e+00 0.000000000000000e+00 0.000000000000000e+00
0.000000000000000e+00 0.000000000000000e+00 0.000000000000000e+00
0.000000000000000e+00 0.000000000000000e+00 0.000000000000000e+00
0.000000000000000e+00 0.000000000000000e+00 0.000000000000000e+00
0.000000000000000e+00 0.000000000000000e+00 0.000000000000000e+00
0.000000000000000e+00 0.000000000000000e+00 0.000000000000000e+00
0.000000000000000e+00 0.000000000000000e+00 0.000000000000000e+00
0.000000000000000e+00 0.000000000000000e+00 0.000000000000000e+00
0.000000000000000e+00 0.000000000000000e+00 0.000000000000000e+00
0.000000000000000e+00 0.000000000000000e+00 0.000000000000000e+00
0.000000000000000e+00 0.000000000000000e+00 0.000000000000000e+00
0.000000000000000e+00 0.000000000000000e+00 0.000000000000000e+00
0.000000000000000e+00 0.000000000000000e+00 0.000000000000000e+00
0.000000000000000e+00 0.000000000000000e+00 0.000000000000000e+00
0.000000000000000e+00 0.000000000000000e+00 0.000000000000000e+00
0.000000000000000e+00 0.000000000000000e+00 0.000000000000000e+00
0.000000000000000e+00 0.000000000000000e+00 0.000000000000000e+00
0.000000000000000e+00 0.000000000000000e+00 0.000000000000000e+00
0.000000000000000e+00 0.000000000000000e+00 0.000000000000000e+00
0.000000000000000e+00 0.000000000000000e+00 0.000000000000000e+00
0.000000000000000e+00 0.000000000000000e+00 0.000000000000000e+00
0.000000000000000e+00 0.000000000000000e+00 0.000000000000000e+00
0.000000000000000e+00 0.000000000000000e+00 0.000000000000000e+00
0.000000000000000e+00 0.000000000000000e+00 0.000000000000000e+00
0.000000000000000e+00 0.000000000000000e+00 0.000000000000000e+00
0.000000000000000e+00 0.000000000000000e+00 0.000000000000000e+00
0.000000000000000e+00 0.000000000000000e+00 0.000000000000000e+00
0.000000000000000e+00 0.000000000000000e+00 0.000000000000000e+00
0.000000000000000e+00 0.000000000000000e+00 0.000000000000000e+00
0.000000000000000e+00 0.000000000000000e+00 0.000000000000000e+00
0.000000000000000e+00 0.000000000000000e+00 0.000000000000000e+00
0.000000000000000e+00 0.000000000000000e+00 0.000000000000000e+00
0.000000000000000e+00 0.000000000000000e+00 0.000000000000000e+00
0.000000000000000e+00 0.000000000000000e+00 0.000000000000000e+00
0.000000000000000e+00 0.000000000000000e+00 0.000000000000000e+00
0.000000000000000e+00 0.000000000000000e+00 0.000000000000000e+00
0.000000000000000e+00 0.000000000000000e+00 0.000000000000000e+00
0.000000000000000e+00 0.000000000000000e+00 0.000000000000000e+00
0.000000000000000e+00 0.000000000000000e+00 0.000000000000000e+00
0.000000000000000e+00 0.000000000000000e+00 0.000000000000000e+00
0.000000000000000e+00 0.000000000000000e+00 0.000000000000000e+00
0.000000000000000e+00 0.000000000000000e+00 0.000000000000000e+00
0.000000000000000e+00 0.000000000000000e+00 0.000000000000000e+00
0.000000000000000e+00 0.000000000000000e+00 0.000000000000000e+00
0.000000000000000e+00 0.000000000000000e+00 0.000000000000000e+00
0.000000000000000e+00 0.000000000000000e+00 0.000000000000000e+00
0.000000000000000e+00 0.000000000000000e+00 0.000000000000000e+00
0.000000000000000e+00 0.000000000000000e+00 0.000000000000000e+00
0.000000000000000e+00 0.000000000000000e+00 0.000000000000000e+00
0.000000000000000e+00 0.000000000000000e+00 0.000000000000000e+00
0.000000000000000e+00 0.000000000000000e+00 0.000000000000000e+00
0.000000000000000e+00 0.000000000000000e+00 0.000000000000000e+00
0.000000000000000e+00 0.000000000000000e+00 0.000000000000000e+00
0.000000000000000e+00 0.000000000000000e+00 0.000000000000000e+00
0.000000000000000e+00 0.000000000000000e+00 0.000000000000000e+00
0.000000000000000e+00 0.000000000000000e+00 0.000000000000000e+00
0.000000000000000e+00 0.000000000000000e+00 0.000000000000000e+00
0.000000000000000e+00 0.000000000000000e+00 0.000000000000000e+00
0.000000000000000e+00 0.000000000000000e+00 0.000000000000000e+00
0.000000000000000e+00 0.000000000000000e+00 0.000000000000000e+00
0.000000000000000e+00 0.000000000000000e+00 0.000000000000000e+00
0.000000000000000e+00 0.000000000000000e+00 0.000000000000000e+00
0.000000000000000e+00 0.000000000000000e+00 0.000000000000000e+00
0.000000000000000e+00 0.000000000000000e+00 0.000000000000000e+00
0.000000000000000e+00 0.000000000000000e+00 0.000000000000000e+00
0.000000000000000e+00 0.000000000000000e+00 0.000000000000000e+00
0.000000000000000e+00 0.000000000000000e+00 0.000000000000000e+00
0.000000000000000e+00 0.000000000000000e+00 0.000000000000000e+00
0.000000000000000e+00 0.000000000000000e+00 0.000000000000000e+00
0.000000000000000e+00 0.000000000000000e+00 0.000000000000000e+00
0.000000000000000e+00 0.000000000000000e+00 0.000000000000000e+00
0.000000000000000e+00 0.000000000000000e+00 0.000000000000000e+00
0.000000000000000e+00 0.000000000000000e+00 0.000000000000000e+00
0.000000000000000e+00 0.000000000000000e+00 0.000000000000000e+00
0.000000000000000e+00 0.000000000000000e+00 0.000000000000000e+00
0.000000000000000e+00 0.000000000000000e+00 0.000000000000000e+00
0.000000000000000e+00 0.000000000000000e+00 0.000000000000000e+00
0.000000000000000e+00 0.000000000000000e+00 0.000000000000000e+00
0.000000000000000e+00 0.000000000000000e+00 0.000000000000000e+00
0.000000000000000e+00 0.000000000000000e+00 0.000000000000000e+00
0.000000000000000e+00 0.000000000000000e+00 0.000000000000000e+00
0.000000000000000e+00 0.000000000000000e+00 0.000000000000000e+00
0.000000000000000e+00 0.000000000000000e+00 0.000000000000000e+00
0.000000000000000e+00 0.000000000000000e+00 0.000000000000000e+00
0.000000000000000e+00 0.000000000000000e+00 0.000000000000000e+00
0.000000000000000e+00 0.000000000000000e+00 0.000000000000000e+00
0.000000000000000e+00 0.000000000000000e+00 0.000000000000000e+00
0.000000000000000e+00 0.000000000000000e+00 0.000000000000000e+00
0.000000000000000e+00 0.000000000000000e+00 0.000000000000000e+00
0.000000000000000e+00 0.000000000000000e+00 0.000000000000000e+00
0.000000000000000e+00 0.000000000000000e+00 0.000000000000000e+00
0.000000000000000e+00 0.000000000000000e+00 0.000000000000000e+00
0.000000000000000e+00 0.000000000000000e+00 0.000000000000000e+00
0.000000000000000e+00 0.000000000000000e+00 0.000000000000000e+00
0.000000000000000e+00 0.000000000000000e+00 0.000000000000000e+00
0.000000000000000e+00 0.000000000000000e+00 0.000000000000000e+00
0.000000000000000e+00 0.000000000000000e+00 0.000000000000000e+00
0.000000000000000e+00 0.000000000000000e+00 0.000000000000000e+00
0.000000000000000e+00 0.000000000000000e+00 0.000000000000000e+00
0.000000000000000e+00 0.000000000000000e+00 0.000000000000000e+00
0.000000000000000e+00 0.000000000000000e+00 0.000000000000000e+00
0.000000000000000e+00 0.000000000000000e+00 0.000000000000000e+00
0.000000000000000e+00 0.000000000000000e+00 0.000000000000000e+00
0.000000000000000e+00 0.000000000000000e+00 0.000000000000000e+00
0.000000000000000e+00 0.000000000000000e+00 0.000000000000000e+00
0.000000000000000e+00 0.000000000000000e+00 0.000000000000000e+00
0.000000000000000e+00 0.000000000000000e+00 0.000000000000000e+00
0.000000000000000e+00 0.000000000000000e+00 0.000000000000000e+00
0.000000000000000e+00 0.000000000000000e+00 0.000000000000000e+00
0.000000000000000e+00 0.000000000000000e+00 0.000000000000000e+00
0.000000000000000e+00 0.000000000000000e+00 0.000000000000000e+00
0.000000000000000e+00 0.000000000000000e+00 0.000000000000000e+00
0.000000000000000e+00 0.000000000000000e+00 0.000000000000000e+00
0.000000000000000e+00 0.000000000000000e+00 0.000000000000000e+00
0.000000000000000e+00 0.000000000000000e+00 0.000000000000000e+00
0.000000000000000e+00 0.000000000000000e+00 0.000000000000000e+00
0.000000000000000e+00 0.000000000000000e+00 0.000000000000000e+00
0.000000000000000e+00 0.000000000000000e+00 0.000000000000000e+00
0.000000000000000e+00 0.000000000000000e+00 0.000000000000000e+00
0.000000000000000e+00 0.000000000000000e+00 0.000000000000000e+00
0.000000000000000e+00 0.000000000000000e+00 0.000000000000000e+00
0.000000000000000e+00 0.000000000000000e+00 0.000000000000000e+00
0.000000000000000e+00 0.000000000000000e+00 0.000000000000000e+00
0.000000000000000e+00 0.000000000000000e+00 0.000000000000000e+00
0.000000000000000e+00 0.000000000000000e+00 0.000000000000000e+00
0.000000000000000e+00 0.000000000000000e+00 0.000000000000000e+00
0.000000000000000e+00 0.000000000000000e+00 0.000000000000000e+00
0.000000000000000e+00 0.000000000000000e+00 0.000000000000000e+00
0.000000000000000e+00 0.000000000000000e+00 0.000000000000000e+00
0.000000000000000e+00 0.000000000000000e+00 0.000000000000000e+00
0.000000000000000e+00 0.000000000000000e+00 0.000000000000000e+00
0.000000000000000e+00 0.000000000000000e+00 0.000000000000000e+00
0.000000000000000e+00 0.000000000000000e+00 0.000000000000000e+00
0.000000000000000e+00 0.000000000000000e+00 0.000000000000000e+00
0.000000000000000e+00 0.000000000000000e+00 0.000000000000000e+00
0.000000000000000e+00 0.000000000000000e+00 0.000000000000000e+00
0.000000000000000e+00 0.000000000000000e+00 0.000000000000000e+00
0.000000000000000e+00 0.000000000000000e+00 0.000000000000000e+00
0.000000000000000e+00 0.000000000000000e+00 0.000000000000000e+00
0.000000000000000e+00 0.000000000000000e+00 0.000000000000000e+00
0.000000000000000e+00 0.000000000000000e+00 0.000000000000000e+00
0.000000000000000e+00 0.000000000000000e+00 0.000000000000000e+00
0.000000000000000e+00 0.000000000000000e+00 0.000000000000000e+00
0.000000000000000e+00 0.000000000000000e+00 0.000000000000000e+00
0.000000000000000e+00 0.000000000000000e+00 0.000000000000000e+00
0.000000000000000e+00 0.000000000000000e+00 0.000000000000000e+00
0.000000000000000e+00 0.000000000000000e+00 0.000000000000000e+00
0.000000000000000e+00 0.000000000000000e+00 0.000000000000000e+00
0.000000000000000e+00 0.000000000000000e+00 0.000000000000000e+00
0.000000000000000e+00 0.000000000000000e+00 0.000000000000000e+00
0.000000000000000e+00 0.000000000000000e+00 0.000000000000000e+00
0.000000000000000e+00 0.000000000000000e+00 0.000000000000000e+00
0.000000000000000e+00 0.000000000000000e+00 0.000000000000000e+00
0.000000000000000e+00 0.000000000000000e+00 0.000000000000000e+00
0.000000000000000e+00 0.000000000000000e+00 0.000000000000000e+00
0.000000000000000e+00 0.000000000000000e+00 0.000000000000000e+00
0.000000000000000e+00 0.000000000000000e+00 0.000000000000000e+00
0.000000000000000e+00 0.000000000000000e+00 0.000000000000000e+00
0.000000000000000e+00 0.000000000000000e+00 0.000000000000000e+00
0.000000000000000e+00 0.000000000000000e+00 0.000000000000000e+00
0.000000000000000e+00 0.000000000000000e+00 0.000000000000000e+00
0.000000000000000e+00 0.000000000000000e+00 0.000000000000000e+00
0.000000000000000e+00 0.000000000000000e+00 0.000000000000000e+00
0.000000000000000e+00 0.000000000000000e+00 0.000000000000000e+00
0.000000000000000e+00 0.000000000000000e+00 0.000000000000000e+00
0.000000000000000e+00 0.000000000000000e+00 0.000000000000000e+00
0.000000000000000e+00 0.000000000000000e+00 0.000000000000000e+00
0.000000000000000e+00 0.000000000000000e+00 0.000000000000000e+00
0.000000000000000e+00 0.000000000000000e+00 0.000000000000000e+00
0.000000000000000e+00 0.000000000000000e+00 0.000000000000000e+00
0.000000000000000e+00 0.000000000000000e+00 0.000000000000000e+00
0.000000000000000e+00 0.000000000000000e+00 0.000000000000000e+00
0.000000000000000e+00 0.000000000000000e+00 0.000000000000000e+00
0.000000000000000e+00 0.000000000000000e+00 0.000000000000000e+00
0.000000000000000e+00 0.000000000000000e+00 0.000000000000000e+00
0.000000000000000e+00 0.000000000000000e+00 0.000000000000000e+00
0.000000000000000e+00 0.000000000000000e+00 0.000000000000000e+00
0.000000000000000e+00 0.000000000000000e+00 0.000000000000000e+00
0.000000000000000e+00 0.000000000000000e+00 0.000000000000000e+00
0.000000000000000e+00 0.000000000000000e+00 0.000000000000000e+00
0.000000000000000e+00 0.000000000000000e+00 0.000000000000000e+00
0.000000000000000e+00 0.000000000000000e+00 0.000000000000000e+00
0.000000000000000e+00 0.000000000000000e+00 0.000000000000000e+00
0.000000000000000e+00 0.000000000000000e+00 0.000000000000000e+00
0.000000000000000e+00 0.000000000000000e+00 0.000000000000000e+00
0.000000000000000e+00 0.000000000000000e+00 0.000000000000000e+00
0.000000000000000e+00 0.000000000000000e+00 0.000000000000000e+00
0.000000000000000e+00 0.000000000000000e+00 0.000000000000000e+00
0.000000000000000e+00 0.000000000000000e+00 0.000000000000000e+00
0.000000000000000e+00 0.000000000000000e+00 0.000000000000000e+00
0.000000000000000e+00 0.000000000000000e+00 0.000000000000000e+00
0.000000000000000e+00 0.000000000000000e+00 0.000000000000000e+00
0.000000000000000e+00 0.000000000000000e+00 0.000000000000000e+00
0.000000000000000e+00 0.000000000000000e+00 0.000000000000000e+00
0.000000000000000e+00 0.000000000000000e+00 0.000000000000000e+00
0.000000000000000e+00 0.000000000000000e+00 0.000000000000000e+00
0.000000000000000e+00 0.000000000000000e+00 0.000000000000000e+00
0.000000000000000e+00 0.000000000000000e+00 0.000000000000000e+00
0.000000000000000e+00 0.000000000000000e+00 0.000000000000000e+00
0.000000000000000e+00 0.000000000000000e+00 0.000000000000000e+00
0.000000000000000e+00 0.000000000000000e+00 0.000000000000000e+00
0.000000000000000e+00 0.000000000000000e+00 0.000000000000000e+00
0.000000000000000e+00 0.000000000000000e+00 0.000000000000000e+00
0.000000000000000e+00 0.000000000000000e+00 0.000000000000000e+00
0.000000000000000e+00 0.000000000000000e+00 0.000000000000000e+00
0.000000000000000e+00 0.000000000000000e+00 0.000000000000000e+00
0.000000000000000e+00 0.000000000000000e+00 0.000000000000000e+00
0.000000000000000e+00 0.000000000000000e+00 0.000000000000000e+00
0.000000000000000e+00 0.000000000000000e+00 0.000000000000000e+00
0.000000000000000e+00 0.000000000000000e+00 0.000000000000000e+00
0.000000000000000e+00 0.000000000000000e+00 0.000000000000000e+00
0.000000000000000e+00 0.000000000000000e+00 0.000000000000000e+00
0.000000000000000e+00 0.000000000000000e+00 0.000000000000000e+00
0.000000000000000e+00 0.000000000000000e+00 0.000000000000000e+00
0.000000000000000e+00 0.000000000000000e+00 0.000000000000000e+00
0.000000000000000e+00 0.000000000000000e+00 0.000000000000000e+00
0.000000000000000e+00 0.000000000000000e+00 0.000000000000000e+00
0.000000000000000e+00 0.000000000000000e+00 0.000000000000000e+00
0.000000000000000e+00 0.000000000000000e+00 0.000000000000000e+00
0.000000000000000e+00 0.000000000000000e+00 0.000000000000000e+00
0.000000000000000e+00 0.000000000000000e+00 0.000000000000000e+00
0.000000000000000e+00 0.000000000000000e+00 0.000000000000000e+00
0.000000000000000e+00 0.000000000000000e+00 0.000000000000000e+00
0.000000000000000e+00 0.000000000000000e+00 0.000000000000000e+00
0.000000000000000e+00 0.000000000000000e+00 0.000000000000000e+00
0.000000000000000e+00 0.000000000000000e+00 0.000000000000000e+00
0.000000000000000e+00 0.000000000000000e+00 0.000000000000000e+00
0.000000000000000e+00 0.000000000000000e+00 0.000000000000000e+00
0.000000000000000e+00 0.000000000000000e+00 0.000000000000000e+00
0.000000000000000e+00 0.000000000000000e+00 0.000000000000000e+00
0.000000000000000e+00 0.000000000000000e+00 0.000000000000000e+00
0.000000000000000e+00 0.000000000000000e+00 0.000000000000000e+00
0.000000000000000e+00 0.000000000000000e+00 0.000000000000000e+00
0.000000000000000e+00 0.000000000000000e+00 0.000000000000000e+00
0.000000000000000e+00 0.000000000000000e+00 0.000000000000000e+00
0.000000000000000e+00 0.000000000000000e+00 0.000000000000000e+00
0.000000000000000e+00 0.000000000000000e+00 0.000000000000000e+00
0.000000000000000e+00 0.000000000000000e+00 0.000000000000000e+00
0.000000000000000e+00 0.000000000000000e+00 0.000000000000000e+00
0.000000000000000e+00 0.000000000000000e+00 0.000000000000000e+00
0.000000000000000e+00 0.000000000000000e+00 0.000000000000000e+00
0.000000000000000e+00 0.000000000000000e+00 0.000000000000000e+00
0.000000000000000e+00 0.000000000000000e+00 0.000000000000000e+00
0.000000000000000e+00 0.000000000000000e+00 0.000000000000000e+00
0.000000000000000e+00 0.000000000000000e+00 0.000000000000000e+00
0.000000000000000e+00 0.000000000000000e+00 0.000000000000000e+00
0.000000000000000e+00 0.000000000000000e+00 0.000000000000000e+00
0.000000000000000e+00 0.000000000000000e+00 0.000000000000000e+00
0.000000000000000e+00 0.000000000000000e+00 0.000000000000000e+00
0.000000000000000e+00 0.000000000000000e+00 0.000000000000000e+00
0.000000000000000e+00 0.000000000000000e+00 0.000000000000000e+00
0.000000000000000e+00 0.000000000000000e+00 0.000000000000000e+00
0.000000000000000e+00 0.000000000000000e+00 0.000000000000000e+00
0.000000000000000e+00 0.000000000000000e+00 0.000000000000000e+00
0.000000000000000e+00 0.000000000000000e+00 0.000000000000000e+00
0.000000000000000e+00 0.000000000000000e+00 0.000000000000000e+00
0.000000000000000e+00 0.000000000000000e+00 0.000000000000000e+00
0.000000000000000e+00 0.000000000000000e+00 0.000000000000000e+00
0.000000000000000e+00 0.000000000000000e+00 0.000000000000000e+00
0.000000000000000e+00 0.000000000000000e+00 0.000000000000000e+00
0.000000000000000e+00 0.000000000000000e+00 0.000000000000000e+00
0.000000000000000e+00 0.000000000000000e+00 0.000000000000000e+00
0.000000000000000e+00 0.000000000000000e+00 0.000000000000000e+00
0.000000000000000e+00 0.000000000000000e+00 0.000000000000000e+00
0.000000000000000e+00 0.000000000000000e+00 0.000000000000000e+00
0.000000000000000e+00 0.000000000000000e+00 0.000000000000000e+00
0.000000000000000e+00 0.000000000000000e+00 0.000000000000000e+00
0.000000000000000e+00 0.000000000000000e+00 0.000000000000000e+00
0.000000000000000e+00 0.000000000000000e+00 0.000000000000000e+00
0.000000000000000e+00 0.000000000000000e+00 0.000000000000000e+00
0.000000000000000e+00 0.000000000000000e+00 0.000000000000000e+00
0.000000000000000e+00 0.000000000000000e+00 0.000000000000000e+00
0.000000000000000e+00 0.000000000000000e+00 0.000000000000000e+00
0.000000000000000e+00 0.000000000000000e+00 0.000000000000000e+00
0.000000000000000e+00 0.000000000000000e+00 0.000000000000000e+00
0.000000000000000e+00 0.000000000000000e+00 0.000000000000000e+00
0.000000000000000e+00 0.000000000000000e+00 0.000000000000000e+00
0.000000000000000e+00 0.000000000000000e+00 0.000000000000000e+00
0.000000000000000e+00 0.000000000000000e+00 0.000000000000000e+00
0.000000000000000e+00 0.000000000000000e+00 0.000000000000000e+00
0.000000000000000e+00 0.000000000000000e+00 0.000000000000000e+00
0.000000000000000e+00 0.000000000000000e+00 0.000000000000000e+00
0.000000000000000e+00 0.000000000000000e+00 0.000000000000000e+00
0.000000000000000e+00 0.000000000000000e+00 0.000000000000000e+00
0.000000000000000e+00 0.000000000000000e+00 0.000000000000000e+00
0.000000000000000e+00 0.000000000000000e+00 0.000000000000000e+00
0.000000000000000e+00 0.000000000000000e+00 0.000000000000000e+00
0.000000000000000e+00 0.000000000000000e+00 0.000000000000000e+00
0.000000000000000e+00 0.000000000000000e+00 0.000000000000000e+00
0.000000000000000e+00 0.000000000000000e+00 0.000000000000000e+00
0.000000000000000e+00 0.000000000000000e+00 0.000000000000000e+00
0.000000000000000e+00 0.000000000000000e+00 0.000000000000000e+00
0.000000000000000e+00 0.000000000000000e+00 0.000000000000000e+00
0.000000000000000e+00 0.000000000000000e+00 0.000000000000000e+00
0.000000000000000e+00 0.000000000000000e+00 0.000000000000000e+00
0.000000000000000e+00 0.000000000000000e+00 0.000000000000000e+00
0.000000000000000e+00 0.000000000000000e+00 0.000000000000000e+00
0.000000000000000e+00 0.000000000000000e+00 0.000000000000000e+00
0.000000000000000e+00 0.000000000000000e+00 0.000000000000000e+00
0.000000000000000e+00 0.000000000000000e+00 0.000000000000000e+00
0.000000000000000e+00 0.000000000000000e+00 0.000000000000000e+00
0.000000000000000e+00 0.000000000000000e+00 0.000000000000000e+00
0.000000000000000e+00 0.000000000000000e+00 0.000000000000000e+00
0.000000000000000e+00 0.000000000000000e+00 0.000000000000000e+00
0.000000000000000e+00 0.000000000000000e+00 0.000000000000000e+00
0.000000000000000e+00 0.000000000000000e+00 0.000000000000000e+00
0.000000000000000e+00 0.000000000000000e+00 0.000000000000000e+00
0.000000000000000e+00 0.000000000000000e+00 0.000000000000000e+00
0.000000000000000e+00 0.000000000000000e+00 0.000000000000000e+00
0.000000000000000e+00 0.000000000000000e+00 0.000000000000000e+00
0.000000000000000e+00 0.000000000000000e+00 0.000000000000000e+00
0.000000000000000e+00 0.000000000000000e+00 0.000000000000000e+00
0.000000000000000e+00 0.000000000000000e+00 0.000000000000000e+00
0.000000000000000e+00 0.000000000000000e+00 0.000000000000000e+00
0.000000000000000e+00 0.000000000000000e+00 0.000000000000000e+00
0.000000000000000e+00 0.000000000000000e+00 0.000000000000000e+00
0.000000000000000e+00 0.000000000000000e+00 0.000000000000000e+00
0.000000000000000e+00 0.000000000000000e+00 0.000000000000000e+00
0.000000000000000e+00 0.000000000000000e+00 0.000000000000000e+00
0.000000000000000e+00 0.000000000000000e+00 0.000000000000000e+00
0.000000000000000e+00 0.000000000000000e+00 0.000000000000000e+00
0.000000000000000e+00 0.000000000000000e+00 0.000000000000000e+00
0.000000000000000e+00 0.000000000000000e+00 0.000000000000000e+00
0.000000000000000e+00 0.000000000000000e+00 0.000000000000000e+00
0.000000000000000e+00 0.000000000000000e+00 0.000000000000000e+00
0.000000000000000e+00 0.000000000000000e+00 0.000000000000000e+00
0.000000000000000e+00 0.000000000000000e+00 0.000000000000000e+00
0.000000000000000e+00 0.000000000000000e+00 0.000000000000000e+00
0.000000000000000e+00 0.000000000000000e+00 0.000000000000000e+00
0.000000000000000e+00 0.000000000000000e+00 0.000000000000000e+00
0.000000000000000e+00 0.000000000000000e+00 0.000000000000000e+00
0.000000000000000e+00 0.000000000000000e+00 0.000000000000000e+00
0.000000000000000e+00 0.000000000000000e+00 0.000000000000000e+00
0.000000000000000e+00 0.000000000000000e+00 0.000000000000000e+00
0.000000000000000e+00 0.000000000000000e+00 0.000000000000000e+00
0.000000000000000e+00 0.000000000000000e+00 0.000000000000000e+00
0.000000000000000e+00 0.000000000000000e+00 0.000000000000000e+00
0.000000000000000e+00 0.000000000000000e+00 0.000000000000000e+00
0.000000000000000e+00 0.000000000000000e+00 0.000000000000000e+00
0.000000000000000e+00 0.000000000000000e+00 0.000000000000000e+00
0.000000000000000e+00 0.000000000000000e+00 0.000000000000000e+00
0.000000000000000e+00 0.000000000000000e+00 0.000000000000000e+00
0.000000000000000e+00 0.000000000000000e+00 0.000000000000000e+00
0.000000000000000e+00 0.000000000000000e+00 0.000000000000000e+00
0.000000000000000e+00 0.000000000000000e+00 0.000000000000000e+00
0.000000000000000e+00 0.000000000000000e+00 0.000000000000000e+00
0.000000000000000e+00 0.000000000000000e+00 0.000000000000000e+00
0.000000000000000e+00 0.000000000000000e+00 0.000000000000000e+00
0.000000000000000e+00 0.000000000000000e+00 0.000000000000000e+00
0.000000000000000e+00 0.000000000000000e+00 0.000000000000000e+00
0.000000000000000e+00 0.000000000000000e+00 0.000000000000000e+00
0.000000000000000e+00 0.000000000000000e+00 0.000000000000000e+00
0.000000000000000e+00 0.000000000000000e+00 0.000000000000000e+00
0.000000000000000e+00 0.000000000000000e+00 0.000000000000000e+00
0.000000000000000e+00 0.000000000000000e+00 0.000000000000000e+00
0.000000000000000e+00 0.000000000000000e+00 0.000000000000000e+00
0.000000000000000e+00 0.000000000000000e+00 0.000000000000000e+00
0.000000000000000e+00 0.000000000000000e+00 0.000000000000000e+00
0.000000000000000e+00 0.000000000000000e+00 0.000000000000000e+00
0.000000000000000e+00 0.000000000000000e+00 0.000000000000000e+00
0.000000000000000e+00 0.000000000000000e+00 0.000000000000000e+00
0.000000000000000e+00 0.000000000000000e+00 0.000000000000000e+00
0.000000000000000e+00 0.000000000000000e+00 0.000000000000000e+00
0.000000000000000e+00 0.000000000000000e+00 0.000000000000000e+00
0.000000000000000e+00 0.000000000000000e+00 0.000000000000000e+00
0.000000000000000e+00 0.000000000000000e+00 0.000000000000000e+00
0.000000000000000e+00 0.000000000000000e+00 0.000000000000000e+00
0.000000000000000e+00 0.000000000000000e+00 0.000000000000000e+00
0.000000000000000e+00 0.000000000000000e+00 0.000000000000000e+00
0.000000000000000e+00 0.000000000000000e+00 0.000000000000000e+00
0.000000000000000e+00 0.000000000000000e+00 0.000000000000000e+00
0.000000000000000e+00 0.000000000000000e+00 0.000000000000000e+00
0.000000000000000e+00 0.000000000000000e+00 0.000000000000000e+00
0.000000000000000e+00 0.000000000000000e+00 0.000000000000000e+00
0.000000000000000e+00 0.000000000000000e+00 0.000000000000000e+00
0.000000000000000e+00 0.000000000000000e+00 0.000000000000000e+00
0.000000000000000e+00 0.000000000000000e+00 0.000000000000000e+00
0.000000000000000e+00 0.000000000000000e+00 0.000000000000000e+00
0.000000000000000e+00 0.000000000000000e+00 0.000000000000000e+00
0.000000000000000e+00 0.000000000000000e+00 0.000000000000000e+00
0.000000000000000e+00 0.000000000000000e+00 0.000000000000000e+00
0.000000000000000e+00 0.000000000000000e+00 0.000000000000000e+00
0.000000000000000e+00 0.000000000000000e+00 0.000000000000000e+00
0.000000000000000e+00 0.000000000000000e+00 0.000000000000000e+00
0.000000000000000e+00 0.000000000000000e+00 0.000000000000000e+00
0.000000000000000e+00 0.000000000000000e+00 0.000000000000000e+00
0.000000000000000e+00 0.000000000000000e+00 0.000000000000000e+00
0.000000000000000e+00 0.000000000000000e+00 0.000000000000000e+00
0.000000000000000e+00 0.000000000000000e+00 0.000000000000000e+00
0.000000000000000e+00 0.000000000000000e+00 0.000000000000000e+00
0.000000000000000e+00 0.000000000000000e+00 0.000000000000000e+00
0.000000000000000e+00 0.000000000000000e+00 0.000000000000000e+00
0.000000000000000e+00 0.000000000000000e+00 0.000000000000000e+00
0.000000000000000e+00 0.000000000000000e+00 0.000000000000000e+00
0.000000000000000e+00 0.000000000000000e+00 0.000000000000000e+00
0.000000000000000e+00 0.000000000000000e+00 0.000000000000000e+00
0.000000000000000e+00 0.000000000000000e+00 0.000000000000000e+00
0.000000000000000e+00 0.000000000000000e+00 0.000000000000000e+00
0.000000000000000e+00 0.000000000000000e+00 0.000000000000000e+00
0.000000000000000e+00 0.000000000000000e+00 0.000000000000000e+00
0.000000000000000e+00 0.000000000000000e+00 0.000000000000000e+00
0.000000000000000e+00 0.000000000000000e+00 0.000000000000000e+00
0.000000000000000e+00 0.000000000000000e+00 0.000000000000000e+00
0.000000000000000e+00 0.000000000000000e+00 0.000000000000000e+00
0.000000000000000e+00 0.000000000000000e+00 0.000000000000000e+00
0.000000000000000e+00 0.000000000000000e+00 0.000000000000000e+00
0.000000000000000e+00 0.000000000000000e+00 0.000000000000000e+00
0.000000000000000e+00 0.000000000000000e+00 0.000000000000000e+00
0.000000000000000e+00 0.000000000000000e+00 0.000000000000000e+00
0.000000000000000e+00 0.000000000000000e+00 0.000000000000000e+00
0.000000000000000e+00 0.000000000000000e+00 0.000000000000000e+00
0.000000000000000e+00 0.000000000000000e+00 0.000000000000000e+00
0.000000000000000e+00 0.000000000000000e+00 0.000000000000000e+00
0.000000000000000e+00 0.000000000000000e+00 0.000000000000000e+00
0.000000000000000e+00 0.000000000000000e+00 0.000000000000000e+00
0.000000000000000e+00 0.000000000000000e+00 0.000000000000000e+00
0.000000000000000e+00 0.000000000000000e+00 0.000000000000000e+00
0.000000000000000e+00 0.000000000000000e+00 0.000000000000000e+00
0.000000000000000e+00 0.000000000000000e+00 0.000000000000000e+00
0.000000000000000e+00 0.000000000000000e+00 0.000000000000000e+00
0.000000000000000e+00 0.000000000000000e+00 0.000000000000000e+00
0.000000000000000e+00 0.000000000000000e+00 0.000000000000000e+00
0.000000000000000e+00 0.000000000000000e+00 0.000000000000000e+00
0.000000000000000e+00 0.000000000000000e+00 0.000000000000000e+00
0.000000000000000e+00 0.000000000000000e+00 0.000000000000000e+00
0.000000000000000e+00 0.000000000000000e+00 0.000000000000000e+00
0.000000000000000e+00 0.000000000000000e+00 0.000000000000000e+00
0.000000000000000e+00 0.000000000000000e+00 0.000000000000000e+00
0.000000000000000e+00 0.000000000000000e+00 0.000000000000000e+00
0.000000000000000e+00 0.000000000000000e+00 0.000000000000000e+00
0.000000000000000e+00 0.000000000000000e+00 0.000000000000000e+00
0.000000000000000e+00 0.000000000000000e+00 0.000000000000000e+00
0.000000000000000e+00 0.000000000000000e+00 0.000000000000000e+00
0.000000000000000e+00 0.000000000000000e+00 0.000000000000000e+00
0.000000000000000e+00 0.000000000000000e+00 0.000000000000000e+00
0.000000000000000e+00 0.000000000000000e+00 0.000000000000000e+00
0.000000000000000e+00 0.000000000000000e+00 0.000000000000000e+00
0.000000000000000e+00 0.000000000000000e+00 0.000000000000000e+00
0.000000000000000e+00 0.000000000000000e+00 0.000000000000000e+00
0.000000000000000e+00 0.000000000000000e+00 0.000000000000000e+00
0.000000000000000e+00 0.000000000000000e+00 0.000000000000000e+00
0.000000000000000e+00 0.000000000000000e+00 0.000000000000000e+00
0.000000000000000e+00 0.000000000000000e+00 0.000000000000000e+00
0.000000000000000e+00 0.000000000000000e+00 0.000000000000000e+00
0.000000000000000e+00 0.000000000000000e+00 0.000000000000000e+00
0.000000000000000e+00 0.000000000000000e+00 0.000000000000000e+00
0.000000000000000e+00 0.000000000000000e+00 0.000000000000000e+00
0.000000000000000e+00 0.000000000000000e+00 0.000000000000000e+00
0.000000000000000e+00 0.000000000000000e+00 0.000000000000000e+00
0.000000000000000e+00 0.000000000000000e+00 0.000000000000000e+00
0.000000000000000e+00 0.000000000000000e+00 0.000000000000000e+00
0.000000000000000e+00 0.000000000000000e+00 0.000000000000000e+00
0.000000000000000e+00 0.000000000000000e+00 0.000000000000000e+00
0.000000000000000e+00 0.000000000000000e+00 0.000000000000000e+00
0.000000000000000e+00 0.000000000000000e+00 0.000000000000000e+00
0.000000000000000e+00 0.000000000000000e+00 0.000000000000000e+00
0.000000000000000e+00 0.000000000000000e+00 0.000000000000000e+00
0.000000000000000e+00 0.000000000000000e+00 0.000000000000000e+00
0.000000000000000e+00 0.000000000000000e+00 0.000000000000000e+00
0.000000000000000e+00 0.000000000000000e+00 0.000000000000000e+00
0.000000000000000e+00 0.000000000000000e+00 0.000000000000000e+00
0.000000000000000e+00 0.000000000000000e+00 0.000000000000000e+00
0.000000000000000e+00 0.000000000000000e+00 0.000000000000000e+00
0.000000000000000e+00 0.000000000000000e+00 0.000000000000000e+00
0.000000000000000e+00 0.000000000000000e+00 0.000000000000000e+00
0.000000000000000e+00 0.000000000000000e+00 0.000000000000000e+00
0.000000000000000e+00 0.000000000000000e+00 0.000000000000000e+00
0.000000000000000e+00 0.000000000000000e+00 0.000000000000000e+00
0.000000000000000e+00 0.000000000000000e+00 0.000000000000000e+00
0.000000000000000e+00 0.000000000000000e+00 0.000000000000000e+00
0.000000000000000e+00 0.000000000000000e+00 0.000000000000000e+00
0.000000000000000e+00 0.000000000000000e+00 0.000000000000000e+00
0.000000000000000e+00 0.000000000000000e+00 0.000000000000000e+00
0.000000000000000e+00 0.000000000000000e+00 0.000000000000000e+00
0.000000000000000e+00 0.000000000000000e+00 0.000000000000000e+00
0.000000000000000e+00 0.000000000000000e+00 0.000000000000000e+00
0.000000000000000e+00 0.000000000000000e+00 0.000000000000000e+00
0.000000000000000e+00 0.000000000000000e+00 0.000000000000000e+00
0.000000000000000e+00 0.000000000000000e+00 0.000000000000000e+00
0.000000000000000e+00 0.000000000000000e+00 0.000000000000000e+00
0.000000000000000e+00 0.000000000000000e+00 0.000000000000000e+00
0.000000000000000e+00 0.000000000000000e+00 0.000000000000000e+00
0.000000000000000e+00 0.000000000000000e+00 0.000000000000000e+00
0.000000000000000e+00 0.000000000000000e+00 0.000000000000000e+00
0.000000000000000e+00 0.000000000000000e+00 0.000000000000000e+00
0.000000000000000e+00 0.000000000000000e+00 0.000000000000000e+00
0.000000000000000e+00 0.000000000000000e+00 0.000000000000000e+00
0.000000000000000e+00 0.000000000000000e+00 0.000000000000000e+00
0.000000000000000e+00 0.000000000000000e+00 0.000000000000000e+00
0.000000000000000e+00 0.000000000000000e+00 0.000000000000000e+00
0.000000000000000e+00 0.000000000000000e+00 0.000000000000000e+00
0.000000000000000e+00 0.000000000000000e+00 0.000000000000000e+00
0.000000000000000e+00 0.000000000000000e+00 0.000000000000000e+00
0.000000000000000e+00 0.000000000000000e+00 0.000000000000000e+00
0.000000000000000e+00 0.000000000000000e+00 0.000000000000000e+00
0.000000000000000e+00 0.000000000000000e+00 0.000000000000000e+00
0.000000000000000e+00 0.000000000000000e+00 0.000000000000000e+00
0.000000000000000e+00 0.000000000000000e+00 0.000000000000000e+00
0.000000000000000e+00 0.000000000000000e+00 0.000000000000000e+00
0.000000000000000e+00 0.000000000000000e+00 0.000000000000000e+00
0.000000000000000e+00 0.000000000000000e+00 0.000000000000000e+00
0.000000000000000e+00 0.000000000000000e+00 0.000000000000000e+00
0.000000000000000e+00 0.000000000000000e+00 0.000000000000000e+00
0.000000000000000e+00 0.000000000000000e+00 0.000000000000000e+00
0.000000000000000e+00 0.000000000000000e+00 0.000000000000000e+00
0.000000000000000e+00 0.000000000000000e+00 0.000000000000000e+00
0.000000000000000e+00 0.000000000000000e+00 0.000000000000000e+00
0.000000000000000e+00 0.000000000000000e+00 0.000000000000000e+00
0.000000000000000e+00 0.000000000000000e+00 0.000000000000000e+00
0.000000000000000e+00 0.000000000000000e+00 0.000000000000000e+00
0.000000000000000e+00 0.000000000000000e+00 0.000000000000000e+00
0.000000000000000e+00 0.000000000000000e+00 0.000000000000000e+00
0.000000000000000e+00 0.000000000000000e+00 0.000000000000000e+00
0.000000000000000e+00 0.000000000000000e+00 0.000000000000000e+00
0.000000000000000e+00 0.000000000000000e+00 0.000000000000000e+00
0.000000000000000e+00 0.000000000000000e+00 0.000000000000000e+00
0.000000000000000e+00 0.000000000000000e+00 0.000000000000000e+00
0.000000000000000e+00 0.000000000000000e+00 0.000000000000000e+00
0.000000000000000e+00 0.000000000000000e+00 0.000000000000000e+00
0.000000000000000e+00 0.000000000000000e+00 0.000000000000000e+00
0.000000000000000e+00 0.000000000000000e+00 0.000000000000000e+00
0.000000000000000e+00 0.000000000000000e+00 0.000000000000000e+00
0.000000000000000e+00 0.000000000000000e+00 0.000000000000000e+00
0.000000000000000e+00 0.000000000000000e+00 0.000000000000000e+00
0.000000000000000e+00 0.000000000000000e+00 0.000000000000000e+00
0.000000000000000e+00 0.000000000000000e+00 0.000000000000000e+00
0.000000000000000e+00 0.000000000000000e+00 0.000000000000000e+00
0.000000000000000e+00 0.000000000000000e+00 0.000000000000000e+00
0.000000000000000e+00 0.000000000000000e+00 0.000000000000000e+00
0.000000000000000e+00 0.000000000000000e+00 0.000000000000000e+00
0.000000000000000e+00 0.000000000000000e+00 0.000000000000000e+00
0.000000000000000e+00 0.000000000000000e+00 0.000000000000000e+00
0.000000000000000e+00 0.000000000000000e+00 0.000000000000000e+00
0.000000000000000e+00 0.000000000000000e+00 0.000000000000000e+00
0.000000000000000e+00 0.000000000000000e+00 0.000000000000000e+00
0.000000000000000e+00 0.000000000000000e+00 0.000000000000000e+00
0.000000000000000e+00 0.000000000000000e+00 0.000000000000000e+00
0.000000000000000e+00 0.000000000000000e+00 0.000000000000000e+00
0.000000000000000e+00 0.000000000000000e+00 0.000000000000000e+00
0.000000000000000e+00 0.000000000000000e+00 0.000000000000000e+00
0.000000000000000e+00 0.000000000000000e+00 0.000000000000000e+00
0.000000000000000e+00 0.000000000000000e+00 0.000000000000000e+00
0.000000000000000e+00 0.000000000000000e+00 0.000000000000000e+00
0.000000000000000e+00 0.000000000000000e+00 0.000000000000000e+00
0.000000000000000e+00 0.000000000000000e+00 0.000000000000000e+00
0.000000000000000e+00 0.000000000000000e+00 0.000000000000000e+00
0.000000000000000e+00 0.000000000000000e+00 0.000000000000000e+00
0.000000000000000e+00 0.000000000000000e+00 0.000000000000000e+00
0.000000000000000e+00 0.000000000000000e+00 0.000000000000000e+00
0.000000000000000e+00 0.000000000000000e+00 0.000000000000000e+00
0.000000000000000e+00 0.000000000000000e+00 0.000000000000000e+00
0.000000000000000e+00 0.000000000000000e+00 0.000000000000000e+00
0.000000000000000e+00 0.000000000000000e+00 0.000000000000000e+00
0.000000000000000e+00 0.000000000000000e+00 0.000000000000000e+00
0.000000000000000e+00 0.000000000000000e+00 0.000000000000000e+00
0.000000000000000e+00 0.000000000000000e+00 0.000000000000000e+00
0.000000000000000e+00 0.000000000000000e+00 0.000000000000000e+00
0.000000000000000e+00 0.000000000000000e+00 0.000000000000000e+00
0.000000000000000e+00 0.000000000000000e+00 0.000000000000000e+00
0.000000000000000e+00 0.000000000000000e+00 0.000000000000000e+00
0.000000000000000e+00 0.000000000000000e+00 0.000000000000000e+00
0.000000000000000e+00 0.000000000000000e+00 0.000000000000000e+00
0.000000000000000e+00 0.000000000000000e+00 0.000000000000000e+00
0.000000000000000e+00 0.000000000000000e+00 0.000000000000000e+00
0.000000000000000e+00 0.000000000000000e+00 0.000000000000000e+00
0.000000000000000e+00 0.000000000000000e+00 0.000000000000000e+00
0.000000000000000e+00 0.000000000000000e+00 0.000000000000000e+00
0.000000000000000e+00 0.000000000000000e+00 0.000000000000000e+00
0.000000000000000e+00 0.000000000000000e+00 0.000000000000000e+00
0.000000000000000e+00 0.000000000000000e+00 0.000000000000000e+00
0.000000000000000e+00 0.000000000000000e+00 0.000000000000000e+00
0.000000000000000e+00 0.000000000000000e+00 0.000000000000000e+00
0.000000000000000e+00 0.000000000000000e+00 0.000000000000000e+00
0.000000000000000e+00 0.000000000000000e+00 0.000000000000000e+00
0.000000000000000e+00 0.000000000000000e+00 0.000000000000000e+00
0.000000000000000e+00 0.000000000000000e+00 0.000000000000000e+00
0.000000000000000e+00 0.000000000000000e+00 0.000000000000000e+00
0.000000000000000e+00 0.000000000000000e+00 0.000000000000000e+00
0.000000000000000e+00 0.000000000000000e+00 0.000000000000000e+00
0.000000000000000e+00 0.000000000000000e+00 0.000000000000000e+00
0.000000000000000e+00 0.000000000000000e+00 0.000000000000000e+00
0.000000000000000e+00 0.000000000000000e+00 0.000000000000000e+00
0.000000000000000e+00 0.000000000000000e+00 0.000000000000000e+00
0.000000000000000e+00 0.000000000000000e+00 0.000000000000000e+00
0.000000000000000e+00 0.000000000000000e+00 0.000000000000000e+00
0.000000000000000e+00 0.000000000000000e+00 0.000000000000000e+00
0.000000000000000e+00 0.000000000000000e+00 0.000000000000000e+00
0.000000000000000e+00 0.000000000000000e+00 0.000000000000000e+00
0.000000000000000e+00 0.000000000000000e+00 0.000000000000000e+00
0.000000000000000e+00 0.000000000000000e+00 0.000000000000000e+00
0.000000000000000e+00 0.000000000000000e+00 0.000000000000000e+00
0.000000000000000e+00 0.000000000000000e+00 0.000000000000000e+00
0.000000000000000e+00 0.000000000000000e+00 0.000000000000000e+00
0.000000000000000e+00 0.000000000000000e+00 0.000000000000000e+00
0.000000000000000e+00 0.000000000000000e+00 0.000000000000000e+00
0.000000000000000e+00 0.000000000000000e+00 0.000000000000000e+00
0.000000000000000e+00 0.000000000000000e+00 0.000000000000000e+00
0.000000000000000e+00 0.000000000000000e+00 0.000000000000000e+00
0.000000000000000e+00 0.000000000000000e+00 0.000000000000000e+00
0.000000000000000e+00 0.000000000000000e+00 0.000000000000000e+00
0.000000000000000e+00 0.000000000000000e+00 0.000000000000000e+00
0.000000000000000e+00 0.000000000000000e+00 0.000000000000000e+00
0.000000000000000e+00 0.000000000000000e+00 0.000000000000000e+00
0.000000000000000e+00 0.000000000000000e+00 0.000000000000000e+00
0.000000000000000e+00 0.000000000000000e+00 0.000000000000000e+00
0.000000000000000e+00 0.000000000000000e+00 0.000000000000000e+00
0.000000000000000e+00 0.000000000000000e+00 0.000000000000000e+00
0.000000000000000e+00 0.000000000000000e+00 0.000000000000000e+00
0.000000000000000e+00 0.000000000000000e+00 0.000000000000000e+00
0.000000000000000e+00 0.000000000000000e+00 0.000000000000000e+00
0.000000000000000e+00 0.000000000000000e+00 0.000000000000000e+00
0.000000000000000e+00 0.000000000000000e+00 0.000000000000000e+00
0.000000000000000e+00 0.000000000000000e+00 0.000000000000000e+00
0.000000000000000e+00 0.000000000000000e+00 0.000000000000000e+00
0.000000000000000e+00 0.000000000000000e+00 0.000000000000000e+00
0.000000000000000e+00 0.000000000000000e+00 0.000000000000000e+00
0.000000000000000e+00 0.000000000000000e+00 0.000000000000000e+00
0.000000000000000e+00 0.000000000000000e+00 0.000000000000000e+00
0.000000000000000e+00 0.000000000000000e+00 0.000000000000000e+00
0.000000000000000e+00 0.000000000000000e+00 0.000000000000000e+00
0.000000000000000e+00 0.000000000000000e+00 0.000000000000000e+00
0.000000000000000e+00 0.000000000000000e+00 0.000000000000000e+00
0.000000000000000e+00 0.000000000000000e+00 0.000000000000000e+00
0.000000000000000e+00 0.000000000000000e+00 0.000000000000000e+00
0.000000000000000e+00 0.000000000000000e+00 0.000000000000000e+00
0.000000000000000e+00 0.000000000000000e+00 0.000000000000000e+00
0.000000000000000e+00 0.000000000000000e+00 0.000000000000000e+00
0.000000000000000e+00 0.000000000000000e+00 0.000000000000000e+00
0.000000000000000e+00 0.000000000000000e+00 0.000000000000000e+00
0.000000000000000e+00 0.000000000000000e+00 0.000000000000000e+00
0.000000000000000e+00 0.000000000000000e+00 0.000000000000000e+00
0.000000000000000e+00 0.000000000000000e+00 0.000000000000000e+00
0.000000000000000e+00 0.000000000000000e+00 0.000000000000000e+00
0.000000000000000e+00 0.000000000000000e+00 0.000000000000000e+00
0.000000000000000e+00 0.000000000000000e+00 0.000000000000000e+00
0.000000000000000e+00 0.000000000000000e+00 0.000000000000000e+00
0.000000000000000e+00 0.000000000000000e+00 0.000000000000000e+00
0.000000000000000e+00 0.000000000000000e+00 0.000000000000000e+00
0.000000000000000e+00 0.000000000000000e+00 0.000000000000000e+00
0.000000000000000e+00 0.000000000000000e+00 0.000000000000000e+00
0.000000000000000e+00 0.000000000000000e+00 0.000000000000000e+00
0.000000000000000e+00 0.000000000000000e+00 0.000000000000000e+00
0.000000000000000e+00 0.000000000000000e+00 0.000000000000000e+00
0.000000000000000e+00 0.000000000000000e+00 0.000000000000000e+00
0.000000000000000e+00 0.000000000000000e+00 0.000000000000000e+00
0.000000000000000e+00 0.000000000000000e+00 0.000000000000000e+00
0.000000000000000e+00 0.000000000000000e+00 0.000000000000000e+00
0.000000000000000e+00 0.000000000000000e+00 0.000000000000000e+00
0.000000000000000e+00 0.000000000000000e+00 0.000000000000000e+00
0.000000000000000e+00 0.000000000000000e+00 0.000000000000000e+00
0.000000000000000e+00 0.000000000000000e+00 0.000000000000000e+00
0.000000000000000e+00 0.000000000000000e+00 0.000000000000000e+00
0.000000000000000e+00 0.000000000000000e+00 0.000000000000000e+00
0.000000000000000e+00 0.000000000000000e+00 0.000000000000000e+00
0.000000000000000e+00 0.000000000000000e+00 0.000000000000000e+00
0.000000000000000e+00 0.000000000000000e+00 0.000000000000000e+00
0.000000000000000e+00 0.000000000000000e+00 0.000000000000000e+00
0.000000000000000e+00 0.000000000000000e+00 0.000000000000000e+00
0.000000000000000e+00 0.000000000000000e+00 0.000000000000000e+00
0.000000000000000e+00 0.000000000000000e+00 0.000000000000000e+00
0.000000000000000e+00 0.000000000000000e+00 0.000000000000000e+00
0.000000000000000e+00 0.000000000000000e+00 0.000000000000000e+00
0.000000000000000e+00 0.000000000000000e+00 0.000000000000000e+00
0.000000000000000e+00 0.000000000000000e+00 0.000000000000000e+00
0.000000000000000e+00 0.000000000000000e+00 0.000000000000000e+00
0.000000000000000e+00 0.000000000000000e+00 0.000000000000000e+00
0.000000000000000e+00 0.000000000000000e+00 0.000000000000000e+00
0.000000000000000e+00 0.000000000000000e+00 0.000000000000000e+00
0.000000000000000e+00 0.000000000000000e+00 0.000000000000000e+00
0.000000000000000e+00 0.000000000000000e+00 0.000000000000000e+00
0.000000000000000e+00 0.000000000000000e+00 0.000000000000000e+00
0.000000000000000e+00 0.000000000000000e+00 0.000000000000000e+00
0.000000000000000e+00 0.000000000000000e+00 0.000000000000000e+00
0.000000000000000e+00 0.000000000000000e+00 0.000000000000000e+00
0.000000000000000e+00 0.000000000000000e+00 0.000000000000000e+00
0.000000000000000e+00 0.000000000000000e+00 0.000000000000000e+00
0.000000000000000e+00 0.000000000000000e+00 0.000000000000000e+00
0.000000000000000e+00 0.000000000000000e+00 0.000000000000000e+00
0.000000000000000e+00 0.000000000000000e+00 0.000000000000000e+00
0.000000000000000e+00 0.000000000000000e+00 0.000000000000000e+00
0.000000000000000e+00 0.000000000000000e+00 0.000000000000000e+00
0.000000000000000e+00 0.000000000000000e+00 0.000000000000000e+00
0.000000000000000e+00 0.000000000000000e+00 0.000000000000000e+00
0.000000000000000e+00 0.000000000000000e+00 0.000000000000000e+00
0.000000000000000e+00 0.000000000000000e+00 0.000000000000000e+00
0.000000000000000e+00 0.000000000000000e+00 0.000000000000000e+00
0.000000000000000e+00 0.000000000000000e+00 0.000000000000000e+00
0.000000000000000e+00 0.000000000000000e+00 0.000000000000000e+00
0.000000000000000e+00 0.000000000000000e+00 0.000000000000000e+00
0.000000000000000e+00 0.000000000000000e+00 0.000000000000000e+00
0.000000000000000e+00 0.000000000000000e+00 0.000000000000000e+00
0.000000000000000e+00 0.000000000000000e+00 0.000000000000000e+00
0.000000000000000e+00 0.000000000000000e+00 0.000000000000000e+00
0.000000000000000e+00 0.000000000000000e+00 0.000000000000000e+00
0.000000000000000e+00 0.000000000000000e+00 0.000000000000000e+00
0.000000000000000e+00 0.000000000000000e+00 0.000000000000000e+00
0.000000000000000e+00 0.000000000000000e+00 0.000000000000000e+00
0.000000000000000e+00 0.000000000000000e+00 0.000000000000000e+00
0.000000000000000e+00 0.000000000000000e+00 0.000000000000000e+00
0.000000000000000e+00 0.000000000000000e+00 0.000000000000000e+00
0.000000000000000e+00 0.000000000000000e+00 0.000000000000000e+00
0.000000000000000e+00 0.000000000000000e+00 0.000000000000000e+00
0.000000000000000e+00 0.000000000000000e+00 0.000000000000000e+00
0.000000000000000e+00 0.000000000000000e+00 0.000000000000000e+00
0.000000000000000e+00 0.000000000000000e+00 0.000000000000000e+00
0.000000000000000e+00 0.000000000000000e+00 0.000000000000000e+00
0.000000000000000e+00 0.000000000000000e+00 0.000000000000000e+00
0.000000000000000e+00 0.000000000000000e+00 0.000000000000000e+00
0.000000000000000e+00 0.000000000000000e+00 0.000000000000000e+00
0.000000000000000e+00 0.000000000000000e+00 0.000000000000000e+00
0.000000000000000e+00 0.000000000000000e+00 0.000000000000000e+00
0.000000000000000e+00 0.000000000000000e+00 0.000000000000000e+00
0.000000000000000e+00 0.000000000000000e+00 0.000000000000000e+00
0.000000000000000e+00 0.000000000000000e+00 0.000000000000000e+00
0.000000000000000e+00 0.000000000000000e+00 0.000000000000000e+00
0.000000000000000e+00 0.000000000000000e+00 0.000000000000000e+00
0.000000000000000e+00 0.000000000000000e+00 0.000000000000000e+00
0.000000000000000e+00 0.000000000000000e+00 0.000000000000000e+00
0.000000000000000e+00 0.000000000000000e+00 0.000000000000000e+00
0.000000000000000e+00 0.000000000000000e+00 0.000000000000000e+00
0.000000000000000e+00 0.000000000000000e+00 0.000000000000000e+00
0.000000000000000e+00 0.000000000000000e+00 0.000000000000000e+00
0.000000000000000e+00 0.000000000000000e+00 0.000000000000000e+00
0.000000000000000e+00 0.000000000000000e+00 0.000000000000000e+00
0.000000000000000e+00 0.000000000000000e+00 0.000000000000000e+00
0.000000000000000e+00 0.000000000000000e+00 0.000000000000000e+00
0.000000000000000e+00 0.000000000000000e+00 0.000000000000000e+00
0.000000000000000e+00 0.000000000000000e+00 0.000000000000000e+00
0.000000000000000e+00 0.000000000000000e+00 0.000000000000000e+00
0.000000000000000e+00 0.000000000000000e+00 0.000000000000000e+00
0.000000000000000e+00 0.000000000000000e+00 0.000000000000000e+00
0.000000000000000e+00 0.000000000000000e+00 0.000000000000000e+00
0.000000000000000e+00 0.000000000000000e+00 0.000000000000000e+00
0.000000000000000e+00 0.000000000000000e+00 0.000000000000000e+00
0.000000000000000e+00 0.000000000000000e+00 0.000000000000000e+00
0.000000000000000e+00 0.000000000000000e+00 0.000000000000000e+00
0.000000000000000e+00 0.000000000000000e+00 0.000000000000000e+00
0.000000000000000e+00 0.000000000000000e+00 0.000000000000000e+00
0.000000000000000e+00 0.000000000000000e+00 0.000000000000000e+00
0.000000000000000e+00 0.000000000000000e+00 0.000000000000000e+00
0.000000000000000e+00 0.000000000000000e+00 0.000000000000000e+00
0.000000000000000e+00 0.000000000000000e+00 0.000000000000000e+00
0.000000000000000e+00 0.000000000000000e+00 0.000000000000000e+00
0.000000000000000e+00 0.000000000000000e+00 0.000000000000000e+00
0.000000000000000e+00 0.000000000000000e+00 0.000000000000000e+00
0.000000000000000e+00 0.000000000000000e+00 0.000000000000000e+00
0.000000000000000e+00 0.000000000000000e+00 0.000000000000000e+00
0.000000000000000e+00 0.000000000000000e+00 0.000000000000000e+00
0.000000000000000e+00 0.000000000000000e+00 0.000000000000000e+00
0.000000000000000e+00 0.000000000000000e+00 0.000000000000000e+00
0.000000000000000e+00 0.000000000000000e+00 0.000000000000000e+00
0.000000000000000e+00 0.000000000000000e+00 0.000000000000000e+00
0.000000000000000e+00 0.000000000000000e+00 0.000000000000000e+00
0.000000000000000e+00 0.000000000000000e+00 0.000000000000000e+00
0.000000000000000e+00 0.000000000000000e+00 0.000000000000000e+00
0.000000000000000e+00 0.000000000000000e+00 0.000000000000000e+00
0.000000000000000e+00 0.000000000000000e+00 0.000000000000000e+00
0.000000000000000e+00 0.000000000000000e+00 0.000000000000000e+00
0.000000000000000e+00 0.000000000000000e+00 0.000000000000000e+00
0.000000000000000e+00 0.000000000000000e+00 0.000000000000000e+00
0.000000000000000e+00 0.000000000000000e+00 0.000000000000000e+00
0.000000000000000e+00 0.000000000000000e+00 0.000000000000000e+00
0.000000000000000e+00 0.000000000000000e+00 0.000000000000000e+00
0.000000000000000e+00 0.000000000000000e+00 0.000000000000000e+00
0.000000000000000e+00 0.000000000000000e+00 0.000000000000000e+00
0.000000000000000e+00 0.000000000000000e+00 0.000000000000000e+00
0.000000000000000e+00 0.000000000000000e+00 0.000000000000000e+00
0.000000000000000e+00 0.000000000000000e+00 0.000000000000000e+00
0.000000000000000e+00 0.000000000000000e+00 0.000000000000000e+00
0.000000000000000e+00 0.000000000000000e+00 0.000000000000000e+00
0.000000000000000e+00 0.000000000000000e+00 0.000000000000000e+00
0.000000000000000e+00 0.000000000000000e+00 0.000000000000000e+00
0.000000000000000e+00 0.000000000000000e+00 0.000000000000000e+00
0.000000000000000e+00 0.000000000000000e+00 0.000000000000000e+00
0.000000000000000e+00 0.000000000000000e+00 0.000000000000000e+00
0.000000000000000e+00 0.000000000000000e+00 0.000000000000000e+00
0.000000000000000e+00 0.000000000000000e+00 0.000000000000000e+00
0.000000000000000e+00 0.000000000000000e+00 0.000000000000000e+00
0.000000000000000e+00 0.000000000000000e+00 0.000000000000000e+00
0.000000000000000e+00 0.000000000000000e+00 0.000000000000000e+00
0.000000000000000e+00 0.000000000000000e+00 0.000000000000000e+00
0.000000000000000e+00 0.000000000000000e+00 0.000000000000000e+00
0.000000000000000e+00 0.000000000000000e+00 0.000000000000000e+00
0.000000000000000e+00 0.000000000000000e+00 0.000000000000000e+00
0.000000000000000e+00 0.000000000000000e+00 0.000000000000000e+00
0.000000000000000e+00 0.000000000000000e+00 0.000000000000000e+00
0.000000000000000e+00 0.000000000000000e+00 0.000000000000000e+00
0.000000000000000e+00 0.000000000000000e+00 0.000000000000000e+00
0.000000000000000e+00 0.000000000000000e+00 0.000000000000000e+00
0.000000000000000e+00 0.000000000000000e+00 0.000000000000000e+00
0.000000000000000e+00 0.000000000000000e+00 0.000000000000000e+00
0.000000000000000e+00 0.000000000000000e+00 0.000000000000000e+00
0.000000000000000e+00 0.000000000000000e+00 0.000000000000000e+00
0.000000000000000e+00 0.000000000000000e+00 0.000000000000000e+00
0.000000000000000e+00 0.000000000000000e+00 0.000000000000000e+00
0.000000000000000e+00 0.000000000000000e+00 0.000000000000000e+00
0.000000000000000e+00 0.000000000000000e+00 0.000000000000000e+00
0.000000000000000e+00 0.000000000000000e+00 0.000000000000000e+00
0.000000000000000e+00 0.000000000000000e+00 0.000000000000000e+00
0.000000000000000e+00 0.000000000000000e+00 0.000000000000000e+00
0.000000000000000e+00 0.000000000000000e+00 0.000000000000000e+00
0.000000000000000e+00 0.000000000000000e+00 0.000000000000000e+00
0.000000000000000e+00 0.000000000000000e+00 0.000000000000000e+00
0.000000000000000e+00 0.000000000000000e+00 0.000000000000000e+00
0.000000000000000e+00 0.000000000000000e+00 0.000000000000000e+00
0.000000000000000e+00 0.000000000000000e+00 0.000000000000000e+00
0.000000000000000e+00 0.000000000000000e+00 0.000000000000000e+00
0.000000000000000e+00 0.000000000000000e+00 0.000000000000000e+00
0.000000000000000e+00 0.000000000000000e+00 0.000000000000000e+00
0.000000000000000e+00 0.000000000000000e+00 0.000000000000000e+00
0.000000000000000e+00 0.000000000000000e+00 0.000000000000000e+00
0.000000000000000e+00 0.000000000000000e+00 0.000000000000000e+00
0.000000000000000e+00 0.000000000000000e+00 0.000000000000000e+00
0.000000000000000e+00 0.000000000000000e+00 0.000000000000000e+00
0.000000000000000e+00 0.000000000000000e+00 0.000000000000000e+00
0.000000000000000e+00 0.000000000000000e+00 0.000000000000000e+00
0.000000000000000e+00 0.000000000000000e+00 0.000000000000000e+00
0.000000000000000e+00 0.000000000000000e+00 0.000000000000000e+00
0.000000000000000e+00 0.000000000000000e+00 0.000000000000000e+00
0.000000000000000e+00 0.000000000000000e+00 0.000000000000000e+00
0.000000000000000e+00 0.000000000000000e+00 0.000000000000000e+00
0.000000000000000e+00 0.000000000000000e+00 0.000000000000000e+00
0.000000000000000e+00 0.000000000000000e+00 0.000000000000000e+00
0.000000000000000e+00 0.000000000000000e+00 0.000000000000000e+00
0.000000000000000e+00 0.000000000000000e+00 0.000000000000000e+00
0.000000000000000e+00 0.000000000000000e+00 0.000000000000000e+00
0.000000000000000e+00 0.000000000000000e+00 0.000000000000000e+00
0.000000000000000e+00 0.000000000000000e+00 0.000000000000000e+00
0.000000000000000e+00 0.000000000000000e+00 0.000000000000000e+00
0.000000000000000e+00 0.000000000000000e+00 0.000000000000000e+00
0.000000000000000e+00 0.000000000000000e+00 0.000000000000000e+00
0.000000000000000e+00 0.000000000000000e+00 0.000000000000000e+00
0.000000000000000e+00 0.000000000000000e+00 0.000000000000000e+00
0.000000000000000e+00 0.000000000000000e+00 0.000000000000000e+00
0.000000000000000e+00 0.000000000000000e+00 0.000000000000000e+00
0.000000000000000e+00 0.000000000000000e+00 0.000000000000000e+00
0.000000000000000e+00 0.000000000000000e+00 0.000000000000000e+00
0.000000000000000e+00 0.000000000000000e+00 0.000000000000000e+00
0.000000000000000e+00 0.000000000000000e+00 0.000000000000000e+00
0.000000000000000e+00 0.000000000000000e+00 0.000000000000000e+00
0.000000000000000e+00 0.000000000000000e+00 0.000000000000000e+00
0.000000000000000e+00 0.000000000000000e+00 0.000000000000000e+00
0.000000000000000e+00 0.000000000000000e+00 0.000000000000000e+00
0.000000000000000e+00 0.000000000000000e+00 0.000000000000000e+00
0.000000000000000e+00 0.000000000000000e+00 0.000000000000000e+00
0.000000000000000e+00 0.000000000000000e+00 0.000000000000000e+00
0.000000000000000e+00 0.000000000000000e+00 0.000000000000000e+00
0.000000000000000e+00 0.000000000000000e+00 0.000000000000000e+00
0.000000000000000e+00 0.000000000000000e+00 0.000000000000000e+00
0.000000000000000e+00 0.000000000000000e+00 0.000000000000000e+00
0.000000000000000e+00 0.000000000000000e+00 0.000000000000000e+00
0.000000000000000e+00 0.000000000000000e+00 0.000000000000000e+00
0.000000000000000e+00 0.000000000000000e+00 0.000000000000000e+00
0.000000000000000e+00 0.000000000000000e+00 0.000000000000000e+00
0.000000000000000e+00 0.000000000000000e+00 0.000000000000000e+00
0.000000000000000e+00 0.000000000000000e+00 0.000000000000000e+00
0.000000000000000e+00 0.000000000000000e+00 0.000000000000000e+00
0.000000000000000e+00 0.000000000000000e+00 0.000000000000000e+00
0.000000000000000e+00 0.000000000000000e+00 0.000000000000000e+00
0.000000000000000e+00 0.000000000000000e+00 0.000000000000000e+00
0.000000000000000e+00 0.000000000000000e+00 0.000000000000000e+00
0.000000000000000e+00 0.000000000000000e+00 0.000000000000000e+00
0.000000000000000e+00 0.000000000000000e+00 0.000000000000000e+00
0.000000000000000e+00 0.000000000000000e+00 0.000000000000000e+00
0.000000000000000e+00 0.000000000000000e+00 0.000000000000000e+00
0.000000000000000e+00 0.000000000000000e+00 0.000000000000000e+00
0.000000000000000e+00 0.000000000000000e+00 0.000000000000000e+00
0.000000000000000e+00 0.000000000000000e+00 0.000000000000000e+00
0.000000000000000e+00 0.000000000000000e+00 0.000000000000000e+00
0.000000000000000e+00 0.000000000000000e+00 0.000000000000000e+00
0.000000000000000e+00 0.000000000000000e+00 0.000000000000000e+00
0.000000000000000e+00 0.000000000000000e+00 0.000000000000000e+00
0.000000000000000e+00 0.000000000000000e+00 0.000000000000000e+00
0.000000000000000e+00 0.000000000000000e+00 0.000000000000000e+00
0.000000000000000e+00 0.000000000000000e+00 0.000000000000000e+00
0.000000000000000e+00 0.000000000000000e+00 0.000000000000000e+00
0.000000000000000e+00 0.000000000000000e+00 0.000000000000000e+00
0.000000000000000e+00 0.000000000000000e+00 0.000000000000000e+00
0.000000000000000e+00 0.000000000000000e+00 0.000000000000000e+00
0.000000000000000e+00 0.000000000000000e+00 0.000000000000000e+00
0.000000000000000e+00 0.000000000000000e+00 0.000000000000000e+00
0.000000000000000e+00 0.000000000000000e+00 0.000000000000000e+00
0.000000000000000e+00 0.000000000000000e+00 0.000000000000000e+00
0.000000000000000e+00 0.000000000000000e+00 0.000000000000000e+00
0.000000000000000e+00 0.000000000000000e+00 0.000000000000000e+00
0.000000000000000e+00 0.000000000000000e+00 0.000000000000000e+00
0.000000000000000e+00 0.000000000000000e+00 0.000000000000000e+00
0.000000000000000e+00 0.000000000000000e+00 0.000000000000000e+00
0.000000000000000e+00 0.000000000000000e+00 0.000000000000000e+00
0.000000000000000e+00 0.000000000000000e+00 0.000000000000000e+00
0.000000000000000e+00 0.000000000000000e+00 0.000000000000000e+00
0.000000000000000e+00 0.000000000000000e+00 0.000000000000000e+00
0.000000000000000e+00 0.000000000000000e+00 0.000000000000000e+00
0.000000000000000e+00 0.000000000000000e+00 0.000000000000000e+00
0.000000000000000e+00 0.000000000000000e+00 0.000000000000000e+00
0.000000000000000e+00 0.000000000000000e+00 0.000000000000000e+00
0.000000000000000e+00 0.000000000000000e+00 0.000000000000000e+00
0.000000000000000e+00 0.000000000000000e+00 0.000000000000000e+00
0.000000000000000e+00 0.000000000000000e+00 0.000000000000000e+00
0.000000000000000e+00 0.000000000000000e+00 0.000000000000000e+00
0.000000000000000e+00 0.000000000000000e+00 0.000000000000000e+00
0.000000000000000e+00 0.000000000000000e+00 0.000000000000000e+00
0.000000000000000e+00 0.000000000000000e+00 0.000000000000000e+00
0.000000000000000e+00 0.000000000000000e+00 0.000000000000000e+00
0.000000000000000e+00 0.000000000000000e+00 0.000000000000000e+00
0.000000000000000e+00 0.000000000000000e+00 0.000000000000000e+00
0.000000000000000e+00 0.000000000000000e+00 0.000000000000000e+00
0.000000000000000e+00 0.000000000000000e+00 0.000000000000000e+00
0.000000000000000e+00 0.000000000000000e+00 0.000000000000000e+00
0.000000000000000e+00 0.000000000000000e+00 0.000000000000000e+00
0.000000000000000e+00 0.000000000000000e+00 0.000000000000000e+00
0.000000000000000e+00 0.000000000000000e+00 0.000000000000000e+00
0.000000000000000e+00 0.000000000000000e+00 0.000000000000000e+00
0.000000000000000e+00 0.000000000000000e+00 0.000000000000000e+00
0.000000000000000e+00 0.000000000000000e+00 0.000000000000000e+00
0.000000000000000e+00 0.000000000000000e+00 0.000000000000000e+00
0.000000000000000e+00 0.000000000000000e+00 0.000000000000000e+00
0.000000000000000e+00 0.000000000000000e+00 0.000000000000000e+00
0.000000000000000e+00 0.000000000000000e+00 0.000000000000000e+00
0.000000000000000e+00 0.000000000000000e+00 0.000000000000000e+00
0.000000000000000e+00 0.000000000000000e+00 0.000000000000000e+00
0.000000000000000e+00 0.000000000000000e+00 0.000000000000000e+00
0.000000000000000e+00 0.000000000000000e+00 0.000000000000000e+00
0.000000000000000e+00 0.000000000000000e+00 0.000000000000000e+00
0.000000000000000e+00 0.000000000000000e+00 0.000000000000000e+00
0.000000000000000e+00 0.000000000000000e+00 0.000000000000000e+00
0.000000000000000e+00 0.000000000000000e+00 0.000000000000000e+00
0.000000000000000e+00 0.000000000000000e+00 0.000000000000000e+00
0.000000000000000e+00 0.000000000000000e+00 0.000000000000000e+00
0.000000000000000e+00 0.000000000000000e+00 0.000000000000000e+00
0.000000000000000e+00 0.000000000000000e+00 0.000000000000000e+00
0.000000000000000e+00 0.000000000000000e+00 0.000000000000000e+00
0.000000000000000e+00 0.000000000000000e+00 0.000000000000000e+00
0.000000000000000e+00 0.000000000000000e+00 0.000000000000000e+00
0.000000000000000e+00 0.000000000000000e+00 0.000000000000000e+00
0.000000000000000e+00 0.000000000000000e+00 0.000000000000000e+00
0.000000000000000e+00 0.000000000000000e+00 0.000000000000000e+00
0.000000000000000e+00 0.000000000000000e+00 0.000000000000000e+00
0.000000000000000e+00 0.000000000000000e+00 0.000000000000000e+00
0.000000000000000e+00 0.000000000000000e+00 0.000000000000000e+00
0.000000000000000e+00 0.000000000000000e+00 0.000000000000000e+00
0.000000000000000e+00 0.000000000000000e+00 0.000000000000000e+00
0.000000000000000e+00 0.000000000000000e+00 0.000000000000000e+00
0.000000000000000e+00 0.000000000000000e+00 0.000000000000000e+00
0.000000000000000e+00 0.000000000000000e+00 0.000000000000000e+00
0.000000000000000e+00 0.000000000000000e+00 0.000000000000000e+00
0.000000000000000e+00 0.000000000000000e+00 0.000000000000000e+00
0.000000000000000e+00 0.000000000000000e+00 0.000000000000000e+00
0.000000000000000e+00 0.000000000000000e+00 0.000000000000000e+00
0.000000000000000e+00 0.000000000000000e+00 0.000000000000000e+00
0.000000000000000e+00 0.000000000000000e+00 0.000000000000000e+00
0.000000000000000e+00 0.000000000000000e+00 0.000000000000000e+00
0.000000000000000e+00 0.000000000000000e+00 0.000000000000000e+00
0.000000000000000e+00 0.000000000000000e+00 0.000000000000000e+00
0.000000000000000e+00 0.000000000000000e+00 0.000000000000000e+00
0.000000000000000e+00 0.000000000000000e+00 0.000000000000000e+00
0.000000000000000e+00 0.000000000000000e+00 0.000000000000000e+00
0.000000000000000e+00 0.000000000000000e+00 0.000000000000000e+00
0.000000000000000e+00 0.000000000000000e+00 0.000000000000000e+00
0.000000000000000e+00 0.000000000000000e+00 0.000000000000000e+00
0.000000000000000e+00 0.000000000000000e+00 0.000000000000000e+00
0.000000000000000e+00 0.000000000000000e+00 0.000000000000000e+00
0.000000000000000e+00 0.000000000000000e+00 0.000000000000000e+00
0.000000000000000e+00 0.000000000000000e+00 0.000000000000000e+00
0.000000000000000e+00 0.000000000000000e+00 0.000000000000000e+00
0.000000000000000e+00 0.000000000000000e+00 0.000000000000000e+00
0.000000000000000e+00 0.000000000000000e+00 0.000000000000000e+00
0.000000000000000e+00 0.000000000000000e+00 0.000000000000000e+00
0.000000000000000e+00 0.000000000000000e+00 0.000000000000000e+00
0.000000000000000e+00 0.000000000000000e+00 0.000000000000000e+00
0.000000000000000e+00 0.000000000000000e+00 0.000000000000000e+00
0.000000000000000e+00 0.000000000000000e+00 0.000000000000000e+00
0.000000000000000e+00 0.000000000000000e+00 0.000000000000000e+00
0.000000000000000e+00 0.000000000000000e+00 0.000000000000000e+00
0.000000000000000e+00 0.000000000000000e+00 0.000000000000000e+00
0.000000000000000e+00 0.000000000000000e+00 0.000000000000000e+00
0.000000000000000e+00 0.000000000000000e+00 0.000000000000000e+00
0.000000000000000e+00 0.000000000000000e+00 0.000000000000000e+00
0.000000000000000e+00 0.000000000000000e+00 0.000000000000000e+00
0.000000000000000e+00 0.000000000000000e+00 0.000000000000000e+00
0.000000000000000e+00 0.000000000000000e+00 0.000000000000000e+00
0.000000000000000e+00 0.000000000000000e+00 0.000000000000000e+00
0.000000000000000e+00 0.000000000000000e+00 0.000000000000000e+00
0.000000000000000e+00 0.000000000000000e+00 0.000000000000000e+00
0.000000000000000e+00 0.000000000000000e+00 0.000000000000000e+00
0.000000000000000e+00 0.000000000000000e+00 0.000000000000000e+00
0.000000000000000e+00 0.000000000000000e+00 0.000000000000000e+00
0.000000000000000e+00 0.000000000000000e+00 0.000000000000000e+00
0.000000000000000e+00 0.000000000000000e+00 0.000000000000000e+00
0.000000000000000e+00 0.000000000000000e+00 0.000000000000000e+00
0.000000000000000e+00 0.000000000000000e+00 0.000000000000000e+00
0.000000000000000e+00 0.000000000000000e+00 0.000000000000000e+00
0.000000000000000e+00 0.000000000000000e+00 0.000000000000000e+00
0.000000000000000e+00 0.000000000000000e+00 0.000000000000000e+00
0.000000000000000e+00 0.000000000000000e+00 0.000000000000000e+00
0.000000000000000e+00 0.000000000000000e+00 0.000000000000000e+00
0.000000000000000e+00 0.000000000000000e+00 0.000000000000000e+00
0.000000000000000e+00 0.000000000000000e+00 0.000000000000000e+00
0.000000000000000e+00 0.000000000000000e+00 0.000000000000000e+00
0.000000000000000e+00 0.000000000000000e+00 0.000000000000000e+00
0.000000000000000e+00 0.000000000000000e+00 0.000000000000000e+00
0.000000000000000e+00 0.000000000000000e+00 0.000000000000000e+00
0.000000000000000e+00 0.000000000000000e+00 0.000000000000000e+00
0.000000000000000e+00 0.000000000000000e+00 0.000000000000000e+00
0.000000000000000e+00 0.000000000000000e+00 0.000000000000000e+00
0.000000000000000e+00 0.000000000000000e+00 0.000000000000000e+00
0.000000000000000e+00 0.000000000000000e+00 0.000000000000000e+00
0.000000000000000e+00 0.000000000000000e+00 0.000000000000000e+00
0.000000000000000e+00 0.000000000000000e+00 0.000000000000000e+00
0.000000000000000e+00 0.000000000000000e+00 0.000000000000000e+00
0.000000000000000e+00 0.000000000000000e+00 0.000000000000000e+00
0.000000000000000e+00 0.000000000000000e+00 0.000000000000000e+00
0.000000000000000e+00 0.000000000000000e+00 0.000000000000000e+00
0.000000000000000e+00 0.000000000000000e+00 0.000000000000000e+00
0.000000000000000e+00 0.000000000000000e+00 0.000000000000000e+00
0.000000000000000e+00 0.000000000000000e+00 0.000000000000000e+00
0.000000000000000e+00 0.000000000000000e+00 0.000000000000000e+00
0.000000000000000e+00 0.000000000000000e+00 0.000000000000000e+00
0.000000000000000e+00 0.000000000000000e+00 0.000000000000000e+00
0.000000000000000e+00 0.000000000000000e+00 0.000000000000000e+00
0.000000000000000e+00 0.000000000000000e+00 0.000000000000000e+00
0.000000000000000e+00 0.000000000000000e+00 0.000000000000000e+00
0.000000000000000e+00 0.000000000000000e+00 0.000000000000000e+00
0.000000000000000e+00 0.000000000000000e+00 0.000000000000000e+00
0.000000000000000e+00 0.000000000000000e+00 0.000000000000000e+00
0.000000000000000e+00 0.000000000000000e+00 0.000000000000000e+00
0.000000000000000e+00 0.000000000000000e+00 0.000000000000000e+00
0.000000000000000e+00 0.000000000000000e+00 0.000000000000000e+00
0.000000000000000e+00 0.000000000000000e+00 0.000000000000000e+00
0.000000000000000e+00 0.000000000000000e+00 0.000000000000000e+00
0.000000000000000e+00 0.000000000000000e+00 0.000000000000000e+00
0.000000000000000e+00 0.000000000000000e+00 0.000000000000000e+00
0.000000000000000e+00 0.000000000000000e+00 0.000000000000000e+00
0.000000000000000e+00 0.000000000000000e+00 0.000000000000000e+00
0.000000000000000e+00 0.000000000000000e+00 0.000000000000000e+00
0.000000000000000e+00 0.000000000000000e+00 0.000000000000000e+00
0.000000000000000e+00 0.000000000000000e+00 0.000000000000000e+00
0.000000000000000e+00 0.000000000000000e+00 0.000000000000000e+00
0.000000000000000e+00 0.000000000000000e+00 0.000000000000000e+00
0.000000000000000e+00 0.000000000000000e+00 0.000000000000000e+00
0.000000000000000e+00 0.000000000000000e+00 0.000000000000000e+00
0.000000000000000e+00 0.000000000000000e+00 0.000000000000000e+00
0.000000000000000e+00 0.000000000000000e+00 0.000000000000000e+00
0.000000000000000e+00 0.000000000000000e+00 0.000000000000000e+00
0.000000000000000e+00 0.000000000000000e+00 0.000000000000000e+00
0.000000000000000e+00 0.000000000000000e+00 0.000000000000000e+00
0.000000000000000e+00 0.000000000000000e+00 0.000000000000000e+00
0.000000000000000e+00 0.000000000000000e+00 0.000000000000000e+00
0.000000000000000e+00 0.000000000000000e+00 0.000000000000000e+00
0.000000000000000e+00 0.000000000000000e+00 0.000000000000000e+00
0.000000000000000e+00 0.000000000000000e+00 0.000000000000000e+00
0.000000000000000e+00 0.000000000000000e+00 0.000000000000000e+00
0.000000000000000e+00 0.000000000000000e+00 0.000000000000000e+00
0.000000000000000e+00 0.000000000000000e+00 0.000000000000000e+00
0.000000000000000e+00 0.000000000000000e+00 0.000000000000000e+00
0.000000000000000e+00 0.000000000000000e+00 0.000000000000000e+00
0.000000000000000e+00 0.000000000000000e+00 0.000000000000000e+00
0.000000000000000e+00 0.000000000000000e+00 0.000000000000000e+00
0.000000000000000e+00 0.000000000000000e+00 0.000000000000000e+00
0.000000000000000e+00 0.000000000000000e+00 0.000000000000000e+00
0.000000000000000e+00 0.000000000000000e+00 0.000000000000000e+00
0.000000000000000e+00 0.000000000000000e+00 0.000000000000000e+00
0.000000000000000e+00 0.000000000000000e+00 0.000000000000000e+00
0.000000000000000e+00 0.000000000000000e+00 0.000000000000000e+00
0.000000000000000e+00 0.000000000000000e+00 0.000000000000000e+00
0.000000000000000e+00 0.000000000000000e+00 0.000000000000000e+00
0.000000000000000e+00 0.000000000000000e+00 0.000000000000000e+00
0.000000000000000e+00 0.000000000000000e+00 0.000000000000000e+00
0.000000000000000e+00 0.000000000000000e+00 0.000000000000000e+00
0.000000000000000e+00 0.000000000000000e+00 0.000000000000000e+00
0.000000000000000e+00 0.000000000000000e+00 0.000000000000000e+00
0.000000000000000e+00 0.000000000000000e+00 0.000000000000000e+00
0.000000000000000e+00 0.000000000000000e+00 0.000000000000000e+00
0.000000000000000e+00 0.000000000000000e+00 0.000000000000000e+00
0.000000000000000e+00 0.000000000000000e+00 0.000000000000000e+00
0.000000000000000e+00 0.000000000000000e+00 0.000000000000000e+00
0.000000000000000e+00 0.000000000000000e+00 0.000000000000000e+00
0.000000000000000e+00 0.000000000000000e+00 0.000000000000000e+00
0.000000000000000e+00 0.000000000000000e+00 0.000000000000000e+00
0.000000000000000e+00 0.000000000000000e+00 0.000000000000000e+00
0.000000000000000e+00 0.000000000000000e+00 0.000000000000000e+00
0.000000000000000e+00 0.000000000000000e+00 0.000000000000000e+00
0.000000000000000e+00 0.000000000000000e+00 0.000000000000000e+00
0.000000000000000e+00 0.000000000000000e+00 0.000000000000000e+00
0.000000000000000e+00 0.000000000000000e+00 0.000000000000000e+00
0.000000000000000e+00 0.000000000000000e+00 0.000000000000000e+00
0.000000000000000e+00 0.000000000000000e+00 0.000000000000000e+00
0.000000000000000e+00 0.000000000000000e+00 0.000000000000000e+00
0.000000000000000e+00 0.000000000000000e+00 0.000000000000000e+00
0.000000000000000e+00 0.000000000000000e+00 0.000000000000000e+00
0.000000000000000e+00 0.000000000000000e+00 0.000000000000000e+00
0.000000000000000e+00 0.000000000000000e+00 0.000000000000000e+00
0.000000000000000e+00 0.000000000000000e+00 0.000000000000000e+00
0.000000000000000e+00 0.000000000000000e+00 0.000000000000000e+00
0.000000000000000e+00 0.000000000000000e+00 0.000000000000000e+00
0.000000000000000e+00 0.000000000000000e+00 0.000000000000000e+00
0.000000000000000e+00 0.000000000000000e+00 0.000000000000000e+00
0.000000000000000e+00 0.000000000000000e+00 0.000000000000000e+00
0.000000000000000e+00 0.000000000000000e+00 0.000000000000000e+00
0.000000000000000e+00 0.000000000000000e+00 0.000000000000000e+00
0.000000000000000e+00 0.000000000000000e+00 0.000000000000000e+00
0.000000000000000e+00 0.000000000000000e+00 0.000000000000000e+00
0.000000000000000e+00 0.000000000000000e+00 0.000000000000000e+00
0.000000000000000e+00 0.000000000000000e+00 0.000000000000000e+00
0.000000000000000e+00 0.000000000000000e+00 0.000000000000000e+00
0.000000000000000e+00 0.000000000000000e+00 0.000000000000000e+00
0.000000000000000e+00 0.000000000000000e+00 0.000000000000000e+00
0.000000000000000e+00 0.000000000000000e+00 0.000000000000000e+00
0.000000000000000e+00 0.000000000000000e+00 0.000000000000000e+00
0.000000000000000e+00 0.000000000000000e+00 0.000000000000000e+00
0.000000000000000e+00 0.000000000000000e+00 0.000000000000000e+00
0.000000000000000e+00 0.000000000000000e+00 0.000000000000000e+00
0.000000000000000e+00 0.000000000000000e+00 0.000000000000000e+00
0.000000000000000e+00 0.000000000000000e+00 0.000000000000000e+00
0.000000000000000e+00 0.000000000000000e+00 0.000000000000000e+00
0.000000000000000e+00 0.000000000000000e+00 0.000000000000000e+00
0.000000000000000e+00 0.000000000000000e+00 0.000000000000000e+00
0.000000000000000e+00 0.000000000000000e+00 0.000000000000000e+00
0.000000000000000e+00 0.000000000000000e+00 0.000000000000000e+00
0.000000000000000e+00 0.000000000000000e+00 0.000000000000000e+00
0.000000000000000e+00 0.000000000000000e+00 0.000000000000000e+00
0.000000000000000e+00 0.000000000000000e+00 0.000000000000000e+00
0.000000000000000e+00 0.000000000000000e+00 0.000000000000000e+00
0.000000000000000e+00 0.000000000000000e+00 0.000000000000000e+00
0.000000000000000e+00 0.000000000000000e+00 0.000000000000000e+00
0.000000000000000e+00 0.000000000000000e+00 0.000000000000000e+00
0.000000000000000e+00 0.000000000000000e+00 0.000000000000000e+00
0.000000000000000e+00 0.000000000000000e+00 0.000000000000000e+00
0.000000000000000e+00 0.000000000000000e+00 0.000000000000000e+00
0.000000000000000e+00 0.000000000000000e+00 0.000000000000000e+00
0.000000000000000e+00 0.000000000000000e+00 0.000000000000000e+00
0.000000000000000e+00 0.000000000000000e+00 0.000000000000000e+00
0.000000000000000e+00 0.000000000000000e+00 0.000000000000000e+00
0.000000000000000e+00 0.000000000000000e+00 0.000000000000000e+00
0.000000000000000e+00 0.000000000000000e+00 0.000000000000000e+00
0.000000000000000e+00 0.000000000000000e+00 0.000000000000000e+00
0.000000000000000e+00 0.000000000000000e+00 0.000000000000000e+00
0.000000000000000e+00 0.000000000000000e+00 0.000000000000000e+00
0.000000000000000e+00 0.000000000000000e+00 0.000000000000000e+00
0.000000000000000e+00 0.000000000000000e+00 0.000000000000000e+00
0.000000000000000e+00 0.000000000000000e+00 0.000000000000000e+00
0.000000000000000e+00 0.000000000000000e+00 0.000000000000000e+00
0.000000000000000e+00 0.000000000000000e+00 0.000000000000000e+00
0.000000000000000e+00 0.000000000000000e+00 0.000000000000000e+00
0.000000000000000e+00 0.000000000000000e+00 0.000000000000000e+00
0.000000000000000e+00 0.000000000000000e+00 0.000000000000000e+00
0.000000000000000e+00 0.000000000000000e+00 0.000000000000000e+00
0.000000000000000e+00 0.000000000000000e+00 0.000000000000000e+00
0.000000000000000e+00 0.000000000000000e+00 0.000000000000000e+00
0.000000000000000e+00 0.000000000000000e+00 0.000000000000000e+00
0.000000000000000e+00 0.000000000000000e+00 0.000000000000000e+00
0.000000000000000e+00 0.000000000000000e+00 0.000000000000000e+00
0.000000000000000e+00 0.000000000000000e+00 0.000000000000000e+00
0.000000000000000e+00 0.000000000000000e+00 0.000000000000000e+00
0.000000000000000e+00 0.000000000000000e+00 0.000000000000000e+00
0.000000000000000e+00 0.000000000000000e+00 0.000000000000000e+00
0.000000000000000e+00 0.000000000000000e+00 0.000000000000000e+00
0.000000000000000e+00 0.000000000000000e+00 0.000000000000000e+00
0.000000000000000e+00 0.000000000000000e+00 0.000000000000000e+00
0.000000000000000e+00 0.000000000000000e+00 0.000000000000000e+00
0.000000000000000e+00 0.000000000000000e+00 0.000000000000000e+00
0.000000000000000e+00 0.000000000000000e+00 0.000000000000000e+00
0.000000000000000e+00 0.000000000000000e+00 0.000000000000000e+00
0.000000000000000e+00 0.000000000000000e+00 0.000000000000000e+00
0.000000000000000e+00 0.000000000000000e+00 0.000000000000000e+00
0.000000000000000e+00 0.000000000000000e+00 0.000000000000000e+00
0.000000000000000e+00 0.000000000000000e+00 0.000000000000000e+00
0.000000000000000e+00 0.000000000000000e+00 0.000000000000000e+00
0.000000000000000e+00 0.000000000000000e+00 0.000000000000000e+00
0.000000000000000e+00 0.000000000000000e+00 0.000000000000000e+00
0.000000000000000e+00 0.000000000000000e+00 0.000000000000000e+00
0.000000000000000e+00 0.000000000000000e+00 0.000000000000000e+00
0.000000000000000e+00 0.000000000000000e+00 0.000000000000000e+00
0.000000000000000e+00 0.000000000000000e+00 0.000000000000000e+00
0.000000000000000e+00 0.000000000000000e+00 0.000000000000000e+00
0.000000000000000e+00 0.000000000000000e+00 0.000000000000000e+00
0.000000000000000e+00 0.000000000000000e+00 0.000000000000000e+00
0.000000000000000e+00 0.000000000000000e+00 0.000000000000000e+00
0.000000000000000e+00 0.000000000000000e+00 0.000000000000000e+00
0.000000000000000e+00 0.000000000000000e+00 0.000000000000000e+00
0.000000000000000e+00 0.000000000000000e+00 0.000000000000000e+00
0.000000000000000e+00 0.000000000000000e+00 0.000000000000000e+00
0.000000000000000e+00 0.000000000000000e+00 0.000000000000000e+00
0.000000000000000e+00 0.000000000000000e+00 0.000000000000000e+00
0.000000000000000e+00 0.000000000000000e+00 0.000000000000000e+00
0.000000000000000e+00 0.000000000000000e+00 0.000000000000000e+00
0.000000000000000e+00 0.000000000000000e+00 0.000000000000000e+00
0.000000000000000e+00 0.000000000000000e+00 0.000000000000000e+00
0.000000000000000e+00 0.000000000000000e+00 0.000000000000000e+00
0.000000000000000e+00 0.000000000000000e+00 0.000000000000000e+00
0.000000000000000e+00 0.000000000000000e+00 0.000000000000000e+00
0.000000000000000e+00 0.000000000000000e+00 0.000000000000000e+00
0.000000000000000e+00 0.000000000000000e+00 0.000000000000000e+00
0.000000000000000e+00 0.000000000000000e+00 0.000000000000000e+00
0.000000000000000e+00 0.000000000000000e+00 0.000000000000000e+00
0.000000000000000e+00 0.000000000000000e+00 0.000000000000000e+00
0.000000000000000e+00 0.000000000000000e+00 0.000000000000000e+00
0.000000000000000e+00 0.000000000000000e+00 0.000000000000000e+00
0.000000000000000e+00 0.000000000000000e+00 0.000000000000000e+00
0.000000000000000e+00 0.000000000000000e+00 0.000000000000000e+00
0.000000000000000e+00 0.000000000000000e+00 0.000000000000000e+00
0.000000000000000e+00 0.000000000000000e+00 0.000000000000000e+00
0.000000000000000e+00 0.000000000000000e+00 0.000000000000000e+00
0.000000000000000e+00 0.000000000000000e+00 0.000000000000000e+00
0.000000000000000e+00 0.000000000000000e+00 0.000000000000000e+00
0.000000000000000e+00 0.000000000000000e+00 0.000000000000000e+00
0.000000000000000e+00 0.000000000000000e+00 0.000000000000000e+00
0.000000000000000e+00 0.000000000000000e+00 0.000000000000000e+00
0.000000000000000e+00 0.000000000000000e+00 0.000000000000000e+00
0.000000000000000e+00 0.000000000000000e+00 0.000000000000000e+00
0.000000000000000e+00 0.000000000000000e+00 0.000000000000000e+00
0.000000000000000e+00 0.000000000000000e+00 0.000000000000000e+00
0.000000000000000e+00 0.000000000000000e+00 0.000000000000000e+00
0.000000000000000e+00 0.000000000000000e+00 0.000000000000000e+00
0.000000000000000e+00 0.000000000000000e+00 0.000000000000000e+00
0.000000000000000e+00 0.000000000000000e+00 0.000000000000000e+00
0.000000000000000e+00 0.000000000000000e+00 0.000000000000000e+00
0.000000000000000e+00 0.000000000000000e+00 0.000000000000000e+00
0.000000000000000e+00 0.000000000000000e+00 0.000000000000000e+00
0.000000000000000e+00 0.000000000000000e+00 0.000000000000000e+00
0.000000000000000e+00 0.000000000000000e+00 0.000000000000000e+00
0.000000000000000e+00 0.000000000000000e+00 0.000000000000000e+00
0.000000000000000e+00 0.000000000000000e+00 0.000000000000000e+00
0.000000000000000e+00 0.000000000000000e+00 0.000000000000000e+00
0.000000000000000e+00 0.000000000000000e+00 0.000000000000000e+00
0.000000000000000e+00 0.000000000000000e+00 0.000000000000000e+00
0.000000000000000e+00 0.000000000000000e+00 0.000000000000000e+00
0.000000000000000e+00 0.000000000000000e+00 0.000000000000000e+00
0.000000000000000e+00 0.000000000000000e+00 0.000000000000000e+00
0.000000000000000e+00 0.000000000000000e+00 0.000000000000000e+00
0.000000000000000e+00 0.000000000000000e+00 0.000000000000000e+00
0.000000000000000e+00 0.000000000000000e+00 0.000000000000000e+00
0.000000000000000e+00 0.000000000000000e+00 0.000000000000000e+00
0.000000000000000e+00 0.000000000000000e+00 0.000000000000000e+00
0.000000000000000e+00 0.000000000000000e+00 0.000000000000000e+00
0.000000000000000e+00 0.000000000000000e+00 0.000000000000000e+00
0.000000000000000e+00 0.000000000000000e+00 0.000000000000000e+00
0.000000000000000e+00 0.000000000000000e+00 0.000000000000000e+00
0.000000000000000e+00 0.000000000000000e+00 0.000000000000000e+00
0.000000000000000e+00 0.000000000000000e+00 0.000000000000000e+00
0.000000000000000e+00 0.000000000000000e+00 0.000000000000000e+00
0.000000000000000e+00 0.000000000000000e+00 0.000000000000000e+00
0.000000000000000e+00 0.000000000000000e+00 0.000000000000000e+00
0.000000000000000e+00 0.000000000000000e+00 0.000000000000000e+00
0.000000000000000e+00 0.000000000000000e+00 0.000000000000000e+00
0.000000000000000e+00 0.000000000000000e+00 0.000000000000000e+00
0.000000000000000e+00 0.000000000000000e+00 0.000000000000000e+00
0.000000000000000e+00 0.000000000000000e+00 0.000000000000000e+00
0.000000000000000e+00 0.000000000000000e+00 0.000000000000000e+00
0.000000000000000e+00 0.000000000000000e+00 0.000000000000000e+00
0.000000000000000e+00 0.000000000000000e+00 0.000000000000000e+00
0.000000000000000e+00 0.000000000000000e+00 0.000000000000000e+00
0.000000000000000e+00 0.000000000000000e+00 0.000000000000000e+00
0.000000000000000e+00 0.000000000000000e+00 0.000000000000000e+00
0.000000000000000e+00 0.000000000000000e+00 0.000000000000000e+00
0.000000000000000e+00 0.000000000000000e+00 0.000000000000000e+00
0.000000000000000e+00 0.000000000000000e+00 0.000000000000000e+00
0.000000000000000e+00 0.000000000000000e+00 0.000000000000000e+00
0.000000000000000e+00 0.000000000000000e+00 0.000000000000000e+00
0.000000000000000e+00 0.000000000000000e+00 0.000000000000000e+00
0.000000000000000e+00 0.000000000000000e+00 0.000000000000000e+00
0.000000000000000e+00 0.000000000000000e+00 0.000000000000000e+00
0.000000000000000e+00 0.000000000000000e+00 0.000000000000000e+00
0.000000000000000e+00 0.000000000000000e+00 0.000000000000000e+00
0.000000000000000e+00 0.000000000000000e+00 0.000000000000000e+00
0.000000000000000e+00 0.000000000000000e+00 0.000000000000000e+00
0.000000000000000e+00 0.000000000000000e+00 0.000000000000000e+00
0.000000000000000e+00 0.000000000000000e+00 0.000000000000000e+00
0.000000000000000e+00 0.000000000000000e+00 0.000000000000000e+00
0.000000000000000e+00 0.000000000000000e+00 0.000000000000000e+00
0.000000000000000e+00 0.000000000000000e+00 0.000000000000000e+00
0.000000000000000e+00 0.000000000000000e+00 0.000000000000000e+00
0.000000000000000e+00 0.000000000000000e+00 0.000000000000000e+00
0.000000000000000e+00 0.000000000000000e+00 0.000000000000000e+00
0.000000000000000e+00 0.000000000000000e+00 0.000000000000000e+00
0.000000000000000e+00 0.000000000000000e+00 0.000000000000000e+00
0.000000000000000e+00 0.000000000000000e+00 0.000000000000000e+00
0.000000000000000e+00 0.000000000000000e+00 0.000000000000000e+00
0.000000000000000e+00 0.000000000000000e+00 0.000000000000000e+00
0.000000000000000e+00 0.000000000000000e+00 0.000000000000000e+00
0.000000000000000e+00 0.000000000000000e+00 0.000000000000000e+00
0.000000000000000e+00 0.000000000000000e+00 0.000000000000000e+00
0.000000000000000e+00 0.000000000000000e+00 0.000000000000000e+00
0.000000000000000e+00 0.000000000000000e+00 0.000000000000000e+00
0.000000000000000e+00 0.000000000000000e+00 0.000000000000000e+00
0.000000000000000e+00 0.000000000000000e+00 0.000000000000000e+00
0.000000000000000e+00 0.000000000000000e+00 0.000000000000000e+00
0.000000000000000e+00 0.000000000000000e+00 0.000000000000000e+00
0.000000000000000e+00 0.000000000000000e+00 0.000000000000000e+00
0.000000000000000e+00 0.000000000000000e+00 0.000000000000000e+00
0.000000000000000e+00 0.000000000000000e+00 0.000000000000000e+00
0.000000000000000e+00 0.000000000000000e+00 0.000000000000000e+00
0.000000000000000e+00 0.000000000000000e+00 0.000000000000000e+00
0.000000000000000e+00 0.000000000000000e+00 0.000000000000000e+00
0.000000000000000e+00 0.000000000000000e+00 0.000000000000000e+00
0.000000000000000e+00 0.000000000000000e+00 0.000000000000000e+00
0.000000000000000e+00 0.000000000000000e+00 0.000000000000000e+00
0.000000000000000e+00 0.000000000000000e+00 0.000000000000000e+00
0.000000000000000e+00 0.000000000000000e+00 0.000000000000000e+00
0.000000000000000e+00 0.000000000000000e+00 0.000000000000000e+00
0.000000000000000e+00 0.000000000000000e+00 0.000000000000000e+00
6.983852258054700e-03 8.465463357928873e-05 3.165880322114637e-19
6.844298121717049e-03 1.004600492204367e-04 3.149099217956656e-19
 7.042590350932780e-03 -1.170712277850963e-03  2.933389807661655e-19
 6.845466960763913e-03 -2.411478216721210e-04  3.014381994906405e-19
6.779106796098852e-03 7.772570958036860e-04 2.861910854556095e-19
7.215973550175316e-03 5.794558178269494e-04 3.617854764051473e-19
 6.936314750217028e-03 -1.352220738418047e-04  2.933217235655778e-19
 6.889686097526789e-03 -6.645838072571314e-05  3.122647159867969e-19
 6.933455762851445e-03 -6.688058589459991e-05  3.125078113590212e-19
6.730497660792816e-03 7.913009829185242e-04 3.622561964722428e-19
6.851383106636264e-03 2.949915745367075e-04 2.981217651764988e-19
 6.792937753686748e-03 -1.409341903262396e-04  3.119686319700128e-19
 6.945363194069820e-03 -2.501364156852191e-05  3.164529140316366e-19
7.014127045062019e-03 4.203263043025079e-06 3.206396020368037e-19
6.843960959350482e-03 7.177448097163199e-04 3.594660026881042e-19
6.786542775437441e-03 8.008073078397291e-05 3.089357763213503e-19
6.766443217512874e-03 7.984355740419851e-05 3.095736782938060e-19
 6.815622117963592e-03 -5.630399713352976e-04  3.660628285386828e-19
6.882290716172513e-03 6.066484055998795e-05 3.186023910040274e-19
6.897309527909493e-03 8.799704658277948e-05 3.072831982722174e-19
7.014712272079130e-03 8.949489073575499e-05 3.170682403858873e-19
 6.892548300027005e-03 -6.440889532615271e-04  3.487422661489975e-19
6.864870906564062e-03 6.175232198394710e-04 3.268041107086587e-19
6.559689851783210e-03 5.900709355726134e-04 2.706589990323050e-19
 6.469889712273335e-03 -3.165381426954159e-04  3.087061381156110e-19
 6.796368537306324e-03 -3.325110580774638e-04  3.002051507103868e-19
 7.333187225801415e-03 -4.128100331189443e-05  3.269932275518082e-19
 6.813762541815048e-03 -1.277333840697721e-03  4.084621090511921e-19
6.107692606795668e-03 2.223111002689235e-03 4.883097429666544e-19
7.461192216060881e-03 1.203303021716673e-03 4.563938009172298e-19
 6.560185343395079e-03 -2.336214040093094e-03  4.913878327182770e-20
6.381366214900701e-03 2.849109116051912e-04 2.663817424917314e-19
6.915861984770941e-03 2.658132326519368e-04 3.524502205098056e-19
6.965556665805659e-03 1.646299587539478e-04 2.969135700904443e-19
 6.362735034940580e-03 -1.380238133851379e-03  3.005845921415986e-19
6.624822163029269e-03 8.104144867014862e-04 2.867692762531438e-19
 6.854793625421757e-03 -3.826654311484607e-04  3.366543351293728e-19
6.892536930277988e-03 9.727158970987251e-04 4.047177262756475e-19
 6.914542182951905e-03 -7.901659290546329e-04  3.873419590124539e-19
6.743437205423560e-03 5.313022072489421e-04 3.226299803953356e-19
 6.736005022939008e-03 -4.698109595869238e-04  2.800761614945937e-19
6.784990592880466e-03 8.841035216365426e-04 1.891067685432740e-19
 6.876020980689881e-03 -4.632470473451499e-04  3.013651195316876e-19
6.828788327480757e-03 7.789660344807427e-04 3.947460452814806e-19
 6.901633667632537e-03 -4.275936127588197e-04  2.908186238682969e-19
6.882228307487555e-03 4.875979455637788e-04 2.942676872550060e-19
 6.724186736237160e-03 -9.156866943108831e-04  3.856688591210317e-19
6.648913637789655e-03 5.392841524814140e-04 2.368990187128938e-19
 6.768654552441405e-03 -2.603918193007473e-04  2.650867123428126e-19
6.750355531861188e-03 8.621584612342048e-04 3.014425422793410e-19
 6.905762930924613e-03 -2.226595659070433e-04  2.979076226478330e-19
6.922729763208238e-03 3.340900062016727e-04 3.591705267018575e-19
 6.840795124520213e-03 -4.056185253448003e-04  2.849198291340696e-19
6.875341421521338e-03 3.990474974477933e-04 2.731897354821102e-19
 6.893880478740381e-03 -6.171825305447261e-04  4.207715339849391e-19
6.772579538311598e-03 2.270740139779959e-04 3.084072320329767e-19
 6.687402563699311e-03 -1.806317321162917e-04  3.386776087822708e-19
6.810974764349124e-03 4.704390222124002e-04 3.556314629055752e-19
 7.175924917683743e-03 -1.365249333644918e-03  3.428727364356720e-19
 6.563475591278910e-03 -5.421824779188640e-04  3.436302184838582e-19
6.688590210715684e-03 5.163280774817113e-04 2.480105547304440e-19
 5.252805183702589e-03  5.381636783331884e-03 -3.142568104448694e-19
 7.273661568513497e-03 -2.764697153884559e-04  3.625186674641062e-19
 6.793688026826441e-03 -4.497350377558282e-05  3.066474502379602e-19
 6.796647071989694e-03 -3.657332356024089e-05  3.030751131556645e-19
6.846713001307879e-03 2.628243036062043e-04 2.889336138102279e-19
 6.855109793038256e-03 -5.754493892166657e-05  2.926487950993205e-19
 6.811774012051658e-03 -2.450511057185614e-05  3.071421770235101e-19
 6.832822974419779e-03 -1.034189668681018e-05  3.106827838251531e-19
 6.836276049956601e-03 -1.034712312844158e-05  3.104569977896841e-19
6.925968723773329e-03 1.191562876085434e-04 3.168914447832003e-19
 6.859984030982813e-03 -1.250543491632366e-04  2.939996873727477e-19
6.836978629278407e-03 4.918433568089020e-05 3.097514028595478e-19
6.892007001029177e-03 8.659456787186510e-05 2.941442755214870e-19
 6.885671045816954e-03 -1.976030820731160e-05  3.056281901437805e-19
 6.835642579573168e-03 -9.096270740257829e-05  3.269597753685895e-19
 6.847390490495792e-03 -1.666683064762074e-05  3.163396148581977e-19
 6.873031735275431e-03 -6.593450811833464e-05  3.146181652986170e-19
 6.846365456587350e-03 -6.129268829721788e-05  3.195056002597908e-19
 6.864006045022499e-03 -2.251073866326655e-05  3.167636618370078e-19
 6.850099138670452e-03 -7.855884374387857e-05  2.945361859093582e-19
6.867103177534596e-03 1.868889109861399e-06 3.083330246046726e-19
 6.853384199159865e-03 -9.457405240447831e-05  2.892606835631182e-19
6.858148687398808e-03 8.714840030531978e-05 3.065551756196444e-19
 6.872371239232586e-03 -9.415935054332980e-05  3.267215471195747e-19
 6.846100718453560e-03 -1.853029834796081e-06  3.063304990793044e-19
 6.800861949333704e-03 -9.264430699255985e-04  6.792010444600469e-19
 6.861931955445514e-03 -3.193167662553212e-05  3.176132422466177e-19
 6.916803594291875e-03 -1.553293327696247e-04  3.173262704583978e-19
6.792800876771092e-03 3.032345562549331e-04 3.791458422372255e-19
6.934408622722823e-03 1.155188380373774e-04 3.563247416199218e-19
 6.854997247253815e-03 -2.884248859004584e-04  3.898692833111547e-19
 6.838111799339372e-03 -5.269418596323488e-05  3.160931477688187e-19
 6.887598227199561e-03 -5.307552617948767e-05  3.175322610323634e-19
 6.888002049248537e-03 -5.307863801427030e-05  3.178055275854779e-19
 6.882723454939310e-03 -1.747715225127061e-05  3.051054519622839e-19
 6.867551901321730e-03 -2.122356235909428e-05  3.038650251230374e-19
 6.883190901039768e-03 -4.358725464741224e-05  2.999607096006677e-19
 6.870549642128000e-03 -8.853908489026509e-05  3.234902416290635e-19
 6.871231158592069e-03 -9.868876416406597e-06  2.989196304972157e-19
 6.889467162741566e-03 -6.588181405476534e-06  3.044702988572165e-19
 6.879772782862109e-03 -2.627815201347690e-05  3.109165751084346e-19
 6.869966925727118e-03 -2.624069731656341e-05  3.105190494394252e-19
6.927822956900343e-03 1.496503634177080e-04 2.444909218220809e-19
 6.919729013231352e-03 -9.166460258533341e-05  2.741219063454935e-19
6.877365022717038e-03 3.869729448592994e-05 3.044838670304999e-19
 6.770519530803746e-03 -3.041342041378369e-05  3.006607653550882e-19
6.861472409082598e-03 2.110294922491201e-04 2.678323959196664e-19
 6.838795312741746e-03 -6.814389281201711e-05  2.928181051480171e-19
6.873808616142914e-03 2.171757430159812e-04 3.366054448125495e-19
 6.983859810355326e-03 -3.383203750499427e-05  3.100921025050866e-19
 6.934788306269372e-03 -1.870210035596656e-04  2.843135570819296e-19
6.695107996439225e-03 2.228485307067261e-05 2.965298592806102e-19
 6.845338191026165e-03  1.288016834552045e-03 -5.729517358265694e-20
 7.005792268116670e-03 -3.414739988616690e-04  1.610222151201086e-19
 6.618151187618057e-03 -7.663631928422083e-04  1.875535716682458e-21
6.859835248582861e-03 3.281442167888303e-04 5.494223619257890e-19
6.853011967908646e-03 4.409021553242149e-04 2.475440374502188e-19
 6.847980163980663e-03 -2.363482065929693e-04  1.896817771660699e-19
6.769590198269348e-03 9.478559190443312e-05 2.179293544675505e-19
6.667321878365749e-03 6.425647539851339e-04 1.170407736672140e-19
6.957109446961533e-03 5.491055679632084e-04 1.306941963529708e-19
 6.806208909002431e-03 -7.663087012485720e-04  7.319951525171063e-19
6.778594044807036e-03 2.480181646240468e-04 2.628828063184145e-19
6.807125817127615e-03 2.490620975926899e-04 2.613417633179663e-19
6.611041438126382e-03 3.527749556179294e-04 2.645255452881288e-19
6.479362275490417e-03 3.121187057685009e-04 3.296248264672762e-19
6.664874569387749e-03 4.216431186695756e-04 1.389287541589182e-19
 6.784575328258153e-03 -2.819868590670585e-03  1.019034608662896e-18
 6.385839902018402e-03 -7.244398207922181e-04 -2.445822208501284e-19
6.507188069764022e-03 3.546664574889721e-05 2.915426533107366e-19
6.751073803083886e-03 1.432348132537920e-04 3.154966090567210e-19
 7.154196897028333e-03 -9.536753702836455e-04  1.614753874500806e-19
 6.537402702742356e-03 -1.019540861417374e-03  4.505724519437494e-20
6.825410721971040e-03 1.064005075544701e-03 9.429471575033834e-19
 7.198940104965028e-03 -4.788334474900471e-04  3.337350656521160e-19
 6.322759889475323e-03 -2.030324860743998e-03 -4.909477225255912e-20
7.043533009179885e-03 9.573958718136373e-05 3.251508209397023e-19
6.998063715283782e-03 1.185508995787111e-04 3.456589791090910e-19
6.988453800858066e-03 1.408489763671514e-04 2.528426962698510e-19
6.910892151794642e-03 5.745026605817501e-06 2.874140478622428e-19
 6.839810190445696e-03 -8.329502282872439e-05  2.374472351610594e-19
6.816363799566301e-03 5.529139146844397e-05 2.724849116160363e-19
6.850426844453907e-03 8.838690607540728e-05 2.437054435547486e-19
6.816490683927495e-03 1.500119361426272e-06 2.794498361162775e-19
 6.821120716138849e-03 -6.685901912970322e-05  2.891775822299409e-19
 6.823262675171283e-03 -2.274226180583217e-05  2.635305133982024e-19
 6.845607987614591e-03 -1.458615751359590e-05  2.815074074443234e-19
 6.846187236616857e-03 -2.197118915793307e-05  2.878063278424825e-19
 6.844350152866750e-03 -2.196529348006485e-05  2.858711303801542e-19
 6.831920094141213e-03 -4.166316680646242e-05  2.272890455691947e-19
6.830288151115791e-03 3.442202160384446e-05 2.703358112039278e-19
 6.878633716654930e-03 -1.001695771496653e-04  2.549668596148556e-19
 6.911450727313031e-03 -1.990483945644889e-04  2.438172860472716e-19
6.911326244784966e-03 8.697445305516710e-05 2.973349192551437e-19
6.940104527427716e-03 6.126665691347432e-04 4.590014057949242e-19
 6.852945843585517e-03 -7.754690411588651e-04  5.027445458489038e-19
6.869932510014952e-03 9.130828420679537e-05 3.559148102774131e-19
6.949817363394339e-03 9.237003392348473e-05 3.275962692246423e-19
6.866819735862255e-03 9.126691232044981e-05 2.954913887508406e-19
6.820477230595422e-03 5.199808376016956e-05 1.829607332445019e-19
 6.869513475808932e-03 -1.087887933766926e-04  2.481442391601987e-19
6.866857209374711e-03 2.347881288462369e-05 2.243742737631512e-19
 6.823584972705134e-03  8.403528424471536e-04 -4.099657899266676e-20
 6.833166179325872e-03 -5.179557502558859e-05  2.413501147081590e-19
 6.883910423307566e-03 -3.414641793071102e-05  2.215187121002119e-19
6.886167151407217e-03 1.466576598720792e-04 1.481865908684423e-19
6.772041174216385e-03 1.446081095943988e-04 1.191664462682730e-19
6.731395258751140e-03 6.674748071353419e-05 7.202939003146633e-20
6.684038333244014e-03 6.627789671936452e-05 4.946468581327632e-20
 6.495615317427465e-03  2.692372521266777e-04 -5.144524158266143e-20
2.829865936041879e-03 6.433757919460972e-03 3.900089161600653e-18
 6.594408265694660e-03 -4.092342841400368e-04  1.815665479200339e-19
 7.034362694618331e-03 -3.872533834788205e-04  2.549415353642255e-19
6.320770589697909e-03 2.386596635847692e-03 8.318905791374952e-20
 6.562056845759347e-03  6.760297435272923e-06 -1.598677315473351e-19
 6.742421541691161e-03 -4.729731937638192e-04  1.066737566381680e-19
 6.974153040226372e-03 -4.892288945206103e-04  4.011445391012527e-20
 7.210819708041213e-03  2.533668014309670e-05 -4.955857177196198e-19
6.649663145392856e-03 1.969237204906838e-03 8.640241847534172e-19
 6.840816409981400e-03 -4.061477432461833e-05 -6.705516423286503e-19
 6.792289418886538e-03 -4.032666356797022e-05 -9.367564007976221e-19
 6.815464722064339e-03 -1.176423233397677e-03 -1.702896795611257e-18
 7.174064922386163e-03  1.845814214033064e-04 -1.556943148199690e-18
 6.699333103917429e-03  3.609868751107400e-04 -3.328567782469795e-18
 6.578889868913381e-03 -2.505785540213983e-04 -4.545996202844092e-18
 6.699484766916103e-03 -2.551718054309817e-04 -6.414442320629360e-18
 6.915149974595050e-03 -2.633861207592060e-04 -9.430920335219215e-18
 7.002491902333673e-03 -2.841646144730037e-04 -1.478715100279534e-17
 6.962136598421950e-03  1.824975390542883e-04 -2.212048822050555e-17
 6.887148842038609e-03  4.404170436687588e-04 -2.871349221948546e-17
 6.955635471521921e-03  2.157291300260872e-04 -3.462339189866908e-17
 6.923688744289088e-03 -4.207564206740231e-04 -4.559762111294198e-17
 6.796819394130631e-03 -1.112080805814605e-04 -6.468267408793831e-17
 6.831660565776140e-03  1.514386549442334e-04 -8.545582592775096e-17
 6.922747430376102e-03 -6.661500111432257e-06 -1.198062870962249e-16
6.893100365822971e-03 9.566958545058424e-07 2.462288935724613e-16
 6.882905103523165e-03  4.840408271805287e-07 -6.537109893475750e-15
6.867665242452034e-03 2.545359299775117e-05 1.746203873577998e-16
 6.868016445258304e-03  2.545489465893803e-05 -1.311910446002781e-16
 6.892866753870474e-03  4.847413795142568e-07 -6.538702857515405e-15
 6.947807018985351e-03 -1.025552827068691e-04 -8.112915261610593e-17
 6.806597938619788e-03 -2.591516450652912e-04 -6.174970733861664e-17
 6.897772079356987e-03  8.677474666287974e-05 -4.674068825617674e-17
 6.892553778669085e-03  2.231953214683209e-05 -2.813310226156263e-17
 6.871675013531790e-03  2.225192233418033e-05 -1.747991337686490e-17
 6.860360427921506e-03  3.807184551791035e-05 -1.101888414663204e-17
 6.836342897431381e-03  3.793855926857275e-05 -7.080861705267345e-18
 6.829828252434913e-03  3.790240598471610e-05 -4.702136351907320e-18
 6.879987095910769e-03 -1.559121225843069e-04 -3.570589844971863e-18
 6.921031296562787e-03 -4.385522946600631e-05 -2.520962465178456e-18
 6.909957401858709e-03  3.005639889285824e-04 -1.765491495243961e-18
 6.915704963400241e-03 -3.035165028753310e-04 -1.339090498236628e-18
 6.862402126871041e-03  8.229453693234622e-05 -1.046943522745618e-18
 6.850779846136224e-03  1.366011672302702e-04 -7.831319399867987e-19
 6.904817191613972e-03 -7.536288325342365e-06 -6.050600163778021e-19
 6.864561729908285e-03 -1.667900213414547e-04 -4.698653043639383e-19
 6.794990936483980e-03  6.331244539938202e-04 -3.699151901439333e-19
 6.933353868525473e-03  3.440569610844305e-05 -2.929634935909175e-19
 6.801735195913937e-03  5.651551623690197e-05 -1.935600142488034e-19
 6.796033906414108e-03  5.646814430753125e-05 -1.124102848844942e-19
 6.779155884520069e-03  5.632790507549351e-05 -4.948856781010027e-20
 6.750059836360334e-03  1.006763615584080e-04 -7.749627448367208e-21
6.676742396956214e-03 6.273460595659486e-05 2.038566518852553e-20
6.640670238557488e-03 1.859830495888317e-04 3.421726982677309e-20
 6.887886175674600e-03 -8.276750185082258e-04  1.257080638906285e-19
 6.602571336869952e-03 -2.121943012339546e-04  7.567548634401417e-20
6.672009358087027e-03 2.697678307612246e-04 8.931472358501421e-20
 6.785605250615822e-03 -2.118101768126161e-04  1.351777317119348e-19
 6.902830510011571e-03 -9.209600422403127e-05  1.512194345219124e-19
6.894424042694956e-03 4.176311242136936e-05 1.686499781123150e-19
 6.876543333639214e-03 -7.975887823590927e-05  1.822637390669627e-19
6.888942438910863e-03 8.354107327811394e-06 1.955223262586817e-19
 6.892674881268844e-03 -5.255638729954703e-05  2.006424301970543e-19
6.882148426572285e-03 4.456378972166846e-05 2.090260430717720e-19
 6.872827270127205e-03 -3.011495600253419e-05  2.174935457690471e-19
 6.867470825119312e-03 -3.009148544239893e-05  2.232262528079486e-19
 6.872856185577909e-03 -3.011508270257938e-05  2.290868442276079e-19
 6.878404826806116e-03 -3.173540737808609e-05  2.378671811328198e-19
 6.842105990574762e-03 -3.156793274055631e-05  2.415326366612020e-19
6.862269937854337e-03 2.910912476891714e-04 2.327928461760239e-19
 6.861722793159277e-03 -5.787448455717156e-05  2.502821583577578e-19
6.820463636778662e-03 8.494324195776512e-06 2.487339717264377e-19
 6.800941096501778e-03 -7.440336330414123e-05  2.612733725120399e-19
6.804795200215955e-03 4.445986627244666e-05 2.536950061533080e-19
 6.809509237458032e-03 -5.442188983523378e-05  2.569235448381116e-19
6.820660916121097e-03 6.232710545036451e-05 2.551026066461809e-19
 6.795039062637355e-03 -1.516504023868722e-04  2.524912983772247e-19
6.805354711971526e-03 8.787365533894403e-05 2.605024047176646e-19
 6.848699167565212e-03 -4.803520213881155e-05  2.674997506793262e-19
 6.802289060381442e-03 -1.475935846068139e-04  2.580059528955010e-19
6.824874898498032e-03 4.612006479503941e-05 2.632850697248574e-19
6.849990682477033e-03 7.113058776829994e-05 2.703788727634151e-19
 6.835164920103216e-03 -6.292711384382620e-05  2.699794178987738e-19
6.809222847776682e-03 3.485371313236249e-05 2.712348906250127e-19
 6.799598560348347e-03 -2.554414629478399e-05  2.729712085196932e-19
6.796478968139344e-03 9.442835947338172e-05 2.758886847410689e-19
 6.797831409417499e-03 -5.953529760828209e-06  2.748805548433843e-19
6.766961485365635e-03 3.138797555951994e-05 2.759863896988197e-19
6.759443896165775e-03 3.046212502907543e-05 2.758640360684520e-19
6.758919984881386e-03 3.045976396930564e-05 2.771199402995672e-19
 6.666002092938452e-03 -7.931341352835330e-05  2.760244952918433e-19
6.601565335287911e-03 2.426699088295337e-04 2.879770483636489e-19
6.730557936625853e-03 1.667018948246091e-04 2.743611765211701e-19
 6.621049945083325e-03 -1.918141876409739e-04  2.866535362971493e-19
6.688975132563722e-03 2.789873875674001e-04 2.730570829404191e-19
 6.275485007565736e-03 -1.832596304366876e-03  3.911514318978187e-19
6.632189458915779e-03 3.524331709472378e-04 2.871665849632738e-19
 6.004030124974493e-03 -1.902724065294703e-03  2.800784583983132e-19
5.813648161044225e-03 5.952847895176978e-04 2.563710999210094e-19
6.460863519860530e-03 4.446354035490656e-04 2.656241566007639e-19
 8.265150893967670e-03 -2.440440168229915e-03  1.665669268896968e-19
 6.736083317937504e-03 -3.470175045802554e-03  3.822004336120762e-19
 7.428224294276202e-03 -1.931904173783319e-03  3.101246069107824e-19
6.043298543742774e-03 5.028913106391203e-03 1.725502804937524e-19
 9.698253696503369e-03 -3.664439531099701e-04  3.761648199444515e-19
 1.404695263268721e-03 -6.197793913516508e-03  1.174681178782009e-19
7.123849807224386e-03 1.235908253590464e-03 3.545121956029742e-19
7.412248846857347e-03 1.411960535804867e-03 3.189699545363760e-19
6.842741263490804e-03 6.304583491505230e-04 2.861133172988325e-19
6.555050102252511e-03 1.416261664362529e-04 2.813312756032088e-19
6.192065702896528e-03 2.667470680972988e-03 1.754890887735554e-19
 7.198786655272581e-03 -1.877811829456492e-04  3.063179453948326e-19
 5.495428981676979e-03 -2.047490096064554e-03  3.233562038090075e-19
6.058419816314019e-03 1.090536574247207e-03 2.772815836274884e-19
6.870730724128874e-03 3.318600723230937e-04 2.933949622732172e-19
 7.126051122412628e-03 -9.423155253323446e-04  2.637606517877086e-19
 6.601514188392219e-03 -7.588850498673853e-04  2.934423438519951e-19
6.893582517238471e-03 6.802386713042982e-04 3.051312486348146e-19
6.773733042219942e-03 4.578191245459548e-05 2.936660530235098e-19
6.739918828138552e-03 4.555337091344728e-05 2.936305715002984e-19
6.766479354669890e-03 5.760785799495912e-05 2.953942995766198e-19
 6.792302332599798e-03 -1.500019413948077e-05  2.980502198273821e-19
6.812592213188934e-03 8.561713236390866e-05 2.967225183186005e-19
 6.792772268888495e-03 -4.416168886324792e-05  2.991572206040973e-19
6.787878211421567e-03 9.634032506573150e-05 2.946494392054438e-19
 6.800157572106029e-03 -1.034339880916217e-04  2.997036268044555e-19
6.767308736374237e-03 3.347858512433415e-05 2.972963553044641e-19
 6.837527223642280e-03 -4.443273687411515e-05  3.019254462665871e-19
 6.814418325594172e-03 -7.207018829379673e-05  3.040618773651319e-19
6.719556224535357e-03 1.144200359065607e-04 2.976913648580671e-19
6.892755512318931e-03 4.111075979192610e-04 2.972183980730098e-19
 6.833795908950618e-03 -1.312900184242865e-04  2.995040058694613e-19
 6.812075440612677e-03 -1.868313016576476e-04  3.031419088422048e-19
6.749654569692698e-03 2.270895932194002e-04 3.028924062692753e-19
6.929671144332042e-03 1.779709172436285e-04 3.026926345349257e-19
 7.013535032359934e-03 -3.974407068799534e-04  2.961682974959032e-19
 6.594884737359019e-03 -4.353226727952894e-04  3.056376349802876e-19
6.689757916820207e-03 6.335246888125357e-04 3.004372402344697e-19
7.024682026644122e-03 5.819033483337117e-06 3.078046459868110e-19
 6.669957679760437e-03 -1.150776120400084e-03  3.306719867856385e-19
6.755859013702571e-03 1.219652071534716e-04 3.046241305324472e-19
6.912470980277382e-03 1.378374339274219e-04 3.081867970046220e-19
 6.856160186662904e-03 -4.787207801528879e-05  3.038832363576277e-19
 6.891752586487452e-03 -1.532365597974956e-04  3.039593037604821e-19
 6.944131636219033e-03 -1.544011961197666e-04  3.086320811243410e-19
6.625449631748156e-03 4.130876999010531e-04 2.966378228434135e-19
7.133628825183150e-03 8.923203565772137e-04 3.193743177887922e-19
 6.875636144397392e-03 -1.862699536476525e-03  3.289722633792817e-19
 6.365572781430354e-03 -7.244833824061085e-05  2.926156821995863e-19
6.761239373933485e-03 2.174849336902996e-04 3.083520191162029e-19
6.848323531358000e-03 4.094118357790279e-06 3.055715964809115e-19
 6.790496536266174e-03 -9.500500404571095e-05  3.038249320864707e-19
 6.758338992699448e-03 -3.526040549174605e-05  3.033972502384923e-19
 6.725440347856930e-03 -1.112308882061615e-04  3.019927474009025e-19
 6.733609116741861e-03 -1.822936006187846e-06  3.021275715626760e-19
 6.846913966453357e-03 -2.751777177596666e-05  3.050572721895868e-19
 6.944695904793723e-03 -3.871866228350240e-04  3.106187201283186e-19
 6.806823941702156e-03 -2.966528178425461e-04  3.047380421997691e-19
6.794986308138374e-03 2.965219241441562e-04 3.132913767026451e-19
 6.886712061971767e-03 -2.178983282782078e-05  3.089632185277004e-19
 6.683938317103755e-03 -7.292624586587123e-06  3.020994991286759e-19
6.822856296798806e-03 2.228755733973304e-04 3.015437716550229e-19
 6.797861773134957e-03 -5.580957899173723e-04  3.026462436454854e-19
 6.783105416912533e-03 -7.387548577083922e-05  3.077551217770315e-19
 6.788221318322019e-03 -7.393120356948039e-05  3.079533677935485e-19
6.895733882302617e-03 4.019589174526276e-04 3.087389790838003e-19
 6.857474111702469e-03 -3.310840741075310e-04  3.096249043296765e-19
 6.900860920777915e-03 -1.210843684016729e-04  3.101475512141895e-19
 6.600519377518382e-03 -4.311374153420977e-05  3.025624907359523e-19
7.038094475973456e-03 1.718098285066503e-03 3.131144527018559e-19
 6.840034186596773e-03 -1.325627760657845e-03  2.893136642156011e-19
6.352583584718374e-03 6.026287734902181e-04 2.907451955668800e-19
 6.793003382131864e-03 -3.867053846758371e-04  3.190314347483235e-19
6.946718888071622e-03 9.104549585350616e-04 3.099449900158496e-19
 6.850396675480962e-03 -8.160506938012690e-04  3.243921935435060e-19
6.704465504694383e-03 6.042782794102100e-04 2.951338154086038e-19
 6.795997969633305e-03 -4.212105700271255e-04  3.021499209637965e-19
6.876191508543413e-03 7.874150152999848e-04 3.184947270831131e-19
 6.912060630007349e-03 -6.760790820998722e-04  3.115514204241966e-19
6.762248659791978e-03 3.533918259399063e-04 3.161169601493188e-19
 6.902141560777428e-03 -3.310933977724133e-04  3.150600554752661e-19
6.819769251772621e-03 1.194043214086162e-04 3.078158799642354e-19
 6.824128838687890e-03 -2.267952926958081e-04  3.083488590389510e-19
 6.911675202786865e-03 -2.241615199310516e-05  3.131583818450003e-19
 6.955756687723627e-03 -7.876305009172016e-05  3.177398900920905e-19
6.508101885769088e-03 4.058510579048742e-04 2.992971923431833e-19
6.635609981179175e-03 7.760499994425093e-04 2.950198485029227e-19
 6.625214921962349e-03 -7.928350810780371e-04  2.835954169201605e-19
 6.921205591844239e-03 -6.803534989076052e-04  3.281780308175761e-19
6.941010281661881e-03 7.783097297083443e-04 3.239234639240523e-19
7.238928194752224e-03 4.157549946498301e-04 3.090358601113848e-19
 6.851565303959332e-03 -2.642811227987395e-04  3.081801705549915e-19
 6.568602696620635e-03 -6.869698016859612e-04  3.112524952592973e-19
6.785430634236801e-03 1.078438458431457e-04 3.112747806886019e-19
 6.864550033724775e-03 -5.283883035999774e-05  3.123671948981997e-19
 6.825277375346812e-03 -4.137971914471328e-05  3.111016909488889e-19
 6.836210643434524e-03 -4.144600444535725e-05  3.104468470121210e-19
 6.854543482860180e-03 -6.627763898452374e-04  3.166453978420590e-19
6.358426379132821e-03 4.981412224926456e-04 3.074575630846372e-19
6.625990735277937e-03 1.248409069327976e-03 3.119605265939663e-19
 6.598904006064390e-03 -1.181532032844576e-03  2.603087648800734e-19
 7.026251677797491e-03 -9.308178978559189e-04  3.312621497297387e-19
7.169314988032799e-03 5.404439119427827e-04 3.466264003919087e-19
6.955651098475385e-03 1.546026093290629e-03 3.087946987780289e-19
 6.682843233954133e-03 -2.103068737414625e-03  3.204554642666744e-19
 6.629912813469347e-03 -4.480800826850628e-05  3.075467783796512e-19
 6.905646374840976e-03 -1.448630788296351e-04  3.116562168977321e-19
 6.881792911635130e-03 -1.447808397184678e-05  3.137335042316772e-19
 6.861014884339492e-03 -9.918555847298482e-05  3.119709514188507e-19
 6.863300908542587e-03 -9.921860614757657e-05  3.152592595104730e-19
6.899307791068033e-03 2.343796541687709e-04 3.074968681568542e-19
 6.919223482909361e-03 -1.280525048327613e-04  3.163131198517954e-19
 6.886717988526920e-03 -3.308032626973202e-05  3.145632474303644e-19
 6.928535998958322e-03 -6.406508750087438e-05  3.166849532404160e-19
 6.905381230453968e-03 -5.762450747206607e-05  3.126281314027248e-19
6.900602337481262e-03 1.044969311761900e-04 3.168717824804991e-19
 6.865631770654411e-03 -8.560059573345022e-06  3.125610566248952e-19
 6.874862598385835e-03 -8.571568555756516e-06  3.132525326044202e-19
 6.908071622529303e-03 -4.571843299963215e-05  3.162044091262088e-19
 6.849749324863224e-03 -3.380872748500162e-05  3.134955708971101e-19
-6.798321228237853e-03 -3.910207607975196e-04 -3.150720895512392e-19
-6.949542723950103e-03 -1.455684692399966e-04 -3.167571001949417e-19
-6.928446495855525e-03  5.029626810012849e-04 -3.218702285559533e-19
-7.025866760125998e-03  5.368708384344159e-04 -3.199089149640117e-19
-6.811696175075973e-03  9.356806314953222e-05 -3.113751274657066e-19
-6.767289522620867e-03  9.295807639228644e-05 -3.112715680465076e-19
-6.802640860159195e-03 -1.754025614640885e-06 -3.129891044229571e-19
-6.812923188227417e-03  1.027501021335619e-04 -3.138004976607879e-19
-6.844138417444382e-03  1.334631413627895e-04 -3.147773057329078e-19
-6.841578468679918e-03  1.464348178252618e-04 -3.145170926322638e-19
-6.810561014652365e-03  1.541002682131225e-04 -3.132923982984765e-19
-6.802903399363225e-03  1.539270019333855e-04 -3.126207878708188e-19
-6.807096953592746e-03  6.937801911387175e-05 -3.129933607906565e-19
-6.814729916040640e-03  1.519328774091689e-04 -3.138302856916395e-19
-6.813182384208327e-03  1.365109784008933e-04 -3.134329438362876e-19
-6.850252285009135e-03  1.667610134567381e-04 -3.140645579313129e-19
-6.950134489669378e-03 -8.329113709228175e-05 -3.168003193530790e-19
-6.791540913205793e-03 -2.513239597281901e-05 -3.127658952088801e-19
-6.791488861377730e-03  2.697814743489983e-04 -3.138140050214798e-19
-6.802193542001219e-03  1.326304888449372e-04 -3.124508537039426e-19
-6.763347740201761e-03  1.318730658680074e-04 -3.102779369463189e-19
-6.813576617370285e-03 -1.421006226796611e-04 -3.112820104052364e-19
-6.851142716516471e-03 -3.001066855718937e-05 -3.140400884484288e-19
-6.872346145355271e-03 -7.460744868001189e-05 -3.162999257800615e-19
-6.834701572397389e-03  8.898775349450797e-04 -3.156704814256091e-19
-6.951903749201809e-03 -5.272184701131238e-05 -3.158344708835031e-19
-6.812561619367017e-03  1.074069714162100e-04 -3.125405009839436e-19
-6.856221794856168e-03 -4.128771359552032e-05 -3.141459856899392e-19
-6.861610154360705e-03  3.159087997368393e-04 -3.143572122391299e-19
-6.820447062951250e-03 -1.839956346144526e-04 -3.119234393474298e-19
-6.811687141138489e-03  3.359193272447019e-04 -3.132121110746466e-19
-6.798281498329503e-03 -1.561921379498104e-04 -3.104627966568251e-19
-7.029495094179009e-03  4.279340378199977e-04 -3.192760152597925e-19
-7.093311658039204e-03 -8.840639840870137e-04 -3.188277611982420e-19
-6.397776480276529e-03 -3.174884755390195e-04 -2.994215142533134e-19
-6.565690953450291e-03  3.950059297269998e-04 -3.088186843314054e-19
-7.032659224836104e-03  6.770681321190085e-04 -3.153730177983370e-19
-6.833544512432461e-03 -9.502009646838450e-04 -3.069177652268330e-19
-6.814795255392778e-03  9.936251364202024e-05 -3.152971270202448e-19
-6.938200817970341e-03  1.011618174267393e-04 -3.164878037324892e-19
-6.849351415205910e-03  1.550298264294222e-05 -3.126078580414595e-19
-6.875373950325154e-03  1.443362205090011e-05 -3.131564641735318e-19
-6.836716082718929e-03 -1.484791417736977e-04 -3.119730294664264e-19
-6.869196412709846e-03  1.236245522407103e-04 -3.136253353015029e-19
-7.146991729862762e-03 -1.248822863673447e-05 -3.222399704568063e-19
-6.040353711087184e-03 -3.337585009643356e-03 -2.642882359765852e-19
-6.651722974779379e-03 -2.245025307082975e-05 -3.072089461419147e-19
-6.897299213222905e-03  2.272373194200208e-04 -3.156464396387813e-19
-6.965668612193935e-03 -4.931114597066212e-05 -3.160118933735602e-19
-6.889308364725281e-03  7.277349704320584e-07 -3.139863691467357e-19
-6.897620157348953e-03  1.820103092562297e-05 -3.141143339935955e-19
-6.892632629124203e-03  1.818787013198832e-05 -3.136979357815880e-19
-6.895046080174523e-03 -1.888553000378417e-06 -3.134608845330801e-19
-6.915474131202044e-03 -6.478666620731841e-05 -3.142048545292969e-19
-6.941949974174143e-03  1.886722192788045e-05 -3.152983706028117e-19
-6.946318654539128e-03 -6.879080255893096e-05 -3.154146170612119e-19
-7.037472145552554e-03  1.116143435293667e-04 -3.190511356230978e-19
-6.760660497632407e-03 -1.663319369760895e-03 -3.014647846133249e-19
-6.833943276578800e-03  1.014293185613500e-04 -3.131861438658614e-19
-6.792515342495293e-03  1.138891231549346e-04 -3.113376549684964e-19
-6.923647560393139e-03  3.759871685012437e-04 -3.147811955641163e-19
-6.942491218417450e-03 -3.179056581513489e-06 -3.129249586399799e-19
-6.502435547437977e-03 -2.027641104325371e-03 -2.882291881733921e-19
-6.818592497102826e-03  8.509568686175184e-05 -3.116823672002729e-19
-6.922574929004060e-03  8.639338231252856e-05 -3.139007416642604e-19
-6.896698523036086e-03  2.891381153312485e-05 -3.123737801359957e-19
-6.891885039168673e-03  2.889363141869833e-05 -3.121604745195373e-19
-6.893998353366320e-03  1.218416506742656e-06 -3.120362347188251e-19
-6.880519965983062e-03  4.011790651323490e-05 -3.115093660559932e-19
-6.883539963326865e-03  4.013551506196494e-05 -3.109016200403385e-19
-6.877115952017541e-03 -6.709304217021479e-05 -3.105552035000322e-19
-6.857218830857249e-03  9.680756158555606e-05 -3.105434770626029e-19
-6.859788558230933e-03  2.748588950899093e-05 -3.094139220322159e-19
-6.821749572251789e-03  2.733347440803243e-05 -3.077474149617361e-19
-6.817865067122492e-03 -2.608089199741524e-05 -3.071073223258803e-19
-6.838504449830935e-03 -7.145681961387307e-05 -3.078616769449072e-19
-6.860671509335473e-03 -4.041923235124140e-06 -3.087024031132332e-19
-6.858200238857285e-03  2.578229408792787e-05 -3.081884750819098e-19
-6.861288892384566e-03 -1.510687156958578e-05 -3.077897412742115e-19
-6.862605121599611e-03 -2.349078787040921e-05 -3.078469062166940e-19
-6.853713809040888e-03 -1.185097041282688e-05 -3.077255022497177e-19
-6.845217672205618e-03  3.551486315384911e-05 -3.071604299146246e-19
-6.820993695974817e-03  3.538918253387814e-05 -3.055522008429609e-19
-6.823611566247022e-03 -4.904064180996667e-05 -3.046561672756149e-19
-6.876711167867440e-03 -2.569133021800781e-04 -3.070001874474174e-19
-6.805608246643996e-03  1.485831928502733e-04 -3.069306792925680e-19
-6.925255799540527e-03  2.429574258310180e-04 -3.075786991588861e-19
-7.067190840378982e-03 -1.850644423806742e-04 -3.105241576475468e-19
-6.749560741847483e-03 -7.000911533951283e-04 -2.980767258139126e-19
-6.725046523045384e-03 -3.365354518051145e-05 -3.025442878108808e-19
-6.877435226968906e-03  1.633027983183170e-04 -3.074072644214054e-19
-6.916933449251489e-03  2.275386406545572e-05 -3.066802452457546e-19
-6.845641239702027e-03 -2.239135651315180e-05 -3.039320620060934e-19
-6.856517081326241e-03 -2.242693022183172e-05 -3.044238564070703e-19
-6.871366844400989e-03 -7.367023359140994e-06 -3.045865874793120e-19
-6.871200943769707e-03  2.273672570715278e-05 -3.041859674253755e-19
-6.876169870705624e-03 -1.134639336313310e-05 -3.039927396731012e-19
-6.858568550448339e-03  4.700287667805199e-07 -3.029131212466207e-19
-6.883248043645582e-03 -5.654170926279982e-06 -3.030994961392788e-19
-6.869582295027788e-03 -5.893398100332165e-05 -3.025507316708885e-19
-6.854963481742999e-03  3.868491797449588e-05 -3.024754841247992e-19
-6.860088447936060e-03  3.615522632610642e-05 -3.017517447199380e-19
-6.834851892963944e-03  3.602222026304573e-05 -3.000046422548796e-19
-6.840540674727709e-03 -5.937352774615191e-05 -2.993428171863224e-19
-6.901493893281958e-03 -3.021585838112421e-05 -3.010224111939165e-19
-6.905105164578017e-03  1.159061899577660e-05 -3.005298218193346e-19
-6.834029491282215e-03  1.355000178607212e-04 -2.975989923804160e-19
-6.839179514433368e-03  4.058268864705796e-05 -2.959032215554920e-19
-6.794270211437589e-03 -5.730789644705891e-05 -2.935852548585495e-19
-6.816293932361186e-03 -5.749366078653773e-05 -2.945457404530214e-19
-6.835497058153589e-03 -3.147758835994567e-06 -2.948714900127665e-19
-6.849907781281013e-03  8.789264346046283e-06 -2.944649879191405e-19
-6.843829169740996e-03 -2.827454600996962e-05 -2.932035588189894e-19
-6.850250753600274e-03 -2.830107609477780e-05 -2.928231915912875e-19
-6.847700961232851e-03 -2.568005568000510e-05 -2.920528227047254e-19
-6.827329209500102e-03 -6.785919856996049e-06 -2.902741405412447e-19
-6.810787505334268e-03  2.079644391807743e-05 -2.885415455683805e-19
-6.765754835378124e-03 -5.617523216971391e-05 -2.858527998763625e-19
-6.768438515361915e-03  4.182273988327207e-05 -2.856843737843781e-19
-6.761583191177450e-03 -8.092903150554589e-05 -2.840354511813773e-19
-6.777609396237796e-03  2.867106234764546e-05 -2.842517307581244e-19
-6.809761208680490e-03 -8.687916169597630e-05 -2.836254700601579e-19
-6.841107480660589e-03 -5.713772805912563e-06 -2.838486013834576e-19
-6.868405824454612e-03 -7.211565421233906e-05 -2.826195621084290e-19
-6.850482890611839e-03 -2.143578175245271e-05 -2.820956152354719e-19
-6.865096616894405e-03  1.706732911702480e-05 -2.810822890930789e-19
-6.840844776304397e-03  1.700703657226661e-05 -2.782373675799920e-19
-6.835189830992728e-03 -7.699299848789936e-05 -2.751958550159931e-19
-6.897012685346624e-03 -7.768938396503767e-05 -2.755094048686861e-19
-6.909230945520428e-03 -2.864051266632504e-06 -2.737049044548541e-19
-6.892996811851532e-03 -2.857321806948249e-06 -2.706354806761099e-19
-6.878080577169079e-03 -5.142132583913332e-06 -2.668993420267185e-19
-6.901288882680419e-03 -8.612080454808822e-05 -2.651334530555167e-19
-6.889478800464033e-03 -3.339529624661859e-05 -2.632892544792915e-19
-6.829672361511184e-03  6.486005850980525e-05 -2.601454910284004e-19
-6.871240925780371e-03  7.050229039197026e-05 -2.586315405615336e-19
-6.850443298385564e-03 -6.607123690510023e-05 -2.530542054635950e-19
-6.870637244189407e-03 -2.610999980936286e-05 -2.505167683053533e-19
-6.889376699840050e-03 -2.618121404555028e-05 -2.473662214859391e-19
-6.880782794096795e-03  7.370394419428904e-06 -2.419522084703383e-19
-6.875003522278216e-03  9.380191688005898e-05 -2.363363127598168e-19
-6.866796254232537e-03 -1.266944032355880e-04 -2.294838097024217e-19
-6.881695893063850e-03  1.480258572439735e-05 -2.264769472239089e-19
-6.902587478457710e-03 -3.139253468987728e-05 -2.207383613602240e-19
-6.899356303083315e-03  2.956251160102993e-05 -2.125324136535355e-19
-6.842950520797544e-03 -2.155333072449436e-04 -2.014638658271760e-19
-6.851039285543067e-03  7.608722999869701e-05 -1.972636336273552e-19
-6.908836181922992e-03 -7.716482873512142e-05 -1.876627390520072e-19
-6.891554964375621e-03 -5.710751074452493e-05 -1.797680913077982e-19
-6.896198885952044e-03 -5.714599303229495e-05 -1.701498136011209e-19
-6.868041974599614e-03  3.296669527040224e-04 -1.622548277118672e-19
-6.939320304484261e-03  1.211874282389284e-05 -1.451278515747823e-19
-6.708078949851767e-03 -4.304589189435985e-04 -1.207009578693619e-19
-6.750863910973300e-03  5.445780050040343e-04 -1.295831982866584e-19
-6.882710289360400e-03 -5.264939579995821e-05 -1.032531055645645e-19
-6.893157794771675e-03  3.836635802799963e-04 -9.257573587941759e-20
-6.856376885369984e-03 -1.553520320214637e-04 -6.216301647498996e-20
-6.823216617893460e-03  3.731428240248744e-04 -4.519191158354669e-20
-6.789908111783435e-03 -1.834970528424593e-04  7.542777034747202e-22
-6.797802164533408e-03  1.170455204426433e-03 -9.830836238619785e-21
-6.936461901858288e-03 -2.467302905975913e-04  4.645448373136019e-20
-6.874862344712375e-03  3.347429743927980e-04  8.856189975390795e-20
-6.895014732961584e-03 -2.830096201147881e-04  1.731358021402902e-19
-6.959541491246342e-03  3.104995612154237e-04  2.493018263139027e-19
-6.614029951575425e-03 -1.120775918750636e-03  3.704020523546480e-19
-6.702137821275160e-03  5.402132528957987e-04  3.872035383020201e-19
-6.741405964600666e-03 -4.016131532412417e-04  5.550355886323083e-19
-6.737214342186173e-03  5.316699586541509e-04  6.652726776795664e-19
-6.906407659677348e-03 -4.849854139641049e-04  8.121273263494612e-19
-7.015116728072730e-03  6.601865991654488e-06  1.272641314778303e-18
-6.213064968969018e-03  2.550151925087635e-03  1.468844159651130e-18
-6.226776466967050e-03 -5.109951419277651e-04  2.429264272062429e-18
-6.476184055867479e-03 -8.358178778953037e-04  3.400322361827409e-18
-4.257431264693320e-03  4.639242786206493e-03  2.207473144772646e-18
-7.382138241386654e-03  4.991441363747824e-05  4.857385730336421e-18
-6.744584276316309e-03 -1.200226657146499e-04  6.655648280663320e-18
-6.809687094863489e-03 -1.211811972871602e-04  9.785468289398154e-18
-6.842970254903733e-03 -1.676806952190933e-06  1.345657687705069e-17
-6.854769455813261e-03 -1.203138498192517e-05  2.018861736392590e-17
-6.876648535994455e-03 -5.098201515028296e-05  2.683872164900997e-17
-6.848397778151436e-03 -6.343869836229024e-05  3.884473551056668e-17
-6.860743592064082e-03 -3.498688584202774e-05  7.317470680233204e-17
-6.860982987607143e-03 -5.409283793919887e-05  1.374676502491303e-16
-6.854319118224386e-03 -5.404029916928494e-05  1.304887613020132e-16
-6.861631595229823e-03  2.116986234003355e-05 -1.241904782927639e-15
-6.858959129929026e-03 -6.422431371751590e-05  6.252258658049178e-15
-6.853725834222278e-03 -7.549640071262550e-05  7.215719398446452e-18
-6.846867091316856e-03 -6.411108911965425e-05  6.544467406033104e-15
-6.858434885239493e-03 -5.246338088879421e-05  1.384242495147646e-16
-6.824970964095178e-03 -7.653963361303702e-05  8.890464587555548e-17
-6.850143410232315e-03  1.042533644289655e-05  6.816836858401509e-17
-6.851650046446827e-03 -1.133868038576915e-04  4.476696604992365e-17
-6.861102045617824e-03 -1.448664942047348e-04  3.195796254993311e-17
-6.851555461236752e-03 -1.031218282042842e-04  2.521660611354150e-17
-6.844625423546752e-03 -2.204007527139760e-06  1.526804280107667e-17
-6.846442029764891e-03 -2.294502493773270e-04  9.777201608965000e-18
-6.873841325088561e-03 -6.254665749695663e-05  6.675101642123102e-18
-6.882596641246111e-03 -1.464624368449712e-04  4.611320073752189e-18
-6.908945472220094e-03  1.455861733582424e-04  3.324187181013396e-18
-6.875921928458087e-03 -3.418114511271051e-04  3.002507421045592e-18
-6.857008702330545e-03  6.970039996040158e-05  2.376742719775171e-18
-6.868467285060299e-03 -3.382694827805974e-04  2.084602209464996e-18
-6.882199533322707e-03  7.207686330379606e-05  1.548742983198575e-18
-6.862112256891349e-03 -2.622879999864120e-04  1.375335660411376e-18
-6.901420877012942e-03  1.008762050112333e-04  1.041794582441585e-18
-6.933779434805285e-03 -6.525724601122041e-04  9.523959540094170e-19
-6.782944057223264e-03 -5.381627604853198e-05  7.239967960266288e-19
-6.924942011165420e-03  4.989408296176113e-04  5.501717383106240e-19
-7.109003515400399e-03 -1.964329863154267e-04  5.180249008110090e-19
-6.799013858693551e-03 -9.049432063461620e-04  4.609222716543637e-19
-6.858760223590570e-03  5.075356049767237e-04  2.388048916383413e-19
-6.908043597339039e-03  3.011866051943524e-06  2.269085786501917e-19
-6.921407030711589e-03 -2.924378857094392e-04  1.402508637248271e-19
-7.228375088145359e-03  1.937433718859072e-05  3.999292193841026e-20
-5.533907551219773e-04 -6.782216204972690e-03  9.201956609801629e-19
-6.928939380525442e-03  4.140568080187697e-04 -1.837903124735992e-20
-6.985869133995323e-03 -1.636385812344178e-04 -2.409622822051454e-20
-6.904648881249251e-03  5.403555914819256e-04 -1.018555154094224e-19
-6.861695382614642e-03 -5.342169470218836e-04 -5.342144110798194e-20
-6.875489532852103e-03  5.582552484644062e-04 -1.407771178892085e-19
-7.074147796248682e-03 -3.914992016693983e-04 -1.153435215542981e-19
-6.995013994228859e-03  5.935355869169860e-04 -1.302064733400355e-19
-7.439059748885390e-03 -4.552552956478502e-04 -1.519597846603713e-19
-5.127305671631159e-03 -3.975724247874774e-03  3.739185452435800e-19
-6.722311859392480e-03  4.080450609992290e-04 -1.618781313846128e-19
-7.147599074842573e-03  3.429599905337100e-04 -1.749533275703431e-19
-7.059674680111754e-03  7.445092154672423e-05 -1.860795816490393e-19
-6.922267251663051e-03  7.031302480087877e-05 -1.893856590225436e-19
-6.932888459661369e-03  7.042090986718011e-05 -1.990430448502852e-19
-6.933907649080595e-03 -4.709531813256509e-05 -2.035484999283879e-19
-6.932201354439180e-03  6.871162842565834e-05 -2.107100277867479e-19
-6.925576674482715e-03  1.162281703077256e-04 -2.208574905022614e-19
-6.921592962961280e-03  9.478441872057935e-05 -2.256389842498503e-19
-6.895446017103265e-03  8.550162861665217e-05 -2.278554704543705e-19
-6.884175652584471e-03  1.288365569489683e-04 -2.304935032214223e-19
-6.867878255386322e-03  9.555828949712353e-05 -2.383509524053553e-19
-6.864664005898686e-03  9.551356707024960e-05 -2.432521518583147e-19
-6.879867392979955e-03  5.481194691001521e-05 -2.431815670388880e-19
-6.877582028616791e-03  9.541114603923318e-05 -2.497250352230903e-19
-6.882099614580052e-03  1.422109380795690e-04 -2.533567493477324e-19
-6.861079001279798e-03  8.898033601797189e-05 -2.512386156220346e-19
-6.860524816482698e-03  9.049724727009127e-05 -2.614365685531579e-19
-6.860776196146849e-03  8.385712462883353e-05 -2.682028514791836e-19
-6.830035604810995e-03  1.255360506478887e-04 -2.685255384503416e-19
-6.827728278182099e-03  1.254936419857226e-04 -2.697338475135394e-19
-6.843142316964342e-03 -7.426820686526286e-05 -2.698700012085331e-19
-6.864115608923933e-03  4.147514236691903e-05 -2.731825527755785e-19
-6.988942162935130e-03 -1.183198054372296e-04 -2.813329526688592e-19
-6.453854408856548e-03  2.188778522685336e-03 -2.733243617072269e-19
-7.009561811449370e-03  8.641463115405972e-05 -2.833207351565765e-19
-6.732191608684611e-03  8.299518149232872e-05 -2.764360820072584e-19
-6.964436658424467e-03  5.157257352979882e-05 -2.839207669092634e-19
-6.527850925814186e-03 -1.105219233233509e-03 -2.603296600722270e-19
-6.664425828648358e-03  6.674753893642075e-04 -2.804518782940166e-19
-7.026872501052790e-03 -1.220404709509664e-04 -2.883901029377787e-19
-6.930263247799123e-03  1.464178238386673e-04 -2.877250567786261e-19
-6.813349830776854e-03 -3.581282561721816e-04 -2.795367581043733e-19
-6.796179531877111e-03  2.647578989054720e-04 -2.900945314656670e-19
-6.879885354536629e-03 -1.164456890234904e-05 -2.881341386154460e-19
-6.855159028056222e-03 -1.160271829037435e-05 -2.887013107264693e-19
-6.888151719317004e-03 -1.165856016082163e-05 -2.907012974768196e-19
-6.907379790550073e-03 -4.658240188778490e-05 -2.930859361837828e-19
-6.911088679800430e-03  1.252069981127845e-05 -2.950037703804335e-19
-6.935010814856556e-03  5.742347992924726e-05 -2.939978412214004e-19
-7.271423788490355e-03 -2.041398948342355e-04 -3.064551181682463e-19
-6.957164828714846e-03 -6.440170209449514e-04 -3.020057142935622e-19
-6.687620917213726e-03  2.496386447218379e-04 -2.995469853772600e-19
-6.641202439404150e-03  2.182518637783355e-03 -2.795420034713718e-19
-6.397237890732778e-03 -2.734001093248626e-03 -2.591144105431717e-19
-6.646459037304164e-03 -2.087183085504297e-05 -2.962488255058271e-19
-6.990240468853549e-03 -2.195140538489874e-05 -3.072922529264012e-19
-6.571243750031360e-03  9.974417031490702e-04 -2.809220838423477e-19
-6.568806353784289e-03 -2.055868121209910e-03 -2.730507353406504e-19
-6.803338111270688e-03 -2.651823932588299e-04 -3.014832929626437e-19
-7.020104456880922e-03  1.030516490343356e-03 -3.128381847260803e-19
-7.670070730758164e-03  1.915434810599808e-06 -3.160274042860794e-19
-6.463417640634913e-03 -2.938658855953487e-03 -2.714234649929006e-19
-6.591691454133041e-03 -2.344544995519619e-05 -2.683775774347703e-19
-6.951982147469970e-03  8.817291988672964e-04 -3.102372960819907e-19
-7.045893997051834e-03 -1.332672138171381e-04 -4.634536730741009e-19
-6.977666514093245e-03  3.759876156120103e-04  4.624285337116383e-19
-6.992251226894245e-03 -4.733332323017776e-04 -1.074784683398919e-19
-6.830784163066643e-03  1.014547948446289e-04 -3.115421490343471e-19
-6.857484212806797e-03  1.018513595733720e-04 -3.120078905411567e-19
-6.824163726007903e-03  7.896143814081500e-05 -3.007903103978861e-19
-6.887452380712539e-03 -4.853566260134846e-05 -3.035138325338707e-19
-6.871057218118311e-03 -4.842012640073589e-05 -3.052414038160687e-19
-6.811731504462979e-03  3.743551647654174e-04 -3.058176775185714e-19
-6.799024262872345e-03  1.937979806751053e-04 -3.004362542008337e-19
-6.787676348302334e-03 -1.878297972092692e-04 -3.004398939887718e-19
-6.646124882571357e-03  7.607900310432401e-05 -2.999905708112343e-19
-6.724975644265209e-03  2.316586094063040e-04 -3.020929915718609e-19
-6.569264471298571e-03  2.262947485231443e-04 -2.939406670151643e-19
-6.640519029967487e-03 -1.035000449091052e-04 -2.925404939475972e-19
-6.522201995206492e-03 -1.626807836675167e-03 -2.868938364914098e-19
-6.701473205503513e-03  1.011151118785270e-03 -3.107856835689433e-19
-7.495948341763246e-03  2.536269103433922e-04 -3.242771720054660e-19
-6.838513591702545e-03 -4.389172646407962e-04 -3.008152935844266e-19
-6.771069699087289e-03  7.632770946497425e-05 -3.053412883966407e-19
-6.672834562034458e-03  7.522034189479094e-05 -3.011138830818257e-19
-6.491893788088477e-03  7.318066494005834e-05 -2.925920988852527e-19
-6.618896365729416e-03 -6.415026334125187e-04 -2.963351547126762e-19
-7.061316042664434e-03 -5.276296129324777e-04 -3.153444513608952e-19
-7.355276140105779e-03 -2.134754298984333e-04 -3.277996316904772e-19
-7.593931441240744e-03 -5.325486250613607e-04 -3.361306694912116e-19
-7.425877261984930e-03 -3.722244658730465e-04 -3.348447346822258e-19
-4.676993979632572e-03 -4.751576042556349e-03 -1.989599797598373e-19
-7.033532168135906e-03  9.561159051002246e-04 -3.307210743045727e-19
-7.538637159501768e-03  3.770991012803993e-04 -3.369742590113026e-19
-7.276129754455105e-03  3.453884317390683e-04 -3.268868473551314e-19
-7.103402722600811e-03  2.206539905753115e-04 -3.211465212827296e-19
-6.999944468569899e-03  2.174402523851282e-04 -3.177719278086268e-19
-6.927522821150478e-03  1.102485979936360e-04 -3.153424744809076e-19
-7.017943044601693e-03  9.351299974304723e-05 -3.176625399157259e-19
-6.947877774716808e-03 -2.205584307543956e-04 -3.158903014143005e-19
-7.046265058298725e-03  5.950862855675193e-04 -3.205637036837211e-19
-7.482376496638177e-03 -1.875833315321518e-04 -3.327335794290143e-19
-6.913489657442709e-03 -1.884562455763767e-03 -3.066182025226007e-19
-6.615766056240337e-03 -2.906367560691363e-04 -3.064094997346847e-19
-3.226705519494975e-03  5.467803821658893e-03 -1.965125540347255e-19
-7.265990783316838e-03  7.538342614993654e-04 -3.285669255561289e-19
-7.613320013991584e-03 -3.425180563506439e-04 -3.363891566256053e-19
-6.923051262847240e-03 -8.705301868533322e-04 -3.174361894282992e-19
-6.805176036451508e-03  1.125545911164759e-03 -3.251912988014147e-19
-6.571144182665261e-03  1.086838081315765e-03 -2.973360989344747e-19
-6.304197437647144e-03 -6.863426220008863e-04 -2.844483964919912e-19
-6.174281237323108e-03 -1.045977707011923e-03 -2.904791654618341e-19
-6.164847327696805e-03  2.025433733300786e-03 -2.977670461156826e-19
-7.161827616841497e-03 -5.484440143946035e-04 -3.094327691574947e-19
-6.489435758768862e-03 -3.332377144242287e-03 -2.855879036597272e-19
-7.815658508057604e-03  7.259493961687150e-04 -3.633505710688516e-19
-6.927069092755675e-03  2.572953979136982e-03 -3.074367300210342e-19
-6.735650483824499e-03 -4.165589982908523e-04 -2.976468118008022e-19
-6.616264994690174e-03 -4.091757322078386e-04 -3.024877973553864e-19
-6.840615910167876e-03 -2.757805795689553e-04 -3.133187109975178e-19
-6.933220507945312e-03 -3.307758699907700e-06 -3.170320519869590e-19
-6.827912548274882e-03 -3.257517499679003e-06 -3.118931441107488e-19
-6.654878063828404e-03 -3.174964763810298e-06 -3.052732678605354e-19
-6.568250365012731e-03 -3.133635698323034e-06 -2.993621122510668e-19
-6.705600218986574e-03 -7.383840145834405e-04 -3.041657218685163e-19
-6.940554287955925e-03 -1.192022767329198e-04 -3.183550956060023e-19
-6.984230649220826e-03 -1.199524072680588e-04 -3.174960198480645e-19
-6.907272888897373e-03 -1.596603587943096e-04 -3.145917233055453e-19
-6.890571211720924e-03 -1.592743025586068e-04 -3.142814040437338e-19
-6.917923340102232e-03 -1.902325647260258e-04 -3.158064850111987e-19
-6.988553070896292e-03 -1.921747768862814e-04 -3.191815895403244e-19
-7.052658646872620e-03 -9.216534891250759e-05 -3.219888418971648e-19
-7.120569666683860e-03 -1.503566139161017e-04 -3.242528863801208e-19
-7.097785904476307e-03 -1.498755162654705e-04 -3.245162166024276e-19
-7.048667814027841e-03  6.409368402110094e-04 -3.227480611266786e-19
-7.186585821487526e-03 -8.976102321088628e-05 -3.249914855121055e-19
-7.119388073339230e-03 -3.078069067056935e-04 -3.233792300027852e-19
-7.114219305283064e-03 -1.103965535407805e-04 -3.268037403709064e-19
-6.790149804372703e-03  3.399630531334519e-04 -3.173498257830858e-19
-7.274755688058554e-03  7.247696627679091e-04 -3.253649578624988e-19
-7.067238217825132e-03 -1.536021678751374e-03 -3.166055950823624e-19
-6.924334483772992e-03 -3.683339610033271e-06 -3.183536518487178e-19
-6.821210387666235e-03 -3.386521730273833e-04 -3.157584114913376e-19
-6.611464372718982e-03  1.574618357582405e-03 -3.123198666585001e-19
-7.152607984671234e-03  4.689638282255079e-05 -3.247396039933037e-19
-6.932083061850556e-03  1.193505932903316e-04 -3.164120427544928e-19
-6.919382991539645e-03 -2.215205316357017e-04 -3.165875645581901e-19
-6.952284609187637e-03  1.367235408747972e-04 -3.193772916393047e-19
-7.029057591726774e-03 -3.949965900953091e-05 -3.205270177249323e-19
-7.016854174711042e-03 -3.943108213352978e-05 -3.225268834772710e-19
-6.845376965529411e-03  4.266450441694181e-04 -3.185339768797977e-19
-6.543712753635132e-03  4.707295085679386e-04 -3.021691284704227e-19
-6.653595645859567e-03 -6.617785399510299e-04 -3.034405857501160e-19
-7.210935248692754e-03 -2.715587601535806e-04 -3.303965068613639e-19
-6.903349340048098e-03  7.189576015539737e-04 -3.238650216644587e-19
-6.693323568961168e-03  6.970842155775185e-04 -3.044488817867033e-19
-6.999184771390518e-03 -6.182697109973197e-04 -3.119003959700932e-19
-6.088048698674089e-03 -2.064112597469725e-03 -2.809311519326305e-19
-6.666534406382155e-03  1.137768067312348e-03 -3.209523840481482e-19
-6.974669131299118e-03  2.432322537834400e-04 -3.177846445525920e-19
-6.867633459089627e-03  2.013022299151499e-04 -3.129712581039515e-19
-6.734904451710807e-03 -1.692676958924186e-04 -3.232320959852493e-19
-6.900847924460270e-03 -1.734383369879359e-04 -3.232699803461366e-19
-6.721416556593127e-03  7.326665217515046e-05 -3.230933377624392e-19
-6.835854343527005e-03  7.451407873477258e-05 -3.248897098225392e-19
-6.949403618018682e-03 -1.887775703365797e-05 -3.300253112912569e-19
-6.613241431521108e-03 -1.796458686404079e-05 -3.250442723542458e-19
-4.807508053479193e-03  4.535830843449508e-03 -7.504789299642064e-19
-6.690967936336133e-03  2.547884942624812e-05 -3.196938711729431e-19
-6.776349256195845e-03 -1.853075970429115e-03 -3.551727281244791e-19
-6.798988372789417e-03 -3.520234451688478e-04 -3.231422938317884e-19
-7.421578260494518e-03  1.942501801707815e-04 -3.424452149919845e-19
-6.891704763678000e-03  1.803814289952771e-04 -3.310254915418758e-19
-6.352367900004863e-03  2.880146065280308e-03 -3.687528841893430e-19
-6.544371159701353e-03 -1.498736599245935e-04 -3.175614446546638e-19
-6.717098058941080e-03 -3.217624328052996e-04 -3.242433068059660e-19
-6.843676154495839e-03 -4.065088201200132e-05 -3.281316902283114e-19
-6.841224097239674e-03 -4.063631699051918e-05 -3.268624598214395e-19
-6.899487893774716e-03  1.066215803400732e-04 -3.300270356421104e-19
-6.942142436249002e-03 -3.153613646045180e-04 -3.422935079538855e-19
-6.852726410575631e-03 -2.087222630623625e-04 -3.327267285551104e-19
-6.845447961486835e-03 -7.222820094819623e-05 -3.248992720605515e-19
-6.759398406427608e-03  2.430980006435556e-03 -4.166286544968171e-19
-6.924713066455718e-03 -1.060414760318416e-03 -3.204917317629793e-19
-6.580844931698668e-03  6.624039580686046e-05 -3.281659776751155e-19
-6.608068656497011e-03 -2.361426623302980e-04 -3.197353952422710e-19
-6.900978016137290e-03  4.471321206516831e-04 -3.335822626099270e-19
-6.772012052005710e-03 -4.791819797801127e-04 -3.594236634345848e-19
-6.808207301729484e-03  6.907631023006130e-04 -3.267218103257261e-19
-6.956866936026522e-03 -4.762990800237059e-04 -3.270694466111530e-19
-6.921958779964903e-03  1.871610839083245e-04 -3.284247773584578e-19
-6.838654774717397e-03 -6.357931804125953e-04 -3.256106060683384e-19
-6.840699097210367e-03  2.362599089606081e-04 -3.215550103252457e-19
-6.840158720406588e-03 -3.873366745133068e-04 -3.155830258407809e-19
-6.824048429822601e-03  4.298594260006411e-04 -3.155808343789786e-19
-6.930448207306766e-03 -2.650342635307050e-04 -3.297523127209387e-19
-6.932135225325193e-03  2.450141476559644e-04 -3.357396750705125e-19
-6.921775888111642e-03 -4.337932287890819e-04 -3.525436467113604e-19
-6.830853307673675e-03  1.319584967488684e-04 -3.320744405362812e-19
-6.859516941766164e-03 -1.464172010275374e-04 -3.297014512577095e-19
-6.866134879314902e-03  2.176493316310792e-04 -3.317579671369319e-19
-6.897933730970305e-03 -1.597585677701117e-04 -3.271348595411135e-19
-6.863950114320424e-03  1.604503135027281e-05 -3.297107279874177e-19
-6.884800617208174e-03 -8.262621243559747e-05 -3.300323188768116e-19
-6.893034501246389e-03  2.394531332284290e-06 -3.308090448121207e-19
-6.897457740740550e-03 -1.235032401005903e-04 -3.264073948975952e-19
-6.873069927033937e-03 -4.659617802602677e-05 -3.311162322860369e-19
-6.876903419838393e-03 -3.924096608459931e-05 -3.312759485221037e-19
-6.878901129359931e-03 -2.201796448019583e-05 -3.295456536372360e-19
-6.871199569012551e-03 -4.792043325264820e-05 -3.279898953620795e-19
-6.883850630028414e-03 -4.149131853524313e-06 -3.302961349221741e-19
-6.852204949678246e-03 -9.645704011425838e-05 -3.311894452098929e-19
-6.860055416595743e-03  3.472308647133367e-05 -3.292712716477648e-19
-6.851425617179217e-03 -8.798950163907189e-05 -3.328900161061531e-19
-6.897467432260273e-03  1.469482039932468e-04 -3.296618309905673e-19
-6.889156229514790e-03 -1.555936875089713e-04 -3.239608445256813e-19
-6.870169158006585e-03  2.865032956556021e-05 -3.290404463128337e-19
-6.854515851902679e-03 -2.024209865184227e-04 -3.298669174434567e-19
-6.846198190263080e-03  5.018800991524151e-05 -3.320493556388853e-19
-6.849463159214441e-03 -1.243063000611745e-04 -3.293488241386652e-19
-6.837149421841214e-03  4.743632412385540e-04 -3.336200252888194e-19
-6.888138358258667e-03 -1.058833541768807e-04 -3.348060609685207e-19
-6.898362343002166e-03  5.208599824355432e-05 -3.318618739288555e-19
-6.862356669687120e-03 -1.456796556047559e-04 -3.331829244615799e-19
-6.838084764378090e-03  2.210800402389195e-04 -3.252509779831857e-19
-6.895114121933332e-03 -6.669551703424190e-05 -3.312552467030892e-19
-6.915328277948885e-03  1.709880290986320e-05 -3.328648425612051e-19
-6.893734175032435e-03 -1.183484375321790e-04 -3.311615806946915e-19
-6.850171055848064e-03  1.696411522689507e-04 -3.323304151071149e-19
-6.921317791837545e-03 -4.844506712777396e-06 -3.330404033905601e-19
-6.896752824481820e-03 -4.827312711167716e-06 -3.326255496655154e-19
-6.851914349437572e-03 -4.634468301470065e-05 -3.310562455521532e-19
-6.931054682607908e-03  2.836207742328097e-04 -3.318942809780091e-19
-6.975147367273117e-03 -1.559132656248818e-04 -3.296219083645533e-19
-6.846445205732685e-03 -1.614867311761352e-04 -3.328916504065994e-19
-6.723273620176866e-03  2.879859919052678e-04 -3.308440867727981e-19
-7.051545183616224e-03  3.811846829768876e-04 -3.438050331694698e-19
-6.899795471210372e-03 -2.558772629915646e-04 -3.250060757390535e-19
-6.952455707668171e-03  3.051298641273366e-04 -3.307638863818502e-19
-6.823722250553230e-03 -5.443201119434959e-04 -3.247363353424179e-19
-6.850890913711942e-03  6.646111425353525e-04 -3.266320445977242e-19
-6.899345629689046e-03 -2.834956296587684e-04 -3.379755154020158e-19
-6.886283048252897e-03  6.796626495372627e-04 -3.564540656092276e-19
-6.954575384039438e-03 -2.414671399904799e-04 -3.275040803494231e-19
-7.020223375721332e-03  4.809994977124187e-04 -3.187899103973344e-19
-6.837937149528164e-03 -8.550666491131514e-04 -3.018689561951749e-19
-6.760546208912662e-03  5.333828999677871e-04 -3.263599818147839e-19
-6.847793878181873e-03 -2.305497503601354e-04 -3.393971870652118e-19
-6.898911440134260e-03  5.041875675761763e-04 -3.602300307827913e-19
-6.887616461498399e-03 -4.234971981640526e-04 -3.421103941595651e-19
-6.828627350098603e-03  3.293995973262077e-04 -3.153927908596150e-19
-6.794286805715551e-03 -2.760441373128634e-04 -3.269710996005244e-19
-6.846946874657705e-03  8.642704987863418e-04 -3.730342156559140e-19
-6.885561553618837e-03 -3.375614209277912e-04 -3.341348612277376e-19
-7.194848463226525e-03  6.017733928378383e-04 -3.337733804683550e-19
-6.555777890056035e-03 -2.439764021360456e-03 -3.147544360243551e-19
-6.640464227354977e-03  5.092890731174503e-04 -3.258785471739099e-19
-6.997592494921131e-03  5.458913030531728e-04 -3.248592417495176e-19
-7.074925872635654e-03  1.860800759344591e-05 -3.349010257464114e-19
-6.709474126990438e-03 -6.533763638417341e-04 -3.632578521372611e-19
-6.824751056762410e-03  3.435024385579353e-04 -3.434756090116978e-19
-6.875039660223709e-03  3.973960778424074e-05 -3.354947938034794e-19
-6.808903430969894e-03 -1.256122496035256e-04 -3.380181046249353e-19
-6.842713190291747e-03  2.064628002309783e-05 -3.365510029922458e-19
-6.848942800332947e-03  5.437544711849869e-05 -3.363641701710646e-19
-6.831453548713622e-03  5.423659563378159e-05 -3.359894127680706e-19
-6.819705838374892e-03  3.878016321341451e-05 -3.362634909004553e-19
-6.820974227757583e-03  3.310893711563808e-05 -3.346644152434225e-19
-6.805399504449497e-03 -3.050656151443998e-05 -3.347109414017422e-19
-6.803772943744949e-03  3.635130188425970e-05 -3.375542088544934e-19
-6.803291271147168e-03  1.526765269678300e-05 -3.365849388801392e-19
-6.790514422340621e-03  1.242155341899862e-05 -3.354808923903609e-19
-6.761691543371097e-03  2.750263284209018e-06 -3.367340604795875e-19
-6.725605909907159e-03  8.469794413282043e-05 -3.390470114140204e-19
-6.791768741585436e-03  3.423512981192246e-05 -3.364861800399180e-19
-6.846449339908930e-03 -2.728881302609146e-04 -3.319645837026004e-19
-6.685491984169839e-03 -1.718893732237437e-04 -3.237502788853282e-19
-6.534991684461946e-03  2.305094404332945e-04 -3.563818222887832e-19
-6.847702594882871e-03  3.881840567311803e-04 -3.757684622933325e-19
-6.903765279524737e-03 -3.799169670588675e-04 -3.795316851056257e-19
-6.834260134747638e-03 -7.225601364795702e-04 -2.741573194027937e-19
-7.061378557455610e-03  1.776232212301971e-04 -3.626927528126494e-19
-6.653561741971663e-03  1.673649216858939e-04 -3.530552935989171e-19
-6.210022931383559e-03  3.146362857235165e-03 -5.934840382447041e-19
-6.646682348062721e-03 -4.592894997622748e-04 -3.307414529076914e-19
-6.690524400183708e-03 -4.912421699800713e-04 -3.216461090369304e-19
-6.661011837246170e-03  1.475152302624029e-03 -4.128284125686526e-19
-7.063230429826926e-03 -3.970798394086294e-04 -3.380400482960935e-19
-6.578526175698325e-03 -3.599198895064275e-04 -3.131335469826262e-19
-4.472788777959095e-03  6.210594619256188e-03 -3.616681832904681e-19
-7.798696166345763e-03 -1.453989969572278e-03 -2.909366815539667e-19
-6.939891573847452e-03  2.237141119743698e-05 -3.503956254236368e-19
-6.968744295382270e-03  6.043608794390652e-05 -3.471784109394147e-19
-6.901131209497490e-03  5.984971682287118e-05 -3.475911497941730e-19
-6.876525933759733e-03  5.963632879407580e-05 -3.493060917499637e-19
-6.886848061774754e-03  5.972584693537097e-05 -3.519007241586561e-19
-6.945239734582231e-03  2.981242327090600e-05 -3.555558104697450e-19
-7.078753323332905e-03 -3.285783899209324e-07 -3.584605920231175e-19
-6.527977993531160e-03 -1.207868838654946e-05 -3.525388623950323e-19
-6.708751901478469e-03  3.899347106889195e-03 -4.911339035163552e-19
-7.073492605397285e-03 -3.094678463012201e-03 -1.444985070248396e-19
-6.867443688840035e-03  1.336447588422442e-04 -3.645328397577370e-19
-6.265012596780668e-03  2.112194648896890e-03 -1.620610720495649e-19
-6.107231529762798e-03 -2.012387288397381e-04 -3.348732081504862e-19
-3.103679724488732e-03 -2.767007437890260e-03 -3.209243317492149e-19
-1.227181979006126e-03  5.176863490205207e-03  1.068784905582212e-19
-8.506020992685798e-03 -2.995324417107031e-03 -4.743733538331537e-19
-6.515220483994799e-03  6.813183885042301e-04 -3.503690020893334e-19
-6.357211323298543e-03 -1.492469574793834e-03 -4.033198167279181e-19
-6.685809247511598e-03  2.412870005574238e-03 -4.108759942938577e-19
-6.617192689392517e-03 -2.262831679432172e-03 -2.725804064560993e-19
-6.539611429057864e-03  1.927983514775086e-03 -5.644621228199656e-19
-7.047981397441525e-03 -1.772333432735119e-03 -4.158657606095415e-19
-6.881773425454145e-03  5.942934591674462e-04 -3.712399236546130e-19
-6.778908440424922e-03 -5.583470177693584e-04 -3.777549177776146e-19
-6.691103555678068e-03  7.266834811943524e-04 -4.135046869494152e-19
-6.653994970650386e-03 -2.320921144248726e-04 -3.725921984538291e-19
-6.825406749623495e-03  8.841487742699080e-04 -3.625590284024442e-19
-6.895378100037949e-03 -4.716395523537622e-04 -4.133780052104900e-19
-6.819577318652979e-03  2.001495043779080e-04 -4.052718191689042e-19
-6.813322568062507e-03 -3.331236077932715e-04 -4.083838384710240e-19
-6.815550335060321e-03 -2.626960339214057e-05 -4.044626618799447e-19
-6.837324013345074e-03 -2.635352704684325e-05 -4.120172518685429e-19
-6.732293138035045e-03 -2.230955190303079e-05 -4.184421432154693e-19
-6.828091329415447e-03  1.073799451796408e-04 -4.298638413894857e-19
-6.930667061515579e-03 -3.304411361474507e-04 -4.421516762463421e-19
-6.858533640252311e-03 -2.426625066804252e-04 -4.282546631171258e-19
-6.844244356682712e-03  4.558306507301846e-04 -4.385884901520745e-19
-6.779130740005919e-03  2.318481711094000e-05 -4.501469452393273e-19
-6.662736994564419e-03  2.278674723968153e-05 -4.619634557287694e-19
-6.934347032742559e-03 -1.733848427466858e-04 -4.671003466834884e-19
-6.352683593365837e-03 -1.360841146927570e-03 -4.311355832895117e-19
-6.138471512926990e-03  1.056364459366913e-03 -6.111389595687891e-19
-7.058438557970022e-03  6.760532569028124e-04 -5.463451782039940e-19
-6.686193324099286e-03 -6.318799252657828e-04 -5.315929444069090e-19
-6.493106576311023e-03  2.940884138503635e-04 -5.277085468900115e-19
-6.616421557426483e-03 -3.433073536333686e-04 -5.373419762327877e-19
-6.792307718612728e-03  8.325562513075140e-04 -5.835193811607207e-19
-6.850476766481033e-03 -4.880860726924657e-04 -5.851735761687220e-19
-6.787521519927514e-03  4.290991322351681e-04 -6.322121096230054e-19
-6.904136778030249e-03 -3.698682289192380e-04 -6.387192868001168e-19
-6.839783786610294e-03  1.957491328518768e-04 -6.700003099182382e-19
-6.848390269338043e-03 -1.371702180685021e-03 -5.190078215408904e-19
-6.628187382081745e-03 -2.969937136500954e-05 -7.335954715328937e-19
-6.930936248609651e-03 -3.474961681627436e-05 -7.819810085839507e-19
-6.936685113041793e-03  1.802851164409548e-04 -8.768613585233842e-19
-6.882840881862804e-03 -3.096215671896824e-04 -9.117747725153186e-19
-6.839040416453499e-03  2.037497109611688e-04 -1.023029548386868e-18
-6.978955462154026e-03 -7.822798561532570e-05 -1.093218935777773e-18
-7.046555375447684e-03 -7.898572150766811e-05 -1.238813433468390e-18
-5.740354851578188e-03 -3.748750529698000e-03 -6.686554472137831e-19
-6.976534078250280e-03  1.631145873999031e-04 -1.466475007084851e-18
-6.982412946047132e-03  1.632520380429169e-04 -1.738191664768992e-18
-6.891704224632302e-03  8.479111939149897e-05 -2.264669420214463e-18
-6.865168909539073e-03  9.871870858975847e-05 -2.927833658256061e-18
-6.842956889688540e-03  8.610214001965987e-05 -3.767830386633015e-18
-6.782754754740336e-03 -1.730136205934675e-04 -4.645620308410441e-18
-6.795305240394490e-03  1.632731824816964e-04 -5.691678347058321e-18
-6.824373813362654e-03  3.415463715668647e-05 -7.420984705879948e-18
-6.823063505937373e-03  8.587509664465356e-05 -1.201269653851240e-17
-6.778500518061338e-03 -2.875278864926808e-04 -1.795815736140137e-17
-6.774728834830274e-03  3.812608904866698e-04 -2.484284180610966e-17
-6.839565358049504e-03  1.889372703417247e-05 -3.530742178648741e-17
-6.859581280552084e-03 -5.329639343199626e-06 -4.858469425269768e-17
-6.767938551511062e-03 -8.777154719715622e-05 -6.510090391934956e-17
-6.744364354147826e-03  8.177413208944271e-04 -8.714098803199706e-17
-6.894000017365549e-03 -2.477368321792678e-05 -1.191689550402943e-16
-6.837286868569744e-03  7.851818096259955e-07  3.381060215660142e-16
-6.822898663470267e-03  3.161329575753264e-05 -6.280004840987556e-15
-6.846973589638082e-03  8.123523648808712e-05  9.100713125383282e-16
-6.852786045306965e-03  3.175177628921992e-05 -6.638255656739164e-15
-6.837036765545194e-03  4.541076404004018e-06 -1.361966005149608e-16
-6.753732229290770e-03 -3.591603866817455e-04 -8.124103210708345e-17
-6.722505217175895e-03  3.166579821918047e-04 -6.980347580126017e-17
-6.856479267786904e-03  3.891052587717031e-05 -4.607706326921102e-17
-6.822341101520336e-03 -4.330322735249560e-05 -2.416854069106160e-17
-6.849029211747289e-03 -1.756443621337127e-05 -1.365572920416229e-17
-6.853251634636494e-03 -1.757526467901370e-05 -9.110450182491799e-18
-6.855093638454553e-03 -1.942561809446432e-05 -5.745856899594808e-18
-6.827591392137069e-03  1.102578695118578e-05 -3.609995107779493e-18
-6.970065490992921e-03 -3.907537556151984e-05 -2.816244418009886e-18
-6.895981640611945e-03 -2.727153777638114e-04 -2.429916949609667e-18
-6.944828267058664e-03  9.897573542883474e-05 -1.953275186497924e-18
-6.841736456300962e-03  9.750649999290146e-05 -1.547473791587055e-18
-6.792294148400675e-03 -3.820137641657102e-05 -1.127034038146048e-18
-6.821794755663496e-03 -2.988997216232703e-05 -1.041809442678133e-18
-6.835592683059187e-03 -2.995042834439151e-05 -9.196860734745951e-19
-6.836758174311870e-03 -1.429225425071285e-05 -8.260093839747271e-19
-6.814216347622048e-03  2.001090227615997e-05 -7.485869680570553e-19
-6.777642670574278e-03  1.990349854256144e-05 -6.886380376838464e-19
-6.756993531848752e-03  1.984285944981123e-05 -6.397900307699223e-19
-6.793747864505166e-03 -9.903758776912257e-05 -6.091708997345365e-19
-6.696745760654649e-03 -6.231512293938163e-05 -5.781760801950542e-19
-6.760500683902664e-03  1.191598477151162e-03 -5.678782771821396e-19
-6.850120566110823e-03 -7.435054340575983e-04 -5.230182095220396e-19
-6.882244909459823e-03 -3.265436620712117e-04 -5.146180109286268e-19
-7.007733903136273e-03  2.243652923697152e-04 -5.072838908648057e-19
-6.899916026529918e-03  2.209133077849923e-04 -4.865836685039617e-19
-6.833388058867593e-03 -6.900419747519716e-05 -4.667175968763058e-19
-6.814293859325025e-03 -1.609963554260566e-05 -4.563783033356845e-19
-6.863303620291198e-03 -4.646056887258717e-05 -4.456363774224302e-19
-7.016101093464858e-03 -4.749491878899676e-05 -4.390699765376877e-19
-5.572859301534598e-03 -3.973622013925995e-03 -3.378460109114073e-19
-6.907709696515542e-03  1.376042617166549e-04 -4.318457839853812e-19
-6.956059661374771e-03  1.385674118070295e-04 -4.235088537781018e-19
-6.882375490699726e-03  2.864231078489387e-05 -4.134213587677215e-19
-6.901932243130377e-03  1.542198905949375e-04 -4.090895021721151e-19
-6.879414164713382e-03 -3.346037543514290e-05 -4.046580217630541e-19
-6.910702358322814e-03  2.011558869647200e-04 -4.018929692249031e-19
-6.930410599483400e-03 -8.083720764211437e-05 -3.969175607580232e-19
-6.988404595576406e-03  2.151234825417189e-04 -3.961302651586272e-19
-6.782919304425804e-03 -9.176789659599858e-05 -3.892291902644325e-19
-6.436155051162489e-03  1.040222874080536e-03 -3.836433803723261e-19
-6.356754656605939e-03 -4.424863633711122e-04 -3.604439240878329e-19
-6.646823686537788e-03 -1.686309795824149e-03 -3.582998823477532e-19
-6.698072289842706e-03 -5.032817603673772e-04 -3.751472399851428e-19
-6.743508995548340e-03  1.511386543103130e-03 -3.778509301236700e-19
-6.968444775482696e-03 -3.703678812662287e-04 -3.644602051794208e-19
-6.976522954726442e-03  5.335271887820368e-04 -3.768164849182963e-19
-6.810223904023180e-03 -6.282139484302662e-04 -3.680323721098237e-19
-6.920503425810317e-03  4.357582851540239e-04 -3.671382717288635e-19
-6.698764839233193e-03 -9.532916516488058e-04 -3.496271003372254e-19
-6.759470690647731e-03  6.057687951589824e-04 -3.624437021318580e-19
-6.642060283001573e-03 -7.107558937976459e-04 -3.482233379598653e-19
-6.509861540227693e-03  1.500435169255245e-03 -3.438713943301029e-19
-6.781322979151219e-03 -4.182991344501725e-04 -3.520589187832181e-19
-6.762197265248208e-03  1.837354690955195e-03 -3.680110373598449e-19
-6.852785905555329e-03 -8.968114831996953e-04 -3.461289215863252e-19
-6.373578175155243e-03  1.036485004336528e-03 -3.487662481965195e-19
-6.420166326796501e-03 -9.343189549800360e-05 -3.467192967821017e-19
-6.631763545005106e-03  2.514889635999485e-03 -3.566588303654180e-19
-6.191433417210158e-03 -5.195959882969406e-03 -2.358069582659151e-19
-6.133089347432148e-03 -3.697205810734945e-04 -3.335458884283639e-19
-6.350285640523471e-03 -2.509113880165280e-04 -3.409284341440126e-19
-6.829065871991714e-03 -3.157711325218272e-05 -3.483326267199631e-19
-6.685544073437358e-03 -1.093862243748699e-03 -3.362461875150284e-19
-6.438193074187955e-03 -6.499756824560729e-05 -3.473501232638575e-19
-7.180905053072399e-03  2.046997656838373e-03 -3.510321256723865e-19
-7.315918150276416e-03 -1.565416057840126e-03 -3.443907467722802e-19
-7.191805663460189e-03 -5.201493719827029e-04 -3.665803401929486e-19
-6.815023124941393e-03  1.403232225616993e-03 -3.506860666336156e-19
-7.002090383239980e-03  5.041724165109178e-04 -3.564408173251910e-19
-7.141826254448961e-03 -6.406401197528013e-04 -3.536870477590286e-19
-6.498956628906526e-03 -1.646555718703289e-03 -3.533545305060196e-19
-6.886084948745386e-03 -1.063343280053084e-04 -3.586433077277516e-19
-7.407793868566703e-03  5.304716578785097e-04 -3.619833764756969e-19
-7.234616105885643e-03 -1.117503605907077e-03 -3.462205087586214e-19
-6.807930678502685e-03  3.058530673729085e-05 -3.520398942716652e-19
-6.913939432020480e-03  7.364849609580450e-05 -3.483148685742983e-19
-7.561422581886305e-03 -4.515602326691965e-04 -3.496298943662787e-19
-6.939232308713955e-03 -1.443319301054192e-03 -3.271046337769281e-19
-7.129677451765503e-03 -1.981161597381457e-04 -3.582634157049282e-19
-6.698899887843777e-03  2.261317129712286e-03 -3.427053829441943e-19
-7.047377361389601e-03 -4.451975747625031e-04 -3.439281462345125e-19
-6.583636968998818e-03 -7.585577819016364e-04 -3.307662663586921e-19
-6.546638312857453e-03  9.071989961302828e-04 -3.354694904004691e-19
-7.075933323966094e-03 -4.593332669814764e-05 -3.445576515249245e-19
-6.944767247819362e-03 -9.485341152995480e-05 -3.422532461035997e-19
-6.813575920247171e-03 -3.231217431471111e-04 -3.340517215641148e-19
-6.878089384742023e-03  9.955091403896365e-05 -3.434221162227614e-19
-6.909266069754580e-03 -1.720799097018954e-04 -3.395832444724364e-19
-6.909996086776879e-03  2.874317178991496e-04 -3.426609157471997e-19
-6.949372250147800e-03 -1.487845110844823e-04 -3.414413525448804e-19
-6.882127130772665e-03  2.485648588253136e-05 -3.406989823196690e-19
-6.897621210408366e-03 -6.687787521988077e-05 -3.400779841154998e-19
-6.873326421124333e-03 -6.664231808551988e-05 -3.402576489866966e-19
-6.833182538316664e-03  3.431005238195290e-04 -3.368666366228652e-19
-6.727871642554091e-03  7.553259461817741e-06 -3.362427433959189e-19
-6.954626759005101e-03  7.467676946752784e-04 -3.374424087445843e-19
-7.288400763145678e-03 -8.540344183308564e-04 -3.268245209779956e-19
-6.626969883816370e-03 -8.785356427083772e-04 -3.390963899851710e-19
-6.669025276099947e-03  3.068288241720586e-04 -3.412281139193967e-19
-6.821093730275907e-03  3.209217902982244e-03 -3.456283243949993e-19
-7.364988998778272e-03 -1.112166842814529e-03 -3.405725291662353e-19
-6.789377697804803e-03 -5.653764792087954e-05 -3.364677016288219e-19
-6.816544193066435e-03  1.031956434331792e-04 -3.382641988650064e-19
-6.878762296191885e-03  1.514562361550108e-04 -3.365988227889670e-19
-6.836229808310282e-03 -1.576354082374645e-04 -3.353600824924923e-19
-6.807573907061259e-03  1.575606487551263e-04 -3.383512759994318e-19
-6.874348443391004e-03 -4.441200711893709e-05 -3.359727095901132e-19
-6.880154548577717e-03  1.157886080073821e-04 -3.377458271365349e-19
-6.875019726945208e-03 -8.055061645375461e-05 -3.376818594332873e-19
-6.857029603408248e-03  1.012564653581151e-04 -3.363665266129682e-19
-6.864581933914518e-03 -3.244594110763391e-05 -3.346367512201464e-19
-6.846783425540090e-03  1.337512793561664e-04 -3.350048492041344e-19
-6.888628663397699e-03  2.050160119160603e-06 -3.354715709235575e-19
-6.857574255286976e-03  3.170925178729868e-05 -3.346563469531328e-19
-6.916002970258879e-03  1.901582440729135e-06 -3.355331376381290e-19
-6.886389428599948e-03 -6.813420742435163e-05 -3.344401479433783e-19
-6.779822316419087e-03  1.877262030671223e-04 -3.305346568941742e-19
-6.925588948994572e-03  3.962578234034925e-04 -3.329438772624861e-19
-6.884354737154356e-03 -7.688595081115672e-05 -3.307087758304665e-19
-6.702437515056537e-03 -2.707234236377028e-04 -3.308430486112654e-19
-6.775622062870728e-03  5.754263377872295e-04 -3.314386818402095e-19
-6.967911466105965e-03 -1.163182043801343e-04 -3.342030876954766e-19
-6.870285808731489e-03  1.447104063449486e-04 -3.336648408092057e-19
-6.740045663234375e-03 -3.346941205876423e-04 -3.271116601621060e-19
-6.789250038958654e-03  3.260451838660534e-04 -3.351067097703124e-19
-6.830753776565570e-03 -1.351638661741111e-04 -3.314444081726949e-19
-6.925141117626044e-03  5.599812067541246e-04 -3.367927805887546e-19
-6.941437516037317e-03 -3.047965177516181e-04 -3.358946270045326e-19
-6.957844955872994e-03  4.389670428046215e-04 -3.361223630754159e-19
-6.776731233994324e-03 -9.553248474076229e-04 -3.353797641629599e-19
-6.853718065409389e-03  4.992518487718882e-04 -3.302916286486382e-19
-6.678496634439788e-03 -7.923323575935470e-04 -3.178131500012715e-19
-6.806970766452409e-03  8.183298049509648e-04 -3.353502878086601e-19
-6.888454437363135e-03 -8.029024394456307e-04 -3.320733144261412e-19
-6.861548587939800e-03  6.328869636760666e-04 -3.344137545765500e-19
-6.552066229629819e-03 -1.059989961014222e-03 -3.178728232004342e-19
-6.476560613357982e-03  1.038395534948806e-03 -3.289332278548551e-19
-6.796176128707166e-03 -2.243923172137247e-04 -3.274580021223910e-19
-6.809529780919128e-03  5.454815053596544e-04 -3.245176496018144e-19
-6.652593451979169e-03 -6.776896875398800e-05 -3.272318062857702e-19
-6.997285097767553e-03  2.095996798955921e-03 -3.222341753737361e-19
-6.802086739162308e-03 -2.967814915856053e-03 -2.908720678143548e-19
-6.354245152821300e-03  1.539865067306403e-04 -3.243852855667540e-19
-6.763316676671727e-03 -1.380079692282647e-04 -3.269133732099430e-19
-6.891976459036515e-03  4.774911998086271e-04 -3.308691959393604e-19
-6.821556086498728e-03 -3.499521123203224e-04 -3.236080961915307e-19
-6.804348217137436e-03  3.880198269095940e-04 -3.320345359660250e-19
-6.746771889258886e-03 -8.530437604583068e-04 -3.184672089276771e-19
-6.711944640853649e-03  2.852962216609014e-04 -3.250427879431361e-19
-6.803461155240792e-03 -4.183732688096101e-04 -3.231523008666789e-19
-6.738575342245557e-03  2.084372823567609e-04 -3.272501836615083e-19
-6.841498472543477e-03 -7.412681782781904e-05 -3.285581213649286e-19
-6.911578426405017e-03  6.776937680484552e-04 -3.301720188045622e-19
-6.972869532384950e-03 -4.146741754377662e-04 -3.259321009770379e-19
-6.295868374781600e-03 -1.589478725262263e-04 -3.231762867329648e-19
-6.147843196415176e-03  1.845528419234411e-03 -3.329202168725329e-19
-7.105473527468726e-03  4.209277074909205e-04 -3.323620342643616e-19
-6.796950876467603e-03 -3.625152196817398e-04 -3.261048344509675e-19
-6.925822010937605e-03  1.058905667312696e-06 -3.315476564578851e-19
-6.831113343306075e-03  1.962975760167152e-04 -3.314890639203481e-19
-6.689426306092721e-03  1.922260842173256e-04 -3.264900293798663e-19
-7.070891055461220e-03 -4.372086096743835e-04 -3.272502602782347e-19
-7.031969857215326e-03 -9.596543231285269e-04 -3.263945357128234e-19
-6.789235111233300e-03  1.744827137058814e-03 -3.258016492751930e-19
-6.696475172003431e-03  5.057963767390166e-05 -3.223119979905211e-19
-5.967593247415368e-03 -2.927034224305312e-03 -2.970541070173260e-19
-6.647996662665323e-03  4.586795761908293e-04 -3.348319888794973e-19
-6.984547198725774e-03  4.818999334021872e-04 -3.375101943131807e-19
-6.898819505979909e-03 -3.218220470311741e-04 -3.268923621907432e-19
-6.888681492100672e-03  1.253489503021891e-04 -3.295453713106055e-19
-6.799308072803921e-03  3.395970501576611e-04 -3.261829401541743e-19
-7.002352249964058e-03  1.902081154560366e-04 -3.321342407167411e-19
-6.772930190113053e-03 -4.051418922139150e-04 -3.327560715730839e-19
-6.833696701043293e-03  3.747926025189719e-04 -3.321574956382204e-19
-6.940264728688778e-03 -1.063603957820960e-04 -3.300475122274969e-19
-6.987046893166258e-03  8.149423927627194e-04 -3.353990180769496e-19
-6.802669906235330e-03 -1.826445672602102e-03 -3.469013480145114e-19
-6.631524525977602e-03  3.641295223350196e-04 -3.250342783635531e-19
-6.751801506463644e-03 -3.015412060417644e-05 -3.246476493818208e-19
-6.799070200498132e-03  9.001140893776153e-05 -3.276690694854103e-19
-6.815907792836678e-03  9.023431815399539e-05 -3.272793609238397e-19
-6.793375211288664e-03  1.040412729215897e-04 -3.238375977119891e-19
-6.768674757812783e-03  1.362406433693895e-04 -3.265059321569144e-19
-6.721464259904559e-03  1.352903851816428e-04 -3.266578783450481e-19
-6.731060985261771e-03 -2.739452532965719e-05 -3.234692818997475e-19
-6.765635291510938e-03 -2.753523816978329e-05 -3.262939085137776e-19
-6.725422640008927e-03  1.222270062200327e-06 -3.258067004127284e-19
-6.819952991862649e-03  2.736429185548090e-04 -3.350312836376743e-19
-6.931283919381380e-03 -1.818523910851121e-04 -3.172222543839397e-19
-6.648764244300283e-03 -1.977368772768765e-04 -3.311873957471661e-19
-6.748729490490982e-03  2.651340513070473e-04 -3.303323703431122e-19
-6.846578062131682e-03 -1.092204000522072e-04 -3.292628494064946e-19
-6.820546226712109e-03 -1.088051258155276e-04 -3.320506183855768e-19
 5.093246541526797e-03 -4.401953892065649e-03  2.620377866847522e-19
 7.158314175874073e-03 -2.028884444159247e-04  3.294841744342150e-19
6.920401820326522e-03 2.272971224562393e-04 3.389821376226075e-19
7.009025258833732e-03 4.246359779229342e-04 3.336792122991917e-19
6.639484328595169e-03 4.022476473777372e-04 3.218813601327027e-19
 6.523855763279220e-03 -4.461471418473526e-04  3.202549735450091e-19
 6.759416151801108e-03 -4.622564180001204e-04  3.289382916032418e-19
 7.005801494018296e-03 -4.791059806225821e-04  3.377040550678414e-19
6.939434370977183e-03 3.127010334813293e-04 3.326975545110765e-19
6.742221444456377e-03 3.038143313897509e-04 3.246516207722791e-19
 6.522735133514321e-03 -2.453991500902234e-04  3.219851004136409e-19
 6.854306121600896e-03 -2.578735549227833e-04  3.287578964482019e-19
 4.156279882007058e-03 -5.478978874954602e-03  2.215957547491691e-19
 7.087851076938523e-03 -2.092303182746825e-04  3.395517890833426e-19
7.111173980341231e-03 1.025415494504918e-04 3.375929409704582e-19
6.976490751801589e-03 1.005994472072294e-04 3.333582195801707e-19
 6.840601449313397e-03 -2.094170243228366e-06  3.304570239360393e-19
 6.844873403892328e-03 -1.333592890223517e-04  3.312523833702063e-19
 6.881524744337872e-03 -1.340733704107313e-04  3.328744107812802e-19
6.877192763444744e-03 5.730565775449510e-05 3.316053547928881e-19
 6.901514167763576e-03 -1.928839507642892e-04  3.329091810883682e-19
 7.007089781874813e-03 -1.424610735693847e-04  3.364401639288446e-19
 6.552762682519211e-03 -9.541470985175744e-05  3.303814838806457e-19
6.835883570278043e-03 1.370178176378237e-03 3.182012250275227e-19
 6.771680872966460e-03 -9.310472634737685e-04  3.300433392887910e-19
6.861846531288645e-03 1.846444148259791e-04 3.333985622397180e-19
 6.913089525179029e-03 -2.658851131871986e-04  3.347430879693585e-19
6.961656732581351e-03 5.321767986016213e-04 3.313899613214582e-19
 6.990922055745524e-03 -3.869321633564011e-04  3.356551966950998e-19
6.908041185303154e-03 1.613072416433512e-04 3.332395970745103e-19
 6.954650172006678e-03 -3.350697356261555e-04  3.361814916038150e-19
6.901553873751642e-03 8.874611293327657e-05 3.333502203503514e-19
 6.905332571331448e-03 -9.818549931844715e-05  3.336105935379732e-19
6.884064885491713e-03 6.219333964746913e-05 3.336199750608731e-19
 6.912474338773615e-03 -4.719593295417243e-05  3.340968977369436e-19
6.900897005666343e-03 3.216202638617680e-05 3.337268330843503e-19
 6.883734934915036e-03 -3.059870841834420e-05  3.337123745016484e-19
6.890727863045929e-03 7.378523760330290e-05 3.337471211786635e-19
 6.889350032921886e-03 -2.726047499199566e-05  3.338051271902450e-19
6.895604889714487e-03 4.536374927490708e-05 3.341318625163625e-19
 6.890145613401176e-03 -2.818322204793626e-05  3.343708198285688e-19
6.900039809797767e-03 7.258554723236021e-05 3.339540351165482e-19
 6.886998477434896e-03 -9.003353378016945e-05  3.347205307090583e-19
6.873165219215274e-03 5.190396098652365e-05 3.339531010084901e-19
 6.871813450858388e-03 -7.272153855048007e-05  3.346421807666045e-19
6.884802876985508e-03 1.988899909469010e-04 3.338537569217243e-19
 6.913333446972018e-03 -6.892374214339569e-05  3.355786859030524e-19
6.872425221650981e-03 2.463641574972009e-05 3.349818874072143e-19
6.936580224794475e-03 1.473052388659071e-04 3.341903468353212e-19
 6.996345856427389e-03 -3.856025290897643e-04  3.380786061009442e-19
 6.878310710160419e-03 -1.761947234372273e-04  3.372075281819830e-19
6.816376242725250e-03 3.882630963324980e-04 3.325368555709214e-19
 6.932111732931848e-03 -9.266295002317749e-06  3.344297999784519e-19
 6.882677192785856e-03 -2.499363404483355e-04  3.354636667448452e-19
 7.089951833213278e-03 -5.665605193604871e-04  3.447395664499042e-19
7.080709029557029e-03 5.019413744357566e-04 3.397398165499874e-19
6.787643518206248e-03 1.021999299986805e-04 3.323131658830679e-19
7.128536543800493e-03 1.073326750020564e-04 3.364306257295717e-19
 3.894324998215098e-03 -5.721349937245118e-03  2.177594737154511e-19
7.074876681415120e-03 1.117347227985336e-04 3.427059166953865e-19
6.882471169231273e-03 2.906641237317873e-04 3.344941120400667e-19
 6.737138759601573e-03 -3.920883104649260e-05  3.325421466695830e-19
 6.762064429186105e-03 -3.935389357263809e-05  3.339293495006107e-19
 6.821774676614981e-03 -3.970139554442793e-05  3.353811125009334e-19
 6.855876632969638e-03 -3.989986226639633e-05  3.364223838534256e-19
6.876777094743241e-03 1.200901648841104e-05 3.368281730680458e-19
 6.881407011501518e-03 -3.620810784020688e-05  3.375439447067822e-19
6.900885917807711e-03 1.182595995710135e-04 3.372756821346567e-19
 6.866362563818307e-03 -1.283290449901614e-04  3.387552158070131e-19
6.850375588749355e-03 1.387371865452129e-04 3.365296876043950e-19
 6.875183398830088e-03 -7.982364450100354e-05  3.386319296602644e-19
6.890352598031737e-03 1.688940588292446e-04 3.377928456407974e-19
 6.800527636610788e-03 -2.880957677210888e-04  3.388090740078697e-19
6.855730167627236e-03 4.726568031114707e-04 3.370001333175487e-19
 6.891408449031174e-03 -3.366015817760568e-04  3.421111567996805e-19
6.880884465811540e-03 2.460787169725497e-04 3.380886729424114e-19
 6.831735442453447e-03 -5.012675131981585e-04  3.402079540572588e-19
6.814713372225134e-03 2.341832814589235e-04 3.367275294986513e-19
 6.808427134570695e-03 -3.020877011453106e-04  3.398642954240276e-19
6.834140795720957e-03 3.404585463842056e-04 3.365924571409060e-19
 6.899682026765628e-03 -2.737925821831626e-04  3.418436343488605e-19
6.857086965315350e-03 1.670340269217147e-04 3.396543967104248e-19
 6.858803309226967e-03 -2.211175796296224e-04  3.434026426018263e-19
6.871008523550905e-03 1.710513413289714e-04 3.404138659886265e-19
 6.846745984498824e-03 -2.280218172348258e-04  3.417347782262061e-19
6.850978068064701e-03 2.357330941156402e-04 3.408308570538040e-19
 6.884092374914277e-03 -1.331971608515412e-04  3.446124588483937e-19
6.876831641151748e-03 1.283230436268335e-04 3.429976467478387e-19
 6.851418325846588e-03 -4.777575353415290e-05  3.438927011576259e-19
6.885086422777791e-03 7.120316838417894e-06 3.447594656017353e-19
 6.905602472482287e-03 -1.912613931659608e-05  3.468507543057654e-19
 6.948596008831849e-03 -1.924521659757361e-05  3.476750256240315e-19
 6.937385563884915e-03 -1.921416752796520e-05  3.481618776738487e-19
6.825693244513874e-03 4.018600007530538e-04 3.440254483255331e-19
 6.683628310479065e-03 -1.698346658897993e-06  3.422319252475865e-19
 6.699182596070561e-03 -1.702299088287946e-06  3.430947697480516e-19
 6.962814477289300e-03 -5.685055949047577e-04  3.525362743406176e-19
7.066625056360317e-03 1.219803796014267e-04 3.568801630770438e-19
6.768282454723767e-03 1.335628778157490e-03 3.389944224004082e-19
7.172090810574185e-03 2.611688506289917e-04 3.514088498340790e-19
 6.934243714403646e-03 -2.554566977697244e-04  3.505041145830893e-19
 6.934738130158676e-03 -5.280946138311673e-04  3.656379784433957e-19
6.269610930632692e-03 7.976208531532996e-04 3.428393664003145e-19
6.274028807698920e-03 1.529017212426012e-03 3.202045535781213e-19
 6.036191873215324e-03 -7.856884831846456e-04  3.350379817289485e-19
 6.610637669461956e-03 -8.604600371386451e-04  3.568813590742686e-19
 6.768408233996150e-03 -1.941350273283921e-04  3.611522749675082e-19
7.129093910337470e-03 1.531897033421691e-04 3.621341940075842e-19
6.923181166502363e-03 5.585159561117097e-05 3.602072637536895e-19
6.878971664064096e-03 2.967046770152186e-05 3.608406756448617e-19
6.870288828650943e-03 2.963301678585241e-05 3.621284767817122e-19
6.864690426241456e-03 4.073657039387841e-05 3.648327906970980e-19
6.873302148629488e-03 2.562203974488224e-05 3.663277534470513e-19
6.873172857876250e-03 8.357480841977876e-07 3.684540776809928e-19
6.859573264660084e-03 2.056624246877269e-04 3.673965843536628e-19
6.884814336914736e-03 2.027908057399191e-05 3.711622884255058e-19
6.857750621603050e-03 2.019936495108913e-05 3.725430555960163e-19
6.860586377858127e-03 2.641489471153364e-05 3.744785130419426e-19
6.858300276205033e-03 1.220817589269991e-05 3.782283429804104e-19
6.864843473348108e-03 5.106388486331394e-05 3.794866752777025e-19
 6.866550560714591e-03 -1.380411875388609e-07  3.816231628741907e-19
6.857827492311042e-03 2.541575293203764e-05 3.851787990860543e-19
6.854506574831914e-03 2.027584608040853e-05 3.874111567491244e-19
6.858203326919564e-03 1.171140011537088e-05 3.902697882607815e-19
6.856127539462695e-03 1.508284457915886e-06 3.943540089980959e-19
6.867453829838153e-03 4.534628851345753e-07 3.989829981525100e-19
6.864105500326391e-03 2.839182941548210e-05 4.043504481140608e-19
6.846488106047649e-03 2.831895902427330e-05 4.092741511826227e-19
6.815345483728286e-03 4.150057542419902e-05 4.153942402853544e-19
 6.857388491330348e-03 -1.198976780476219e-04  4.263289643241804e-19
 6.699774431374646e-03 -1.100027875764063e-04  4.288625731176497e-19
6.739654719417693e-03 5.024087690029960e-04 4.246222678969992e-19
 6.894177684095955e-03 -8.919764371561165e-06  4.324563531399433e-19
6.805533676606768e-03 1.752934965534006e-05 4.347706208307551e-19
6.859761636709226e-03 1.766902729399452e-05 4.430530320132733e-19
 6.824714228889807e-03 -5.928877867254033e-04  4.734807549061548e-19
 6.861551959256531e-03 -2.311712131848731e-05  4.612072224222630e-19
6.884218362348957e-03 3.763969296998472e-05 4.726999183708634e-19
 6.935197843090657e-03 -1.446917834127122e-04  4.820491040645060e-19
 6.784412432961520e-03 -1.532741912352353e-04  4.855455187099786e-19
6.785261959872026e-03 1.871029035038054e-04 4.856696236427363e-19
 6.888393892120654e-03 -3.335393513906796e-05  4.966171063731270e-19
 6.867300602366437e-03 -5.533114560151572e-05  5.083452973320157e-19
 6.861886044759309e-03 -3.546354215455269e-05  5.284754365938363e-19
 6.866122931728299e-03 -3.944514125925391e-05  5.567634506456509e-19
 6.870396482775563e-03 -3.649017218728534e-05  5.897669988057085e-19
 6.873340205130581e-03 -3.650580693789625e-05  6.210230483327981e-19
 6.875548762297220e-03 -2.382101410027131e-05  6.643127376160579e-19
 6.876567559401059e-03 -2.791524274025065e-05  7.141753829591054e-19
 6.872872061775664e-03 -7.093829419472703e-05  7.573636734676055e-19
 6.853488175863363e-03 -2.358306261129410e-05  8.014390677102640e-19
6.755287910520927e-03 5.421066549326293e-05 8.997200211825078e-19
 7.102327377559323e-03 -2.180049911584994e-04  1.000777680762209e-18
 7.188630623399442e-03 -7.459922695817540e-04  1.115849076681721e-18
 7.386592754641096e-03 -7.665355729329512e-04  1.253995916283110e-18
7.096570858548143e-03 1.386023330705418e-03 1.337670434982539e-18
5.891562735656330e-03 9.442082906478938e-04 1.621342023185470e-18
 5.945601247622201e-03 -1.327236423757419e-03  2.067922339139080e-18
 6.505942941863501e-03 -1.074688541966337e-03  2.580358714776602e-18
 7.128946094731208e-03 -5.125006498906858e-05  3.244130398611309e-18
7.074507199766938e-03 2.367820125513490e-04 4.234553014322289e-18
6.816058652084448e-03 1.718037199712700e-04 6.012145945963104e-18
 7.014399278520152e-03 -4.156964376236237e-04  8.221629895792060e-18
 6.530663825912841e-03 -5.765985951339704e-04  1.002316728899574e-17
6.648368086184901e-03 9.074051849811091e-04 1.142982233758535e-17
 7.087894841316211e-03 -1.129968766926009e-05  1.446661267530779e-17
6.901570985981543e-03 3.958444281915106e-05 2.027451945489062e-17
6.901074186614588e-03 2.534008252981886e-05 3.254938135213853e-17
6.904328291516467e-03 3.207349393206262e-05 5.070169285313831e-17
6.903211306718875e-03 4.478532863589821e-05 7.471187364353547e-17
6.903158747186115e-03 4.478498765025501e-05 1.273295228959670e-16
 6.898828209190737e-03  3.518758762709465e-05 -1.430708168884396e-16
 6.890602736941248e-03  1.030818327710461e-04 -1.696350978432359e-15
6.906035211245183e-03 5.534322319295161e-05 6.387021013321596e-15
 6.876701530239770e-03  1.242957189075816e-05 -1.836389831090966e-15
6.904850710690934e-03 5.533373090391747e-05 6.674076144006196e-15
6.875455510360260e-03 9.640282175197238e-05 9.559074608414133e-17
6.905733914935791e-03 6.855906669481566e-05 1.347370116551229e-16
6.876684565578517e-03 4.355388714523470e-05 1.037149423872144e-16
6.882027556342251e-03 4.358772729225938e-05 6.685924635013314e-17
6.843229710721808e-03 7.666684755947570e-05 4.120293401128503e-17
7.012016004110918e-03 5.435318592022687e-04 2.750613176419778e-17
 7.043826111865293e-03 -4.026804430537581e-04  2.388711833299515e-17
 7.008469134549436e-03 -9.376254476275266e-05  1.572100539295383e-17
6.531893485420671e-03 8.783401099134736e-04 9.931743346310164e-18
7.006033979382168e-03 7.197720921546907e-04 8.508269982577326e-18
 6.752814226206348e-03 -4.097923380162761e-04  7.095895478664198e-18
6.896413960023181e-03 6.764600968385278e-06 4.978178673421855e-18
6.889298721685799e-03 4.643644328970054e-05 3.818424707618318e-18
6.884295559931328e-03 2.616783412456273e-04 3.117509168959508e-18
6.853150505974226e-03 9.711253059894370e-05 2.584191288827358e-18
 6.933411413213828e-03 -1.258050997552018e-04  2.258516334410135e-18
 6.860809168053746e-03 -8.672761053322760e-05  2.017319046930534e-18
6.929799041499029e-03 1.342637556294409e-04 1.666060984271273e-18
6.901141827510742e-03 1.337085266606206e-04 1.402625454906588e-18
6.887451880114550e-03 7.078647767357804e-05 1.233276030691557e-18
6.891795344475587e-03 2.173115638602491e-05 1.133875135672067e-18
6.904160148487763e-03 5.111920707881054e-05 1.043141858139469e-18
6.948453259465032e-03 2.424285291856175e-05 9.424260786332734e-19
7.011084963784376e-03 2.446137222626298e-05 8.579896376879486e-19
6.684906258830487e-03 2.332334883111490e-05 7.838229444391101e-19
 1.084376153383531e-03  6.832623659899202e-03 -3.696244669525581e-19
 7.070047315744919e-03 -4.711539917648353e-05  7.365543035073054e-19
 6.760873974871076e-03 -4.505504162589713e-05  6.845275729509655e-19
 6.829419257700267e-03 -6.896192782642574e-05  6.526865961405373e-19
6.882189322939300e-03 1.822822672216502e-06 6.226236828203709e-19
6.896437930572464e-03 1.826596570873239e-06 5.904292974359282e-19
6.858813430768516e-03 7.841951376115746e-05 5.575964704862472e-19
6.785180770915949e-03 5.908216349124269e-05 5.310749046273382e-19
 6.791991354672910e-03 -9.763892275776595e-05  5.131464865585176e-19
 6.929222689547460e-03 -3.398746288810042e-04  5.052513126972243e-19
 7.113253391750506e-03 -2.075069670229435e-04  4.908363340629138e-19
7.079726118703276e-03 1.754465561124964e-04 4.650419233845394e-19
6.815519820833171e-03 1.688991156766180e-04 4.438314100743358e-19
 6.805352639623865e-03 -1.801122360785169e-04  4.386478324825248e-19
 6.877683891044413e-03 -2.027559923204843e-04  4.341457768264217e-19
 6.886420179495694e-03 -2.030135404809113e-04  4.288531269655648e-19
6.781286132809850e-03 7.884675851818476e-04 4.018448923006922e-19
 6.762472357869935e-03 -9.299172841702883e-06  4.092781151960381e-19
 6.794715151404073e-03 -9.343510370066211e-06  4.024637881180129e-19
 5.558793915894073e-03 -3.958308301151679e-03  3.878874606421881e-19
 6.816599352752276e-03 -6.051685701346169e-05  4.015056481513696e-19
 6.948826805744985e-03 -6.169075464949970e-05  3.972871751489608e-19
 6.914485698637045e-03 -1.171382796780316e-04  3.930480942081387e-19
 6.876572561730175e-03 -4.069054037857663e-06  3.875462868929984e-19
6.822964695092481e-03 2.690431959216249e-05 3.818822077403285e-19
 6.781761690956881e-03 -1.321970764687967e-04  3.793386849846485e-19
 6.912090873580442e-03 -3.005103571576441e-04  3.805697615371749e-19
6.968710858262899e-03 2.781802967284865e-05 3.758525725174793e-19
 6.877586947746542e-03 -3.965026225634286e-04  3.763213596863025e-19
6.861617272035683e-03 4.999191331598345e-05 3.695280613112022e-19
 6.886515784046353e-03 -3.121664330102907e-04  3.716959674921842e-19
6.977531821107360e-03 3.091573404026662e-04 3.661113865363986e-19
 6.775326447307052e-03 -4.733025338288339e-04  3.683893466808384e-19
7.098056239864032e-03 8.187599146151604e-04 3.572536131597026e-19
 7.021557821441266e-03 -1.931046537069121e-03  3.734306842982126e-19
6.733451447331941e-03 3.211879663723485e-05 3.624577018274896e-19
 6.826834052245471e-03 -1.218311786209542e-04  3.639811190725144e-19
7.138313760011668e-03 1.707792775953970e-03 3.423245861367433e-19
 6.906930283057195e-03 -7.245026991769850e-04  3.651982580693647e-19
6.493355041802990e-03 1.319154492593303e-03 3.367604644372843e-19
 6.983965213078080e-03 -9.875201448998594e-05  3.608249413775255e-19
 6.983904104604917e-03 -5.203834294796906e-06  3.595459157462613e-19
 6.839180779627835e-03 -4.504582029653670e-04  3.617539491047018e-19
6.898234043040324e-03 4.860883143519067e-04 3.542990015334707e-19
 6.957481655822786e-03 -2.335709479072067e-04  3.593202229884458e-19
6.930310124656455e-03 1.479179748517780e-04 3.551751140987608e-19
 6.675657198048996e-03 -1.571470625089480e-03  3.516253309690015e-19
6.893434751773471e-03 1.625024843784076e-04 3.518538988540255e-19
 7.003363051838270e-03 -9.691817539770706e-04  3.594660026207831e-19
6.681838949352186e-03 7.247038785061874e-05 3.538835133689937e-19
6.895514756594927e-03 1.348199763996123e-03 3.385790527793452e-19
 7.408010716058154e-03 -2.321922867442857e-04  3.584191367957687e-19
 6.787320536278131e-03 -3.003965290423413e-04  3.495034664168941e-19
6.976430152587055e-03 7.392562873112152e-05 3.518984791437421e-19
6.921780287110453e-03 1.073223478237311e-04 3.487842155521739e-19
6.835882027591498e-03 1.059904935170127e-04 3.462946534960223e-19
6.803358009286170e-03 1.054862079343441e-04 3.444032888527176e-19
 6.921577040333219e-03 -2.092371498564827e-04  3.484333026338287e-19
 6.968507673148070e-03 -1.541617107210504e-04  3.484783276039060e-19
 7.097304942148699e-03 -1.570110449338614e-04  3.537106226107633e-19
6.541637511925521e-03 1.233760811568136e-03 3.809282048457864e-19
 6.396987876226110e-03 -5.641231932353020e-04  1.098966284284913e-18
 6.740813503934531e-03 -5.944437151390316e-04  1.112114750267850e-18
 6.906697992211967e-03 -7.216461745764502e-06  3.386880439150233e-19
1.764817189309248e-03 6.719579565061876e-03 4.061156268482494e-20
 7.019514778506976e-03 -1.269917014229299e-04  3.412493975046682e-19
 6.774462075218549e-03 -3.977164930114687e-04  3.421892792480190e-19
 7.004869574603999e-03 -1.356239098747630e-04  3.464633785816177e-19
6.930114270578173e-03 2.569982443374430e-04 3.410429573676779e-19
6.822896516978628e-03 8.981403767837113e-06 3.385984389045622e-19
6.774891323040173e-03 8.918211540219179e-06 3.375136840719967e-19
 6.796350904315168e-03 -5.136478435018335e-05  3.377960653809469e-19
 6.849108774347302e-03 -5.176351252874979e-05  3.391607078877995e-19
 6.893867376478579e-03 -5.210178463662884e-05  3.405468786286913e-19
6.891151201266829e-03 8.070489231323909e-05 3.392294718759621e-19
6.883042054885640e-03 3.190795333170285e-05 3.387989802432336e-19
6.855496189666273e-03 3.178025802272576e-05 3.383058243375350e-19
6.880142411534927e-03 3.189451135590562e-05 3.387461082530762e-19
 6.917356238034943e-03 -9.510663602039434e-05  3.410245494839153e-19
6.950736321744096e-03 4.101077666019400e-05 3.414505142936232e-19
6.620334831295997e-03 3.906133977958992e-05 3.370875802536150e-19
-2.535961610574508e-04  7.141230476861562e-03 -4.177958576645007e-20
 6.938717054677307e-03 -3.083897485777932e-04  3.412040784463873e-19
6.935768557758562e-03 1.441497019663596e-04 3.431904771497233e-19
 7.116780900952229e-03 -1.538936977072310e-04  3.483973208488401e-19
7.078566902132761e-03 1.391124707012696e-04 3.465654289000229e-19
7.109952091351648e-03 7.935978903129502e-05 3.446296977882604e-19
 6.873501061545725e-03 -1.644671094492926e-03  3.392200729438246e-19
 6.974411369397662e-03 -3.181905778645990e-05  3.457262785696780e-19
 7.072861470678246e-03 -3.666146278248894e-05  3.460572142048095e-19
 7.023063934568372e-03 -3.640334228566874e-05  3.445257673693003e-19
 7.001066190748504e-03 -1.662089582176040e-04  3.444861210924990e-19
 6.887692612054991e-03 -5.800522599787663e-06  3.424616045250171e-19
7.262719706908195e-03 2.663010704605266e-04 3.446496553537082e-19
 7.296748458526510e-03 -6.798763109319094e-04  3.514829749189877e-19
 7.342468090734460e-03 -4.888736925493567e-04  3.552557532912937e-19
7.195759187359958e-03 1.272018959543237e-03 3.468129447084016e-19
 7.701622985476319e-03 -2.446708647646366e-04  3.560862264142046e-19
 7.179796895951086e-03 -6.374231411290554e-05  3.470110664432673e-19
7.239975198744832e-03 5.827485760246556e-05 3.478719934744204e-19
6.918183974621696e-03 5.193263079366190e-04 3.387699512255769e-19
7.298811206790335e-03 9.300832650792184e-04 3.382062520697624e-19
 6.955280501667721e-03 -4.657609524448099e-04  3.428399467977241e-19
7.307945347245568e-03 2.197743477665219e-03 3.212101623884535e-19
 7.094183445357008e-03 -2.140197424603287e-03  3.416189213982388e-19
6.812156956621201e-03 1.194562564882844e-03 3.318072615224457e-19
 6.973196037671943e-03 -8.667605640970342e-04  3.369219702504906e-19
6.992240593525001e-03 2.483986586476125e-04 3.398768714746863e-19
7.030653989370610e-03 2.497632907529474e-04 3.369955755362322e-19
6.950299521388393e-03 7.855183770195517e-05 3.366601249739389e-19
6.802534188691961e-03 4.960965953954167e-04 3.281985576075850e-19
 6.804581185031843e-03 -4.701765093149166e-04  3.321093203505947e-19
6.838161823375596e-03 4.567185511355666e-04 3.309800842444224e-19
6.791295607716307e-03 6.993679190139732e-05 3.303619899923151e-19
6.702969109346162e-03 6.435909902462402e-04 3.250972060232464e-19
6.717519468263692e-03 7.941591913759757e-05 3.267718450459336e-19
6.739961289285093e-03 7.968123103612738e-05 3.286817518397267e-19
6.848202995445463e-03 8.096088710922990e-05 3.314932842030299e-19
6.620857811482271e-03 7.827316482852167e-05 3.302850887571063e-19
6.282240851330839e-03 1.543439772674298e-03 3.065731503811921e-19
 6.146417821325510e-03 -4.840318462613802e-04  3.129846067128551e-19
 7.590770097054517e-03 -2.269227018068239e-03  3.594261501530842e-19
7.515377353997860e-03 2.000966381662395e-03 3.410924118057962e-19
7.082129010057600e-03 3.515141264745578e-03 2.745569960665681e-19
 6.253631521979107e-03 -9.886171453843738e-04  3.166206046285289e-19
6.611234115331007e-03 6.925219266770475e-04 3.262368815155487e-19
 6.272762075083939e-03 -9.544980069841791e-04  3.268603130146122e-19
3.130591845028603e-03 5.781613062357508e-03 1.361657951985712e-19
 7.100737693951508e-03 -6.491904224869300e-04  3.362279600254380e-19
6.945305125205129e-03 5.557264767556189e-04 3.313442460106365e-19
 6.752103631765333e-03 -1.334648128628604e-03  3.304560995595547e-19
6.712991291184010e-03 6.588749096338713e-04 3.269986259005489e-19
 7.000281277344365e-03 -4.241453287597711e-04  3.362751666133216e-19
6.876087951638153e-03 2.628044956416610e-04 3.305398380433404e-19
 6.785025781778785e-03 -6.490335768992422e-04  3.321482913855573e-19
6.645261755769336e-03 4.040432842633006e-04 3.270307642936156e-19
6.793588520790603e-03 2.500968297798705e-04 3.260787300741405e-19
 6.715902080085306e-03 -3.527711664041632e-04  3.262568304385016e-19
 6.804503715232879e-03 -2.860819337550140e-04  3.315540065424659e-19
6.933661223616784e-03 6.744875368430508e-06 3.329544423224677e-19
6.880754650888877e-03 6.693409306315293e-06 3.312568998155608e-19
6.830316758292800e-03 6.644344708488093e-06 3.300369834522198e-19
 6.759698721862228e-03 -7.976382058603615e-05  3.294283066447746e-19
6.839297392063359e-03 1.947960877799142e-04 3.292036416270881e-19
 6.798040072307076e-03 -1.969174674430144e-04  3.299356487490218e-19
6.753962334273718e-03 7.940049075752046e-05 3.283129145387305e-19
 6.794292909906719e-03 -9.701540154150403e-05  3.293000255546432e-19
 6.840138385895276e-03 -9.767002702216384e-05  3.302519393342257e-19
 6.888955915326973e-03 -3.738295212069302e-04  3.331125954897675e-19
 6.593509197002969e-03 -1.557978542100598e-04  3.286909103131890e-19
6.569800233315689e-03 7.905045432942476e-04 3.191630914773280e-19

VECTORS velocity double
0.000000000000000e+00 0.000000000000000e+00 0.000000000000000e+00
0.000000000000000e+00 0.000000000000000e+00 0.000000000000000e+00
0.000000000000000e+00 0.000000000000000e+00 0.000000000000000e+00
0.000000000000000e+00 0.000000000000000e+00 0.000000000000000e+00
0.000000000000000e+00 0.000000000000000e+00 0.000000000000000e+00
0.000000000000000e+00 0.000000000000000e+00 0.000000000000000e+00
0.000000000000000e+00 0.000000000000000e+00 0.000000000000000e+00
0.000000000000000e+00 0.000000000000000e+00 0.000000000000000e+00
0.000000000000000e+00 0.000000000000000e+00 0.000000000000000e+00
0.000000000000000e+00 0.000000000000000e+00 0.000000000000000e+00
0.000000000000000e+00 0.000000000000000e+00 0.000000000000000e+00
0.000000000000000e+00 0.000000000000000e+00 0.000000000000000e+00
0.000000000000000e+00 0.000000000000000e+00 0.000000000000000e+00
0.000000000000000e+00 0.000000000000000e+00 0.000000000000000e+00
0.000000000000000e+00 0.000000000000000e+00 0.000000000000000e+00
0.000000000000000e+00 0.000000000000000e+00 0.000000000000000e+00
0.000000000000000e+00 0.000000000000000e+00 0.000000000000000e+00
0.000000000000000e+00 0.000000000000000e+00 0.000000000000000e+00
0.000000000000000e+00 0.000000000000000e+00 0.000000000000000e+00
0.000000000000000e+00 0.000000000000000e+00 0.000000000000000e+00
0.000000000000000e+00 0.000000000000000e+00 0.000000000000000e+00
0.000000000000000e+00 0.000000000000000e+00 0.000000000000000e+00
0.000000000000000e+00 0.000000000000000e+00 0.000000000000000e+00
0.000000000000000e+00 0.000000000000000e+00 0.000000000000000e+00
0.000000000000000e+00 0.000000000000000e+00 0.000000000000000e+00
0.000000000000000e+00 0.000000000000000e+00 0.000000000000000e+00
0.000000000000000e+00 0.000000000000000e+00 0.000000000000000e+00
0.000000000000000e+00 0.000000000000000e+00 0.000000000000000e+00
0.000000000000000e+00 0.000000000000000e+00 0.000000000000000e+00
0.000000000000000e+00 0.000000000000000e+00 0.000000000000000e+00
0.000000000000000e+00 0.000000000000000e+00 0.000000000000000e+00
0.000000000000000e+00 0.000000000000000e+00 0.000000000000000e+00
0.000000000000000e+00 0.000000000000000e+00 0.000000000000000e+00
0.000000000000000e+00 0.000000000000000e+00 0.000000000000000e+00
0.000000000000000e+00 0.000000000000000e+00 0.000000000000000e+00
0.000000000000000e+00 0.000000000000000e+00 0.000000000000000e+00
0.000000000000000e+00 0.000000000000000e+00 0.000000000000000e+00
0.000000000000000e+00 0.000000000000000e+00 0.000000000000000e+00
0.000000000000000e+00 0.000000000000000e+00 0.000000000000000e+00
0.000000000000000e+00 0.000000000000000e+00 0.000000000000000e+00
0.000000000000000e+00 0.000000000000000e+00 0.000000000000000e+00
0.000000000000000e+00 0.000000000000000e+00 0.000000000000000e+00
0.000000000000000e+00 0.000000000000000e+00 0.000000000000000e+00
0.000000000000000e+00 0.000000000000000e+00 0.000000000000000e+00
0.000000000000000e+00 0.000000000000000e+00 0.000000000000000e+00
0.000000000000000e+00 0.000000000000000e+00 0.000000000000000e+00
0.000000000000000e+00 0.000000000000000e+00 0.000000000000000e+00
0.000000000000000e+00 0.000000000000000e+00 0.000000000000000e+00
0.000000000000000e+00 0.000000000000000e+00 0.000000000000000e+00
0.000000000000000e+00 0.000000000000000e+00 0.000000000000000e+00
0.000000000000000e+00 0.000000000000000e+00 0.000000000000000e+00
0.000000000000000e+00 0.000000000000000e+00 0.000000000000000e+00
0.000000000000000e+00 0.000000000000000e+00 0.000000000000000e+00
0.000000000000000e+00 0.000000000000000e+00 0.000000000000000e+00
0.000000000000000e+00 0.000000000000000e+00 0.000000000000000e+00
0.000000000000000e+00 0.000000000000000e+00 0.000000000000000e+00
0.000000000000000e+00 0.000000000000000e+00 0.000000000000000e+00
0.000000000000000e+00 0.000000000000000e+00 0.000000000000000e+00
0.000000000000000e+00 0.000000000000000e+00 0.000000000000000e+00
0.000000000000000e+00 0.000000000000000e+00 0.000000000000000e+00
0.000000000000000e+00 0.000000000000000e+00 0.000000000000000e+00
0.000000000000000e+00 0.000000000000000e+00 0.000000000000000e+00
0.000000000000000e+00 0.000000000000000e+00 0.000000000000000e+00
0.000000000000000e+00 0.000000000000000e+00 0.000000000000000e+00
0.000000000000000e+00 0.000000000000000e+00 0.000000000000000e+00
0.000000000000000e+00 0.000000000000000e+00 0.000000000000000e+00
0.000000000000000e+00 0.000000000000000e+00 0.000000000000000e+00
0.000000000000000e+00 0.000000000000000e+00 0.000000000000000e+00
0.000000000000000e+00 0.000000000000000e+00 0.000000000000000e+00
0.000000000000000e+00 0.000000000000000e+00 0.000000000000000e+00
0.000000000000000e+00 0.000000000000000e+00 0.000000000000000e+00
0.000000000000000e+00 0.000000000000000e+00 0.000000000000000e+00
0.000000000000000e+00 0.000000000000000e+00 0.000000000000000e+00
0.000000000000000e+00 0.000000000000000e+00 0.000000000000000e+00
0.000000000000000e+00 0.000000000000000e+00 0.000000000000000e+00
0.000000000000000e+00 0.000000000000000e+00 0.000000000000000e+00
0.000000000000000e+00 0.000000000000000e+00 0.000000000000000e+00
0.000000000000000e+00 0.000000000000000e+00 0.000000000000000e+00
0.000000000000000e+00 0.000000000000000e+00 0.000000000000000e+00
0.000000000000000e+00 0.000000000000000e+00 0.000000000000000e+00
0.000000000000000e+00 0.000000000000000e+00 0.000000000000000e+00
0.000000000000000e+00 0.000000000000000e+00 0.000000000000000e+00
0.000000000000000e+00 0.000000000000000e+00 0.000000000000000e+00
0.000000000000000e+00 0.000000000000000e+00 0.000000000000000e+00
0.000000000000000e+00 0.000000000000000e+00 0.000000000000000e+00
0.000000000000000e+00 0.000000000000000e+00 0.000000000000000e+00
0.000000000000000e+00 0.000000000000000e+00 0.000000000000000e+00
0.000000000000000e+00 0.000000000000000e+00 0.000000000000000e+00
0.000000000000000e+00 0.000000000000000e+00 0.000000000000000e+00
0.000000000000000e+00 0.000000000000000e+00 0.000000000000000e+00
0.000000000000000e+00 0.000000000000000e+00 0.000000000000000e+00
0.000000000000000e+00 0.000000000000000e+00 0.000000000000000e+00
0.000000000000000e+00 0.000000000000000e+00 0.000000000000000e+00
0.000000000000000e+00 0.000000000000000e+00 0.000000000000000e+00
0.000000000000000e+00 0.000000000000000e+00 0.000000000000000e+00
0.000000000000000e+00 0.000000000000000e+00 0.000000000000000e+00
0.000000000000000e+00 0.000000000000000e+00 0.000000000000000e+00
0.000000000000000e+00 0.000000000000000e+00 0.000000000000000e+00
0.000000000000000e+00 0.000000000000000e+00 0.000000000000000e+00
0.000000000000000e+00 0.000000000000000e+00 0.000000000000000e+00
0.000000000000000e+00 0.000000000000000e+00 0.000000000000000e+00
0.000000000000000e+00 0.000000000000000e+00 0.000000000000000e+00
0.000000000000000e+00 0.000000000000000e+00 0.000000000000000e+00
0.000000000000000e+00 0.000000000000000e+00 0.000000000000000e+00
0.000000000000000e+00 0.000000000000000e+00 0.000000000000000e+00
0.000000000000000e+00 0.000000000000000e+00 0.000000000000000e+00
0.000000000000000e+00 0.000000000000000e+00 0.000000000000000e+00
0.000000000000000e+00 0.000000000000000e+00 0.000000000000000e+00
0.000000000000000e+00 0.000000000000000e+00 0.000000000000000e+00
0.000000000000000e+00 0.000000000000000e+00 0.000000000000000e+00
0.000000000000000e+00 0.000000000000000e+00 0.000000000000000e+00
0.000000000000000e+00 0.000000000000000e+00 0.000000000000000e+00
0.000000000000000e+00 0.000000000000000e+00 0.000000000000000e+00
0.000000000000000e+00 0.000000000000000e+00 0.000000000000000e+00
0.000000000000000e+00 0.000000000000000e+00 0.000000000000000e+00
0.000000000000000e+00 0.000000000000000e+00 0.000000000000000e+00
0.000000000000000e+00 0.000000000000000e+00 0.000000000000000e+00
0.000000000000000e+00 0.000000000000000e+00 0.000000000000000e+00
0.000000000000000e+00 0.000000000000000e+00 0.000000000000000e+00
0.000000000000000e+00 0.000000000000000e+00 0.000000000000000e+00
0.000000000000000e+00 0.000000000000000e+00 0.000000000000000e+00
0.000000000000000e+00 0.000000000000000e+00 0.000000000000000e+00
0.000000000000000e+00 0.000000000000000e+00 0.000000000000000e+00
0.000000000000000e+00 0.000000000000000e+00 0.000000000000000e+00
0.000000000000000e+00 0.000000000000000e+00 0.000000000000000e+00
0.000000000000000e+00 0.000000000000000e+00 0.000000000000000e+00
0.000000000000000e+00 0.000000000000000e+00 0.000000000000000e+00
0.000000000000000e+00 0.000000000000000e+00 0.000000000000000e+00
0.000000000000000e+00 0.000000000000000e+00 0.000000000000000e+00
0.000000000000000e+00 0.000000000000000e+00 0.000000000000000e+00
0.000000000000000e+00 0.000000000000000e+00 0.000000000000000e+00
0.000000000000000e+00 0.000000000000000e+00 0.000000000000000e+00
0.000000000000000e+00 0.000000000000000e+00 0.000000000000000e+00
0.000000000000000e+00 0.000000000000000e+00 0.000000000000000e+00
0.000000000000000e+00 0.000000000000000e+00 0.000000000000000e+00
0.000000000000000e+00 0.000000000000000e+00 0.000000000000000e+00
0.000000000000000e+00 0.000000000000000e+00 0.000000000000000e+00
0.000000000000000e+00 0.000000000000000e+00 0.000000000000000e+00
0.000000000000000e+00 0.000000000000000e+00 0.000000000000000e+00
0.000000000000000e+00 0.000000000000000e+00 0.000000000000000e+00
0.000000000000000e+00 0.000000000000000e+00 0.000000000000000e+00
0.000000000000000e+00 0.000000000000000e+00 0.000000000000000e+00
0.000000000000000e+00 0.000000000000000e+00 0.000000000000000e+00
0.000000000000000e+00 0.000000000000000e+00 0.000000000000000e+00
0.000000000000000e+00 0.000000000000000e+00 0.000000000000000e+00
0.000000000000000e+00 0.000000000000000e+00 0.000000000000000e+00
0.000000000000000e+00 0.000000000000000e+00 0.000000000000000e+00
0.000000000000000e+00 0.000000000000000e+00 0.000000000000000e+00
0.000000000000000e+00 0.000000000000000e+00 0.000000000000000e+00
0.000000000000000e+00 0.000000000000000e+00 0.000000000000000e+00
0.000000000000000e+00 0.000000000000000e+00 0.000000000000000e+00
0.000000000000000e+00 0.000000000000000e+00 0.000000000000000e+00
0.000000000000000e+00 0.000000000000000e+00 0.000000000000000e+00
0.000000000000000e+00 0.000000000000000e+00 0.000000000000000e+00
0.000000000000000e+00 0.000000000000000e+00 0.000000000000000e+00
0.000000000000000e+00 0.000000000000000e+00 0.000000000000000e+00
0.000000000000000e+00 0.000000000000000e+00 0.000000000000000e+00
0.000000000000000e+00 0.000000000000000e+00 0.000000000000000e+00
0.000000000000000e+00 0.000000000000000e+00 0.000000000000000e+00
0.000000000000000e+00 0.000000000000000e+00 0.000000000000000e+00
0.000000000000000e+00 0.000000000000000e+00 0.000000000000000e+00
0.000000000000000e+00 0.000000000000000e+00 0.000000000000000e+00
0.000000000000000e+00 0.000000000000000e+00 0.000000000000000e+00
0.000000000000000e+00 0.000000000000000e+00 0.000000000000000e+00
0.000000000000000e+00 0.000000000000000e+00 0.000000000000000e+00
0.000000000000000e+00 0.000000000000000e+00 0.000000000000000e+00
0.000000000000000e+00 0.000000000000000e+00 0.000000000000000e+00
0.000000000000000e+00 0.000000000000000e+00 0.000000000000000e+00
0.000000000000000e+00 0.000000000000000e+00 0.000000000000000e+00
0.000000000000000e+00 0.000000000000000e+00 0.000000000000000e+00
0.000000000000000e+00 0.000000000000000e+00 0.000000000000000e+00
0.000000000000000e+00 0.000000000000000e+00 0.000000000000000e+00
0.000000000000000e+00 0.000000000000000e+00 0.000000000000000e+00
0.000000000000000e+00 0.000000000000000e+00 0.000000000000000e+00
0.000000000000000e+00 0.000000000000000e+00 0.000000000000000e+00
0.000000000000000e+00 0.000000000000000e+00 0.000000000000000e+00
0.000000000000000e+00 0.000000000000000e+00 0.000000000000000e+00
0.000000000000000e+00 0.000000000000000e+00 0.000000000000000e+00
0.000000000000000e+00 0.000000000000000e+00 0.000000000000000e+00
0.000000000000000e+00 0.000000000000000e+00 0.000000000000000e+00
0.000000000000000e+00 0.000000000000000e+00 0.000000000000000e+00
0.000000000000000e+00 0.000000000000000e+00 0.000000000000000e+00
0.000000000000000e+00 0.000000000000000e+00 0.000000000000000e+00
0.000000000000000e+00 0.000000000000000e+00 0.000000000000000e+00
0.000000000000000e+00 0.000000000000000e+00 0.000000000000000e+00
0.000000000000000e+00 0.000000000000000e+00 0.000000000000000e+00
0.000000000000000e+00 0.000000000000000e+00 0.000000000000000e+00
0.000000000000000e+00 0.000000000000000e+00 0.000000000000000e+00
0.000000000000000e+00 0.000000000000000e+00 0.000000000000000e+00
0.000000000000000e+00 0.000000000000000e+00 0.000000000000000e+00
0.000000000000000e+00 0.000000000000000e+00 0.000000000000000e+00
0.000000000000000e+00 0.000000000000000e+00 0.000000000000000e+00
0.000000000000000e+00 0.000000000000000e+00 0.000000000000000e+00
0.000000000000000e+00 0.000000000000000e+00 0.000000000000000e+00
0.000000000000000e+00 0.000000000000000e+00 0.000000000000000e+00
0.000000000000000e+00 0.000000000000000e+00 0.000000000000000e+00
0.000000000000000e+00 0.000000000000000e+00 0.000000000000000e+00
0.000000000000000e+00 0.000000000000000e+00 0.000000000000000e+00
0.000000000000000e+00 0.000000000000000e+00 0.000000000000000e+00
0.000000000000000e+00 0.000000000000000e+00 0.000000000000000e+00
0.000000000000000e+00 0.000000000000000e+00 0.000000000000000e+00
0.000000000000000e+00 0.000000000000000e+00 0.000000000000000e+00
0.000000000000000e+00 0.000000000000000e+00 0.000000000000000e+00
0.000000000000000e+00 0.000000000000000e+00 0.000000000000000e+00
0.000000000000000e+00 0.000000000000000e+00 0.000000000000000e+00
0.000000000000000e+00 0.000000000000000e+00 0.000000000000000e+00
0.000000000000000e+00 0.000000000000000e+00 0.000000000000000e+00
0.000000000000000e+00 0.000000000000000e+00 0.000000000000000e+00
0.000000000000000e+00 0.000000000000000e+00 0.000000000000000e+00
0.000000000000000e+00 0.000000000000000e+00 0.000000000000000e+00
0.000000000000000e+00 0.000000000000000e+00 0.000000000000000e+00
0.000000000000000e+00 0.000000000000000e+00 0.000000000000000e+00
0.000000000000000e+00 0.000000000000000e+00 0.000000000000000e+00
0.000000000000000e+00 0.000000000000000e+00 0.000000000000000e+00
0.000000000000000e+00 0.000000000000000e+00 0.000000000000000e+00
0.000000000000000e+00 0.000000000000000e+00 0.000000000000000e+00
0.000000000000000e+00 0.000000000000000e+00 0.000000000000000e+00
0.000000000000000e+00 0.000000000000000e+00 0.000000000000000e+00
0.000000000000000e+00 0.000000000000000e+00 0.000000000000000e+00
0.000000000000000e+00 0.000000000000000e+00 0.000000000000000e+00
0.000000000000000e+00 0.000000000000000e+00 0.000000000000000e+00
0.000000000000000e+00 0.000000000000000e+00 0.000000000000000e+00
0.000000000000000e+00 0.000000000000000e+00 0.000000000000000e+00
0.000000000000000e+00 0.000000000000000e+00 0.000000000000000e+00
0.000000000000000e+00 0.000000000000000e+00 0.000000000000000e+00
0.000000000000000e+00 0.000000000000000e+00 0.000000000000000e+00
0.000000000000000e+00 0.000000000000000e+00 0.000000000000000e+00
0.000000000000000e+00 0.000000000000000e+00 0.000000000000000e+00
0.000000000000000e+00 0.000000000000000e+00 0.000000000000000e+00
0.000000000000000e+00 0.000000000000000e+00 0.000000000000000e+00
0.000000000000000e+00 0.000000000000000e+00 0.000000000000000e+00
0.000000000000000e+00 0.000000000000000e+00 0.000000000000000e+00
0.000000000000000e+00 0.000000000000000e+00 0.000000000000000e+00
0.000000000000000e+00 0.000000000000000e+00 0.000000000000000e+00
0.000000000000000e+00 0.000000000000000e+00 0.000000000000000e+00
0.000000000000000e+00 0.000000000000000e+00 0.000000000000000e+00
0.000000000000000e+00 0.000000000000000e+00 0.000000000000000e+00
0.000000000000000e+00 0.000000000000000e+00 0.000000000000000e+00
0.000000000000000e+00 0.000000000000000e+00 0.000000000000000e+00
0.000000000000000e+00 0.000000000000000e+00 0.000000000000000e+00
0.000000000000000e+00 0.000000000000000e+00 0.000000000000000e+00
0.000000000000000e+00 0.000000000000000e+00 0.000000000000000e+00
0.000000000000000e+00 0.000000000000000e+00 0.000000000000000e+00
0.000000000000000e+00 0.000000000000000e+00 0.000000000000000e+00
0.000000000000000e+00 0.000000000000000e+00 0.000000000000000e+00
0.000000000000000e+00 0.000000000000000e+00 0.000000000000000e+00
0.000000000000000e+00 0.000000000000000e+00 0.000000000000000e+00
0.000000000000000e+00 0.000000000000000e+00 0.000000000000000e+00
0.000000000000000e+00 0.000000000000000e+00 0.000000000000000e+00
0.000000000000000e+00 0.000000000000000e+00 0.000000000000000e+00
0.000000000000000e+00 0.000000000000000e+00 0.000000000000000e+00
0.000000000000000e+00 0.000000000000000e+00 0.000000000000000e+00
0.000000000000000e+00 0.000000000000000e+00 0.000000000000000e+00
0.000000000000000e+00 0.000000000000000e+00 0.000000000000000e+00
0.000000000000000e+00 0.000000000000000e+00 0.000000000000000e+00
0.000000000000000e+00 0.000000000000000e+00 0.000000000000000e+00
0.000000000000000e+00 0.000000000000000e+00 0.000000000000000e+00
0.000000000000000e+00 0.000000000000000e+00 0.000000000000000e+00
0.000000000000000e+00 0.000000000000000e+00 0.000000000000000e+00
0.000000000000000e+00 0.000000000000000e+00 0.000000000000000e+00
0.000000000000000e+00 0.000000000000000e+00 0.000000000000000e+00
0.000000000000000e+00 0.000000000000000e+00 0.000000000000000e+00
0.000000000000000e+00 0.000000000000000e+00 0.000000000000000e+00
0.000000000000000e+00 0.000000000000000e+00 0.000000000000000e+00
0.000000000000000e+00 0.000000000000000e+00 0.000000000000000e+00
0.000000000000000e+00 0.000000000000000e+00 0.000000000000000e+00
0.000000000000000e+00 0.000000000000000e+00 0.000000000000000e+00
0.000000000000000e+00 0.000000000000000e+00 0.000000000000000e+00
0.000000000000000e+00 0.000000000000000e+00 0.000000000000000e+00
0.000000000000000e+00 0.000000000000000e+00 0.000000000000000e+00
0.000000000000000e+00 0.000000000000000e+00 0.000000000000000e+00
0.000000000000000e+00 0.000000000000000e+00 0.000000000000000e+00
0.000000000000000e+00 0.000000000000000e+00 0.000000000000000e+00
0.000000000000000e+00 0.000000000000000e+00 0.000000000000000e+00
0.000000000000000e+00 0.000000000000000e+00 0.000000000000000e+00
0.000000000000000e+00 0.000000000000000e+00 0.000000000000000e+00
0.000000000000000e+00 0.000000000000000e+00 0.000000000000000e+00
0.000000000000000e+00 0.000000000000000e+00 0.000000000000000e+00
0.000000000000000e+00 0.000000000000000e+00 0.000000000000000e+00
0.000000000000000e+00 0.000000000000000e+00 0.000000000000000e+00
0.000000000000000e+00 0.000000000000000e+00 0.000000000000000e+00
0.000000000000000e+00 0.000000000000000e+00 0.000000000000000e+00
0.000000000000000e+00 0.000000000000000e+00 0.000000000000000e+00
0.000000000000000e+00 0.000000000000000e+00 0.000000000000000e+00
0.000000000000000e+00 0.000000000000000e+00 0.000000000000000e+00
0.000000000000000e+00 0.000000000000000e+00 0.000000000000000e+00
0.000000000000000e+00 0.000000000000000e+00 0.000000000000000e+00
0.000000000000000e+00 0.000000000000000e+00 0.000000000000000e+00
0.000000000000000e+00 0.000000000000000e+00 0.000000000000000e+00
0.000000000000000e+00 0.000000000000000e+00 0.000000000000000e+00
0.000000000000000e+00 0.000000000000000e+00 0.000000000000000e+00
0.000000000000000e+00 0.000000000000000e+00 0.000000000000000e+00
0.000000000000000e+00 0.000000000000000e+00 0.000000000000000e+00
0.000000000000000e+00 0.000000000000000e+00 0.000000000000000e+00
0.000000000000000e+00 0.000000000000000e+00 0.000000000000000e+00
0.000000000000000e+00 0.000000000000000e+00 0.000000000000000e+00
0.000000000000000e+00 0.000000000000000e+00 0.000000000000000e+00
0.000000000000000e+00 0.000000000000000e+00 0.000000000000000e+00
0.000000000000000e+00 0.000000000000000e+00 0.000000000000000e+00
0.000000000000000e+00 0.000000000000000e+00 0.000000000000000e+00
0.000000000000000e+00 0.000000000000000e+00 0.000000000000000e+00
0.000000000000000e+00 0.000000000000000e+00 0.000000000000000e+00
0.000000000000000e+00 0.000000000000000e+00 0.000000000000000e+00
0.000000000000000e+00 0.000000000000000e+00 0.000000000000000e+00
0.000000000000000e+00 0.000000000000000e+00 0.000000000000000e+00
0.000000000000000e+00 0.000000000000000e+00 0.000000000000000e+00
0.000000000000000e+00 0.000000000000000e+00 0.000000000000000e+00
0.000000000000000e+00 0.000000000000000e+00 0.000000000000000e+00
0.000000000000000e+00 0.000000000000000e+00 0.000000000000000e+00
0.000000000000000e+00 0.000000000000000e+00 0.000000000000000e+00
0.000000000000000e+00 0.000000000000000e+00 0.000000000000000e+00
0.000000000000000e+00 0.000000000000000e+00 0.000000000000000e+00
0.000000000000000e+00 0.000000000000000e+00 0.000000000000000e+00
0.000000000000000e+00 0.000000000000000e+00 0.000000000000000e+00
0.000000000000000e+00 0.000000000000000e+00 0.000000000000000e+00
0.000000000000000e+00 0.000000000000000e+00 0.000000000000000e+00
0.000000000000000e+00 0.000000000000000e+00 0.000000000000000e+00
0.000000000000000e+00 0.000000000000000e+00 0.000000000000000e+00
0.000000000000000e+00 0.000000000000000e+00 0.000000000000000e+00
0.000000000000000e+00 0.000000000000000e+00 0.000000000000000e+00
0.000000000000000e+00 0.000000000000000e+00 0.000000000000000e+00
0.000000000000000e+00 0.000000000000000e+00 0.000000000000000e+00
0.000000000000000e+00 0.000000000000000e+00 0.000000000000000e+00
0.000000000000000e+00 0.000000000000000e+00 0.000000000000000e+00
0.000000000000000e+00 0.000000000000000e+00 0.000000000000000e+00
0.000000000000000e+00 0.000000000000000e+00 0.000000000000000e+00
0.000000000000000e+00 0.000000000000000e+00 0.000000000000000e+00
0.000000000000000e+00 0.000000000000000e+00 0.000000000000000e+00
0.000000000000000e+00 0.000000000000000e+00 0.000000000000000e+00
0.000000000000000e+00 0.000000000000000e+00 0.000000000000000e+00
0.000000000000000e+00 0.000000000000000e+00 0.000000000000000e+00
0.000000000000000e+00 0.000000000000000e+00 0.000000000000000e+00
0.000000000000000e+00 0.000000000000000e+00 0.000000000000000e+00
0.000000000000000e+00 0.000000000000000e+00 0.000000000000000e+00
0.000000000000000e+00 0.000000000000000e+00 0.000000000000000e+00
0.000000000000000e+00 0.000000000000000e+00 0.000000000000000e+00
0.000000000000000e+00 0.000000000000000e+00 0.000000000000000e+00
0.000000000000000e+00 0.000000000000000e+00 0.000000000000000e+00
0.000000000000000e+00 0.000000000000000e+00 0.000000000000000e+00
0.000000000000000e+00 0.000000000000000e+00 0.000000000000000e+00
0.000000000000000e+00 0.000000000000000e+00 0.000000000000000e+00
0.000000000000000e+00 0.000000000000000e+00 0.000000000000000e+00
0.000000000000000e+00 0.000000000000000e+00 0.000000000000000e+00
0.000000000000000e+00 0.000000000000000e+00 0.000000000000000e+00
0.000000000000000e+00 0.000000000000000e+00 0.000000000000000e+00
0.000000000000000e+00 0.000000000000000e+00 0.000000000000000e+00
0.000000000000000e+00 0.000000000000000e+00 0.000000000000000e+00
0.000000000000000e+00 0.000000000000000e+00 0.000000000000000e+00
0.000000000000000e+00 0.000000000000000e+00 0.000000000000000e+00
0.000000000000000e+00 0.000000000000000e+00 0.000000000000000e+00
0.000000000000000e+00 0.000000000000000e+00 0.000000000000000e+00
0.000000000000000e+00 0.000000000000000e+00 0.000000000000000e+00
0.000000000000000e+00 0.000000000000000e+00 0.000000000000000e+00
0.000000000000000e+00 0.000000000000000e+00 0.000000000000000e+00
0.000000000000000e+00 0.000000000000000e+00 0.000000000000000e+00
0.000000000000000e+00 0.000000000000000e+00 0.000000000000000e+00
0.000000000000000e+00 0.000000000000000e+00 0.000000000000000e+00
0.000000000000000e+00 0.000000000000000e+00 0.000000000000000e+00
0.000000000000000e+00 0.000000000000000e+00 0.000000000000000e+00
0.000000000000000e+00 0.000000000000000e+00 0.000000000000000e+00
0.000000000000000e+00 0.000000000000000e+00 0.000000000000000e+00
0.000000000000000e+00 0.000000000000000e+00 0.000000000000000e+00
0.000000000000000e+00 0.000000000000000e+00 0.000000000000000e+00
0.000000000000000e+00 0.000000000000000e+00 0.000000000000000e+00
0.000000000000000e+00 0.000000000000000e+00 0.000000000000000e+00
0.000000000000000e+00 0.000000000000000e+00 0.000000000000000e+00
0.000000000000000e+00 0.000000000000000e+00 0.000000000000000e+00
0.000000000000000e+00 0.000000000000000e+00 0.000000000000000e+00
0.000000000000000e+00 0.000000000000000e+00 0.000000000000000e+00
0.000000000000000e+00 0.000000000000000e+00 0.000000000000000e+00
0.000000000000000e+00 0.000000000000000e+00 0.000000000000000e+00
0.000000000000000e+00 0.000000000000000e+00 0.000000000000000e+00
0.000000000000000e+00 0.000000000000000e+00 0.000000000000000e+00
0.000000000000000e+00 0.000000000000000e+00 0.000000000000000e+00
0.000000000000000e+00 0.000000000000000e+00 0.000000000000000e+00
0.000000000000000e+00 0.000000000000000e+00 0.000000000000000e+00
0.000000000000000e+00 0.000000000000000e+00 0.000000000000000e+00
0.000000000000000e+00 0.000000000000000e+00 0.000000000000000e+00
0.000000000000000e+00 0.000000000000000e+00 0.000000000000000e+00
0.000000000000000e+00 0.000000000000000e+00 0.000000000000000e+00
0.000000000000000e+00 0.000000000000000e+00 0.000000000000000e+00
0.000000000000000e+00 0.000000000000000e+00 0.000000000000000e+00
0.000000000000000e+00 0.000000000000000e+00 0.000000000000000e+00
0.000000000000000e+00 0.000000000000000e+00 0.000000000000000e+00
0.000000000000000e+00 0.000000000000000e+00 0.000000000000000e+00
0.000000000000000e+00 0.000000000000000e+00 0.000000000000000e+00
0.000000000000000e+00 0.000000000000000e+00 0.000000000000000e+00
0.000000000000000e+00 0.000000000000000e+00 0.000000000000000e+00
0.000000000000000e+00 0.000000000000000e+00 0.000000000000000e+00
0.000000000000000e+00 0.000000000000000e+00 0.000000000000000e+00
0.000000000000000e+00 0.000000000000000e+00 0.000000000000000e+00
0.000000000000000e+00 0.000000000000000e+00 0.000000000000000e+00
0.000000000000000e+00 0.000000000000000e+00 0.000000000000000e+00
0.000000000000000e+00 0.000000000000000e+00 0.000000000000000e+00
0.000000000000000e+00 0.000000000000000e+00 0.000000000000000e+00
0.000000000000000e+00 0.000000000000000e+00 0.000000000000000e+00
0.000000000000000e+00 0.000000000000000e+00 0.000000000000000e+00
0.000000000000000e+00 0.000000000000000e+00 0.000000000000000e+00
0.000000000000000e+00 0.000000000000000e+00 0.000000000000000e+00
0.000000000000000e+00 0.000000000000000e+00 0.000000000000000e+00
0.000000000000000e+00 0.000000000000000e+00 0.000000000000000e+00
0.000000000000000e+00 0.000000000000000e+00 0.000000000000000e+00
0.000000000000000e+00 0.000000000000000e+00 0.000000000000000e+00
0.000000000000000e+00 0.000000000000000e+00 0.000000000000000e+00
0.000000000000000e+00 0.000000000000000e+00 0.000000000000000e+00
0.000000000000000e+00 0.000000000000000e+00 0.000000000000000e+00
0.000000000000000e+00 0.000000000000000e+00 0.000000000000000e+00
0.000000000000000e+00 0.000000000000000e+00 0.000000000000000e+00
0.000000000000000e+00 0.000000000000000e+00 0.000000000000000e+00
0.000000000000000e+00 0.000000000000000e+00 0.000000000000000e+00
0.000000000000000e+00 0.000000000000000e+00 0.000000000000000e+00
0.000000000000000e+00 0.000000000000000e+00 0.000000000000000e+00
0.000000000000000e+00 0.000000000000000e+00 0.000000000000000e+00
0.000000000000000e+00 0.000000000000000e+00 0.000000000000000e+00
0.000000000000000e+00 0.000000000000000e+00 0.000000000000000e+00
0.000000000000000e+00 0.000000000000000e+00 0.000000000000000e+00
0.000000000000000e+00 0.000000000000000e+00 0.000000000000000e+00
0.000000000000000e+00 0.000000000000000e+00 0.000000000000000e+00
0.000000000000000e+00 0.000000000000000e+00 0.000000000000000e+00
0.000000000000000e+00 0.000000000000000e+00 0.000000000000000e+00
0.000000000000000e+00 0.000000000000000e+00 0.000000000000000e+00
0.000000000000000e+00 0.000000000000000e+00 0.000000000000000e+00
0.000000000000000e+00 0.000000000000000e+00 0.000000000000000e+00
0.000000000000000e+00 0.000000000000000e+00 0.000000000000000e+00
0.000000000000000e+00 0.000000000000000e+00 0.000000000000000e+00
0.000000000000000e+00 0.000000000000000e+00 0.000000000000000e+00
0.000000000000000e+00 0.000000000000000e+00 0.000000000000000e+00
0.000000000000000e+00 0.000000000000000e+00 0.000000000000000e+00
0.000000000000000e+00 0.000000000000000e+00 0.000000000000000e+00
0.000000000000000e+00 0.000000000000000e+00 0.000000000000000e+00
0.000000000000000e+00 0.000000000000000e+00 0.000000000000000e+00
0.000000000000000e+00 0.000000000000000e+00 0.000000000000000e+00
0.000000000000000e+00 0.000000000000000e+00 0.000000000000000e+00
0.000000000000000e+00 0.000000000000000e+00 0.000000000000000e+00
0.000000000000000e+00 0.000000000000000e+00 0.000000000000000e+00
0.000000000000000e+00 0.000000000000000e+00 0.000000000000000e+00
0.000000000000000e+00 0.000000000000000e+00 0.000000000000000e+00
0.000000000000000e+00 0.000000000000000e+00 0.000000000000000e+00
0.000000000000000e+00 0.000000000000000e+00 0.000000000000000e+00
0.000000000000000e+00 0.000000000000000e+00 0.000000000000000e+00
0.000000000000000e+00 0.000000000000000e+00 0.000000000000000e+00
0.000000000000000e+00 0.000000000000000e+00 0.000000000000000e+00
0.000000000000000e+00 0.000000000000000e+00 0.000000000000000e+00
0.000000000000000e+00 0.000000000000000e+00 0.000000000000000e+00
0.000000000000000e+00 0.000000000000000e+00 0.000000000000000e+00
0.000000000000000e+00 0.000000000000000e+00 0.000000000000000e+00
0.000000000000000e+00 0.000000000000000e+00 0.000000000000000e+00
0.000000000000000e+00 0.000000000000000e+00 0.000000000000000e+00
0.000000000000000e+00 0.000000000000000e+00 0.000000000000000e+00
0.000000000000000e+00 0.000000000000000e+00 0.000000000000000e+00
0.000000000000000e+00 0.000000000000000e+00 0.000000000000000e+00
0.000000000000000e+00 0.000000000000000e+00 0.000000000000000e+00
0.000000000000000e+00 0.000000000000000e+00 0.000000000000000e+00
0.000000000000000e+00 0.000000000000000e+00 0.000000000000000e+00
0.000000000000000e+00 0.000000000000000e+00 0.000000000000000e+00
0.000000000000000e+00 0.000000000000000e+00 0.000000000000000e+00
0.000000000000000e+00 0.000000000000000e+00 0.000000000000000e+00
0.000000000000000e+00 0.000000000000000e+00 0.000000000000000e+00
0.000000000000000e+00 0.000000000000000e+00 0.000000000000000e+00
0.000000000000000e+00 0.000000000000000e+00 0.000000000000000e+00
0.000000000000000e+00 0.000000000000000e+00 0.000000000000000e+00
0.000000000000000e+00 0.000000000000000e+00 0.000000000000000e+00
0.000000000000000e+00 0.000000000000000e+00 0.000000000000000e+00
0.000000000000000e+00 0.000000000000000e+00 0.000000000000000e+00
0.000000000000000e+00 0.000000000000000e+00 0.000000000000000e+00
0.000000000000000e+00 0.000000000000000e+00 0.000000000000000e+00
0.000000000000000e+00 0.000000000000000e+00 0.000000000000000e+00
0.000000000000000e+00 0.000000000000000e+00 0.000000000000000e+00
0.000000000000000e+00 0.000000000000000e+00 0.000000000000000e+00
0.000000000000000e+00 0.000000000000000e+00 0.000000000000000e+00
0.000000000000000e+00 0.000000000000000e+00 0.000000000000000e+00
0.000000000000000e+00 0.000000000000000e+00 0.000000000000000e+00
0.000000000000000e+00 0.000000000000000e+00 0.000000000000000e+00
0.000000000000000e+00 0.000000000000000e+00 0.000000000000000e+00
0.000000000000000e+00 0.000000000000000e+00 0.000000000000000e+00
0.000000000000000e+00 0.000000000000000e+00 0.000000000000000e+00
0.000000000000000e+00 0.000000000000000e+00 0.000000000000000e+00
0.000000000000000e+00 0.000000000000000e+00 0.000000000000000e+00
0.000000000000000e+00 0.000000000000000e+00 0.000000000000000e+00
0.000000000000000e+00 0.000000000000000e+00 0.000000000000000e+00
0.000000000000000e+00 0.000000000000000e+00 0.000000000000000e+00
0.000000000000000e+00 0.000000000000000e+00 0.000000000000000e+00
0.000000000000000e+00 0.000000000000000e+00 0.000000000000000e+00
0.000000000000000e+00 0.000000000000000e+00 0.000000000000000e+00
0.000000000000000e+00 0.000000000000000e+00 0.000000000000000e+00
0.000000000000000e+00 0.000000000000000e+00 0.000000000000000e+00
0.000000000000000e+00 0.000000000000000e+00 0.000000000000000e+00
0.000000000000000e+00 0.000000000000000e+00 0.000000000000000e+00
0.000000000000000e+00 0.000000000000000e+00 0.000000000000000e+00
0.000000000000000e+00 0.000000000000000e+00 0.000000000000000e+00
0.000000000000000e+00 0.000000000000000e+00 0.000000000000000e+00
0.000000000000000e+00 0.000000000000000e+00 0.000000000000000e+00
0.000000000000000e+00 0.000000000000000e+00 0.000000000000000e+00
0.000000000000000e+00 0.000000000000000e+00 0.000000000000000e+00
0.000000000000000e+00 0.000000000000000e+00 0.000000000000000e+00
0.000000000000000e+00 0.000000000000000e+00 0.000000000000000e+00
0.000000000000000e+00 0.000000000000000e+00 0.000000000000000e+00
0.000000000000000e+00 0.000000000000000e+00 0.000000000000000e+00
0.000000000000000e+00 0.000000000000000e+00 0.000000000000000e+00
0.000000000000000e+00 0.000000000000000e+00 0.000000000000000e+00
0.000000000000000e+00 0.000000000000000e+00 0.000000000000000e+00
0.000000000000000e+00 0.000000000000000e+00 0.000000000000000e+00
0.000000000000000e+00 0.000000000000000e+00 0.000000000000000e+00
0.000000000000000e+00 0.000000000000000e+00 0.000000000000000e+00
0.000000000000000e+00 0.000000000000000e+00 0.000000000000000e+00
0.000000000000000e+00 0.000000000000000e+00 0.000000000000000e+00
0.000000000000000e+00 0.000000000000000e+00 0.000000000000000e+00
0.000000000000000e+00 0.000000000000000e+00 0.000000000000000e+00
0.000000000000000e+00 0.000000000000000e+00 0.000000000000000e+00
0.000000000000000e+00 0.000000000000000e+00 0.000000000000000e+00
0.000000000000000e+00 0.000000000000000e+00 0.000000000000000e+00
0.000000000000000e+00 0.000000000000000e+00 0.000000000000000e+00
0.000000000000000e+00 0.000000000000000e+00 0.000000000000000e+00
0.000000000000000e+00 0.000000000000000e+00 0.000000000000000e+00
0.000000000000000e+00 0.000000000000000e+00 0.000000000000000e+00
0.000000000000000e+00 0.000000000000000e+00 0.000000000000000e+00
0.000000000000000e+00 0.000000000000000e+00 0.000000000000000e+00
0.000000000000000e+00 0.000000000000000e+00 0.000000000000000e+00
0.000000000000000e+00 0.000000000000000e+00 0.000000000000000e+00
0.000000000000000e+00 0.000000000000000e+00 0.000000000000000e+00
0.000000000000000e+00 0.000000000000000e+00 0.000000000000000e+00
0.000000000000000e+00 0.000000000000000e+00 0.000000000000000e+00
0.000000000000000e+00 0.000000000000000e+00 0.000000000000000e+00
0.000000000000000e+00 0.000000000000000e+00 0.000000000000000e+00
0.000000000000000e+00 0.000000000000000e+00 0.000000000000000e+00
0.000000000000000e+00 0.000000000000000e+00 0.000000000000000e+00
0.000000000000000e+00 0.000000000000000e+00 0.000000000000000e+00
0.000000000000000e+00 0.000000000000000e+00 0.000000000000000e+00
0.000000000000000e+00 0.000000000000000e+00 0.000000000000000e+00
0.000000000000000e+00 0.000000000000000e+00 0.000000000000000e+00
0.000000000000000e+00 0.000000000000000e+00 0.000000000000000e+00
0.000000000000000e+00 0.000000000000000e+00 0.000000000000000e+00
0.000000000000000e+00 0.000000000000000e+00 0.000000000000000e+00
0.000000000000000e+00 0.000000000000000e+00 0.000000000000000e+00
0.000000000000000e+00 0.000000000000000e+00 0.000000000000000e+00
0.000000000000000e+00 0.000000000000000e+00 0.000000000000000e+00
0.000000000000000e+00 0.000000000000000e+00 0.000000000000000e+00
0.000000000000000e+00 0.000000000000000e+00 0.000000000000000e+00
0.000000000000000e+00 0.000000000000000e+00 0.000000000000000e+00
0.000000000000000e+00 0.000000000000000e+00 0.000000000000000e+00
0.000000000000000e+00 0.000000000000000e+00 0.000000000000000e+00
0.000000000000000e+00 0.000000000000000e+00 0.000000000000000e+00
0.000000000000000e+00 0.000000000000000e+00 0.000000000000000e+00
0.000000000000000e+00 0.000000000000000e+00 0.000000000000000e+00
0.000000000000000e+00 0.000000000000000e+00 0.000000000000000e+00
0.000000000000000e+00 0.000000000000000e+00 0.000000000000000e+00
0.000000000000000e+00 0.000000000000000e+00 0.000000000000000e+00
0.000000000000000e+00 0.000000000000000e+00 0.000000000000000e+00
0.000000000000000e+00 0.000000000000000e+00 0.000000000000000e+00
0.000000000000000e+00 0.000000000000000e+00 0.000000000000000e+00
0.000000000000000e+00 0.000000000000000e+00 0.000000000000000e+00
0.000000000000000e+00 0.000000000000000e+00 0.000000000000000e+00
0.000000000000000e+00 0.000000000000000e+00 0.000000000000000e+00
0.000000000000000e+00 0.000000000000000e+00 0.000000000000000e+00
0.000000000000000e+00 0.000000000000000e+00 0.000000000000000e+00
0.000000000000000e+00 0.000000000000000e+00 0.000000000000000e+00
0.000000000000000e+00 0.000000000000000e+00 0.000000000000000e+00
0.000000000000000e+00 0.000000000000000e+00 0.000000000000000e+00
0.000000000000000e+00 0.000000000000000e+00 0.000000000000000e+00
0.000000000000000e+00 0.000000000000000e+00 0.000000000000000e+00
0.000000000000000e+00 0.000000000000000e+00 0.000000000000000e+00
0.000000000000000e+00 0.000000000000000e+00 0.000000000000000e+00
0.000000000000000e+00 0.000000000000000e+00 0.000000000000000e+00
0.000000000000000e+00 0.000000000000000e+00 0.000000000000000e+00
0.000000000000000e+00 0.000000000000000e+00 0.000000000000000e+00
0.000000000000000e+00 0.000000000000000e+00 0.000000000000000e+00
0.000000000000000e+00 0.000000000000000e+00 0.000000000000000e+00
0.000000000000000e+00 0.000000000000000e+00 0.000000000000000e+00
0.000000000000000e+00 0.000000000000000e+00 0.000000000000000e+00
0.000000000000000e+00 0.000000000000000e+00 0.000000000000000e+00
0.000000000000000e+00 0.000000000000000e+00 0.000000000000000e+00
0.000000000000000e+00 0.000000000000000e+00 0.000000000000000e+00
0.000000000000000e+00 0.000000000000000e+00 0.000000000000000e+00
0.000000000000000e+00 0.000000000000000e+00 0.000000000000000e+00
0.000000000000000e+00 0.000000000000000e+00 0.000000000000000e+00
0.000000000000000e+00 0.000000000000000e+00 0.000000000000000e+00
0.000000000000000e+00 0.000000000000000e+00 0.000000000000000e+00
0.000000000000000e+00 0.000000000000000e+00 0.000000000000000e+00
0.000000000000000e+00 0.000000000000000e+00 0.000000000000000e+00
0.000000000000000e+00 0.000000000000000e+00 0.000000000000000e+00
0.000000000000000e+00 0.000000000000000e+00 0.000000000000000e+00
0.000000000000000e+00 0.000000000000000e+00 0.000000000000000e+00
0.000000000000000e+00 0.000000000000000e+00 0.000000000000000e+00
0.000000000000000e+00 0.000000000000000e+00 0.000000000000000e+00
0.000000000000000e+00 0.000000000000000e+00 0.000000000000000e+00
0.000000000000000e+00 0.000000000000000e+00 0.000000000000000e+00
0.000000000000000e+00 0.000000000000000e+00 0.000000000000000e+00
0.000000000000000e+00 0.000000000000000e+00 0.000000000000000e+00
0.000000000000000e+00 0.000000000000000e+00 0.000000000000000e+00
0.000000000000000e+00 0.000000000000000e+00 0.000000000000000e+00
0.000000000000000e+00 0.000000000000000e+00 0.000000000000000e+00
0.000000000000000e+00 0.000000000000000e+00 0.000000000000000e+00
0.000000000000000e+00 0.000000000000000e+00 0.000000000000000e+00
0.000000000000000e+00 0.000000000000000e+00 0.000000000000000e+00
0.000000000000000e+00 0.000000000000000e+00 0.000000000000000e+00
0.000000000000000e+00 0.000000000000000e+00 0.000000000000000e+00
0.000000000000000e+00 0.000000000000000e+00 0.000000000000000e+00
0.000000000000000e+00 0.000000000000000e+00 0.000000000000000e+00
0.000000000000000e+00 0.000000000000000e+00 0.000000000000000e+00
0.000000000000000e+00 0.000000000000000e+00 0.000000000000000e+00
0.000000000000000e+00 0.000000000000000e+00 0.000000000000000e+00
0.000000000000000e+00 0.000000000000000e+00 0.000000000000000e+00
0.000000000000000e+00 0.000000000000000e+00 0.000000000000000e+00
0.000000000000000e+00 0.000000000000000e+00 0.000000000000000e+00
0.000000000000000e+00 0.000000000000000e+00 0.000000000000000e+00
0.000000000000000e+00 0.000000000000000e+00 0.000000000000000e+00
0.000000000000000e+00 0.000000000000000e+00 0.000000000000000e+00
0.000000000000000e+00 0.000000000000000e+00 0.000000000000000e+00
0.000000000000000e+00 0.000000000000000e+00 0.000000000000000e+00
0.000000000000000e+00 0.000000000000000e+00 0.000000000000000e+00
0.000000000000000e+00 0.000000000000000e+00 0.000000000000000e+00
0.000000000000000e+00 0.000000000000000e+00 0.000000000000000e+00
0.000000000000000e+00 0.000000000000000e+00 0.000000000000000e+00
0.000000000000000e+00 0.000000000000000e+00 0.000000000000000e+00
0.000000000000000e+00 0.000000000000000e+00 0.000000000000000e+00
0.000000000000000e+00 0.000000000000000e+00 0.000000000000000e+00
0.000000000000000e+00 0.000000000000000e+00 0.000000000000000e+00
0.000000000000000e+00 0.000000000000000e+00 0.000000000000000e+00
0.000000000000000e+00 0.000000000000000e+00 0.000000000000000e+00
0.000000000000000e+00 0.000000000000000e+00 0.000000000000000e+00
0.000000000000000e+00 0.000000000000000e+00 0.000000000000000e+00
0.000000000000000e+00 0.000000000000000e+00 0.000000000000000e+00
0.000000000000000e+00 0.000000000000000e+00 0.000000000000000e+00
0.000000000000000e+00 0.000000000000000e+00 0.000000000000000e+00
0.000000000000000e+00 0.000000000000000e+00 0.000000000000000e+00
0.000000000000000e+00 0.000000000000000e+00 0.000000000000000e+00
0.000000000000000e+00 0.000000000000000e+00 0.000000000000000e+00
0.000000000000000e+00 0.000000000000000e+00 0.000000000000000e+00
0.000000000000000e+00 0.000000000000000e+00 0.000000000000000e+00
0.000000000000000e+00 0.000000000000000e+00 0.000000000000000e+00
0.000000000000000e+00 0.000000000000000e+00 0.000000000000000e+00
0.000000000000000e+00 0.000000000000000e+00 0.000000000000000e+00
0.000000000000000e+00 0.000000000000000e+00 0.000000000000000e+00
0.000000000000000e+00 0.000000000000000e+00 0.000000000000000e+00
0.000000000000000e+00 0.000000000000000e+00 0.000000000000000e+00
0.000000000000000e+00 0.000000000000000e+00 0.000000000000000e+00
0.000000000000000e+00 0.000000000000000e+00 0.000000000000000e+00
0.000000000000000e+00 0.000000000000000e+00 0.000000000000000e+00
0.000000000000000e+00 0.000000000000000e+00 0.000000000000000e+00
0.000000000000000e+00 0.000000000000000e+00 0.000000000000000e+00
0.000000000000000e+00 0.000000000000000e+00 0.000000000000000e+00
0.000000000000000e+00 0.000000000000000e+00 0.000000000000000e+00
0.000000000000000e+00 0.000000000000000e+00 0.000000000000000e+00
0.000000000000000e+00 0.000000000000000e+00 0.000000000000000e+00
0.000000000000000e+00 0.000000000000000e+00 0.000000000000000e+00
0.000000000000000e+00 0.000000000000000e+00 0.000000000000000e+00
0.000000000000000e+00 0.000000000000000e+00 0.000000000000000e+00
0.000000000000000e+00 0.000000000000000e+00 0.000000000000000e+00
0.000000000000000e+00 0.000000000000000e+00 0.000000000000000e+00
0.000000000000000e+00 0.000000000000000e+00 0.000000000000000e+00
0.000000000000000e+00 0.000000000000000e+00 0.000000000000000e+00
0.000000000000000e+00 0.000000000000000e+00 0.000000000000000e+00
0.000000000000000e+00 0.000000000000000e+00 0.000000000000000e+00
0.000000000000000e+00 0.000000000000000e+00 0.000000000000000e+00
0.000000000000000e+00 0.000000000000000e+00 0.000000000000000e+00
0.000000000000000e+00 0.000000000000000e+00 0.000000000000000e+00
0.000000000000000e+00 0.000000000000000e+00 0.000000000000000e+00
0.000000000000000e+00 0.000000000000000e+00 0.000000000000000e+00
0.000000000000000e+00 0.000000000000000e+00 0.000000000000000e+00
0.000000000000000e+00 0.000000000000000e+00 0.000000000000000e+00
0.000000000000000e+00 0.000000000000000e+00 0.000000000000000e+00
0.000000000000000e+00 0.000000000000000e+00 0.000000000000000e+00
0.000000000000000e+00 0.000000000000000e+00 0.000000000000000e+00
0.000000000000000e+00 0.000000000000000e+00 0.000000000000000e+00
0.000000000000000e+00 0.000000000000000e+00 0.000000000000000e+00
0.000000000000000e+00 0.000000000000000e+00 0.000000000000000e+00
0.000000000000000e+00 0.000000000000000e+00 0.000000000000000e+00
0.000000000000000e+00 0.000000000000000e+00 0.000000000000000e+00
0.000000000000000e+00 0.000000000000000e+00 0.000000000000000e+00
0.000000000000000e+00 0.000000000000000e+00 0.000000000000000e+00
0.000000000000000e+00 0.000000000000000e+00 0.000000000000000e+00
0.000000000000000e+00 0.000000000000000e+00 0.000000000000000e+00
0.000000000000000e+00 0.000000000000000e+00 0.000000000000000e+00
0.000000000000000e+00 0.000000000000000e+00 0.000000000000000e+00
0.000000000000000e+00 0.000000000000000e+00 0.000000000000000e+00
0.000000000000000e+00 0.000000000000000e+00 0.000000000000000e+00
0.000000000000000e+00 0.000000000000000e+00 0.000000000000000e+00
0.000000000000000e+00 0.000000000000000e+00 0.000000000000000e+00
0.000000000000000e+00 0.000000000000000e+00 0.000000000000000e+00
0.000000000000000e+00 0.000000000000000e+00 0.000000000000000e+00
0.000000000000000e+00 0.000000000000000e+00 0.000000000000000e+00
0.000000000000000e+00 0.000000000000000e+00 0.000000000000000e+00
0.000000000000000e+00 0.000000000000000e+00 0.000000000000000e+00
0.000000000000000e+00 0.000000000000000e+00 0.000000000000000e+00
0.000000000000000e+00 0.000000000000000e+00 0.000000000000000e+00
0.000000000000000e+00 0.000000000000000e+00 0.000000000000000e+00
0.000000000000000e+00 0.000000000000000e+00 0.000000000000000e+00
0.000000000000000e+00 0.000000000000000e+00 0.000000000000000e+00
0.000000000000000e+00 0.000000000000000e+00 0.000000000000000e+00
0.000000000000000e+00 0.000000000000000e+00 0.000000000000000e+00
0.000000000000000e+00 0.000000000000000e+00 0.000000000000000e+00
0.000000000000000e+00 0.000000000000000e+00 0.000000000000000e+00
0.000000000000000e+00 0.000000000000000e+00 0.000000000000000e+00
0.000000000000000e+00 0.000000000000000e+00 0.000000000000000e+00
0.000000000000000e+00 0.000000000000000e+00 0.000000000000000e+00
0.000000000000000e+00 0.000000000000000e+00 0.000000000000000e+00
0.000000000000000e+00 0.000000000000000e+00 0.000000000000000e+00
0.000000000000000e+00 0.000000000000000e+00 0.000000000000000e+00
0.000000000000000e+00 0.000000000000000e+00 0.000000000000000e+00
0.000000000000000e+00 0.000000000000000e+00 0.000000000000000e+00
0.000000000000000e+00 0.000000000000000e+00 0.000000000000000e+00
0.000000000000000e+00 0.000000000000000e+00 0.000000000000000e+00
0.000000000000000e+00 0.000000000000000e+00 0.000000000000000e+00
0.000000000000000e+00 0.000000000000000e+00 0.000000000000000e+00
0.000000000000000e+00 0.000000000000000e+00 0.000000000000000e+00
0.000000000000000e+00 0.000000000000000e+00 0.000000000000000e+00
0.000000000000000e+00 0.000000000000000e+00 0.000000000000000e+00
0.000000000000000e+00 0.000000000000000e+00 0.000000000000000e+00
0.000000000000000e+00 0.000000000000000e+00 0.000000000000000e+00
0.000000000000000e+00 0.000000000000000e+00 0.000000000000000e+00
0.000000000000000e+00 0.000000000000000e+00 0.000000000000000e+00
0.000000000000000e+00 0.000000000000000e+00 0.000000000000000e+00
0.000000000000000e+00 0.000000000000000e+00 0.000000000000000e+00
0.000000000000000e+00 0.000000000000000e+00 0.000000000000000e+00
0.000000000000000e+00 0.000000000000000e+00 0.000000000000000e+00
0.000000000000000e+00 0.000000000000000e+00 0.000000000000000e+00
0.000000000000000e+00 0.000000000000000e+00 0.000000000000000e+00
0.000000000000000e+00 0.000000000000000e+00 0.000000000000000e+00
0.000000000000000e+00 0.000000000000000e+00 0.000000000000000e+00
0.000000000000000e+00 0.000000000000000e+00 0.000000000000000e+00
0.000000000000000e+00 0.000000000000000e+00 0.000000000000000e+00
0.000000000000000e+00 0.000000000000000e+00 0.000000000000000e+00
0.000000000000000e+00 0.000000000000000e+00 0.000000000000000e+00
0.000000000000000e+00 0.000000000000000e+00 0.000000000000000e+00
0.000000000000000e+00 0.000000000000000e+00 0.000000000000000e+00
0.000000000000000e+00 0.000000000000000e+00 0.000000000000000e+00
0.000000000000000e+00 0.000000000000000e+00 0.000000000000000e+00
0.000000000000000e+00 0.000000000000000e+00 0.000000000000000e+00
0.000000000000000e+00 0.000000000000000e+00 0.000000000000000e+00
0.000000000000000e+00 0.000000000000000e+00 0.000000000000000e+00
0.000000000000000e+00 0.000000000000000e+00 0.000000000000000e+00
0.000000000000000e+00 0.000000000000000e+00 0.000000000000000e+00
0.000000000000000e+00 0.000000000000000e+00 0.000000000000000e+00
0.000000000000000e+00 0.000000000000000e+00 0.000000000000000e+00
0.000000000000000e+00 0.000000000000000e+00 0.000000000000000e+00
0.000000000000000e+00 0.000000000000000e+00 0.000000000000000e+00
0.000000000000000e+00 0.000000000000000e+00 0.000000000000000e+00
0.000000000000000e+00 0.000000000000000e+00 0.000000000000000e+00
0.000000000000000e+00 0.000000000000000e+00 0.000000000000000e+00
0.000000000000000e+00 0.000000000000000e+00 0.000000000000000e+00
0.000000000000000e+00 0.000000000000000e+00 0.000000000000000e+00
0.000000000000000e+00 0.000000000000000e+00 0.000000000000000e+00
0.000000000000000e+00 0.000000000000000e+00 0.000000000000000e+00
0.000000000000000e+00 0.000000000000000e+00 0.000000000000000e+00
0.000000000000000e+00 0.000000000000000e+00 0.000000000000000e+00
0.000000000000000e+00 0.000000000000000e+00 0.000000000000000e+00
0.000000000000000e+00 0.000000000000000e+00 0.000000000000000e+00
0.000000000000000e+00 0.000000000000000e+00 0.000000000000000e+00
0.000000000000000e+00 0.000000000000000e+00 0.000000000000000e+00
0.000000000000000e+00 0.000000000000000e+00 0.000000000000000e+00
0.000000000000000e+00 0.000000000000000e+00 0.000000000000000e+00
0.000000000000000e+00 0.000000000000000e+00 0.000000000000000e+00
0.000000000000000e+00 0.000000000000000e+00 0.000000000000000e+00
0.000000000000000e+00 0.000000000000000e+00 0.000000000000000e+00
0.000000000000000e+00 0.000000000000000e+00 0.000000000000000e+00
0.000000000000000e+00 0.000000000000000e+00 0.000000000000000e+00
0.000000000000000e+00 0.000000000000000e+00 0.000000000000000e+00
0.000000000000000e+00 0.000000000000000e+00 0.000000000000000e+00
0.000000000000000e+00 0.000000000000000e+00 0.000000000000000e+00
0.000000000000000e+00 0.000000000000000e+00 0.000000000000000e+00
0.000000000000000e+00 0.000000000000000e+00 0.000000000000000e+00
0.000000000000000e+00 0.000000000000000e+00 0.000000000000000e+00
0.000000000000000e+00 0.000000000000000e+00 0.000000000000000e+00
0.000000000000000e+00 0.000000000000000e+00 0.000000000000000e+00
0.000000000000000e+00 0.000000000000000e+00 0.000000000000000e+00
0.000000000000000e+00 0.000000000000000e+00 0.000000000000000e+00
0.000000000000000e+00 0.000000000000000e+00 0.000000000000000e+00
0.000000000000000e+00 0.000000000000000e+00 0.000000000000000e+00
0.000000000000000e+00 0.000000000000000e+00 0.000000000000000e+00
0.000000000000000e+00 0.000000000000000e+00 0.000000000000000e+00
0.000000000000000e+00 0.000000000000000e+00 0.000000000000000e+00
0.000000000000000e+00 0.000000000000000e+00 0.000000000000000e+00
0.000000000000000e+00 0.000000000000000e+00 0.000000000000000e+00
0.000000000000000e+00 0.000000000000000e+00 0.000000000000000e+00
0.000000000000000e+00 0.000000000000000e+00 0.000000000000000e+00
0.000000000000000e+00 0.000000000000000e+00 0.000000000000000e+00
0.000000000000000e+00 0.000000000000000e+00 0.000000000000000e+00
0.000000000000000e+00 0.000000000000000e+00 0.000000000000000e+00
0.000000000000000e+00 0.000000000000000e+00 0.000000000000000e+00
0.000000000000000e+00 0.000000000000000e+00 0.000000000000000e+00
0.000000000000000e+00 0.000000000000000e+00 0.000000000000000e+00
0.000000000000000e+00 0.000000000000000e+00 0.000000000000000e+00
0.000000000000000e+00 0.000000000000000e+00 0.000000000000000e+00
0.000000000000000e+00 0.000000000000000e+00 0.000000000000000e+00
0.000000000000000e+00 0.000000000000000e+00 0.000000000000000e+00
0.000000000000000e+00 0.000000000000000e+00 0.000000000000000e+00
0.000000000000000e+00 0.000000000000000e+00 0.000000000000000e+00
0.000000000000000e+00 0.000000000000000e+00 0.000000000000000e+00
0.000000000000000e+00 0.000000000000000e+00 0.000000000000000e+00
0.000000000000000e+00 0.000000000000000e+00 0.000000000000000e+00
0.000000000000000e+00 0.000000000000000e+00 0.000000000000000e+00
0.000000000000000e+00 0.000000000000000e+00 0.000000000000000e+00
0.000000000000000e+00 0.000000000000000e+00 0.000000000000000e+00
0.000000000000000e+00 0.000000000000000e+00 0.000000000000000e+00
0.000000000000000e+00 0.000000000000000e+00 0.000000000000000e+00
0.000000000000000e+00 0.000000000000000e+00 0.000000000000000e+00
0.000000000000000e+00 0.000000000000000e+00 0.000000000000000e+00
0.000000000000000e+00 0.000000000000000e+00 0.000000000000000e+00
0.000000000000000e+00 0.000000000000000e+00 0.000000000000000e+00
0.000000000000000e+00 0.000000000000000e+00 0.000000000000000e+00
0.000000000000000e+00 0.000000000000000e+00 0.000000000000000e+00
0.000000000000000e+00 0.000000000000000e+00 0.000000000000000e+00
0.000000000000000e+00 0.000000000000000e+00 0.000000000000000e+00
0.000000000000000e+00 0.000000000000000e+00 0.000000000000000e+00
0.000000000000000e+00 0.000000000000000e+00 0.000000000000000e+00
0.000000000000000e+00 0.000000000000000e+00 0.000000000000000e+00
0.000000000000000e+00 0.000000000000000e+00 0.000000000000000e+00
0.000000000000000e+00 0.000000000000000e+00 0.000000000000000e+00
0.000000000000000e+00 0.000000000000000e+00 0.000000000000000e+00
0.000000000000000e+00 0.000000000000000e+00 0.000000000000000e+00
0.000000000000000e+00 0.000000000000000e+00 0.000000000000000e+00
0.000000000000000e+00 0.000000000000000e+00 0.000000000000000e+00
0.000000000000000e+00 0.000000000000000e+00 0.000000000000000e+00
0.000000000000000e+00 0.000000000000000e+00 0.000000000000000e+00
0.000000000000000e+00 0.000000000000000e+00 0.000000000000000e+00
0.000000000000000e+00 0.000000000000000e+00 0.000000000000000e+00
0.000000000000000e+00 0.000000000000000e+00 0.000000000000000e+00
0.000000000000000e+00 0.000000000000000e+00 0.000000000000000e+00
0.000000000000000e+00 0.000000000000000e+00 0.000000000000000e+00
0.000000000000000e+00 0.000000000000000e+00 0.000000000000000e+00
0.000000000000000e+00 0.000000000000000e+00 0.000000000000000e+00
0.000000000000000e+00 0.000000000000000e+00 0.000000000000000e+00
0.000000000000000e+00 0.000000000000000e+00 0.000000000000000e+00
0.000000000000000e+00 0.000000000000000e+00 0.000000000000000e+00
0.000000000000000e+00 0.000000000000000e+00 0.000000000000000e+00
0.000000000000000e+00 0.000000000000000e+00 0.000000000000000e+00
0.000000000000000e+00 0.000000000000000e+00 0.000000000000000e+00
0.000000000000000e+00 0.000000000000000e+00 0.000000000000000e+00
0.000000000000000e+00 0.000000000000000e+00 0.000000000000000e+00
0.000000000000000e+00 0.000000000000000e+00 0.000000000000000e+00
0.000000000000000e+00 0.000000000000000e+00 0.000000000000000e+00
0.000000000000000e+00 0.000000000000000e+00 0.000000000000000e+00
0.000000000000000e+00 0.000000000000000e+00 0.000000000000000e+00
0.000000000000000e+00 0.000000000000000e+00 0.000000000000000e+00
0.000000000000000e+00 0.000000000000000e+00 0.000000000000000e+00
0.000000000000000e+00 0.000000000000000e+00 0.000000000000000e+00
0.000000000000000e+00 0.000000000000000e+00 0.000000000000000e+00
0.000000000000000e+00 0.000000000000000e+00 0.000000000000000e+00
0.000000000000000e+00 0.000000000000000e+00 0.000000000000000e+00
0.000000000000000e+00 0.000000000000000e+00 0.000000000000000e+00
0.000000000000000e+00 0.000000000000000e+00 0.000000000000000e+00
0.000000000000000e+00 0.000000000000000e+00 0.000000000000000e+00
0.000000000000000e+00 0.000000000000000e+00 0.000000000000000e+00
0.000000000000000e+00 0.000000000000000e+00 0.000000000000000e+00
0.000000000000000e+00 0.000000000000000e+00 0.000000000000000e+00
0.000000000000000e+00 0.000000000000000e+00 0.000000000000000e+00
0.000000000000000e+00 0.000000000000000e+00 0.000000000000000e+00
0.000000000000000e+00 0.000000000000000e+00 0.000000000000000e+00
0.000000000000000e+00 0.000000000000000e+00 0.000000000000000e+00
0.000000000000000e+00 0.000000000000000e+00 0.000000000000000e+00
0.000000000000000e+00 0.000000000000000e+00 0.000000000000000e+00
0.000000000000000e+00 0.000000000000000e+00 0.000000000000000e+00
0.000000000000000e+00 0.000000000000000e+00 0.000000000000000e+00
0.000000000000000e+00 0.000000000000000e+00 0.000000000000000e+00
0.000000000000000e+00 0.000000000000000e+00 0.000000000000000e+00
0.000000000000000e+00 0.000000000000000e+00 0.000000000000000e+00
0.000000000000000e+00 0.000000000000000e+00 0.000000000000000e+00
0.000000000000000e+00 0.000000000000000e+00 0.000000000000000e+00
0.000000000000000e+00 0.000000000000000e+00 0.000000000000000e+00
0.000000000000000e+00 0.000000000000000e+00 0.000000000000000e+00
0.000000000000000e+00 0.000000000000000e+00 0.000000000000000e+00
0.000000000000000e+00 0.000000000000000e+00 0.000000000000000e+00
0.000000000000000e+00 0.000000000000000e+00 0.000000000000000e+00
0.000000000000000e+00 0.000000000000000e+00 0.000000000000000e+00
0.000000000000000e+00 0.000000000000000e+00 0.000000000000000e+00
0.000000000000000e+00 0.000000000000000e+00 0.000000000000000e+00
0.000000000000000e+00 0.000000000000000e+00 0.000000000000000e+00
0.000000000000000e+00 0.000000000000000e+00 0.000000000000000e+00
0.000000000000000e+00 0.000000000000000e+00 0.000000000000000e+00
0.000000000000000e+00 0.000000000000000e+00 0.000000000000000e+00
0.000000000000000e+00 0.000000000000000e+00 0.000000000000000e+00
0.000000000000000e+00 0.000000000000000e+00 0.000000000000000e+00
0.000000000000000e+00 0.000000000000000e+00 0.000000000000000e+00
0.000000000000000e+00 0.000000000000000e+00 0.000000000000000e+00
0.000000000000000e+00 0.000000000000000e+00 0.000000000000000e+00
0.000000000000000e+00 0.000000000000000e+00 0.000000000000000e+00
0.000000000000000e+00 0.000000000000000e+00 0.000000000000000e+00
0.000000000000000e+00 0.000000000000000e+00 0.000000000000000e+00
0.000000000000000e+00 0.000000000000000e+00 0.000000000000000e+00
0.000000000000000e+00 0.000000000000000e+00 0.000000000000000e+00
0.000000000000000e+00 0.000000000000000e+00 0.000000000000000e+00
0.000000000000000e+00 0.000000000000000e+00 0.000000000000000e+00
0.000000000000000e+00 0.000000000000000e+00 0.000000000000000e+00
0.000000000000000e+00 0.000000000000000e+00 0.000000000000000e+00
0.000000000000000e+00 0.000000000000000e+00 0.000000000000000e+00
0.000000000000000e+00 0.000000000000000e+00 0.000000000000000e+00
0.000000000000000e+00 0.000000000000000e+00 0.000000000000000e+00
0.000000000000000e+00 0.000000000000000e+00 0.000000000000000e+00
0.000000000000000e+00 0.000000000000000e+00 0.000000000000000e+00
0.000000000000000e+00 0.000000000000000e+00 0.000000000000000e+00
0.000000000000000e+00 0.000000000000000e+00 0.000000000000000e+00
0.000000000000000e+00 0.000000000000000e+00 0.000000000000000e+00
0.000000000000000e+00 0.000000000000000e+00 0.000000000000000e+00
0.000000000000000e+00 0.000000000000000e+00 0.000000000000000e+00
0.000000000000000e+00 0.000000000000000e+00 0.000000000000000e+00
0.000000000000000e+00 0.000000000000000e+00 0.000000000000000e+00
0.000000000000000e+00 0.000000000000000e+00 0.000000000000000e+00
0.000000000000000e+00 0.000000000000000e+00 0.000000000000000e+00
0.000000000000000e+00 0.000000000000000e+00 0.000000000000000e+00
0.000000000000000e+00 0.000000000000000e+00 0.000000000000000e+00
0.000000000000000e+00 0.000000000000000e+00 0.000000000000000e+00
0.000000000000000e+00 0.000000000000000e+00 0.000000000000000e+00
0.000000000000000e+00 0.000000000000000e+00 0.000000000000000e+00
0.000000000000000e+00 0.000000000000000e+00 0.000000000000000e+00
0.000000000000000e+00 0.000000000000000e+00 0.000000000000000e+00
0.000000000000000e+00 0.000000000000000e+00 0.000000000000000e+00
0.000000000000000e+00 0.000000000000000e+00 0.000000000000000e+00
0.000000000000000e+00 0.000000000000000e+00 0.000000000000000e+00
0.000000000000000e+00 0.000000000000000e+00 0.000000000000000e+00
0.000000000000000e+00 0.000000000000000e+00 0.000000000000000e+00
0.000000000000000e+00 0.000000000000000e+00 0.000000000000000e+00
0.000000000000000e+00 0.000000000000000e+00 0.000000000000000e+00
0.000000000000000e+00 0.000000000000000e+00 0.000000000000000e+00
0.000000000000000e+00 0.000000000000000e+00 0.000000000000000e+00
0.000000000000000e+00 0.000000000000000e+00 0.000000000000000e+00
0.000000000000000e+00 0.000000000000000e+00 0.000000000000000e+00
0.000000000000000e+00 0.000000000000000e+00 0.000000000000000e+00
0.000000000000000e+00 0.000000000000000e+00 0.000000000000000e+00
0.000000000000000e+00 0.000000000000000e+00 0.000000000000000e+00
0.000000000000000e+00 0.000000000000000e+00 0.000000000000000e+00
0.000000000000000e+00 0.000000000000000e+00 0.000000000000000e+00
0.000000000000000e+00 0.000000000000000e+00 0.000000000000000e+00
0.000000000000000e+00 0.000000000000000e+00 0.000000000000000e+00
0.000000000000000e+00 0.000000000000000e+00 0.000000000000000e+00
0.000000000000000e+00 0.000000000000000e+00 0.000000000000000e+00
0.000000000000000e+00 0.000000000000000e+00 0.000000000000000e+00
0.000000000000000e+00 0.000000000000000e+00 0.000000000000000e+00
0.000000000000000e+00 0.000000000000000e+00 0.000000000000000e+00
0.000000000000000e+00 0.000000000000000e+00 0.000000000000000e+00
0.000000000000000e+00 0.000000000000000e+00 0.000000000000000e+00
0.000000000000000e+00 0.000000000000000e+00 0.000000000000000e+00
0.000000000000000e+00 0.000000000000000e+00 0.000000000000000e+00
0.000000000000000e+00 0.000000000000000e+00 0.000000000000000e+00
0.000000000000000e+00 0.000000000000000e+00 0.000000000000000e+00
0.000000000000000e+00 0.000000000000000e+00 0.000000000000000e+00
0.000000000000000e+00 0.000000000000000e+00 0.000000000000000e+00
0.000000000000000e+00 0.000000000000000e+00 0.000000000000000e+00
0.000000000000000e+00 0.000000000000000e+00 0.000000000000000e+00
0.000000000000000e+00 0.000000000000000e+00 0.000000000000000e+00
0.000000000000000e+00 0.000000000000000e+00 0.000000000000000e+00
0.000000000000000e+00 0.000000000000000e+00 0.000000000000000e+00
0.000000000000000e+00 0.000000000000000e+00 0.000000000000000e+00
0.000000000000000e+00 0.000000000000000e+00 0.000000000000000e+00
0.000000000000000e+00 0.000000000000000e+00 0.000000000000000e+00
0.000000000000000e+00 0.000000000000000e+00 0.000000000000000e+00
0.000000000000000e+00 0.000000000000000e+00 0.000000000000000e+00
0.000000000000000e+00 0.000000000000000e+00 0.000000000000000e+00
0.000000000000000e+00 0.000000000000000e+00 0.000000000000000e+00
0.000000000000000e+00 0.000000000000000e+00 0.000000000000000e+00
0.000000000000000e+00 0.000000000000000e+00 0.000000000000000e+00
0.000000000000000e+00 0.000000000000000e+00 0.000000000000000e+00
0.000000000000000e+00 0.000000000000000e+00 0.000000000000000e+00
0.000000000000000e+00 0.000000000000000e+00 0.000000000000000e+00
0.000000000000000e+00 0.000000000000000e+00 0.000000000000000e+00
0.000000000000000e+00 0.000000000000000e+00 0.000000000000000e+00
0.000000000000000e+00 0.000000000000000e+00 0.000000000000000e+00
0.000000000000000e+00 0.000000000000000e+00 0.000000000000000e+00
0.000000000000000e+00 0.000000000000000e+00 0.000000000000000e+00
0.000000000000000e+00 0.000000000000000e+00 0.000000000000000e+00
0.000000000000000e+00 0.000000000000000e+00 0.000000000000000e+00
0.000000000000000e+00 0.000000000000000e+00 0.000000000000000e+00
0.000000000000000e+00 0.000000000000000e+00 0.000000000000000e+00
0.000000000000000e+00 0.000000000000000e+00 0.000000000000000e+00
0.000000000000000e+00 0.000000000000000e+00 0.000000000000000e+00
0.000000000000000e+00 0.000000000000000e+00 0.000000000000000e+00
0.000000000000000e+00 0.000000000000000e+00 0.000000000000000e+00
0.000000000000000e+00 0.000000000000000e+00 0.000000000000000e+00
0.000000000000000e+00 0.000000000000000e+00 0.000000000000000e+00
0.000000000000000e+00 0.000000000000000e+00 0.000000000000000e+00
0.000000000000000e+00 0.000000000000000e+00 0.000000000000000e+00
0.000000000000000e+00 0.000000000000000e+00 0.000000000000000e+00
0.000000000000000e+00 0.000000000000000e+00 0.000000000000000e+00
0.000000000000000e+00 0.000000000000000e+00 0.000000000000000e+00
0.000000000000000e+00 0.000000000000000e+00 0.000000000000000e+00
0.000000000000000e+00 0.000000000000000e+00 0.000000000000000e+00
0.000000000000000e+00 0.000000000000000e+00 0.000000000000000e+00
0.000000000000000e+00 0.000000000000000e+00 0.000000000000000e+00
0.000000000000000e+00 0.000000000000000e+00 0.000000000000000e+00
0.000000000000000e+00 0.000000000000000e+00 0.000000000000000e+00
0.000000000000000e+00 0.000000000000000e+00 0.000000000000000e+00
0.000000000000000e+00 0.000000000000000e+00 0.000000000000000e+00
0.000000000000000e+00 0.000000000000000e+00 0.000000000000000e+00
0.000000000000000e+00 0.000000000000000e+00 0.000000000000000e+00
0.000000000000000e+00 0.000000000000000e+00 0.000000000000000e+00
0.000000000000000e+00 0.000000000000000e+00 0.000000000000000e+00
0.000000000000000e+00 0.000000000000000e+00 0.000000000000000e+00
0.000000000000000e+00 0.000000000000000e+00 0.000000000000000e+00
0.000000000000000e+00 0.000000000000000e+00 0.000000000000000e+00
0.000000000000000e+00 0.000000000000000e+00 0.000000000000000e+00
0.000000000000000e+00 0.000000000000000e+00 0.000000000000000e+00
0.000000000000000e+00 0.000000000000000e+00 0.000000000000000e+00
0.000000000000000e+00 0.000000000000000e+00 0.000000000000000e+00
0.000000000000000e+00 0.000000000000000e+00 0.000000000000000e+00
0.000000000000000e+00 0.000000000000000e+00 0.000000000000000e+00
0.000000000000000e+00 0.000000000000000e+00 0.000000000000000e+00
0.000000000000000e+00 0.000000000000000e+00 0.000000000000000e+00
0.000000000000000e+00 0.000000000000000e+00 0.000000000000000e+00
0.000000000000000e+00 0.000000000000000e+00 0.000000000000000e+00
0.000000000000000e+00 0.000000000000000e+00 0.000000000000000e+00
0.000000000000000e+00 0.000000000000000e+00 0.000000000000000e+00
0.000000000000000e+00 0.000000000000000e+00 0.000000000000000e+00
0.000000000000000e+00 0.000000000000000e+00 0.000000000000000e+00
0.000000000000000e+00 0.000000000000000e+00 0.000000000000000e+00
0.000000000000000e+00 0.000000000000000e+00 0.000000000000000e+00
0.000000000000000e+00 0.000000000000000e+00 0.000000000000000e+00
0.000000000000000e+00 0.000000000000000e+00 0.000000000000000e+00
0.000000000000000e+00 0.000000000000000e+00 0.000000000000000e+00
0.000000000000000e+00 0.000000000000000e+00 0.000000000000000e+00
0.000000000000000e+00 0.000000000000000e+00 0.000000000000000e+00
0.000000000000000e+00 0.000000000000000e+00 0.000000000000000e+00
0.000000000000000e+00 0.000000000000000e+00 0.000000000000000e+00
0.000000000000000e+00 0.000000000000000e+00 0.000000000000000e+00
0.000000000000000e+00 0.000000000000000e+00 0.000000000000000e+00
0.000000000000000e+00 0.000000000000000e+00 0.000000000000000e+00
0.000000000000000e+00 0.000000000000000e+00 0.000000000000000e+00
0.000000000000000e+00 0.000000000000000e+00 0.000000000000000e+00
0.000000000000000e+00 0.000000000000000e+00 0.000000000000000e+00
0.000000000000000e+00 0.000000000000000e+00 0.000000000000000e+00
0.000000000000000e+00 0.000000000000000e+00 0.000000000000000e+00
0.000000000000000e+00 0.000000000000000e+00 0.000000000000000e+00
0.000000000000000e+00 0.000000000000000e+00 0.000000000000000e+00
0.000000000000000e+00 0.000000000000000e+00 0.000000000000000e+00
0.000000000000000e+00 0.000000000000000e+00 0.000000000000000e+00
0.000000000000000e+00 0.000000000000000e+00 0.000000000000000e+00
0.000000000000000e+00 0.000000000000000e+00 0.000000000000000e+00
0.000000000000000e+00 0.000000000000000e+00 0.000000000000000e+00
0.000000000000000e+00 0.000000000000000e+00 0.000000000000000e+00
0.000000000000000e+00 0.000000000000000e+00 0.000000000000000e+00
0.000000000000000e+00 0.000000000000000e+00 0.000000000000000e+00
0.000000000000000e+00 0.000000000000000e+00 0.000000000000000e+00
0.000000000000000e+00 0.000000000000000e+00 0.000000000000000e+00
0.000000000000000e+00 0.000000000000000e+00 0.000000000000000e+00
0.000000000000000e+00 0.000000000000000e+00 0.000000000000000e+00
0.000000000000000e+00 0.000000000000000e+00 0.000000000000000e+00
0.000000000000000e+00 0.000000000000000e+00 0.000000000000000e+00
0.000000000000000e+00 0.000000000000000e+00 0.000000000000000e+00
0.000000000000000e+00 0.000000000000000e+00 0.000000000000000e+00
0.000000000000000e+00 0.000000000000000e+00 0.000000000000000e+00
0.000000000000000e+00 0.000000000000000e+00 0.000000000000000e+00
0.000000000000000e+00 0.000000000000000e+00 0.000000000000000e+00
0.000000000000000e+00 0.000000000000000e+00 0.000000000000000e+00
0.000000000000000e+00 0.000000000000000e+00 0.000000000000000e+00
0.000000000000000e+00 0.000000000000000e+00 0.000000000000000e+00
0.000000000000000e+00 0.000000000000000e+00 0.000000000000000e+00
0.000000000000000e+00 0.000000000000000e+00 0.000000000000000e+00
0.000000000000000e+00 0.000000000000000e+00 0.000000000000000e+00
0.000000000000000e+00 0.000000000000000e+00 0.000000000000000e+00
0.000000000000000e+00 0.000000000000000e+00 0.000000000000000e+00
0.000000000000000e+00 0.000000000000000e+00 0.000000000000000e+00
0.000000000000000e+00 0.000000000000000e+00 0.000000000000000e+00
0.000000000000000e+00 0.000000000000000e+00 0.000000000000000e+00
0.000000000000000e+00 0.000000000000000e+00 0.000000000000000e+00
0.000000000000000e+00 0.000000000000000e+00 0.000000000000000e+00
0.000000000000000e+00 0.000000000000000e+00 0.000000000000000e+00
0.000000000000000e+00 0.000000000000000e+00 0.000000000000000e+00
0.000000000000000e+00 0.000000000000000e+00 0.000000000000000e+00
0.000000000000000e+00 0.000000000000000e+00 0.000000000000000e+00
0.000000000000000e+00 0.000000000000000e+00 0.000000000000000e+00
0.000000000000000e+00 0.000000000000000e+00 0.000000000000000e+00
0.000000000000000e+00 0.000000000000000e+00 0.000000000000000e+00
0.000000000000000e+00 0.000000000000000e+00 0.000000000000000e+00
0.000000000000000e+00 0.000000000000000e+00 0.000000000000000e+00
0.000000000000000e+00 0.000000000000000e+00 0.000000000000000e+00
0.000000000000000e+00 0.000000000000000e+00 0.000000000000000e+00
0.000000000000000e+00 0.000000000000000e+00 0.000000000000000e+00
0.000000000000000e+00 0.000000000000000e+00 0.000000000000000e+00
0.000000000000000e+00 0.000000000000000e+00 0.000000000000000e+00
0.000000000000000e+00 0.000000000000000e+00 0.000000000000000e+00
0.000000000000000e+00 0.000000000000000e+00 0.000000000000000e+00
0.000000000000000e+00 0.000000000000000e+00 0.000000000000000e+00
0.000000000000000e+00 0.000000000000000e+00 0.000000000000000e+00
0.000000000000000e+00 0.000000000000000e+00 0.000000000000000e+00
0.000000000000000e+00 0.000000000000000e+00 0.000000000000000e+00
0.000000000000000e+00 0.000000000000000e+00 0.000000000000000e+00
0.000000000000000e+00 0.000000000000000e+00 0.000000000000000e+00
0.000000000000000e+00 0.000000000000000e+00 0.000000000000000e+00
0.000000000000000e+00 0.000000000000000e+00 0.000000000000000e+00
0.000000000000000e+00 0.000000000000000e+00 0.000000000000000e+00
0.000000000000000e+00 0.000000000000000e+00 0.000000000000000e+00
0.000000000000000e+00 0.000000000000000e+00 0.000000000000000e+00
0.000000000000000e+00 0.000000000000000e+00 0.000000000000000e+00
0.000000000000000e+00 0.000000000000000e+00 0.000000000000000e+00
0.000000000000000e+00 0.000000000000000e+00 0.000000000000000e+00
0.000000000000000e+00 0.000000000000000e+00 0.000000000000000e+00
0.000000000000000e+00 0.000000000000000e+00 0.000000000000000e+00
0.000000000000000e+00 0.000000000000000e+00 0.000000000000000e+00
0.000000000000000e+00 0.000000000000000e+00 0.000000000000000e+00
0.000000000000000e+00 0.000000000000000e+00 0.000000000000000e+00
0.000000000000000e+00 0.000000000000000e+00 0.000000000000000e+00
0.000000000000000e+00 0.000000000000000e+00 0.000000000000000e+00
0.000000000000000e+00 0.000000000000000e+00 0.000000000000000e+00
0.000000000000000e+00 0.000000000000000e+00 0.000000000000000e+00
0.000000000000000e+00 0.000000000000000e+00 0.000000000000000e+00
0.000000000000000e+00 0.000000000000000e+00 0.000000000000000e+00
0.000000000000000e+00 0.000000000000000e+00 0.000000000000000e+00
0.000000000000000e+00 0.000000000000000e+00 0.000000000000000e+00
0.000000000000000e+00 0.000000000000000e+00 0.000000000000000e+00
0.000000000000000e+00 0.000000000000000e+00 0.000000000000000e+00
0.000000000000000e+00 0.000000000000000e+00 0.000000000000000e+00
0.000000000000000e+00 0.000000000000000e+00 0.000000000000000e+00
0.000000000000000e+00 0.000000000000000e+00 0.000000000000000e+00
0.000000000000000e+00 0.000000000000000e+00 0.000000000000000e+00
0.000000000000000e+00 0.000000000000000e+00 0.000000000000000e+00
0.000000000000000e+00 0.000000000000000e+00 0.000000000000000e+00
0.000000000000000e+00 0.000000000000000e+00 0.000000000000000e+00
0.000000000000000e+00 0.000000000000000e+00 0.000000000000000e+00
0.000000000000000e+00 0.000000000000000e+00 0.000000000000000e+00
0.000000000000000e+00 0.000000000000000e+00 0.000000000000000e+00
0.000000000000000e+00 0.000000000000000e+00 0.000000000000000e+00
0.000000000000000e+00 0.000000000000000e+00 0.000000000000000e+00
0.000000000000000e+00 0.000000000000000e+00 0.000000000000000e+00
0.000000000000000e+00 0.000000000000000e+00 0.000000000000000e+00
0.000000000000000e+00 0.000000000000000e+00 0.000000000000000e+00
0.000000000000000e+00 0.000000000000000e+00 0.000000000000000e+00
0.000000000000000e+00 0.000000000000000e+00 0.000000000000000e+00
0.000000000000000e+00 0.000000000000000e+00 0.000000000000000e+00
0.000000000000000e+00 0.000000000000000e+00 0.000000000000000e+00
0.000000000000000e+00 0.000000000000000e+00 0.000000000000000e+00
0.000000000000000e+00 0.000000000000000e+00 0.000000000000000e+00
0.000000000000000e+00 0.000000000000000e+00 0.000000000000000e+00
0.000000000000000e+00 0.000000000000000e+00 0.000000000000000e+00
0.000000000000000e+00 0.000000000000000e+00 0.000000000000000e+00
0.000000000000000e+00 0.000000000000000e+00 0.000000000000000e+00
0.000000000000000e+00 0.000000000000000e+00 0.000000000000000e+00
0.000000000000000e+00 0.000000000000000e+00 0.000000000000000e+00
0.000000000000000e+00 0.000000000000000e+00 0.000000000000000e+00
0.000000000000000e+00 0.000000000000000e+00 0.000000000000000e+00
0.000000000000000e+00 0.000000000000000e+00 0.000000000000000e+00
0.000000000000000e+00 0.000000000000000e+00 0.000000000000000e+00
0.000000000000000e+00 0.000000000000000e+00 0.000000000000000e+00
0.000000000000000e+00 0.000000000000000e+00 0.000000000000000e+00
0.000000000000000e+00 0.000000000000000e+00 0.000000000000000e+00
0.000000000000000e+00 0.000000000000000e+00 0.000000000000000e+00
0.000000000000000e+00 0.000000000000000e+00 0.000000000000000e+00
0.000000000000000e+00 0.000000000000000e+00 0.000000000000000e+00
0.000000000000000e+00 0.000000000000000e+00 0.000000000000000e+00
0.000000000000000e+00 0.000000000000000e+00 0.000000000000000e+00
0.000000000000000e+00 0.000000000000000e+00 0.000000000000000e+00
0.000000000000000e+00 0.000000000000000e+00 0.000000000000000e+00
0.000000000000000e+00 0.000000000000000e+00 0.000000000000000e+00
0.000000000000000e+00 0.000000000000000e+00 0.000000000000000e+00
0.000000000000000e+00 0.000000000000000e+00 0.000000000000000e+00
0.000000000000000e+00 0.000000000000000e+00 0.000000000000000e+00
0.000000000000000e+00 0.000000000000000e+00 0.000000000000000e+00
0.000000000000000e+00 0.000000000000000e+00 0.000000000000000e+00
0.000000000000000e+00 0.000000000000000e+00 0.000000000000000e+00
0.000000000000000e+00 0.000000000000000e+00 0.000000000000000e+00
0.000000000000000e+00 0.000000000000000e+00 0.000000000000000e+00
0.000000000000000e+00 0.000000000000000e+00 0.000000000000000e+00
0.000000000000000e+00 0.000000000000000e+00 0.000000000000000e+00
0.000000000000000e+00 0.000000000000000e+00 0.000000000000000e+00
0.000000000000000e+00 0.000000000000000e+00 0.000000000000000e+00
0.000000000000000e+00 0.000000000000000e+00 0.000000000000000e+00
0.000000000000000e+00 0.000000000000000e+00 0.000000000000000e+00
0.000000000000000e+00 0.000000000000000e+00 0.000000000000000e+00
0.000000000000000e+00 0.000000000000000e+00 0.000000000000000e+00
0.000000000000000e+00 0.000000000000000e+00 0.000000000000000e+00
0.000000000000000e+00 0.000000000000000e+00 0.000000000000000e+00
0.000000000000000e+00 0.000000000000000e+00 0.000000000000000e+00
0.000000000000000e+00 0.000000000000000e+00 0.000000000000000e+00
0.000000000000000e+00 0.000000000000000e+00 0.000000000000000e+00
0.000000000000000e+00 0.000000000000000e+00 0.000000000000000e+00
0.000000000000000e+00 0.000000000000000e+00 0.000000000000000e+00
0.000000000000000e+00 0.000000000000000e+00 0.000000000000000e+00
0.000000000000000e+00 0.000000000000000e+00 0.000000000000000e+00
0.000000000000000e+00 0.000000000000000e+00 0.000000000000000e+00
0.000000000000000e+00 0.000000000000000e+00 0.000000000000000e+00
0.000000000000000e+00 0.000000000000000e+00 0.000000000000000e+00
0.000000000000000e+00 0.000000000000000e+00 0.000000000000000e+00
0.000000000000000e+00 0.000000000000000e+00 0.000000000000000e+00
0.000000000000000e+00 0.000000000000000e+00 0.000000000000000e+00
0.000000000000000e+00 0.000000000000000e+00 0.000000000000000e+00
0.000000000000000e+00 0.000000000000000e+00 0.000000000000000e+00
0.000000000000000e+00 0.000000000000000e+00 0.000000000000000e+00
0.000000000000000e+00 0.000000000000000e+00 0.000000000000000e+00
0.000000000000000e+00 0.000000000000000e+00 0.000000000000000e+00
0.000000000000000e+00 0.000000000000000e+00 0.000000000000000e+00
0.000000000000000e+00 0.000000000000000e+00 0.000000000000000e+00
0.000000000000000e+00 0.000000000000000e+00 0.000000000000000e+00
0.000000000000000e+00 0.000000000000000e+00 0.000000000000000e+00
0.000000000000000e+00 0.000000000000000e+00 0.000000000000000e+00
0.000000000000000e+00 0.000000000000000e+00 0.000000000000000e+00
0.000000000000000e+00 0.000000000000000e+00 0.000000000000000e+00
0.000000000000000e+00 0.000000000000000e+00 0.000000000000000e+00
0.000000000000000e+00 0.000000000000000e+00 0.000000000000000e+00
0.000000000000000e+00 0.000000000000000e+00 0.000000000000000e+00
0.000000000000000e+00 0.000000000000000e+00 0.000000000000000e+00
0.000000000000000e+00 0.000000000000000e+00 0.000000000000000e+00
0.000000000000000e+00 0.000000000000000e+00 0.000000000000000e+00
0.000000000000000e+00 0.000000000000000e+00 0.000000000000000e+00
0.000000000000000e+00 0.000000000000000e+00 0.000000000000000e+00
0.000000000000000e+00 0.000000000000000e+00 0.000000000000000e+00
0.000000000000000e+00 0.000000000000000e+00 0.000000000000000e+00
0.000000000000000e+00 0.000000000000000e+00 0.000000000000000e+00
0.000000000000000e+00 0.000000000000000e+00 0.000000000000000e+00
0.000000000000000e+00 0.000000000000000e+00 0.000000000000000e+00
0.000000000000000e+00 0.000000000000000e+00 0.000000000000000e+00
0.000000000000000e+00 0.000000000000000e+00 0.000000000000000e+00
0.000000000000000e+00 0.000000000000000e+00 0.000000000000000e+00
0.000000000000000e+00 0.000000000000000e+00 0.000000000000000e+00
0.000000000000000e+00 0.000000000000000e+00 0.000000000000000e+00
0.000000000000000e+00 0.000000000000000e+00 0.000000000000000e+00
0.000000000000000e+00 0.000000000000000e+00 0.000000000000000e+00
0.000000000000000e+00 0.000000000000000e+00 0.000000000000000e+00
0.000000000000000e+00 0.000000000000000e+00 0.000000000000000e+00
0.000000000000000e+00 0.000000000000000e+00 0.000000000000000e+00
0.000000000000000e+00 0.000000000000000e+00 0.000000000000000e+00
0.000000000000000e+00 0.000000000000000e+00 0.000000000000000e+00
0.000000000000000e+00 0.000000000000000e+00 0.000000000000000e+00
0.000000000000000e+00 0.000000000000000e+00 0.000000000000000e+00
0.000000000000000e+00 0.000000000000000e+00 0.000000000000000e+00
0.000000000000000e+00 0.000000000000000e+00 0.000000000000000e+00
0.000000000000000e+00 0.000000000000000e+00 0.000000000000000e+00
0.000000000000000e+00 0.000000000000000e+00 0.000000000000000e+00
0.000000000000000e+00 0.000000000000000e+00 0.000000000000000e+00
0.000000000000000e+00 0.000000000000000e+00 0.000000000000000e+00
0.000000000000000e+00 0.000000000000000e+00 0.000000000000000e+00
0.000000000000000e+00 0.000000000000000e+00 0.000000000000000e+00
0.000000000000000e+00 0.000000000000000e+00 0.000000000000000e+00
0.000000000000000e+00 0.000000000000000e+00 0.000000000000000e+00
0.000000000000000e+00 0.000000000000000e+00 0.000000000000000e+00
0.000000000000000e+00 0.000000000000000e+00 0.000000000000000e+00
0.000000000000000e+00 0.000000000000000e+00 0.000000000000000e+00
0.000000000000000e+00 0.000000000000000e+00 0.000000000000000e+00
0.000000000000000e+00 0.000000000000000e+00 0.000000000000000e+00
0.000000000000000e+00 0.000000000000000e+00 0.000000000000000e+00
0.000000000000000e+00 0.000000000000000e+00 0.000000000000000e+00
0.000000000000000e+00 0.000000000000000e+00 0.000000000000000e+00
0.000000000000000e+00 0.000000000000000e+00 0.000000000000000e+00
0.000000000000000e+00 0.000000000000000e+00 0.000000000000000e+00
0.000000000000000e+00 0.000000000000000e+00 0.000000000000000e+00
0.000000000000000e+00 0.000000000000000e+00 0.000000000000000e+00
0.000000000000000e+00 0.000000000000000e+00 0.000000000000000e+00
0.000000000000000e+00 0.000000000000000e+00 0.000000000000000e+00
0.000000000000000e+00 0.000000000000000e+00 0.000000000000000e+00
0.000000000000000e+00 0.000000000000000e+00 0.000000000000000e+00
0.000000000000000e+00 0.000000000000000e+00 0.000000000000000e+00
0.000000000000000e+00 0.000000000000000e+00 0.000000000000000e+00
0.000000000000000e+00 0.000000000000000e+00 0.000000000000000e+00
0.000000000000000e+00 0.000000000000000e+00 0.000000000000000e+00
0.000000000000000e+00 0.000000000000000e+00 0.000000000000000e+00
0.000000000000000e+00 0.000000000000000e+00 0.000000000000000e+00
0.000000000000000e+00 0.000000000000000e+00 0.000000000000000e+00
0.000000000000000e+00 0.000000000000000e+00 0.000000000000000e+00
0.000000000000000e+00 0.000000000000000e+00 0.000000000000000e+00
0.000000000000000e+00 0.000000000000000e+00 0.000000000000000e+00
0.000000000000000e+00 0.000000000000000e+00 0.000000000000000e+00
0.000000000000000e+00 0.000000000000000e+00 0.000000000000000e+00
0.000000000000000e+00 0.000000000000000e+00 0.000000000000000e+00
0.000000000000000e+00 0.000000000000000e+00 0.000000000000000e+00
0.000000000000000e+00 0.000000000000000e+00 0.000000000000000e+00
0.000000000000000e+00 0.000000000000000e+00 0.000000000000000e+00
0.000000000000000e+00 0.000000000000000e+00 0.000000000000000e+00
0.000000000000000e+00 0.000000000000000e+00 0.000000000000000e+00
0.000000000000000e+00 0.000000000000000e+00 0.000000000000000e+00
0.000000000000000e+00 0.000000000000000e+00 0.000000000000000e+00
0.000000000000000e+00 0.000000000000000e+00 0.000000000000000e+00
0.000000000000000e+00 0.000000000000000e+00 0.000000000000000e+00
0.000000000000000e+00 0.000000000000000e+00 0.000000000000000e+00
0.000000000000000e+00 0.000000000000000e+00 0.000000000000000e+00
0.000000000000000e+00 0.000000000000000e+00 0.000000000000000e+00
0.000000000000000e+00 0.000000000000000e+00 0.000000000000000e+00
0.000000000000000e+00 0.000000000000000e+00 0.000000000000000e+00
0.000000000000000e+00 0.000000000000000e+00 0.000000000000000e+00
0.000000000000000e+00 0.000000000000000e+00 0.000000000000000e+00
0.000000000000000e+00 0.000000000000000e+00 0.000000000000000e+00
0.000000000000000e+00 0.000000000000000e+00 0.000000000000000e+00
0.000000000000000e+00 0.000000000000000e+00 0.000000000000000e+00
0.000000000000000e+00 0.000000000000000e+00 0.000000000000000e+00
0.000000000000000e+00 0.000000000000000e+00 0.000000000000000e+00
0.000000000000000e+00 0.000000000000000e+00 0.000000000000000e+00
0.000000000000000e+00 0.000000000000000e+00 0.000000000000000e+00
0.000000000000000e+00 0.000000000000000e+00 0.000000000000000e+00
0.000000000000000e+00 0.000000000000000e+00 0.000000000000000e+00
0.000000000000000e+00 0.000000000000000e+00 0.000000000000000e+00
0.000000000000000e+00 0.000000000000000e+00 0.000000000000000e+00
0.000000000000000e+00 0.000000000000000e+00 0.000000000000000e+00
0.000000000000000e+00 0.000000000000000e+00 0.000000000000000e+00
0.000000000000000e+00 0.000000000000000e+00 0.000000000000000e+00
0.000000000000000e+00 0.000000000000000e+00 0.000000000000000e+00
0.000000000000000e+00 0.000000000000000e+00 0.000000000000000e+00
0.000000000000000e+00 0.000000000000000e+00 0.000000000000000e+00
0.000000000000000e+00 0.000000000000000e+00 0.000000000000000e+00
0.000000000000000e+00 0.000000000000000e+00 0.000000000000000e+00
0.000000000000000e+00 0.000000000000000e+00 0.000000000000000e+00
0.000000000000000e+00 0.000000000000000e+00 0.000000000000000e+00
0.000000000000000e+00 0.000000000000000e+00 0.000000000000000e+00
0.000000000000000e+00 0.000000000000000e+00 0.000000000000000e+00
0.000000000000000e+00 0.000000000000000e+00 0.000000000000000e+00
0.000000000000000e+00 0.000000000000000e+00 0.000000000000000e+00
0.000000000000000e+00 0.000000000000000e+00 0.000000000000000e+00
0.000000000000000e+00 0.000000000000000e+00 0.000000000000000e+00
0.000000000000000e+00 0.000000000000000e+00 0.000000000000000e+00
0.000000000000000e+00 0.000000000000000e+00 0.000000000000000e+00
0.000000000000000e+00 0.000000000000000e+00 0.000000000000000e+00
0.000000000000000e+00 0.000000000000000e+00 0.000000000000000e+00
0.000000000000000e+00 0.000000000000000e+00 0.000000000000000e+00
0.000000000000000e+00 0.000000000000000e+00 0.000000000000000e+00
0.000000000000000e+00 0.000000000000000e+00 0.000000000000000e+00
0.000000000000000e+00 0.000000000000000e+00 0.000000000000000e+00
0.000000000000000e+00 0.000000000000000e+00 0.000000000000000e+00
0.000000000000000e+00 0.000000000000000e+00 0.000000000000000e+00
0.000000000000000e+00 0.000000000000000e+00 0.000000000000000e+00
0.000000000000000e+00 0.000000000000000e+00 0.000000000000000e+00
0.000000000000000e+00 0.000000000000000e+00 0.000000000000000e+00
0.000000000000000e+00 0.000000000000000e+00 0.000000000000000e+00
0.000000000000000e+00 0.000000000000000e+00 0.000000000000000e+00
0.000000000000000e+00 0.000000000000000e+00 0.000000000000000e+00
0.000000000000000e+00 0.000000000000000e+00 0.000000000000000e+00
0.000000000000000e+00 0.000000000000000e+00 0.000000000000000e+00
0.000000000000000e+00 0.000000000000000e+00 0.000000000000000e+00
0.000000000000000e+00 0.000000000000000e+00 0.000000000000000e+00
0.000000000000000e+00 0.000000000000000e+00 0.000000000000000e+00
0.000000000000000e+00 0.000000000000000e+00 0.000000000000000e+00
0.000000000000000e+00 0.000000000000000e+00 0.000000000000000e+00
0.000000000000000e+00 0.000000000000000e+00 0.000000000000000e+00
0.000000000000000e+00 0.000000000000000e+00 0.000000000000000e+00
0.000000000000000e+00 0.000000000000000e+00 0.000000000000000e+00
0.000000000000000e+00 0.000000000000000e+00 0.000000000000000e+00
0.000000000000000e+00 0.000000000000000e+00 0.000000000000000e+00
0.000000000000000e+00 0.000000000000000e+00 0.000000000000000e+00
0.000000000000000e+00 0.000000000000000e+00 0.000000000000000e+00
0.000000000000000e+00 0.000000000000000e+00 0.000000000000000e+00
0.000000000000000e+00 0.000000000000000e+00 0.000000000000000e+00
0.000000000000000e+00 0.000000000000000e+00 0.000000000000000e+00
0.000000000000000e+00 0.000000000000000e+00 0.000000000000000e+00
0.000000000000000e+00 0.000000000000000e+00 0.000000000000000e+00
0.000000000000000e+00 0.000000000000000e+00 0.000000000000000e+00
0.000000000000000e+00 0.000000000000000e+00 0.000000000000000e+00
0.000000000000000e+00 0.000000000000000e+00 0.000000000000000e+00
0.000000000000000e+00 0.000000000000000e+00 0.000000000000000e+00
0.000000000000000e+00 0.000000000000000e+00 0.000000000000000e+00
0.000000000000000e+00 0.000000000000000e+00 0.000000000000000e+00
0.000000000000000e+00 0.000000000000000e+00 0.000000000000000e+00
0.000000000000000e+00 0.000000000000000e+00 0.000000000000000e+00
0.000000000000000e+00 0.000000000000000e+00 0.000000000000000e+00
0.000000000000000e+00 0.000000000000000e+00 0.000000000000000e+00
0.000000000000000e+00 0.000000000000000e+00 0.000000000000000e+00
0.000000000000000e+00 0.000000000000000e+00 0.000000000000000e+00
0.000000000000000e+00 0.000000000000000e+00 0.000000000000000e+00
0.000000000000000e+00 0.000000000000000e+00 0.000000000000000e+00
0.000000000000000e+00 0.000000000000000e+00 0.000000000000000e+00
0.000000000000000e+00 0.000000000000000e+00 0.000000000000000e+00
0.000000000000000e+00 0.000000000000000e+00 0.000000000000000e+00
0.000000000000000e+00 0.000000000000000e+00 0.000000000000000e+00
0.000000000000000e+00 0.000000000000000e+00 0.000000000000000e+00
0.000000000000000e+00 0.000000000000000e+00 0.000000000000000e+00
0.000000000000000e+00 0.000000000000000e+00 0.000000000000000e+00
0.000000000000000e+00 0.000000000000000e+00 0.000000000000000e+00
0.000000000000000e+00 0.000000000000000e+00 0.000000000000000e+00
0.000000000000000e+00 0.000000000000000e+00 0.000000000000000e+00
0.000000000000000e+00 0.000000000000000e+00 0.000000000000000e+00
0.000000000000000e+00 0.000000000000000e+00 0.000000000000000e+00
0.000000000000000e+00 0.000000000000000e+00 0.000000000000000e+00
0.000000000000000e+00 0.000000000000000e+00 0.000000000000000e+00
0.000000000000000e+00 0.000000000000000e+00 0.000000000000000e+00
0.000000000000000e+00 0.000000000000000e+00 0.000000000000000e+00
0.000000000000000e+00 0.000000000000000e+00 0.000000000000000e+00
0.000000000000000e+00 0.000000000000000e+00 0.000000000000000e+00
0.000000000000000e+00 0.000000000000000e+00 0.000000000000000e+00
0.000000000000000e+00 0.000000000000000e+00 0.000000000000000e+00
0.000000000000000e+00 0.000000000000000e+00 0.000000000000000e+00
0.000000000000000e+00 0.000000000000000e+00 0.000000000000000e+00
0.000000000000000e+00 0.000000000000000e+00 0.000000000000000e+00
0.000000000000000e+00 0.000000000000000e+00 0.000000000000000e+00
0.000000000000000e+00 0.000000000000000e+00 0.000000000000000e+00
0.000000000000000e+00 0.000000000000000e+00 0.000000000000000e+00
0.000000000000000e+00 0.000000000000000e+00 0.000000000000000e+00
0.000000000000000e+00 0.000000000000000e+00 0.000000000000000e+00
0.000000000000000e+00 0.000000000000000e+00 0.000000000000000e+00
0.000000000000000e+00 0.000000000000000e+00 0.000000000000000e+00
0.000000000000000e+00 0.000000000000000e+00 0.000000000000000e+00
0.000000000000000e+00 0.000000000000000e+00 0.000000000000000e+00
0.000000000000000e+00 0.000000000000000e+00 0.000000000000000e+00
0.000000000000000e+00 0.000000000000000e+00 0.000000000000000e+00
0.000000000000000e+00 0.000000000000000e+00 0.000000000000000e+00
0.000000000000000e+00 0.000000000000000e+00 0.000000000000000e+00
-1.201401750253306e+01 -3.435693050574990e-01  2.173338220931895e-16
 3.594673247236181e-01  6.270818836344488e-03 -6.461580217357441e-18
-1.918449770552748e+01  4.434571972059205e+00  2.958474048046349e-16
 1.815007248170673e+01 -7.163779395886222e-01 -3.156416669014920e-16
 2.194502037614162e+01  3.091791132921941e+00 -4.223048452479562e-16
-2.412544530327608e+01 -2.205641987437252e+00  4.520032472200617e-16
-9.239890095355593e+00  3.064010606720443e-01  1.612867063986154e-16
 3.665281674884135e-01 -4.338141467938207e-03 -6.478233124640833e-18
 1.118858868893452e+01 -2.662321575555464e-02 -1.988407380741499e-16
 2.846269077072840e+01  4.655744469814040e+00 -5.543636169574227e-16
-9.311487429664012e+00 -4.209262601992403e-01  1.700338903700697e-16
-4.449417091663161e+00  1.268886253480005e-01  7.787895007249431e-17
 3.520123227723335e+00 -8.095246073438403e-03 -6.256161607782476e-17
 5.942138872629926e+00 -3.002900534067617e-02 -1.054389121581176e-16
-1.408792689345599e+00 -2.131525208604874e-01  2.726121108684481e-17
-6.374998234932786e+00 -1.420787447418405e-01  1.149105054539184e-16
-6.474639684773305e+00 -7.715050429146603e-03  1.153032057573734e-16
-1.341758133009178e+01  1.639810104535428e+00  2.219334117140408e-16
 5.454584061491800e+00  8.468170099148413e-02 -9.794090355402140e-17
 2.363365066069496e+00  5.110108573462041e-02 -4.258394556789093e-17
-9.720994516923410e+00 -5.057736366032416e-02  1.735163570887791e-16
 1.920627658238634e+01 -2.840826618002564e+00 -3.126101403516857e-16
 1.850050478937649e+01  1.871998780374116e+00 -3.484726583510043e-16
-1.755658697099039e+01 -1.667198267341078e+00  3.295702639550561e-16
-1.563475756146518e+01  6.807386559749367e-01  2.712448182229831e-16
 5.892725768837420e+00 -4.086727293513592e-01 -1.006691203190326e-16
-8.101012833372645e+00 -3.287550620428186e-01  1.475450254516231e-16
 2.182145664472734e+01 -5.907964723039114e+00 -3.276366592402681e-16
 2.724862408806678e+01  1.313701110100688e+01 -6.198997857317020e-16
-2.933687444916045e+01 -5.670765777945804e+00  5.803497334263176e-16
-1.508878099752194e+01  7.800237095100409e+00  1.883782538603213e-16
 2.123214369070779e+01  1.857981967220319e+00 -3.969414133396510e-16
-8.250005443851167e+00 -3.303685562731982e-01  1.502131046839375e-16
-1.248765208224733e+01 -5.191200208114728e-01  2.275664342463100e-16
 1.590036100767916e+01 -5.423899032127015e+00 -2.272372986449171e-16
 6.510606315632283e+00  1.279356875706854e+00 -1.290089326533659e-16
-2.727907586148119e-01  2.577297592675772e-02  4.589828981085063e-18
 1.767250800924423e-02 -2.658545299780844e-02 -4.134748527822299e-20
-3.539077579653770e+00  6.937028117614785e-01  5.585456267169586e-17
-9.567072248835022e-01 -6.664500044466992e-02  1.771049945322921e-17
 1.695142278145438e-02 -3.018169851220330e-02  8.435194347559109e-21
-1.971671576617872e+00 -3.646037739009267e-01  3.883441890617126e-17
 1.281094209923164e+00 -1.238091225278263e-01 -2.152650585018945e-17
 2.655225827901744e+00  4.325201065613854e-01 -5.169689783484110e-17
-2.464081796515455e+00  2.643936973720816e-01  4.113472563282294e-17
-1.626785152084669e+00 -1.843381086412349e-01  3.084458938370073e-17
-3.970961716963288e+00  7.587336974859682e-01  6.287228737257272e-17
 2.180718943183975e+00  3.484395039723217e-01 -4.238858417128320e-17
-1.500524963559783e+00  6.812362045630510e-02  2.600368615650710e-17
 2.290170867102528e+00  4.886468476085434e-01 -4.577699127099121e-17
-1.510067775325398e+00  8.889462780924237e-02  2.596009733258242e-17
 2.210890460065150e+00  1.392486018354959e-01 -4.077616178128224e-17
 3.128575472554536e+00 -2.995040239496504e-01 -5.259943741005073e-17
-3.218155622900054e+00 -2.774698194111583e-01  6.012181963624052e-17
-7.108633105874706e+00  9.653478350774972e-01  1.165880072814257e-16
 5.526581623281201e+00  3.004771110978597e-01 -1.014394054910527e-16
 1.219135280409427e+01 -6.831504423275344e-01 -2.099405428956523e-16
-1.032961150395638e+01 -1.011620061055832e+00  1.942217869529534e-16
-2.868551915956290e+01  7.420789835284566e+00  4.342471109662956e-16
 2.285407169071556e+01 -2.111750672179414e+00 -3.850179960855591e-16
 2.602461485833542e+01  1.645211583846321e+00 -4.800430160550454e-16
-1.344431866880929e+01 -2.878019548435344e+01  5.349637412202694e-16
-2.092750563150316e+01  1.798621935800538e+00  3.539497389873221e-16
 2.217873484872878e+00 -5.211746242617489e-03 -3.941615543504943e-17
 5.610633858538123e+00 -6.057964622239988e-02 -9.922548829230776e-17
-2.349969805121778e+00 -1.199314605138982e-01  4.305276802409903e-17
-4.167132279853351e+00  5.558273628039145e-02  7.358799723727060e-17
 1.966976943119028e+00 -6.064079308501676e-03 -3.494239478584370e-17
-2.620076654272665e-01  2.536356086577095e-04  4.660132933483649e-18
 1.083950142921050e+00 -3.387786419590166e-04 -1.928670496173074e-17
-2.391956560402152e+01 -7.595480482714008e-01  4.334812822849187e-16
 1.257848552163404e+00 -2.926297360693036e-02 -2.208424897818443e-17
 3.282092247785013e+00  3.281538406994536e-02 -5.874591271459229e-17
-1.546259097246547e+01 -2.655792868297895e-01  2.779039816032615e-16
-4.135369319805742e+00  1.067083675342347e-02  7.348419092044480e-17
-2.345620912083491e-01  2.871572625471374e-03  4.144807875523114e-18
 1.012555615363271e+00  4.221063534372427e-04 -1.802397196448442e-17
-1.875359260353058e+00  2.016916465390682e-02  3.316702418642724e-17
 5.612874570940294e-01 -5.413670223217324e-03 -9.933156342385942e-18
-1.150365955140782e+00  1.293584700793554e-03  2.045884329360398e-17
 2.382911177535333e-01 -3.537351504801738e-03 -4.204329693809514e-18
-1.512453405381638e+00 -6.935517100139065e-03  2.698717246052607e-17
 5.299419707281773e-01 -9.469220866213388e-03 -9.333656699056137e-18
 2.545077753253058e+00  5.753592813003509e-02 -4.588385532263935e-17
-7.125098327347084e-01  1.309706857249738e-02  1.254539476025448e-17
-1.465389076771261e+00 -5.205526841104587e-03  2.613183149705643e-17
-3.163768386311505e+01  7.398803644707401e+00  4.870103000697983e-16
-2.740131041153852e-01 -2.939858937618397e-05  4.876692097938966e-18
 2.237369778105098e+00 -6.085047618289353e-02 -3.919144749683621e-17
 1.719893982320374e+01  1.075537158625565e+00 -3.171264033735100e-16
-9.288562423259641e+00 -1.920341261842325e-01  1.672741290030714e-16
-1.334615200055370e+00  7.591221407252376e-02  2.297109903994680e-17
 3.426941028326702e+00 -4.715702949673953e-02 -6.050198205509239e-17
 1.044402824046212e+00 -6.576983667758995e-03 -1.851881794473786e-17
 1.832753816382970e-01 -1.710532685601343e-03 -3.244028934578613e-18
 8.291773561419730e-01 -1.557669612954589e-03 -1.474019563934850e-17
-3.894570017041908e-01  1.081199103054616e-03  6.919742963751448e-18
-1.235613755069530e+00  7.453405758123097e-03  2.191263961781729e-17
 1.945895355975648e+00 -3.029291662428190e-02 -3.431828026424151e-17
 1.606210868120393e+00 -5.815626763736154e-04 -2.857846302809544e-17
-5.338351856480865e-01  5.136308883228906e-05  9.499706214003943e-18
-3.068829821983459e-01  1.965564826143478e-03  5.441153266995039e-18
 2.409983076460529e+00 -7.080709110723300e-03 -4.281577184647328e-17
-1.179594595038399e+00 -5.031003854674552e-02  2.150921049136404e-17
 2.787572198235364e-01 -1.797823535720933e-03 -4.942345285325642e-18
 2.072187786534291e+00  1.717094625208558e-02 -3.705347868865397e-17
 2.299711142150152e+01 -3.276265087122993e-01 -4.058947863334370e-16
-5.623977181833252e+00 -2.213680606669787e-01  1.023598588982672e-16
-6.947500304525278e-01  9.455418654257237e-03  1.226675453197921e-17
 6.558185732754501e+00  2.969148955320438e-01 -1.197614307349182e-16
-4.823993881459622e+00  3.202071315575183e-02  8.551972418556418e-17
 4.344767916019252e+00 -1.472730304368149e-01 -7.580715082130253e-17
 1.618727121082524e+01 -2.076029262038235e-01 -2.859387554243780e-16
-1.880421250400223e+01 -4.922140482908158e+00  3.852165973739875e-16
-1.518970425661718e+01  9.872559535079810e-01  2.601752099011023e-16
 2.547275809238716e+01 -4.052574948590085e+00 -4.116793798799239e-16
 1.562758139155549e+01  9.526172454481330e-01 -2.878992482333860e-16
-6.784935000323671e+00 -5.252394698751178e-01  1.261426564543595e-16
-6.805603703853174e+00  3.564073546276854e-01  1.174518798288366e-16
 1.511870268020000e+01  1.735145123620707e-01 -2.708381470154128e-16
 1.581989423195172e+01  1.784214465180794e+00 -2.998660439950662e-16
-1.883043893996930e+01 -1.869101457590618e+00  3.543144611630578e-16
 2.430085777466851e+00 -4.164082251873888e-01 -3.896783189547958e-17
 1.205235377389718e+01  3.056067468591694e-01 -2.176260102840097e-16
 2.499334527528304e-01  2.460366759106961e-02 -4.700657663256968e-18
 8.380485975405445e+00  4.970542840812091e-01 -1.542477967392736e-16
-2.484957700197454e+00 -1.239206113191243e-01  4.549602570664350e-17
-1.510026942491946e+01 -1.231713950026527e+00  2.813827200606608e-16
-2.705186527970925e+01  1.809106162762033e+01  2.955411249746526e-16
 2.001834208365801e+01 -2.317798046256627e+00 -3.324357431813146e-16
 8.033634623613475e+00  1.707100354077603e-01 -1.447220945939325e-16
-1.414299678036716e+01 -5.395344983519343e-01  2.572350190822014e-16
-2.688960122243611e+01  4.173444824397675e+00  4.356518993772459e-16
 1.950041452873747e+01 -3.797000314320316e+00 -3.080203385874200e-16
 1.464279227273606e+01  3.436669724555559e+00 -2.958964880272000e-16
-1.269825793888882e+01  1.056337006911169e+00  2.151271680521788e-16
 2.844527243838226e+01 -1.581000954560549e+01 -3.437754490340433e-16
 6.264473920721961e+00  1.137741700614875e-01 -1.126527742345551e-16
 3.706954468212937e+00  6.311445264449182e-02 -6.661815466146443e-17
-7.361803567844383e+00 -1.803273641301486e-01  1.328648741256134e-16
-2.645143607157169e+00 -1.017367873149259e-03  4.708393882369469e-17
 1.829523995630076e+00 -3.277504701160424e-02 -3.222181007627501e-17
 1.676928525422217e+00  1.735787374011500e-02 -3.002128924084278e-17
-1.920082853463401e+01 -3.324437680990657e-01  3.451173866107779e-16
-1.774731652822112e+00 -5.357470502407661e-04  3.158897134013169e-17
-2.846116608655579e+00  3.503462823600952e-02  5.029007208299404e-17
 1.475021161127240e-01 -2.271797208154313e-04 -2.622641926337896e-18
-2.603528294415408e-01  5.479909483714903e-04  4.627658751212902e-18
-3.228908033885668e-01  9.936138835874744e-04  5.736017984436447e-18
-6.253693649334762e-01  2.144650717033282e-03  1.110715830480150e-17
 2.446406359117428e-01 -2.549485308849496e-03 -4.327476895996414e-18
-1.714394015453081e+00 -1.412705985876473e-02  3.065483691632055e-17
-5.745064581297927e+00  8.619464978736067e-02  1.013546584801267e-16
 4.070715559838912e+00 -1.423432018979831e-01 -7.098071441225866e-17
 6.266239700866030e+00  6.594800337315733e-02 -1.121928018976692e-16
-1.706928328509553e+01 -2.249402403964680e+00  3.268800495931641e-16
 2.814776249878739e+00 -4.369326139162975e-01 -4.560297705898890e-17
 1.273005505261657e+01 -6.999617962973399e-02 -2.258273293028760e-16
 3.513859150651002e+00  7.217522989941937e-02 -6.327488933640275e-17
-3.389482690772775e+00 -7.780479053021112e-02  6.111930356863016e-17
-2.668286478061642e+00 -2.370417036226165e-02  4.772889245963167e-17
-1.152407633004962e+00  2.655984949084244e-02  2.023557566582328e-17
 5.735385774581796e+00 -1.547221278339764e-02 -1.019090599000777e-16
-7.985136196990071e+00 -1.423083857133937e+00  1.567266931036032e-16
-5.841012718946454e+00  9.655866677294431e-02  1.029556835185183e-16
 2.880964478630150e+00 -2.216216576668284e-02 -5.104249123349302e-17
 2.775000551099718e+00  6.749284648439219e-02 -5.007790942670071e-17
-1.985595698818716e+00 -4.377958143670146e-02  3.578586325597676e-17
-3.831876423484739e+00 -3.013299798549320e-02  6.850241739112534e-17
 2.683423252585211e+00  3.128340046559101e-02 -4.807614326024577e-17
 5.115379113727930e+00  1.112459167079431e-01 -9.217728454855254e-17
 2.011957785226873e-01  1.010065715007014e+01 -1.073611018105192e-16
-7.763073241020828e+00  5.578759012416826e-01  1.324211762250628e-16
 1.554212705582042e+01 -1.278225430598520e+00 -2.634573883185565e-16
 1.486077481125537e+01  8.460368800919881e+00 -3.513924303885668e-16
-1.651970766461948e+01  2.250746403677148e-01  2.916753431462836e-16
-1.223857937170495e+01  9.116978536879187e-01  2.084327543698750e-16
 1.257832426788752e+01 -9.280978376111186e-01 -2.143104161994733e-16
 1.463278221168656e+01 -6.767363800033727e-02 -2.597124920249761e-16
-1.547135199578997e+01 -6.881752436667593e+00  3.460386700013619e-16
-1.888492515127253e+01 -5.110876906625244e-01  3.413310101774494e-16
-1.259795905689522e+01  4.693881915935210e-01  2.193729156509825e-16
 5.720283853458734e+00 -1.334624871312310e+00 -8.808648885782366e-17
 1.264455354325500e+01  4.648689276740566e-01 -2.298012726308719e-16
-8.573866851944073e+00 -5.866576025676039e-01  1.586098816573495e-16
-1.134929198655211e+01  2.946303382681459e-01  1.989469691311838e-16
-4.285777846635386e+00  1.838913842208007e-01  7.438111187130416e-17
 2.874473655899607e+00 -1.337850930916234e-01 -4.978009427008262e-17
 1.019474782632771e+01 -4.993626941903179e-01 -1.762969280237016e-16
 9.389024302303056e+00  2.884406978347368e-01 -1.700525104811658e-16
 1.346810305814806e+01  1.081509963552332e+00 -2.507930817734347e-16
-9.780826845874355e+00 -3.750900534806260e-01  1.779153947578667e-16
-1.213334810151814e+01  1.004249732902158e+00  2.056091014292228e-16
 5.669789056829802e+00 -8.163448131845882e-02 -1.000618948043870e-16
 2.076270163964173e+01  7.592693757880874e-01 -3.772982594648043e-16
-4.330715928300115e-01  2.195931982600610e-03  7.684463194484226e-18
 3.966611326848956e-01  6.393172594106801e-05 -7.059714884502564e-18
 1.155751451690645e-02  4.306274192860933e-06 -2.057235911689876e-19
 8.224183443986982e-01  4.336959673987698e-03 -1.468047614044189e-17
-2.431222772948943e+00 -7.218910682206751e-03  4.334068099504740e-17
 7.062445745143859e-01 -1.255959004060799e-04 -1.256717419528818e-17
-8.053985050347181e+00  1.241215437037184e-01  1.420549673402782e-16
 1.688644372648171e+01 -8.748882397347630e-01 -2.915252501430747e-16
 2.422630453442250e+00  4.177221793080649e-02 -4.354279310373788e-17
-1.137220078848332e+00 -4.185888461764998e-03  2.028119631133651e-17
 6.337454365752256e-01  1.546489685284613e-03 -1.129414562195276e-17
 5.793966316216799e-01  4.094322421246957e-03 -1.035312186463587e-17
-6.899097795536432e-01 -4.474266741242107e-03  1.232373894609634e-17
-3.437699789752215e+00 -8.566192859122787e-03  6.126598291915010e-17
-8.396763969696368e+00  2.740955711158259e-01  1.466141984364025e-16
 3.607185014471960e+00 -3.278758235626534e-02 -6.385727964937165e-17
-2.148017939762656e+00 -1.437757300413711e-01  3.970378489165609e-17
-4.440410427895600e+00  2.941485129401149e-01  7.600013115763526e-17
 6.574320651007378e+00  1.138236905150088e-01 -1.181673751918569e-16
-1.255612866212480e+00 -2.849293477896012e-02  2.263788325586223e-17
-9.796683002717964e+00  6.388886502342143e-03  1.742780164398115e-16
 5.001520959583229e+00 -1.801404195730010e-01 -8.715715413655923e-17
 1.580098560730730e+01  2.059600752692711e+00 -3.023590365810688e-16
-7.424594366427478e+00  4.268059314426693e-02  1.316909855371636e-16
-5.400058316051662e-01 -4.713203216115034e-03  9.658474367389352e-18
-6.481132461455217e-01 -5.423558481893065e-03  1.158967340683438e-17
-4.331705342188781e-01 -2.863533622514424e-03  7.738208128520319e-18
-3.844298549563908e-01 -3.853173678830174e-03  6.880977793280928e-18
 9.896698426356398e-01 -1.772274780851847e-03 -1.759414589372429e-17
-3.332532627983545e+00 -9.749628432174542e-02  6.030813223410747e-17
-3.187245875285490e+01  6.575431466716729e+00  4.996482527419777e-16
 2.862287922603065e+00 -1.111720237121789e-01 -4.979557565979106e-17
-3.324615952099254e+00 -1.664401497634628e-01  6.087561869857284e-17
-3.243589932937297e+00  1.209406448163677e-01  5.648093076010769e-17
 2.982957232029983e+00 -4.050826779239628e-02 -5.266907440688197e-17
 7.823963784951279e-01  6.725825734305332e-03 -1.399278224809600e-17
-8.841556801435883e-01  1.422802453595899e-02  1.558841720506277e-17
 1.103760323957397e+00  3.699716148493399e-03 -1.968074482593013e-17
 1.217159944254230e+00 -1.189410414306893e-02 -2.153860546910004e-17
-2.793360105753506e-01 -3.608220554223601e-03  5.008190667483984e-18
-1.254226583645547e+00  3.124868329508416e-03  2.228835126437312e-17
-2.363877197825124e-01  1.250725627214340e-03  4.193950696810006e-18
 3.146474080652307e-01 -1.598259419000022e-03 -5.583104413650935e-18
-4.620598051241493e-01  3.997987080392422e-03  8.181827531267535e-18
 5.144260459292963e+00 -1.048036860269745e-02 -9.144056918939515e-17
 7.288878806262779e+00  4.726709704770390e-01 -1.345708152465196e-16
-2.054086903567521e+00  2.725117040297318e-02  3.627493077524079e-17
-4.912490093954802e-01 -5.165741091949354e-04  8.747669719899662e-18
 4.532617067047384e-01 -1.081678559998066e-02 -7.955194200160129e-18
-8.275951654134132e-01 -5.810787711929744e-03  1.478774688195434e-17
-3.353389007936172e-01  1.423194721679716e-03  5.953132925717248e-18
-6.252341635954253e-01 -6.151068890022589e-03  1.118998770945389e-17
 8.118866523676639e-01 -3.857268855674826e-02 -1.405217133824706e-17
-9.437465507997588e-01 -1.358752654176718e-02  1.693470256347955e-17
-3.064344468583859e+00  2.373437417012526e-02  5.428980303065905e-17
 6.574590733672554e+00 -1.980571070274660e-01 -1.149677198540518e-16
 3.348545082111738e+00  3.105346985119554e-02 -5.991041711704070e-17
-1.577667743796724e+00 -1.959144338879545e-02  2.827777437051748e-17
-2.295232945898859e+00  3.179727106297190e-02  4.051970272603731e-17
-3.416471393724289e-01 -9.642000270092667e-04  6.089925173467982e-18
-1.969286860963257e-02 -2.239456472718056e-03  3.734676859847179e-19
 8.807975277744293e-02  5.707106102284489e-03 -1.626122687551622e-18
-1.789653971037611e+00  3.604768155822541e-03  3.181198950785367e-17
 6.821368425495836e-01  4.841425925073535e-03 -1.218918268945216e-17
-1.150254299354374e+00 -5.034745326773182e-03  2.052187751081159e-17
-2.756499199202281e+00 -1.096532118942463e-02  4.916785601296259e-17
 2.516026472333603e+00 -7.392245309220793e-02 -4.401616597267266e-17
 1.022429633572648e+01  4.924828940714144e-01 -1.870136321094265e-16
-7.130069225226049e+00 -2.009713444413816e-01  1.289529944753600e-16
 1.922901589830219e+00 -1.447445995246613e-01 -3.273312933741851e-17
-9.477899239988330e+00 -5.851855162560459e-01  1.746830912171381e-16
 2.188788571424591e+01 -1.068387342826732e+01 -2.797481167370971e-16
-8.603064322037588e+00 -7.139985994234076e-01  1.604378679528408e-16
-1.155577086247394e+01  4.663318660931551e+00  1.577348215419357e-16
 2.127351039348482e+01  3.390650932900154e+00 -4.134252000219865e-16
-2.239171693877077e+01 -2.078977049947159e+00  4.198480466988680e-16
-3.085361409972192e+01  1.020831039917607e+01  4.441901854570176e-16
 1.560167519499308e+01 -8.719677695277882e+00 -1.880588997327834e-16
 2.959219652731767e+01 -9.631690826410770e+00 -4.276663117351768e-16
 1.500126796528335e+01  1.574778149074410e+01 -4.287681917039731e-16
-3.216171900584744e+01  8.945564304930363e-01  5.631649112358991e-16
-1.835597417543183e+00 -1.582366892426901e+01  1.952490955348995e-16
 2.435877804263552e+01  5.763853101815492e+00 -4.927150082491468e-16
-1.536300028461106e+01 -3.344413476148541e+00  3.077655492312766e-16
-1.117847429736984e+01 -1.020201412618231e+00  2.094164831929786e-16
 7.804432705795303e+00 -2.229741183171569e-01 -1.365982113976600e-16
-3.894494828788666e-01 -3.750892707151218e-03  6.969257159916393e-18
-2.711467347867788e+01  9.115839759333964e-01  4.731717639205170e-16
 2.619395120911092e+01 -1.507524490224591e+01 -3.112599420803302e-16
 1.753046625525386e+01  4.617767575429895e+00 -3.594214424468835e-16
-2.257713114142572e+01 -1.114272435590647e+00  4.132357241202926e-16
-3.063090801256388e+01  5.173749209958415e+00  4.919551523012706e-16
 1.894159679376391e+01 -2.694845583759143e+00 -3.093997498632338e-16
 8.877434439687178e+00  1.215189720282675e+00 -1.704701681747803e-16
-9.060545680637455e+00 -1.129059565400296e-01  1.624032858859328e-16
-2.587542984511174e-01 -1.528282950582765e-02  4.761866912514667e-18
-2.749962726208837e+00 -2.665042458550129e-02  4.921269041853800e-17
-6.888913659199996e-01  1.084172145770928e-03  1.224850411884288e-17
 3.195396300633521e-02  3.215671113556883e-03 -6.016987368225765e-19
-3.103373587701867e-01 -1.356722844757244e-03  5.536763355784102e-18
-1.779638638507282e+00 -2.960193330163061e-02  3.197494148789397e-17
-4.771803954936098e+00  1.044203277685880e-01  8.384706245698511e-17
-1.226765544660711e-01  2.700682908859823e-03  2.155427082669132e-18
-5.981642527766982e+00  4.500165603702636e-02  1.059880882751343e-16
 1.324642837093739e+00 -1.987002108982941e-02 -2.336944212697348e-17
 8.944651136198321e+00  1.516089513130276e-01 -1.607384633791423e-16
-2.335059961071294e+01 -1.937326591535320e+00  4.354571006987477e-16
-6.482730218779640e+00  1.563614066729396e-01  1.137613604740743e-16
 4.682496257632681e+00 -1.690479931777053e-01 -8.159369968016286e-17
 9.121192527386727e+00  4.044783648463756e-01 -1.664783694554757e-16
-1.214619120239070e+01 -4.198355959525600e-01  2.204696191789854e-16
-1.712004075015354e+01  1.156476532875590e+00  2.927891704136962e-16
 1.668994047578328e+01 -1.464680487334146e+00 -2.819683393552723e-16
 1.212515106531855e+01  1.653118020792442e+00 -2.327667137476925e-16
-1.399453633024425e+01 -6.163623580446432e-02  2.496827572150300e-16
 1.712126510575012e+01 -4.371947140531413e+00 -2.597731672720563e-16
 8.160815957966360e+00  2.593716352773487e-01 -1.478964038765829e-16
-1.403921747508129e+01 -3.563715916977940e-01  2.535062101989403e-16
-5.512478680278086e+00  3.941334615893374e-02  9.769617582491344e-17
-2.438726413193591e+00  7.677422329986670e-02  4.261121828420457e-17
 9.438839644674221e+00 -1.766023375748003e-01 -1.661608856748928e-16
 2.171363074072097e+01  1.496964971597577e+00 -4.018007312601853e-16
-2.312942669930456e+01 -4.066273315475395e+00  4.533952190678301e-16
-2.374802725619639e+01  9.202273165657415e+00  3.280744588744983e-16
 2.064306828155905e+01  2.343228120222019e-01 -3.697756057763041e-16
 2.408175428230537e+00  1.171274319269697e-01 -4.405979613561672e-17
-5.425667288295826e+00  5.975429241002183e-03  9.649482601777711e-17
-2.966220633188389e+00  4.945118203520733e-02  5.227934144450612e-17
-1.010244668252515e+00  5.598137956813242e-03  1.792099009678469e-17
 1.383361505626126e+01 -3.368922029136476e-01 -2.427242355802595e-16
-1.191139776050862e+00  7.573333767654342e-04  2.118997183217926e-17
-6.880009061916438e+00  7.156022714268322e-04  1.224306155044295e-16
-2.279099554534569e+01  1.559161495343291e+00  3.895731339825942e-16
 6.011625316934438e+00 -3.049998467142237e-01 -1.038502808108574e-16
 1.442524983661233e+01  9.769893811113106e-01 -2.667527388378857e-16
-3.055352784452984e+00  2.380042047503039e-02  5.412910668047979e-17
 7.616689699492579e+00 -5.172196642856115e-02 -1.350166543046353e-16
-1.189547923003490e+01 -5.898163456383329e-01  2.177543910257600e-16
-3.571339954349574e+00  3.778146718857585e-01  5.967434603549142e-17
 6.287365033961933e+00 -1.484443644868441e-01 -1.103659486989374e-16
 5.993515186435346e+00  1.933398583379286e-02 -1.068604017482494e-16
-8.844594391923279e+00 -8.176063847734603e-01  1.658007160088593e-16
-5.071844295500738e+00  3.163235188566783e-01  8.700940993845773e-17
 4.071689983255371e+00 -6.313668563695549e-02 -7.181187363047220e-17
 1.768082884648799e+01 -5.677757189265266e-01 -3.088177505129775e-16
-2.454215185420165e+01 -8.856629988089539e+00  5.277555229754210e-16
-1.414082742545400e+01  3.904580970676625e+00  2.115347407956664e-16
 2.223877796671282e+01  3.856087461496430e+00 -4.353854791530218e-16
 2.048699330359624e+00 -1.980582460721006e-01 -3.442407182389728e-17
-3.863828333448566e+00 -8.718792687038091e-01  7.771967692393512e-17
-1.727181914265584e+00  3.216900377274035e-01  2.743201416201823e-17
 2.533329281601186e+00  4.267911112846177e-01 -4.946874000223294e-17
-4.131840088394959e-02 -1.542214908086583e-02  8.937672152106627e-19
 1.109545480760566e+00  1.543441503595795e-01 -2.133151542228248e-17
-5.437401212339142e+00  8.072977601523492e-01  8.847034930016940e-17
 5.552420528993314e+00  4.960370445660929e-01 -1.039085469514364e-16
-1.153379051434436e+00  9.239470880190999e-02  1.957643394186734e-17
-7.321400560850280e-02  4.215409705296094e-03  1.259618759251161e-18
-3.326037965379143e+00  1.427224432964774e-01  5.772439177434086e-17
 2.451673459754595e+00  8.389902132045084e-04 -4.363907400879914e-17
 4.826107026788712e+00 -8.497684572647397e-02 -8.501322512815411e-17
 2.086473714055850e+01  1.397268696146845e+00 -3.856693140308496e-16
-2.268219830994188e+01 -3.486765759890208e+00  4.394820267704351e-16
-1.551473102766500e+01  2.250638407197943e+00  2.529786532367033e-16
 1.948623186786844e+01 -2.347390020862552e+00 -3.226621603944083e-16
 1.822150349559903e+01  2.587578074877898e+00 -3.508598148061851e-16
-2.740539570835957e+01 -1.782836309342093e+00  5.060297023555012e-16
-1.023452118840114e+01  4.326384755747238e-01  1.776903095422909e-16
 2.414139801070839e+01 -3.476794435994746e+00 -3.939021746089321e-16
 5.307370728362177e+00  1.668678047944540e-01 -9.616549907566170e-17
-1.431917169977847e+00  1.492596027033605e-02  2.532931527078712e-17
 5.483644590841424e-01  6.039418262452629e-03 -9.820852493045913e-18
-7.327800652361965e+00  8.471548018503582e-02  1.295365327405839e-16
 3.678336224273225e+00 -4.868129711746768e-01 -6.045855435981934e-17
 2.660320514971279e+01  2.350834614968657e+00 -4.975897407757804e-16
-2.516485256713176e+01 -6.269206434197422e+00  5.122523878425414e-16
-2.132736338042480e+01  4.819831810459724e+00  3.300238505998664e-16
 1.870441366536170e+01 -2.832242095362685e+00 -3.037670939520246e-16
 2.151684828352412e+01  1.805477490898996e+00 -4.014686067689874e-16
-2.406607496960345e+01 -7.525026516662428e+00  5.056014249704572e-16
-1.721300553757082e+01  7.784835595839694e+00  2.263396081930195e-16
 1.442299651359928e+01  4.144533983062707e-01 -2.609327854393574e-16
 7.780587932421795e-01 -1.737795118725658e-02 -1.366793220189754e-17
 8.587656349779452e-01  1.375048345043670e-03 -1.529688697122678e-17
-1.328457523899466e+00  2.154818277177794e-02  2.342008652925792e-17
 3.130756969141066e+00 -4.436411572912755e-02 -5.525972959442181e-17
 1.817948356183700e+01  1.058045242031703e+00 -3.343966257768866e-16
-2.014582043930647e+00  5.053826996211428e-02  3.533262819993389e-17
 3.650029871097315e+00 -7.907359995162771e-03 -6.487539021553419e-17
 4.251198385262480e-01 -3.759958408105862e-03 -7.526882426590772e-18
 4.542880713599517e+00 -5.006746293932603e-02 -8.033155623918947e-17
 2.083367468699775e-01  1.902725720930285e-03 -3.727150757355202e-18
-1.398998345116561e+00 -4.772904512327698e-04  2.490174832391547e-17
-2.414019627337352e-01  1.068264536196671e-03  4.285059846053923e-18
-1.156710446383622e+00  9.580445775561837e-03  2.048660660514985e-17
 1.057886548033408e+01 -8.961223803236334e-02 -1.873427969388024e-16
-2.427493210932035e+01 -2.109044259630089e+00  4.536710366997227e-16
 5.698771291646176e+00  1.315272361468694e-01 -1.027678274674888e-16
-9.122000833942264e+00  7.527385763582285e-01  1.546027705312643e-16
 2.209052129897992e+01 -2.002552925481315e+00 -3.725516731990574e-16
 6.865256752899583e+00 -1.252434707106362e-01 -1.208886019345501e-16
 2.232755755901410e+00 -2.328637680638191e-02 -3.949529293417318e-17
 1.977498503558108e+00  7.101073085199501e-03 -3.526490564946663e-17
-1.812369016637559e+00  2.979283482577059e-02  3.194715796018420e-17
-1.200325216935038e+00  2.385140795520717e-02  2.111615455424422e-17
 3.447820038217024e-02 -7.309437971356183e-04 -6.060705200382971e-19
 1.565991244681270e-01 -2.846394436482794e-03 -2.757622547697612e-18
 2.588620571485778e+00 -5.705561726532075e-02 -4.548136516181526e-17
 1.210035205886204e+00 -1.050575177454112e-02 -2.142607709142251e-17
-7.732807121497456e-01  1.959399184976350e-02  1.356013152359179e-17
 1.982296692214026e-01 -4.340988933399687e-03 -3.483131334603121e-18
 2.214703541613112e+00 -6.009107464347409e-02 -3.879587735461053e-17
 2.494971824231680e+01  5.386236950763966e-01 -4.495441597982967e-16
-6.010258982534545e+00 -4.994739653171783e-02  1.074729192411910e-16
-2.987597018606558e+00  1.556829837959002e-01  5.156826659482112e-17
 2.616565460154031e+00 -6.160913951868392e-02 -4.593189199020176e-17
 5.324071502530344e+00 -8.384541539164005e-02 -9.388672198072064e-17
 9.612632495495125e+00  2.926349976343918e-01 -1.740749799000843e-16
-5.311907205734174e-01 -6.303294120342968e-04  9.459648900159917e-18
-8.188804393160277e+00 -1.910972165347966e-01  1.476929966220358e-16
-6.785731221059514e+00  1.211609782381765e+00  1.083113310266214e-16
 7.850388159011673e+00  1.979176479822717e-01 -1.417405535063036e-16
 9.437243330282948e-01 -1.669170467285410e-02 -1.662319901843479e-17
-1.582209330052733e+00 -2.250522936297300e-02  2.838853541570238e-17
 1.872524025129531e+00 -1.202292900712366e-01 -3.208848637496398e-17
 6.265908781537265e-01  1.897668730695466e-02 -1.134591066983417e-17
-1.017566390975698e+00  8.153893304996108e-02  1.727102484099109e-17
 2.674721134864810e-01 -2.822716570964315e-03 -4.730982924551822e-18
 9.253620088683620e+00 -9.155188569576707e-01 -1.552725839235853e-16
 2.614255205024374e+01  4.262318145072384e+00 -5.090316682611336e-16
-3.040299602706985e+01 -1.735173436842725e+00  5.588858570130198e-16
-1.415732712445285e+01  9.601934809274957e-01  2.420808844366365e-16
 2.060250235367216e+01 -2.728306843919665e+00 -3.386137432354533e-16
 2.184932828301091e+00  4.516143347756812e-01 -4.352365920571301e-17
-1.555359024182577e+01  8.085949925835864e-02  2.759638893720190e-16
 3.457045955771774e+00 -1.173482491766739e-01 -6.031654586561006e-17
 1.314915822043915e+00 -1.202174412248913e-03 -2.338814363048877e-17
 3.363437646024665e+00 -1.700980712793051e-02 -5.968161537857762e-17
-2.592854226127420e+00 -8.045172855323297e-02  4.696954611156094e-17
-3.939641506092834e+00  9.750320951863482e-02  6.910880987479512e-17
 2.560464271202561e+01 -5.744197275197920e-01 -4.497632053539063e-16
-1.471344350973219e+01 -1.332153057287874e+01  3.987171647888842e-16
-2.554220935725085e+01  4.502138624711317e-01  4.499282994744919e-16
 2.548976775641874e+00 -1.144556494051097e-01 -4.418609216870839e-17
 3.733306238757212e+00  5.130293118178808e-02 -6.696575676873085e-17
-3.297703023896292e+00  2.149470908157613e-03  5.866447392630759e-17
-7.774383002245320e-01  2.155936643925654e-03  1.381329045696600e-17
 1.379974638707580e-01 -3.746766986195119e-04 -2.451979815359559e-18
 5.624014570958924e-01 -2.876205735538348e-04 -1.000564959561951e-17
-1.168838668132728e+00 -1.291389210059885e-02  2.093356388339720e-17
-9.740485681593255e-01  2.826603305287268e-03  1.730531383108600e-17
-4.342835993314393e+00 -6.248502842777844e-02  7.792795776975636e-17
 1.015935429391887e+01 -3.457503246664425e-01 -1.772453692395241e-16
 1.642769115941350e+01  6.486760051755186e+00 -3.589994589762869e-16
-1.498130475262010e+01  4.169510948651221e-01  2.623261673872159e-16
-1.377609749476643e+01  1.571054328112213e-01  2.435478864518774e-16
 8.474919488098955e+00 -5.769968665951295e-01 -1.448928683483837e-16
 1.045698592693935e+01 -7.945205832632657e-02 -1.852781970672585e-16
-2.885730295448792e+01 -1.504185025321634e+01  6.680996752156026e-16
-1.821870720023074e+01  6.027376777660313e-02  3.236043356178585e-16
 2.286432180405146e+00 -6.309907648201468e-02 -4.004146791922211e-17
 7.478500239434013e-01 -4.483429302341223e-03 -1.326281763688082e-17
 8.127088632689461e-02  2.963690380532958e-04 -1.449357442553559e-18
-6.385612046573664e-01 -3.592786411159183e-04  1.136764979570946e-17
-1.236285876558993e+00  8.826920972888588e-03  2.191048845742121e-17
 2.015637389057208e+00 -1.073052396520723e-02 -3.576041944285259e-17
-1.376604800018664e-01 -1.328298174148533e-03  2.463480231734880e-18
-2.910687275450206e+00  5.745068782552676e-02  5.120886710195736e-17
 1.326449434654308e+00 -7.637757130410391e-03 -2.352727475394327e-17
 1.437696108980677e+00 -4.194806084932169e-03 -2.554241710074716e-17
 1.828578423029684e+00  7.511868191953195e-03 -3.261891597007854e-17
-1.079241565298738e+00 -1.531820560235740e-02  1.936378003746153e-17
-6.965509610648078e-01 -8.766646694415315e-05  1.239685596940680e-17
 2.000987068366158e-01 -9.184120512135229e-04 -3.551558826361274e-18
 1.120001487887944e+00  3.070842964063914e-03 -1.996331428148879e-17
-7.204635977061546e-03 -3.946515769545335e-05  1.286205804160072e-19
-2.730692891830989e+00 -7.515045213526888e-03  4.867315160335959e-17
-9.037267134732783e-01  6.279467722234311e-03  1.601837562037726e-17
 2.288795957137531e+00 -1.135787619673635e-02 -4.061515617997590e-17
 3.460369539189643e+00  2.054864529670421e-02 -6.179253349606529e-17
-3.449946978569552e+00 -1.685220531863426e-01  6.312742460211290e-17
-1.095468180591166e+01  3.073687935879437e-01  1.917935272621365e-16
 5.587382751614040e+00 -2.484304181524278e-01 -9.688160863757550e-17
 1.914504570771438e+01  5.235346248937556e-01 -3.460880534079980e-16
-2.145807469316989e+01 -2.951963999205320e+00  4.122023928954305e-16
-1.171908891982369e+01  1.349790101973806e-03  2.085412977385793e-16
-2.013899299902955e+00  5.939082015069164e-02  3.522952120048229e-17
 5.764213220908727e+00 -8.763955525590282e-03 -1.024910035993324e-16
 1.115692406912146e+00  3.537349583935454e-03 -1.989142221351394e-17
-2.897935849719392e-01 -1.148642915710924e-03  5.169024404173404e-18
-5.866730998535602e-01 -7.077324192107705e-04  1.044781931111427e-17
-2.897981389913649e-01  1.237697814766359e-03  5.144586673546231e-18
 6.706301191956378e-01  1.927553245256643e-03 -1.195446785165753e-17
 5.315937476039117e-02  3.097917048048575e-06 -9.460663157245156e-19
 1.539902002014064e+00 -2.486485324400663e-04 -2.740183818460474e-17
-1.087396570316866e+00 -1.207339588374271e-02  1.947556881915537e-17
-3.644379643299603e+00  2.855166465993611e-02  6.456272491725230e-17
-1.179850279585479e-01  1.022644211548909e-03  2.089177016730746e-18
 2.230223282996738e+00 -9.543956290288017e-03 -3.959142293609605e-17
 1.183527816210225e+00  1.243248751706446e-02 -2.119002854641412e-17
-1.186489112148732e+00 -5.360018234983621e-03  2.117006128635168e-17
-1.902849213368586e+00  1.811005050773136e-03  3.384486412154004e-17
-1.811543802263147e+00  4.631587779247348e-02  3.176270409054506e-17
 6.369275430680950e+00 -4.123443626545344e-02 -1.129251849818841e-16
 2.741272613415876e+00  2.310819874278601e-02 -4.902164440730960e-17
-6.819118496312252e-01 -7.066513593464992e-03  1.220804063502851e-17
-1.474418514725544e+00  1.182066515076738e-03  2.622689091540689e-17
 1.383795631186772e+00 -3.194980402322342e-03 -2.459346664747049e-17
 8.583425651277604e-01  3.355867417674708e-03 -1.530971012961753e-17
 8.850437019052967e-02  3.104856326267684e-04 -1.578230959701744e-18
-9.741941723423514e-01 -4.155565648229805e-03  1.737964430588860e-17
 1.071286153914975e-01  6.980198160455212e-05 -1.907198688444196e-18
 2.890416957498579e+00 -1.465268844091440e-02 -5.128786652419438e-17
 9.335011044031605e-01  7.163768955011587e-03 -1.668637079416262e-17
 2.317452892243487e+00 -2.064875116777042e-02 -4.102968016608633e-17
 1.087367269028477e+00  1.254873972531906e-02 -1.947993133895959e-17
 1.112962588430732e+00 -5.060615003319327e-03 -1.975450087309078e-17
 9.573377014967757e-01  1.334156810110532e-02 -1.717404610489049e-17
 1.783195199601381e-01  4.290936808366420e-04 -3.177817338935738e-18
 5.167534718607526e-01  6.418530801573663e-03 -9.262192502823082e-18
-7.522905937168679e+00 -2.154599035459388e-02  1.341004620227964e-16
-9.928464889248850e-01  4.744560503622982e-03  1.762013894116194e-17
 2.279466129772346e+00 -4.126730290427710e-03 -4.052341816973099e-17
 1.912445715533276e+00  2.216659227984871e-02 -3.426200643945473e-17
-1.691419111610482e+00 -2.034743064305320e-02  3.030988314776496e-17
-2.097140478468802e+00 -2.462256197452875e-03  3.734641516124196e-17
 5.952790137038303e-02 -7.049683622174721e-04 -1.052126718576460e-18
 5.813194095724759e-01 -2.632935252352530e-04 -1.034256707090983e-17
 2.056059925259665e+00  3.446577095740035e-02 -3.694416213447468e-17
-1.584934656706863e+00 -8.200942666951287e-03  2.829006449768308e-17
-1.155740428610634e+01  1.424753535273472e-01  2.042139130543675e-16
 2.299374160471654e+00 -2.937339279464336e-02 -4.061830503819216e-17
 1.587427611949420e+00  2.003799468713359e-02 -2.845605102612430e-17
-8.107410357547618e-01 -3.960679874127057e-03  1.446879836317547e-17
-8.668193940032737e-01 -2.606018715193518e-03  1.545286099136479e-17
-1.553849749535745e+00  7.590271987535297e-04  2.764481106332813e-17
 3.133962200144496e+00 -6.332767101661284e-02 -5.512192685837735e-17
 1.232701658873370e+00  3.078325905720488e-02 -2.225368322507458e-17
-2.012369841439234e+00  1.032811246278632e-02  3.570640414843300e-17
-1.123318794936674e+00 -6.679895239777712e-03  2.005943139733642e-17
-7.347806391101373e-02 -4.541440740145583e-04  1.312295959899268e-18
-1.855578915911501e+01 -9.962279414236355e-01  3.404582816650336e-16
 1.503990884234817e-01 -1.606181146814172e-03 -2.660028252942918e-18
 9.058468387050803e+00  1.481824635102273e-01 -1.627287712907562e-16
-8.782329026435683e-02  8.330281171582528e-04  1.554361146606303e-18
-6.623987581063580e+00 -2.911280576248382e-02  1.181808838820887e-16
-4.758534605858879e+00  3.020260962188050e-01  8.158059105307553e-17
 1.002113900045833e+01 -3.484483084413751e-02 -1.779801041816433e-16
-1.076154923670249e+01 -1.028709369889644e+00  2.020842205825987e-16
-5.618874829857702e+00  6.797623844998937e-01  9.301026847092907e-17
 1.589450086837465e+00  3.536239152178960e-02 -2.864949599457309e-17
 3.802787459838478e+00 -3.150090886181960e-01 -6.443853511939998e-17
-1.384066288315532e+00 -5.446181623416869e-02  2.519068594491542e-17
 1.706486798104173e+00 -1.233254695289563e-01 -2.910184373518976e-17
-6.821347123452667e-01 -4.887062444179237e-02  1.264152878326872e-17
 6.314694446594189e+00 -1.737938931635125e+00 -9.452082895989025e-17
-1.421023201338975e-01  1.167852172830145e-02  2.408887725139781e-18
 8.082698340497669e-01 -6.139770325165051e-02 -1.375328673991269e-17
-6.209311871318668e-01 -3.004112452133026e-02  1.135887279715086e-17
 1.263890504809342e+00 -1.155657294045127e-01 -2.130504326341749e-17
-1.005747559572091e+01 -2.816766693747655e+00  2.079260298562448e-16
 1.440903558367920e+00 -1.084677561192262e-01 -2.452813079660019e-17
 2.744439967505730e+00  2.109434417068315e-01 -5.100795013485413e-17
 6.449572366643598e+00 -7.362707504696412e-01 -1.072129191218844e-16
 3.125525889990338e+00  3.063219210212371e-01 -5.876980794232725e-17
-2.194821803616690e+01 -5.747384679283005e-01  3.964999496978004e-16
 1.424782848606367e+01 -8.018182117347470e+00 -1.711731948553409e-16
 2.172433378255829e+01  2.411335220951562e+00 -4.113860268078581e-16
-1.990367295177109e+01 -3.885070573036850e+00  3.941272909405368e-16
-1.298004089697979e+01  2.820492023476645e+01 -5.879999844165793e-17
 2.628573750042943e+01  1.268997384940218e+00 -4.808245407181317e-16
 4.223024423362380e+00  7.581459206537326e-02 -7.593272441064121e-17
-1.635175666014585e+00 -3.295494263003883e-02  2.943850154882170e-17
-4.452716703526603e+00  1.458151440363969e-02  7.909158536783952e-17
 4.717469241718105e-01  7.719469827932198e-04 -8.403230721052460e-18
 1.550969603579577e+01  1.298437557907993e-01 -2.773476394109425e-16
-3.136026400565565e-02 -4.090666718519916e-04  5.622963194919822e-19
-9.318914166115025e-02 -3.200651883244633e-04  1.661700498086775e-18
 4.491304938847911e-01  3.771899874323870e-03 -8.031567781659442e-18
-9.363562494750953e-01 -7.204566779137210e-03  1.673760069769553e-17
 1.561670194233576e+00 -1.343902002769735e-02 -2.765370303536810e-17
 7.026472319541656e-01  7.113065434133512e-03 -1.257752980430127e-17
 3.047009046409058e-02  2.710185470793087e-04 -5.450362146750277e-19
 7.159299754933092e-01  6.568344396014925e-03 -1.280831526939847e-17
-8.347127373983104e-02 -5.111300130599285e-04  1.490722592159134e-18
-3.094395490121935e+00 -4.375401963718799e-02  5.551801552338656e-17
 2.660589297508209e+00 -1.412724424123777e-02 -4.720320788616435e-17
 1.929226425078719e+00  3.434198678433809e-02 -3.468573691057671e-17
-3.210467094980528e-01 -7.427464678376622e-03  5.789723645583937e-18
-4.475123028380686e+00 -7.489249143789413e-02  8.040964555323830e-17
 1.317661658983639e+00 -4.308914948659407e-03 -2.340508845705183e-17
 2.767235180452357e+00  1.155392159472155e-01 -5.043337438110052e-17
-1.132959291054356e+00 -5.984846453457030e-03  2.022385415230212e-17
-2.920245766485937e+00 -7.882101774365527e-02  5.277911414001193e-17
 9.550643963902437e-01 -3.999376996029395e-02 -1.658558871891429e-17
 4.272822342974985e+00  3.003923091711415e-01 -7.912639222677169e-17
 1.814965713226165e+00 -4.184799760356066e-02 -3.186950682984735e-17
-1.021847508432142e+00 -6.406944639076408e-02  1.884328559169236e-17
-2.350233735595296e+00  5.047525641089780e-02  4.130659784440794e-17
-2.092407712994262e+00 -1.119728534257958e-01  3.838737155376607e-17
 4.792143012100832e+00 -1.531999140228425e-01 -8.370782770514559e-17
 6.340684414676815e+00  8.176892260489926e-01 -1.212415023556327e-16
-1.332293314318526e+01 -9.076046024932112e-02  2.380300182099476e-16
 5.521900740431346e+00 -5.799837094504354e-01 -9.230968854199976e-17
 1.665296400273693e+01  4.273019899632754e-01 -3.007497315241320e-16
-1.492349647398215e+01 -2.608321095257359e+00  2.923809728966694e-16
-1.429235915607777e+01  1.590718507959439e+00  2.380055249251377e-16
 6.748931768850394e+00  1.342017713615362e-02 -1.202431786827220e-16
-4.940892560135104e-01 -1.822865822351008e-02  8.980200530683104e-18
 1.334827198683022e+01 -7.935621942828478e-01 -2.293948591251018e-16
-5.368867975140154e+00  1.949325663444969e+01 -1.047407211118325e-16
-1.414011075039918e+01  1.503500801658510e+00  2.361922131871720e-16
-2.438864467955132e+00 -8.021597584431646e-02  4.422669239951441e-17
 5.590766145432248e+00 -6.465287146244921e-01 -9.285150478424623e-17
 6.501793233367733e+00  7.198933408945126e-01 -1.231038087722011e-16
-9.110222486494061e+00  1.224033104551468e+00  1.495507808335565e-16
-8.531992302683044e+00 -6.456724488086105e-01  1.584710302125101e-16
-3.342927743514339e+00  3.355272147897973e-01  5.604396652220950e-17
 2.828881191836246e+01  1.209731401119666e+00 -5.158627028927612e-16
-1.959056299716443e+01 -2.597486784260172e+01  6.155197681464847e-16
-2.068309220191377e+01  2.096738901279211e+00  3.465370669036388e-16
 3.684529411603167e+00 -1.948661422925923e-01 -6.356841712256716e-17
 8.124742595516274e+00 -2.912290970714384e-02 -1.442902586466172e-16
-7.126116965517311e-01  7.275143396248519e-03  1.260702571908903e-17
 6.178239683121156e-01 -5.305817810762888e-03 -1.094039912651482e-17
 5.323642614983218e+00  9.243826839733206e-02 -9.569034025809708e-17
-1.776222100610846e+00  1.782719152794149e-02  3.142682312465940e-17
-1.966267712810907e+00  3.496789013287872e-02  3.463279709218204e-17
-1.677162312668524e-01  2.390842182445035e-03  2.960145350591728e-18
-1.450311914812815e+00  1.685593190539190e-02  2.563684191993339e-17
-7.280954522066987e-02  1.103547284098014e-03  1.284394177974286e-18
 4.813425715231688e-01 -7.246475266247603e-03 -8.491610325062554e-18
 6.820764819500628e-01 -8.831130896454100e-03 -1.204762794198056e-17
 1.375250343910172e-01 -5.634796513274049e-04 -2.441632483853563e-18
-1.783209322283944e+00  2.467907532542613e-02  3.148076842998002e-17
 4.322362879472935e-01 -1.040352998342711e-02 -7.585267836169778e-18
 4.401324472968575e-01 -5.432148978098076e-03 -7.776868548868340e-18
 2.136557541983902e-01 -2.848416305935228e-03 -3.772992560979529e-18
-3.713791237759144e-01  4.174470891307610e-03  6.566243330026013e-18
-9.854359162378209e-01  2.149372952180657e-02  1.731616733245017e-17
 4.380611806294398e+00 -7.639745558615318e-02 -7.717325637697090e-17
 5.819046779858038e+00  1.091529693920001e-01 -1.046783857742786e-16
 1.446036727581280e+00 -1.547514472669950e-02 -2.557494697727234e-17
-8.369534888987756e+00 -2.903532974611504e-01  1.519291315413773e-16
-1.299502749527852e+01  6.912153645203029e+00  1.602421475917686e-16
 1.921520933869859e+01 -5.460959230980619e-01 -3.363466336855927e-16
-2.243106890031560e-01 -3.459805349713706e-02  4.347358708815262e-18
 1.399727822983195e+01 -3.511538276503832e-01 -2.454902846256941e-16
-1.993916965615457e+01 -4.949574572289312e+00  4.056963890725471e-16
-1.175468301278070e+01  1.724247514032872e+00  1.914725888804909e-16
 1.321533800910638e+01  5.190783081849690e-01 -2.405160448025553e-16
 6.904016846031744e+00 -2.558766052650663e-01 -1.202361760220073e-16
-6.218464994980041e+00 -4.723890622280528e-01  1.155186282480938e-16
-2.163224906001364e+00  1.388073534918349e-01  3.707097245346852e-17
 4.121972158030385e+00 -1.973133760802713e-02 -7.315267909146994e-17
 1.046034264754727e+00  4.046413316134537e-03 -1.865700292353340e-17
-4.918573466277790e-01 -1.789600238134242e-03  8.771575690034215e-18
-9.320834338646112e-01 -7.327673925960141e-03  1.666282573702619e-17
-2.080010894707221e+00  3.931977494979027e-03  3.697587535773573e-17
 1.237332169595095e+00 -1.868425009649782e-02 -2.182782801267065e-17
 1.919213606077908e+01  4.803676666542880e-01 -3.464825577101092e-16
-2.116787884128090e+01 -2.551504555146679e+00  4.029234363650175e-16
-2.260573538238465e+01  4.016705326525733e-01  3.981690074320550e-16
 1.916021158810844e+01 -8.861920090992548e+00 -2.499258106813971e-16
 1.508279800645173e+01  9.446270180925309e+00 -3.654733764919193e-16
-2.637318977627043e+01 -1.486368001779064e+00  4.846142624117637e-16
-1.293056319635072e+01  6.189044642471158e-01  2.237557776680401e-16
 1.325647660027052e+01 -2.769878272781700e+00 -2.074553209632196e-16
 2.357636965121965e+01  1.018814633931077e+01 -5.242491234289844e-16
-2.320980123596523e+01 -6.627486170892450e-01  4.198555999299404e-16
-1.918687147860987e+01  3.721499316141997e+00  3.032162113434491e-16
 2.701611416275362e+01 -3.634791158870064e-01 -4.770493616444727e-16
-9.423466715626637e+00 -6.035895143744487e+00  2.297184608593756e-16
-2.555746513226649e+01  2.803648818675599e-01  4.519449308041345e-16
 8.606885406186681e+00 -1.561727295209253e+00 -1.371236118305922e-16
 4.105516361071236e+00  2.124066547256217e-01 -7.524496209288857e-17
 3.216954187403362e+00 -2.729607413833226e-01 -5.444496468450306e-17
-1.608034227145599e+00 -1.069701387242537e-01  2.971596657951681e-17
-7.848588150131727e+00  8.209046471873546e-02  1.388315385626926e-16
 1.382645901831579e+00 -2.889757069698682e-02 -2.430892106152393e-17
 2.970643471806425e+00 -3.976404072244425e-02 -5.245758301983014e-17
 3.691887893852147e+00  4.728548446554735e-02 -6.618739008971417e-17
-8.644162280413628e+00 -4.582430613225542e-02  1.543040070121538e-16
-9.570324589888516e+00  6.735803009564412e-01  1.633945490489076e-16
 7.843234797249696e+00 -2.494139862386780e-01 -1.370170808555579e-16
 4.979586857356879e+00  1.837076860736293e-01 -9.050521770589785e-17
-1.893964701425912e+01  2.612428995207095e-01  3.343694347565221e-16
-1.703116093213969e+00  7.742936911233753e-02  2.951342379253609e-17
 8.733167836106176e+00 -2.911623691500338e-01 -1.524255513711807e-16
 1.882027512488854e+01  2.694053541510370e-03 -3.349569259034109e-16
-1.738448250984333e+01 -6.081396313949187e+00  3.718617411537817e-16
-1.998512719005807e+01  4.149094045620319e+00  3.130287433985670e-16
 2.943508924358770e+01 -8.724699689559559e-01 -5.148682125509319e-16
-9.497232211723160e+00 -8.660520327794154e-01  1.779129459429180e-16
-6.828228547583684e+00  8.075735710897748e-02  1.206867195015456e-16
 3.034866673422121e+00 -4.497108347759125e-02 -5.354701102801090e-17
 1.214320059897106e+01 -4.572200555588002e-02 -2.156329625951062e-16
 1.502265262536939e+01  1.747029510034678e+00 -2.852961167045690e-16
-8.335335934097227e+00 -6.422926537390887e-01  1.549365693936904e-16
-6.432125556303831e+00 -1.763314931801358e-01  1.162790888248555e-16
-3.374576782947608e-02  4.199400693551837e-02  1.690730280939159e-19
 2.653616771040809e+01  2.018351374039815e-01 -4.743165406081455e-16
-1.434109433991314e+01 -2.921340211789754e+01  5.553739748372657e-16
-2.305888857266096e+01  4.262343209764492e+00  3.665663997060970e-16
 1.917587669343135e+00 -1.470177477394222e-02 -3.397470456683700e-17
 1.484681428056387e+00 -8.633577693547391e-02 -2.553460824750089e-17
-7.723116970138036e-01  1.701488989154743e-02  1.356938608477126e-17
 2.957542961593243e-01 -3.473597059380695e-03 -5.227610544230443e-18
 1.163187367083702e+00 -1.518127457196148e-02 -2.054432462852599e-17
 8.319274113273668e+00 -1.718723064746976e-01 -1.462854809430773e-16
-6.389167700658834e+00 -2.894253251235223e-01  1.166766005840312e-16
-1.029899762621565e+01  1.146640576150530e+00  1.715016324993727e-16
 2.186172876620622e+01  4.823568585904581e-01 -3.940115825149248e-16
 2.824373952554382e+01  1.122531046311623e+01 -6.179670230123673e-16
-2.572978981088967e+01 -1.496651923155540e+00  4.732698559703183e-16
-3.948182356240875e+00  3.229641396045514e+01 -2.615713062669233e-16
 2.705706096702108e+01 -2.567510672006429e+00 -4.551324353100307e-16
 1.870088112061661e+01  1.028192590392539e+00 -3.433687921267160e-16
-3.009962616744726e+01 -5.656596417151446e+00  5.937782250909498e-16
-2.310643898089073e+01  4.321205585926397e+00  3.668078263983368e-16
 2.352351666373060e+01 -4.056718512674393e+00 -3.769477298697112e-16
 2.179025230392072e+01  2.897967488378952e+00 -4.175590952980007e-16
-2.606347773544317e+01 -6.380167993103578e+00  5.293845843394746e-16
-2.763411913987861e+00  1.821593890050383e+00  3.046199580809472e-17
 2.976373464102445e+01  2.175418031001800e+00 -5.520327914061516e-16
-2.056963005530719e+01 -1.381057009502810e+01  5.079596939177917e-16
-2.745649365930022e+01  3.176682234902874e+00  4.559817999924169e-16
 2.100881712694145e+01 -1.116432684818257e+01 -2.591675582970377e-16
 2.546814312677921e+01  9.803980962540482e-01 -4.633092207313671e-16
-3.996711995730022e+00 -5.211741480067884e-01  7.648113245416693e-17
-1.538304296288671e+01 -6.879402573570219e-01  2.808279353277325e-16
-7.375160640045916e+00  7.831610319746014e-03  1.311693140484362e-16
 2.880253947146704e-01  2.102307696924053e-03 -5.147355916299252e-18
 5.035580904140412e+00 -1.391229435798477e-02 -8.947122507612302e-17
 1.273474946169661e+01  2.090041405320338e-01 -2.287774988455616e-16
 7.184446376564405e+00  9.897410640389041e-01 -1.380250230817148e-16
-1.381713102231242e+01 -3.318973289321210e-01  2.493024526924292e-16
 2.561636117725751e+00 -4.008391559223767e-03 -4.554618557430493e-17
 2.082464857772633e-01  3.913265362045825e-03 -3.746202000377410e-18
 1.445125621820196e-01  3.927491982180129e-03 -2.612126979602233e-18
 6.008303342094545e-02  2.432842541766610e-03 -1.094245819746333e-18
-3.054014069169958e+00 -8.349934977025045e-02  5.520774880103661e-17
-4.127603222903939e+00 -4.545570482933169e-02  7.392266379667251e-17
-1.558767926208358e+00 -2.293324227719163e-02  2.797576534592166e-17
-1.036250107038508e+01 -1.855767627552496e-01  1.863198012195854e-16
-2.537325776736629e+01  3.505516907446286e+00  4.155294755178907e-16
 7.266415518065984e+00  1.364644726131105e-01 -1.307166547300295e-16
-2.731313151623996e+00 -1.161646344589433e-01  4.980052500163912e-17
-1.027979196940908e+01 -1.861399155552542e-01  1.848536802952176e-16
-2.137416443122886e+01  1.140018010226317e+00  3.686654811549966e-16
 1.824206561650478e+01 -2.588991042676867e+00 -2.980383751325878e-16
 1.825315349121865e+01  6.020950662186391e+00 -3.866997203002562e-16
-7.878506769202976e+00  1.474227184869392e-01  1.386927109050492e-16
-1.481361076024430e+01 -1.191451010548530e+00  2.758676001207131e-16
-2.438431225002788e+01  8.377510935322160e+00  3.478720415999579e-16
 1.393978469377879e+01  2.332444457941686e-01 -2.504715985746513e-16
 4.860379491088533e+00 -1.251701157445063e-01 -8.521017324196371e-17
-1.252026464531887e+00 -4.742370729164842e-02  2.276856577553947e-17
-3.492332619695850e+00  9.513376183745356e-02  6.117275992782051e-17
 2.485485157124137e+00  4.058245618638009e-02 -4.464914315993244e-17
-9.601566312556525e+00 -4.026023482343490e-02  1.712849849805975e-16
-1.432723832373819e+01  1.036180337721461e+00  2.443239195657913e-16
 1.242942438391418e+01 -1.086316687614459e+00 -2.100349239319569e-16
 1.262292030234444e+01  1.597801380112287e+00 -2.410567526919990e-16
-1.814336200939702e+01 -8.647905549363774e-01  3.317681779428792e-16
-1.733596585641225e+01  2.003284938393615e+00  2.879311664995039e-16
 2.027832935476429e+01 -2.220439821518449e+00 -3.380628471932526e-16
 2.776959405649667e+01  2.553385048379559e+00 -5.204281548076078e-16
-2.581546752717076e+01 -1.216190064542314e+01  5.843761495119809e-16
-1.984429003883012e+01  4.906832616336875e+00  3.027368897460670e-16
 7.157429983839725e+00 -1.444559739097297e-01 -1.258907715975693e-16
 1.145363920045818e+01 -4.135567973416802e-01 -1.995820261209285e-16
 5.235393340453079e+00  1.309256463031217e-01 -9.451528295055828e-17
-3.294899011765251e+00 -9.336263270121208e-02  5.959592534920478e-17
 5.971443454879236e+00 -6.653101634897692e-02 -1.055853772511567e-16
-3.525445598088548e+00  5.221205975766572e-02  6.220304977430379e-17
 1.020655020942877e+00  6.342657258022577e-02 -1.881545857132490e-17
-2.797640414638206e+01  8.066465665709639e-01  4.895854828100632e-16
-1.455808954601803e+01  2.898080712431184e+01 -3.868869631005359e-17
 2.112798925842854e+01  1.426748160914692e-02 -3.761443644235994e-16
 1.595885388688566e+01  5.721856162269078e+00 -3.427968348577878e-16
-2.719154949999884e+01 -1.020376186045652e+00  4.943900532456898e-16
-1.035496403075064e+01  9.556038536082123e-02  1.832970885297513e-16
-2.425241401318620e+01  1.364435629963995e+00  4.175815562501774e-16
 1.206075795106844e+01 -8.457195958584997e+00 -1.277409581020623e-16
 1.570672922643787e+01  7.027457618170736e-01 -2.867404396696689e-16
-1.005799512560741e+00 -7.424684734340430e-02  1.866226147148372e-17
-5.049297850985081e+00 -5.975129208581015e-02  9.047220110045037e-17
-1.987033036582394e+00  4.760889133965170e-03  3.531270669853995e-17
 5.539445163148415e+00 -1.545234092417415e-01 -9.699336246598812e-17
 7.515059134289377e+00  4.189823435194768e-01 -1.380443329356022e-16
-1.081450975607916e+01 -3.427887689484653e-01  1.959791311734312e-16
-1.353772744038703e+01 -4.745677559281801e-01  2.457960194840260e-16
 1.993716745637710e+01 -1.101428620081273e+01 -2.416378872526417e-16
 1.452550570635973e+01  3.189857164114345e+00 -2.912733242652975e-16
-1.712461936892185e+01  6.356443113234623e-01  2.982220142552945e-16
-3.028509459652144e+01 -2.028941698258310e+00  5.598060226908593e-16
 1.254373142829941e+01 -1.130518132728559e+00 -2.116150003485294e-16
 2.920273285125098e+00  2.639131527369267e-01 -5.468135830873611e-17
-1.307653206101720e+01  2.159896708249943e+00  2.105203322328474e-16
-1.460625396213777e+00 -1.061334321842584e-01  2.708405370391357e-17
-3.104586301215043e-01  8.539620976205643e-04  5.516207495805530e-18
 5.486755867206725e-01  7.581523139777199e-02 -1.054331058191454e-17
-8.804554558947594e-01  5.518780941551123e-02  1.510172037634477e-17
 2.043278374879009e+00  1.592516409728037e-01 -3.799882874174347e-17
-7.056236480798630e+00  7.198186371438938e-01  1.181782701357670e-16
 2.849572501689895e-01  2.939674384021350e-02 -5.373195037649426e-18
-2.104415163409234e+00  1.011727940693011e-01  3.641106435720217e-17
 3.882475577563050e+00  3.733555209618098e-01 -7.292937636972499e-17
-2.437145484670117e+00  8.609800486383265e-02  4.248728531274922e-17
 8.399096761162443e-01  2.405142381117202e-02 -1.519431420894798e-17
-6.410456951624832e+00  3.385425069830715e-01  1.106033267045561e-16
 1.683113142469424e+00  5.460142029667536e-02 -3.051401581881658e-17
-2.474852021981939e+00  1.939162260052677e-02  4.384370197159263e-17
 2.125033384245412e-01  3.759325943431495e-03 -3.820376103141379e-18
-5.095393624551310e-01  8.969531808841844e-04  9.058644796023806e-18
 2.623918196241149e+00  6.114288168969035e-02 -4.732397513003938e-17
-1.499619171780030e+00 -8.968828641970303e-03  2.677966342960983e-17
-6.343486515161062e-01 -3.678395131652596e-03  1.132678511438937e-17
 6.567060110613602e-01  1.241746161926778e-03 -1.169962537174980e-17
-4.370071567135967e-01 -3.411985476455236e-03  7.812120538748121e-18
 9.559694912679777e-01 -2.385917276966289e-03 -1.698810300968422e-17
-1.630844195171542e+00 -3.079911404046211e-02  2.933926750739599e-17
 9.859354267878346e-01 -9.481315191964801e-03 -1.744847989176578e-17
-4.637426118082740e-01 -8.676120770741777e-03  8.341996950194001e-18
 3.577341370675077e+00 -1.330230690326493e-01 -6.229629318758561e-17
-1.097934558110729e+00 -3.126051474997651e-02  1.986024556264045e-17
 1.344493906893117e-01 -1.566784336797563e-03 -2.376589141021849e-18
-5.186174864215087e-02 -3.344845549794401e-03  9.573087462212231e-19
-1.001180496716160e-01  2.853817095677242e-03  1.752398203080509e-18
-3.544502732308281e-01 -1.032838851657614e-02  6.413985885299957e-18
-1.211042012103270e+01  1.401415827281800e+00  2.011203343210884e-16
 9.069761450557435e-01  2.162203014937220e-02 -1.636288086840484e-17
-2.322255393201736e-01  7.250384072327165e-04  4.125280925520930e-18
-1.594452253049260e+00 -4.811784064327663e-02  2.886957312269238e-17
-2.054174694247735e+00  1.072772256321983e-01  3.545425458224865e-17
 1.271267184318093e+00  1.911856124677349e-02 -2.282015223557545e-17
 1.485854093423988e+00 -1.357481498165691e-02 -2.630306968338825e-17
-1.656785986606005e+00 -3.551943069654739e-02  2.984943218720068e-17
-7.873379384729585e+00  3.082227007903175e-01  1.369493016426081e-16
 1.874163116811617e+00 -3.930188909637250e-03 -3.331258698879798e-17
 1.076321153926335e-01  1.178890233858826e-03 -1.927554544961214e-18
-3.169742272910755e+00 -3.924953438787365e-02  5.681261947583564e-17
 8.347958850366988e+00 -5.206166421776393e-01 -1.432127386879588e-16
 4.123265054710303e+00  1.209084492482771e-01 -7.462071044145581e-17
-8.762874745282147e+00 -2.716983124038326e-01  1.587374102976787e-16
-2.084876249198918e+01  1.075776817677953e+00  3.599753818928903e-16
 1.645283723821205e+01 -1.155341063542527e+00 -2.809271545836686e-16
-3.327176171502875e-01 -1.005025275447753e-02  6.024369584460512e-18
-1.325787461712294e+00  6.353080568768796e-02  2.294121338999893e-17
-5.452263591711564e+00 -6.776371968289973e-01  1.039920103411174e-16
 3.350811972524040e+00 -4.839117822941675e-01 -5.465967829476271e-17
-1.753428902886847e+00 -1.060136759503072e-01  3.229361090129780e-17
 9.047915247450093e-01 -1.576201562360540e-01 -1.448235461081112e-17
-1.001249329974437e+00 -3.251890436183481e-02  1.815254612479256e-17
 3.532925564504448e+00 -4.197373938851937e-01 -5.855997540327641e-17
-7.821457004265359e+00 -1.474963618637136e+00  1.543468724110938e-16
-5.232317318541606e+00  6.005559958047679e-01  8.694483332298384e-17
 8.071449698350872e+00  4.825097373729832e-01 -1.485986876253668e-16
 1.438777874513536e+01 -1.623556561780739e+00 -2.393662312229975e-16
-6.947433812436437e+00 -6.233853005929015e-01  1.300429293805710e-16
 5.362954070967634e-01 -2.982723224244341e-02 -9.237552517894723e-18
-5.877183700668837e-01 -5.888373367722657e-02  1.106415842774943e-17
-4.683612250050688e+00  8.414343019887296e-01  7.470503500577549e-17
 1.305722574640060e+00  1.158405194733046e-01 -2.442710999561911e-17
 1.377909737971246e+01 -2.084117094955233e+00 -2.238019281240016e-16
-1.186572952423951e+01 -6.394170901542830e+00  2.768625941473123e-16
-1.877930793165704e+01  2.093311844519926e+00  3.126921666632211e-16
 1.838129397897602e+01 -1.658383823048473e+00 -3.100777609463885e-16
 1.970658718230434e+01 -1.308843649803346e-01 -3.493574364783183e-16
-1.244843979178784e+01 -1.695431782672153e+00  2.389547807691686e-16
-7.401694528001845e+00  5.261653585000345e-01  1.263158252763445e-16
 8.400481114430464e+00 -1.984555807858940e-02 -1.492926759863031e-16
-4.631919897246452e-01 -1.804943217421901e-02  8.428505370676535e-18
-9.979732193060283e-01  4.284988951384337e-03  1.771609715550566e-17
-4.844814840997570e-01  3.747294702211092e-03  8.583423829240593e-18
 7.834241985823325e-01 -6.434096462452329e-03 -1.387586011719270e-17
 1.123437576420688e+00 -6.240265148817672e-03 -1.992879530143491e-17
 1.467696503505059e+00 -7.720214277205653e-03 -2.604008762156160e-17
-9.019850082735306e-01 -1.042976270809557e-02  1.615906104396595e-17
 4.857690065620942e-01 -2.345332424304201e-03 -8.620741478877338e-18
 1.343644290438981e+00 -2.791721046268238e-03 -2.388306899256816e-17
 1.022919820037746e+00 -1.886610385991909e-03 -1.818469414688363e-17
 2.610416565652854e-01 -1.489743926752440e-03 -4.630241082675726e-18
-3.561505711459418e-01  1.061876014950724e-02  6.229020204279762e-18
 6.117072554049838e+00 -4.692678590538289e-02 -1.083784471221461e-16
 1.784712191994345e+01  9.056342429343029e-01 -3.269158863568167e-16
-5.262334714680154e+00 -1.719562075776611e-01  9.541631094867259e-17
-1.278626515004484e+01  5.460465796695101e-01  2.219364101332803e-16
 2.152635018013973e+01 -1.637875767727367e+00 -3.662585005857941e-16
 1.852679252146726e+01  1.121605116004467e+00 -3.412304576028268e-16
-1.275449356442083e+01 -1.679755793659422e+00  2.442403076604511e-16
-1.025816814393985e+01 -1.584572114949835e-02  1.827191475369522e-16
-2.012860112213229e+01  1.268960104908594e+00  3.451743631190201e-16
-3.645540431357353e+00  2.716799104575535e+00  3.696261686813674e-17
 1.752891754250972e+01  1.699873879920363e+00 -3.294135835187378e-16
-2.598417011288038e+00 -2.252379815096156e-01  4.855616866650605e-17
-2.988901961930751e+01  1.287386103687355e+01  3.996365110441592e-16
 2.554762660729585e+00  1.795481582061803e-01 -4.730984107323315e-17
-2.521190696260917e+01 -2.927045061055848e+00  4.787502829411635e-16
-9.546276562672015e+00  2.321365137810097e+01 -6.862445640829365e-17
 1.953186503693597e+01  6.459854876572746e+00 -4.139654989627664e-16
-1.313524829815714e+01  2.755082472894369e-01  2.309266646121781e-16
-1.851222653896161e+00  1.552983460015979e-02  3.278515193597605e-17
-5.447919260994570e-01  4.793914337144902e-03  9.645966448151244e-18
-4.624552587102509e-02  3.445417446558904e-04  8.194542557328669e-19
 3.255071625159734e-01 -2.533323061257012e-03 -5.766759262670717e-18
 2.665383269450016e-01 -8.924305890231071e-04 -4.734198065108756e-18
-1.743714532488935e+00  1.713040251024317e-04  3.102971999041322e-17
-2.452262225215971e+01 -1.426465151177248e+00  4.510657258517557e-16
 1.718808391673301e+01 -1.589267830722070e+01 -1.425909597406025e-16
 8.564143587673453e+00  6.710303814515465e+00 -2.213550848764559e-16
-2.799110726925064e+01  8.494719392889696e-01  4.894071272762899e-16
 1.481266201716861e+01 -6.424885109528413e+00 -1.975956292569246e-16
 2.789734778061779e+01  1.780848689859835e-01 -4.982963382545848e-16
 1.677275926303122e+01  1.596078766507773e+01 -4.624825535176108e-16
 3.176008146488795e+00 -1.894793327300441e+01  1.381622777012214e-16
 6.984462217280224e+00  6.993952503415507e+00 -1.961571577927532e-16
-1.612480286452294e+01  3.446035625372171e+00  2.515533371309121e-16
-1.515964049250836e+01 -5.637929398673785e+00  3.277115621060005e-16
 2.636349216168699e+00 -1.820467356464328e+00 -2.821233828081516e-17
-3.783275724003315e+00 -1.735079632017088e+00  8.515521726904451e-17
 2.812743404713380e+00 -1.149667452152756e+00 -3.824370861870726e-17
 2.533454641551191e+00  1.491599195350856e+00 -6.041148726134100e-17
-6.823595811481391e+00  8.891686762189649e-01  1.122981418072558e-16
 2.125496907536929e+00  2.428608450237748e-01 -4.032105981517158e-17
-5.055746726607239e-01  1.508910566225329e-01  7.446953577751423e-18
 4.012678206217701e+00  1.822158624325181e-01 -7.328259696374200e-17
-8.413756938680064e-01  1.537576082455744e-01  1.339348058333722e-17
 1.462469776037568e+00  1.644059003591248e-01 -2.771560508238847e-17
-1.207833381403316e+00  6.377767654292900e-02  2.083954331658165e-17
 7.650702883155916e+00  5.360232567979836e-01 -1.416608281572866e-16
-2.836623420092071e+00 -1.999792484979898e-02  5.068656882104237e-17
 4.175634841143760e-01  1.223693303534366e-03 -7.443613289498937e-18
-1.070408142360177e+01 -7.782102642620277e-02  1.912914799201059e-16
 5.907990944683648e+00 -1.389832579333425e-01 -1.037117436823778e-16
 9.598399723740853e+00  5.692177364332303e-01 -1.766634779310610e-16
-1.040009720327633e+01 -4.699441147928130e-01  1.899106404795361e-16
-3.901536798934198e+00  3.657465204683424e-01  6.567458860671572e-17
 6.594816020958810e+00 -6.610255892537535e-02 -1.166834378923624e-16
 4.426400389478467e+00  3.554150566086570e-03 -7.880959253705470e-17
 1.567486216502353e+01  1.504159449091233e-01 -2.804983390709765e-16
-1.681230874215448e+01 -5.199375104363875e+00  3.526167789274294e-16
-2.788979330895352e+01  6.659497632088742e+00  4.279082211279337e-16
 2.340882864893805e+01 -2.603960778590698e+00 -3.898332778130411e-16
 1.317869471280131e+01  1.677722690849498e+00 -2.517685837131964e-16
-1.499895279618135e+01  1.395178231810677e+00  2.525893068105066e-16
-5.325217496651876e+00 -4.708812636780715e-01  9.960673142236093e-17
 1.148577521182306e+01 -2.113975183407838e+00 -1.826827435689101e-16
 3.993546280386726e+00  4.069842207183375e-01 -7.525153475328997e-17
-9.823136006136675e+00  1.004446345326076e+00  1.644941014175235e-16
-2.304201623047952e+00 -1.715004998644916e-01  4.276812176710778e-17
 4.425588890579586e+00 -2.153749788860413e-01 -7.654573366985649e-17
 2.816818245700027e+01  8.031725445819990e+00 -5.838094682925894e-16
-2.028665662893400e+01  3.339878018316192e-01  3.575936501755631e-16
-5.979138296017959e+00 -5.273775516667807e-02  1.069477594287934e-16
 1.904672246051852e+00 -7.733312216818869e-02 -3.310134485531073e-17
 3.690923112920235e+00  2.472002597595760e-01 -6.822427234450616e-17
-3.301617299427276e+00  1.605783947146943e-01  5.710633350910074e-17
 1.407291360626154e+00 -2.914435713150638e-02 -2.474498076539746e-17
 1.711960337858528e+01  4.844493922903155e-01 -3.096413046910847e-16
-1.941541796362042e+01 -2.611690688996346e+01  6.138622529771209e-16
-2.028913833892886e+01  2.754802015742760e-01  3.582389594947861e-16
 1.612457122235631e+00 -7.690918189927114e-02 -2.790538398536776e-17
 4.038696993839518e-01 -3.896849653099235e-03 -7.147304335660834e-18
-1.961026911576671e-01  2.962954626848281e-03  3.459438026475419e-18
 1.733594946983352e+00 -2.513564771085824e-02 -3.059313033707870e-17
-1.772186245211218e+00 -9.269136402717670e-02  3.249053826706215e-17
-9.848489615929577e-01  3.578828108007868e-02  1.715885045312445e-17
 1.515193479592289e+00 -4.182509431000306e-03 -2.692170160579841e-17
 2.752849273403919e+00 -4.732085058075259e-02 -4.850403198863322e-17
-4.493695170728570e+00 -3.132122297953904e-01  8.318880770847133e-17
-4.932635024243424e+00  3.933725923903391e-01  8.374036364071353e-17
 5.109457558878332e+00  1.040359697084653e-02 -9.103578522034584e-17
 8.571427395311620e+00 -6.321501192102372e-03 -1.524738237493980e-16
-5.420097297775737e+00 -1.325311401779082e-01  9.781880603741032e-17
-1.255072573016538e+01  2.277479152731839e+00  1.999548644566191e-16
 6.560180489773615e+00  8.685468279736445e-02 -1.176386373946254e-16
-2.941067823673416e-01 -5.409727153650409e-05  5.234536844710799e-18
-1.367683008701246e+01  8.097834961837051e-02  2.425634825771533e-16
 2.524558213839263e+00 -3.809089500047189e-02 -4.453615470803393e-17
-2.540827294182283e-01  9.539192650286001e-04  4.511904080571109e-18
 3.249402966018238e+00 -1.184146464124390e-02 -5.770533506086482e-17
-3.649899463101009e+00 -3.027953201699810e-01  6.806542666043703e-17
-1.042442090022903e+01  7.327274177829882e-01  1.779864965268889e-16
 4.151410446426118e+00 -1.484340344958292e-02 -7.372679029866395e-17
 9.866991126529585e-01  7.150103711990297e-03 -1.763295240521046e-17
-3.491178413946546e-01 -1.055057453510756e-03  6.223808763061104e-18
 2.807912202499720e-01  6.493579050393092e-04 -5.003686620955698e-18
-1.966593848221018e-01 -7.470861878164215e-04  3.507464375782563e-18
 4.367085014095626e-01 -6.881707168970360e-04 -7.764678007508079e-18
 1.309214202452852e+01  1.403409383966007e-02 -2.331344794148086e-16
-7.570299268227959e+00 -3.890776425089011e-01  1.387201371105241e-16
-6.093889555299584e+00  8.174777278494282e-02  1.076081050211767e-16
 2.898407820280711e+00 -5.249266152710295e-02 -5.104128148235389e-17
 2.775719090470528e+00  2.167100284684910e-02 -4.961989389430061e-17
 4.015594010095503e-01  1.713247045662361e-03 -7.163831529642816e-18
 8.194728971109472e-02  4.577664968625326e-04 -1.463053154531267e-18
-1.024812588818415e+00 -2.840439464588090e-03  1.826694693781392e-17
-2.210895398833466e-01  1.039246378501571e-03  3.923874206240469e-18
 1.203315969609172e+00 -3.782422193775776e-03 -2.137558003238205e-17
 3.222905160387608e+00 -5.853534271848842e-03 -5.729529880912181e-17
 7.582319991629787e+00  1.431753955151742e-01 -1.364075039200102e-16
-7.232198640629153e+00 -1.970451141659028e-01  1.307301686523998e-16
 1.735594672873977e+01 -4.445337536809044e+00 -2.631955466335331e-16
 1.538517899305342e+01  2.249681251281067e+00 -2.969122699126947e-16
-1.428507860074465e+01 -7.394857616727960e-01  2.618179611253353e-16
-1.078391071821188e+01  3.339960744638402e-01  1.884808664146449e-16
 5.887019236207654e+00 -2.355666445321773e-01 -1.023461678975162e-16
 8.133644804864735e+00  1.460683223986698e-01 -1.462487103675674e-16
 4.634526214369067e-01  1.316874877040583e-03 -8.261222635346329e-18
-1.501543588938668e+00  1.882156342910770e-02  2.652837454445247e-17
 2.041459136637831e+01  4.789751175828723e-01 -3.682233001034179e-16
-1.806548846172911e+01 -2.617525372319393e+01  5.904381396166293e-16
-2.123427051500918e+01  1.461815145423228e-01  3.763872110101708e-16
 2.226245016373788e+00 -1.050477995361063e-01 -3.853935764858289e-17
 7.382197785966507e-01  8.635114604331823e-04 -1.314637379763592e-17
 3.396158878388598e+00 -1.045136642350710e-01 -5.936485833299223e-17
-1.116860694277799e+00 -1.112245063686543e-02  1.999014745092751e-17
 7.747070981303601e-01 -3.720905745470322e-02 -1.340452735960503e-17
-8.076115693954098e-01 -9.752899528583535e-03  1.447261873468248e-17
-1.496106369556654e+00  4.636196884635616e-02  2.614864507309871e-17
-1.634615860150873e+01 -6.970969062294796e-01  2.980618081890684e-16
 1.378483052340856e+01 -2.802314573716857e+00 -2.165247380626646e-16
 1.641646663124242e+01  1.304232121801504e+00 -3.055511172352638e-16
 2.594797139542847e+01  9.041702965270046e+00 -5.546753164966017e-16
-2.096594539620344e+01 -1.962349884493192e+00  3.932764396090247e-16
-6.714925690246665e+00  2.057519214034439e+00  9.835985004045970e-17
 1.409109124232046e+01  1.262912433663660e+00 -2.637437436053795e-16
 2.787802448059754e+01 -4.058233350733468e+00 -4.544258263050511e-16
-1.328051956289021e+01 -1.674375343370315e+00  2.535462855876153e-16
 5.655045073971937e-01 -7.968204541093027e-02 -9.245123203111222e-18
 2.002007698822406e+00  3.481961876912733e-01 -3.920570440356488e-17
 4.598103928540109e-01 -1.990166482240974e-02 -7.978392044399121e-18
-1.050588923439760e+00 -2.944159338574351e-01  2.172149986195466e-17
-7.005477506932011e+00  2.620398059011600e+00  9.774719027976654e-17
-3.344187046906067e+00 -4.172702447937831e-01  6.380109779068118e-17
 7.427232298028990e+00 -3.120768168376461e+00 -1.001116990226870e-16
 7.782608840535000e+00  1.599703164604019e+00 -1.549371766359629e-16
-1.741088476782019e+01  4.339590473123656e+00  2.652597472572660e-16
-9.694724913966615e+00 -8.544849700799418e-01  1.813087167969931e-16
 2.671176501953251e+00 -1.732545734956535e+00 -2.973549410772638e-17
 7.693697563866709e+00  1.553488404965300e+01 -2.965338159374048e-16
-1.257575334293927e+01 -1.575912052710006e-01  2.254197240317283e-16
-8.078923191577966e+00 -3.403352176800516e-01  1.472708958132615e-16
 1.555821665162815e+01 -2.603514558470679e-01 -2.742020071934440e-16
-1.962438295048463e+00 -4.602679037171429e-01  3.965301584134467e-17
-2.191644696446883e+01 -4.729346495271862e-01  3.948885483328750e-16
 2.619430086389939e+01 -1.137843201403031e+01 -3.492495740696258e-16
 1.666761201943021e+01  5.152465987694645e+00 -3.495597540134291e-16
-1.982735756666714e+01 -1.620197643030420e+00  3.694984210375787e-16
-2.670247155657958e+01  7.352658517577163e+00  3.996564379564818e-16
 1.894021695593920e+01 -1.459885222913504e+00 -3.220639631061235e-16
 2.340933267184536e+01  2.262901481863862e+00 -4.398474892332864e-16
-2.508759422662721e+01 -8.344725269283245e+00  5.322026856121048e-16
-1.895951411618937e+01 -1.039829606148027e-01  3.384755565737485e-16
 1.066892499888145e+01 -1.361420676376319e+00 -1.758781438215405e-16
 1.440475351036911e+01  3.332041521187229e+00 -2.905852876170931e-16
-1.717629599335313e+01  3.458566077230997e-01  3.021191248207153e-16
 4.164513667145885e+00 -7.661622499383680e-02 -7.332528443965880e-17
 2.971579541767225e+01  1.462610604364091e+00 -5.438558183669422e-16
-1.679962186903433e+01 -4.186918622646933e+00  3.419883783316224e-16
-2.256663014190198e+01 -9.133101370347736e-01  4.109840317071274e-16
-1.839453311140202e-01 -1.144748212171573e-01  4.449713780111552e-18
 2.245251838400289e+01  2.157042950788888e+00 -4.217321796932649e-16
-1.196369324241994e+01 -1.814491972321924e+00  2.315514379221518e-16
-2.614764635730117e+01  5.499489543195384e+00  4.088232996552434e-16
 1.065415449350999e+01  2.265146294862121e-01 -1.919307434784665e-16
 5.049498736001273e+00  5.384307653455475e-02 -9.041507131900467e-17
-8.311836303282313e+00 -5.172927199679532e-01  1.532340365073220e-16
-1.368992613663103e+00  3.587148851245608e-02  2.399429000193707e-17
-2.527646899045426e+00 -8.238025583496461e-02  4.582891886586401e-17
-4.151072213330299e+00  2.485739763325661e-01  7.131927418519067e-17
 2.124975444222724e+00  7.655489607318980e-02 -3.860304654860268e-17
-7.552101521549729e-01  5.338943828859906e-03  1.338500979822881e-17
 1.793863982696744e+00  2.541100432622625e-02 -3.218503820914700e-17
-6.139493360549400e+00 -5.126159731573221e-02  1.097863021006137e-16
-1.534759355503381e+01  1.123065373905527e+00  2.615896457147484e-16
-5.073431964325009e+00 -8.964903790136011e-02  9.120888491133335e-17
 1.686753578779740e+01 -2.622032190947040e+00 -2.732374914135285e-16
 2.431835397309430e+01  3.553023391244595e+00 -4.692801415002606e-16
-2.359468842544334e+01 -3.831293901275440e+00  4.592607783167068e-16
-2.447230491336335e+01  7.727810890661562e-01  4.275738125823212e-16
 2.144309730257510e+01 -1.520071848244296e+01 -2.254236343273711e-16
 2.081265908770726e+01  5.145458952771670e+00 -4.232538162378436e-16
-7.910936095514864e+00  2.737198199154788e-02  1.405033071543393e-16
-1.243073084041780e+01  2.285934752570753e-01  2.188709683009351e-16
 3.966411068833463e+00 -1.101086185660059e-01 -6.945569021981774e-17
 2.600119220149859e+00  8.432624606673120e-02 -4.713864461726377e-17
-5.853618273762857e+00  2.137613573433561e-01  1.019757992927872e-16
 2.075082785948686e-01  2.985110673430316e-03 -3.723528274196019e-18
-2.888736761986802e-01  5.562744470722599e-03  5.083696475043977e-18
 5.104358683579533e-01  1.061120769012023e-02 -9.192841461721813e-18
-1.010723549126095e-01  2.674336075222767e-03  1.771225276366567e-18
 4.432628984759612e-03 -8.780173696719780e-06 -7.879372159915444e-20
-4.481966440247819e+00  1.220173468079513e-01  7.850825519350317e-17
 1.742415192498581e+00  4.858286213337682e-03 -3.105827391359671e-17
 6.841074114199600e-02 -2.944905473326957e-04 -1.214424949718720e-18
 4.755049911369757e+00 -6.314946501163756e-03 -8.455690141185078e-17
-2.997049553579125e+00 -4.323895207643243e-02  5.378033634120202e-17
-9.180613350492179e+00  2.753894039452275e-01  1.605504395145135e-16
 1.784839175217188e+01 -1.334344970939425e+00 -3.039235117164849e-16
 7.770573290999919e+00  1.095924457708459e-01 -1.394126433534026e-16
-9.754715665309288e+00 -5.888041004051706e-01  1.796465493151884e-16
-1.026757107316669e+01  1.253952945985437e+00  1.698397638797858e-16
 6.011891122279116e+00  2.165915625580074e-01 -1.092141733817837e-16
 1.568394060169820e+00 -4.855251878083450e-02 -2.741258365554483e-17
-6.170159607893498e+00 -5.198369118162017e-01  1.151464856573932e-16
 2.947180807421741e+00 -1.850437272086474e-01 -5.054734090624374e-17
-1.175875857315698e+00 -4.709698994119170e-02  2.141001798333240e-17
 5.613265898562063e+00 -7.020086075982599e-01 -9.268187905993263e-17
-1.988737590683386e+00 -1.123543710880103e-01  3.654635802595083e-17
-1.934537114163824e+00  1.414733005912092e-01  3.297380877269016e-17
-9.533630169657618e+00 -2.209893930133740e+00  1.923681783708389e-16
 4.704636612779220e+00 -4.992898242469465e-01 -7.859459885169287e-17
-2.603637056538529e+00 -5.678657469695669e-01  5.216944140821726e-17
 9.451073057725669e-01 -1.603668861639418e-01 -1.517160035559810e-17
-2.349152177985188e+00 -3.712725516963772e-01  4.562065570921954e-17
 7.527858708748904e-01 -1.147747361799917e-01 -1.221745380513432e-17
-2.902985783418043e+00 -9.603922611865001e-01  6.152977642540548e-17
 2.506966076248117e+00 -3.350879342929329e-01 -4.117154493584956e-17
 5.326662457547214e+00  2.901383939383844e-01 -9.777537890656457e-17
-1.381201555160930e+01  1.633426255382990e+00  2.290184309118676e-16
-1.395383948962579e+01 -7.397847786571018e-01  2.559262383183107e-16
 1.870564582727868e+01 -8.334961794444201e+00 -2.472505758191482e-16
 1.820457880079252e+01  1.231381553508219e+01 -4.504921763492753e-16
-2.024134649586310e+01  1.543339321503586e+00  3.443616547652446e-16
-7.831055264332227e+00 -3.240216685475849e-01  1.426921745948837e-16
 6.216031369610146e+00 -6.019701255036478e-01 -1.044366686745566e-16
-9.452814879580604e-01 -9.084889527442754e-02  1.775585104211400e-17
 3.962802583309227e+00 -3.151986494172640e-01 -6.728424735848646e-17
 9.730585495443920e+00  1.815030532538909e+00 -1.918161552094382e-16
-1.729288365464077e+00  1.584310442074986e-01  2.914692780302318e-17
 5.279373107352552e+00  4.603083461942715e-01 -9.868224291609405e-17
-3.185246884704088e+00  1.783086540724943e-01  5.485321118483216e-17
-2.313028820579402e+00 -5.713243524829396e-02  4.175012195659964e-17
 4.274455433385172e+00 -6.429788318683985e-01 -6.946265922122935e-17
 1.214231935957189e+01  9.940716445332518e-01 -2.263007819444544e-16
-2.485297222797183e+01 -1.225526170906611e+00  4.548801227409777e-16
-2.923698364923722e+01  1.240188230980423e+01  3.928821637525895e-16
 2.652576378001813e+01 -1.489134221617776e+00 -4.567572943761476e-16
 4.099352498057378e+00  2.847300429108066e-01 -7.587836536007017e-17
-7.110579399715099e+00  1.466707987682039e-02  1.263905433094146e-16
-3.985147872542255e+00  1.470553032614562e-01  6.940952022678914e-17
 1.064746832121610e+01 -2.855921402519950e-01 -1.865500440419585e-16
 2.203628431755424e+01  1.475823148761467e+00 -4.073255119913701e-16
-2.056575140981462e+01 -3.787267448959623e+00  4.049048752906301e-16
-1.423116866088707e+01  4.908425096412675e+00  2.028283370899100e-16
 2.048015974803693e+01 -2.794747345772772e-01 -3.615973709633192e-16
-1.985331226790296e+01 -1.567159054356407e+01  5.143332734953290e-16
-2.640003650522193e+01  1.493276111264914e+00  4.544772711361091e-16
 1.298321974818908e+01 -1.339650228807968e+00 -2.172874629178076e-16
 1.112880282636814e+01  8.468848898311009e-01 -2.067517558016058e-16
-8.760872119443105e+00  1.883410957708407e-01  1.539750333719302e-16
-1.123241369957479e+00  6.715293296346345e-02  1.929944803785765e-17
 2.068731275590893e+01 -7.558304097032840e-01 -3.603895243269096e-16
-3.440646662902618e+00 -3.044266506565106e-01  6.435828471205378e-17
-8.462928734675502e+00  6.954915904034745e-01  1.434619883401190e-16
-8.405099674711259e+00 -3.002188678629285e-01  1.526634145101231e-16
 7.259265044056259e+00 -1.250086231557091e+00 -1.163430987226601e-16
 1.803558105611075e+01  7.804170883380066e+00 -4.011496992789575e-16
-7.464534795199929e+00  6.942923160496782e-01  1.257066993723276e-16
 4.981478550779260e+00  6.098841254765237e-02 -8.927798671179978e-17
-8.079600353016343e-01  8.472943570960151e-03  1.429155618067331e-17
 5.156501858101705e-01 -6.666180571760209e-03 -9.108117562765029e-18
-3.266844939887388e+00  4.771212591628950e-02  5.764717778505166e-17
 2.536339338773137e-01 -1.922709670487471e-03 -4.493963257097685e-18
 4.461951203450623e+00 -8.534110899105432e-02 -7.852889518346060e-17
 5.045277146638722e+00  1.449429650328769e-02 -8.993564868379536e-17
-8.689953507530389e-02 -5.194932396234562e-03  1.599856927387918e-18
-5.486182973235308e+00 -2.818199490289000e-02  9.792272989842308e-17
 4.432849123042995e+00 -2.311753285024311e-01 -7.651259521418702e-17
 1.496465318839237e+01  5.230134588404206e-01 -2.716876272124720e-16
-1.001393741422711e+01 -4.055697534489628e-01  1.823770432043332e-16
 4.347738395926444e+00 -2.296057279652726e-01 -7.501407547579756e-17
 8.575759767157781e+00  1.449908138059228e-01 -1.541056025356118e-16
-4.683266175072403e+00 -9.067107638883309e-02  8.427592036253124e-17
 1.303367109344145e+01 -1.822501936756073e+01 -4.469427093883549e-17
-2.705021910330358e+01 -2.317337597733963e-01  4.837718958129243e-16
 2.432301166043215e+01  1.995033983310567e+00 -4.533552554762309e-16
 9.040022233516222e+00  7.064371613841078e-01 -1.681363641786623e-16
-1.699369389907331e+01 -8.919219571530808e-01  3.115872278467919e-16
-1.756687234145525e+01  1.029488902295203e+00  3.020458233531232e-16
-1.610214226748124e+00  1.244809330329363e-01  2.737668653195816e-17
 1.587804176276654e+01 -9.868019800021749e-01 -2.724296613145514e-16
 1.728163234132299e+01  8.059396740720070e-01 -3.158279991687998e-16
-1.558463769101823e+01 -8.750899659812204e-01  2.863384492493253e-16
-7.188247065134676e+00  1.258097008300521e-01  1.266307820059825e-16
-2.742176971882223e+01  2.196458728890196e+00  4.654352864937835e-16
-9.110681429499023e+00  3.063646042936041e+01 -1.526430578761872e-16
 1.754516943162269e+01 -5.341807445396647e-02 -3.116883673634451e-16
 8.828543645361163e+00  1.163298189860254e-01 -1.583097118678456e-16
-2.087249165445236e+00 -4.748010579776946e-02  3.763292950265979e-17
-4.531403088746885e+00 -1.659817937770959e-03  8.065877723524488e-17
-3.264126843238583e+00  7.018284036445899e-02  5.736792757696471e-17
 4.138262993364245e+00 -8.197563157814766e-02 -7.280305642980932e-17
-2.242958992733426e-01 -5.101000425325119e-03  4.044024015268626e-18
-2.360330213724138e+00  8.043764583154041e-02  4.117842406982312e-17
 3.777347897213744e+00 -7.597742532738391e-02 -6.644177120442435e-17
 2.238960961569924e+01 -9.465125160013835e-01 -3.887247381325358e-16
-1.949700089540860e+01 -5.510054500341367e+00  4.035861961530766e-16
-1.189836099869635e+01  2.269041714964243e+00  1.884319475137211e-16
 1.260304373976696e+01  7.025376542285834e-01 -2.315045159957502e-16
 5.149155690830033e+00 -2.945245468352135e-01 -8.860923492704195e-17
-2.030982719755979e+00 -2.736177452694040e-01  3.895508302983402e-17
-4.732567926637446e+00  4.199085490821278e-01  7.990728366174219e-17
 3.018502442425553e+00  1.113302405404818e-01 -5.486172934373852e-17
 6.642077326588318e-01 -2.138697512740778e-02 -1.160062550054749e-17
 2.259574136929314e+00  4.344983395544658e-02 -4.065824834406089e-17
-2.204576098189934e+00  4.893894957193435e-02  3.873023145483321e-17
 1.918179561017476e+00  2.764318624343354e-02 -3.442031697063030e-17
 7.656545211434108e-01 -5.867626036415928e-03 -1.356544780108012e-17
 5.830845333803899e-01  3.090460200730501e-03 -1.040843815619628e-17
 2.795426809146691e-01 -1.409418280555411e-03 -4.960314197868678e-18
 2.863069071716490e-01  2.979171255990079e-03 -5.125782842034668e-18
 4.823603655717446e-02  3.250696170786897e-04 -8.617577791237450e-19
 3.349890710485212e-01  2.122001469026640e-03 -5.983332903897813e-18
 7.363309300687928e-01 -4.112225932294975e-03 -1.306163560388297e-17
-6.106335870445028e-01 -1.162056296660148e-02  1.098635014401221e-17
 1.125518325006180e-01 -5.832955236073265e-04 -1.997000962659524e-18
-5.316866774982037e-02 -1.075248514743404e-03  9.572476600102065e-19
 3.662771363547372e-01 -5.221188514506338e-03 -6.464692750205509e-18
 1.769950165574086e+00  7.677392448876670e-02 -3.228719864463215e-17
-3.216871353423985e-02  2.983425711680974e-03  5.418270219658374e-19
 2.412445009412559e+00  8.186805029654923e-03 -4.301645305871973e-17
-6.386579127004144e+00 -2.141700561437890e-01  1.158573132772064e-16
-1.388292004483314e+01  1.029603462832086e+00  2.364843207974573e-16
 7.649172832063065e+00 -2.378073723954890e-01 -1.336827704450266e-16
 7.249755618369305e+00  5.647869273037108e-01 -1.348210295560223e-16
-1.460041331860016e+01  5.801122081162904e-02  2.592357267779711e-16
-8.285329569801842e+00  2.875093209775429e-01  1.444932689648853e-16
 1.391239130269131e+01 -1.408796311834237e+00 -2.331127282095119e-16
 8.566519080020836e+00  7.655792514351031e-01 -1.603174742305086e-16
-1.578974690912072e+00 -5.576914185934456e-02  2.867274576651989e-17
-2.982936921325730e+01  8.979485041459850e-01  5.216231122290918e-16
-5.339534904752930e+00  2.248547859354872e+01 -1.360067313414189e-16
 1.632666993401575e+01  7.702895368101812e-01 -2.984670118017445e-16
-2.825237301667960e+00 -1.538141578566084e-01  5.185885244148466e-17
-6.152193752635060e+00 -1.299038628604082e-02  1.096190979308296e-16
-2.672789639680893e+00  1.854945580426886e-02  4.737489093698004e-17
-6.943187890112548e-01  5.054935546836867e-03  1.230429343757209e-17
 2.160820053676407e+00 -1.900438538205312e-02 -3.825910721858907e-17
 7.877655975282700e-01  2.976994923741869e-03 -1.404981601608108e-17
 1.326198397338586e+00 -1.051398380794680e-02 -2.349325506110053e-17
-8.551702220798700e-01 -2.458962838436186e-02  1.547142368806775e-17
 1.008900512654933e+00 -2.864969701508232e-02 -1.766022285017348e-17
-6.313439770151337e-01 -1.713709195251061e-02  1.141159656209075e-17
 6.559399052102161e-01 -1.149377689118291e-02 -1.155513866397444e-17
-9.092778138601648e-01 -3.638167727178217e-02  1.655549183902402e-17
 1.586361995503706e+00 -1.187994073390541e-01 -2.701058324970443e-17
-1.836548796077063e+00 -1.897021717855125e-01  3.463269749032906e-17
 2.302349960346800e-01 -6.807626598396781e-03 -4.027360470874909e-18
-9.402150236642246e-01 -5.519339226932143e-02  1.729933993061256e-17
 1.502743264114937e+00 -1.734813342373492e-01 -2.496065120548426e-17
-5.287105641342901e-01 -1.766899812517317e-02  9.590577694943311e-18
 2.687252030171498e-01 -3.092343121915598e-02 -4.464558499377819e-18
-6.500426930122071e-01 -4.178248903018589e-02  1.199758501127931e-17
 8.085579402671657e-02  4.360773185344749e-03 -1.483730670750459e-18
 1.254235625921334e-01  5.682536703372997e-03 -2.290447906799200e-18
-2.283767310412928e-01  1.031785023973540e-02  3.958224187160098e-18
 2.581851815644917e-01  8.619791541967139e-03 -4.683278522030070e-18
-5.671315170442318e-01  2.516377468014429e-02  9.834233205110940e-18
 1.221070139178001e+00  6.497934959397748e-02 -2.239803883896066e-17
-5.282343911263366e-01  1.799426149363314e-02  9.215676587549397e-18
 1.405016955719752e+00  3.676657932745778e-02 -2.538171593950483e-17
-1.554105759303435e+00  1.629858245027911e-02  2.748970378048681e-17
 5.710923385044677e-01  1.177432478144851e-03 -1.017536707990589e-17
-1.361002930956623e+00  1.281269256703334e-02  2.408902485781303e-17
 2.221772132573202e+00 -1.269287632388208e-02 -3.940867062986060e-17
 7.237325435683466e+00  4.053595033159937e-02 -1.292133312873827e-16
 7.865398677257431e-01  7.130904833522432e-02 -1.473008973199910e-17
-5.980531330616019e+00 -5.234910748918041e-02  1.069685569278775e-16
-7.593171107036566e+00  7.318719897683158e-02  1.343775654330410e-16
 3.666506171852188e-02  2.598268088806702e-02 -9.194611155874649e-19
 1.578609139437676e+01  2.355585619776035e-01 -2.833526053407166e-16
 2.013150632641935e+01  5.232856968382095e+00 -4.120298732629163e-16
-2.231522080393209e+01 -6.807297350138591e-01  4.041202234996105e-16
-6.778071631544157e+00  2.743144970047134e-01  1.178053880657271e-16
 1.936735667221554e+01 -2.049327936120269e+00 -3.236091141200412e-16
 2.921279990566651e+01  4.049949684002159e+00 -5.614883823858146e-16
-2.251573966115604e+01 -6.836141220858624e+00  4.709333126853521e-16
-2.606646249053471e+01  3.020289093311092e+00  4.328514199720107e-16
 1.011140215832677e+01 -1.831158177881047e+00 -1.611299776546548e-16
 3.019014085840579e+01 -5.331989534023511e-01 -5.317911431066738e-16
 4.214473202502329e+00  9.738737746170741e-02 -7.600219777371462e-17
-1.395385441494928e+00 -8.542157548147900e-03  2.492031597587288e-17
-3.686847689083882e-01 -1.638614928549061e-03  6.578021418447670e-18
 3.414359511940256e-01  1.364245494832306e-03 -6.090277154709903e-18
 8.159288741737172e-03  5.742027018538896e-05 -1.457942503583593e-19
-1.247461931651391e+00 -4.971367681470369e-03  2.225115209490504e-17
 1.004416176502449e+00 -1.938918640110960e-03 -1.785486226851619e-17
 1.452278838001452e+00  6.281324559437337e-02 -2.649041761748574e-17
-2.953375707460519e+00 -1.292865760461800e-02  5.269168088832130e-17
 3.408566789015274e-01  1.321626308996599e-04 -6.067309112519813e-18
-1.860909406099782e-01 -7.672282740997109e-04  3.319593243410566e-18
 4.273444969322601e-02 -1.269820460585971e-05 -7.603800412554257e-19
-6.776480199775842e-01 -6.651043914424573e-03  1.212789192488059e-17
-1.094395067263849e-01  1.470289830673911e-04  1.946095902898985e-18
 1.454638510609498e-01  6.505224482482350e-04 -2.595386625554468e-18
-4.018346973615987e-01 -1.191994461714470e-03  7.163375068287413e-18
-2.276308798769838e+00 -4.039592311081985e-03  4.055113563944001e-17
-1.955303450475225e-01 -3.562530128335441e-05  3.480061773741003e-18
 6.649741471055926e-01 -3.769745667278599e-04 -1.183013488526752e-17
 4.741406555419047e-01  1.667495118217312e-03 -8.455031447637576e-18
-4.965453634236663e-02 -8.589104774424892e-05  8.845442030708357e-19
-1.703953093810887e+00 -1.309918180696236e-02  3.045846718639212e-17
-6.719383721052460e+00  1.433149755599167e-01  1.181069391485126e-16
 1.343280262059001e+01 -3.379747499459577e-01 -2.355801780568075e-16
 1.618995417034960e+01  1.730805663053451e+00 -3.059029459741472e-16
-1.117011146785709e+01  1.032149483592582e-01  1.977249615719529e-16
 1.785990532466277e-01  6.329769218358016e-03 -3.243419271503868e-18
-7.836974658644793e+00  1.021861729151572e-02  1.393633197465685e-16
-1.220157601478795e+01  1.552957327350778e+00  2.011855274237607e-16
 3.332413805169697e+00  3.399710263033717e-03 -5.933920949971091e-17
-6.349229772997841e-01 -6.471657551138211e-03  1.136570567203138e-17
-1.615597726076766e+01  4.111458746354503e-01  2.832905121805951e-16
 8.422167222758810e+00 -2.363934093793093e-01 -1.474536556383682e-16
 8.117782529726668e+00  3.527039164035434e-01 -1.480895279717873e-16
-3.089610622894028e+00  2.235067581426228e-02  5.475366137780311e-17
 1.226654057112656e-01 -1.088640326454235e-03 -2.171791901667869e-18
 8.036665290801805e-02 -3.747616639844831e-04 -1.426369919499796e-18
 7.290809390772149e-04 -3.407423450633305e-06 -1.293985537435245e-20
 8.090467028913198e-02 -4.360051603161011e-04 -1.435315320517603e-18
 3.652610739956255e-01 -1.881938567141193e-03 -6.480920271963020e-18
 3.452546367947692e-01 -1.114103356350662e-03 -6.132771096713588e-18
-3.161217707695761e-01  1.085954715171703e-03  5.614606218615797e-18
 3.087417960554998e-01 -3.721511898290632e-03 -5.456191408523487e-18
 1.937032312362611e+00 -8.534443376765436e-03 -3.438411228229304e-17
-2.318053114104978e+00 -2.309436995156950e-02  4.148980649885619e-17
-2.715076053076643e+01  6.362256278800814e-01  4.766431830406091e-16
-8.791607038140537e+00  1.374879716493487e+00  1.423307446232994e-16
 2.570203667945870e+01 -2.319432540744711e+00 -4.335670744385625e-16
 2.184833556808594e+01  5.229781774848105e+00 -4.425513009782334e-16
-2.041893036848498e+01 -3.742019168295932e+00  4.018271100761353e-16
-2.803020033485257e+01  7.868743622679464e+00  4.179823683587595e-16
 1.922029141137144e+01 -3.458274039106988e+00 -3.065155029918748e-16
 1.948818141918817e+01  1.015716535280648e-01 -3.478590465295181e-16
 5.185335096626800e+00  1.900382141294527e-01 -9.423179694736471e-17
-7.066015344005660e+00 -2.269615835817992e-01  1.280801195174408e-16
-1.849148139895084e+01  1.277057515447423e+00  3.159566668790784e-16
 2.226882774799296e+01 -2.672081762958519e+00 -3.688456835484490e-16
 1.642647262182011e+01  3.237252663699814e+00 -3.255902696301688e-16
-9.568400309383026e+00  1.791279883412596e-01  1.684406220985621e-16
 1.124695367030522e+00  7.301721563823214e-03 -2.009031819216347e-17
 3.341407572090025e-01  1.254093134297956e-03 -5.959318704546751e-18
 1.264879645504735e+00  5.736263992621730e-03 -2.256898010735962e-17
 6.523591518818478e-01  4.239444350769973e-03 -1.165306802057257e-17
 2.830900838625237e-01  1.818927471612488e-03 -5.056614545641540e-18
 9.643176111117292e-01  4.338467007807803e-03 -1.720575834500030e-17
 2.293177886268608e+00  4.167731857646792e-02 -4.123805501895591e-17
 1.046045835481771e-01  1.010086322706316e-03 -1.871941631551897e-18
 2.057841240873862e+00 -2.347031312354434e-03 -3.659762467307966e-17
-1.257610466129215e+00 -1.148055919969464e-02  2.249863694658846e-17
 9.283730034228940e-01  1.411284089056375e-02 -1.666650929198713e-17
-1.102796897434003e+01 -1.089819600408976e-01  1.973756126306056e-16
-2.679206516742423e-01 -1.465614685083443e-03  4.783026238550959e-18
 8.339806007768854e-01  5.366145046043107e-03 -1.489681478688171e-17
 3.960138885337555e+00  2.302462242268146e-02 -7.071196492047392e-17
-1.235412004008131e+01 -1.401362149395863e+00  2.342547896546450e-16
-9.478583172266813e+00  7.995500978312934e-01  1.604676072182625e-16
 1.027683376898758e+01 -2.062482019583082e-01 -1.807693902134746e-16
 2.634242052536838e+01  4.428563814662135e+00 -5.142966800504574e-16
-2.120408310261535e+01 -2.590829082810447e+00  4.039717796048053e-16
-9.961900880828777e+00  8.495616105136869e-01  1.685549722467873e-16
 5.221521541494532e+00  3.444908816292308e-02 -9.327715615563794e-17
 8.717539671933539e+00  2.851516532930180e-02 -1.554320000580450e-16
 5.101231207009085e-01  2.096140924679293e-02 -9.293620277464595e-18
-4.643818813309045e+00 -6.715126488081737e-02  8.333224998741856e-17
-1.059289994776655e+01  2.639081036104284e-01  1.858017303351429e-16
 8.531069797235981e+00 -1.478192707470160e-01 -1.503017739277137e-16
 4.185961438462549e+00  7.745210247333478e-02 -7.528996921170930e-17
-9.534903172233383e-01 -2.242271643980139e-02  1.719888282668855e-17
-2.382463803766510e+00 -2.278674355174368e-02  4.263291082099906e-17
-7.396037626252476e-01 -4.757688028874984e-04  1.316701960104917e-17
 7.033447639353139e-02  8.089951784910285e-05 -1.252517121886082e-18
-4.949215307041790e+00  1.545837496370271e-01  8.648889815481824e-17
 7.089169270184164e+00 -1.172277348126255e-01 -1.249557510389261e-16
 3.093093328849934e+01  2.473606254155174e+00 -5.758682592881579e-16
-7.527865094024703e+00  3.105899048249572e+01 -1.851525054271528e-16
-2.850116234320528e+01 -7.399527785048972e-01  5.148149273096765e-16
 1.305945215361309e+00 -1.124914293929063e-01 -2.208504432824576e-17
 2.716589421429276e+00 -3.588696379720374e-02 -4.797622370318689e-17
 1.275271400524036e+00 -1.936843342299995e-03 -2.267507540749064e-17
 1.569432970221168e+00  2.635686688748459e-03 -2.795701251788723e-17
 1.511701457331698e+00  2.065579114322692e-02 -2.711476141071045e-17
-3.363952060072256e+00 -3.522285713122585e-02  6.022744163781037e-17
-7.217678967651409e+00  9.532769733182077e-02  1.274677493201007e-16
-1.037101200929094e+00  6.409993042342803e-02  1.779784947602800e-17
 1.139940640564505e+01 -3.867621147466098e-01 -1.988921944643098e-16
 6.972597083191917e+00  1.803117550827104e-01 -1.259383200917431e-16
-5.086339372062518e+00 -1.406188975308053e-01  9.196228442115894e-17
-1.248798640165452e+01  4.374734185444746e-01  2.177437337728881e-16
-1.654762549431623e+00  7.310707994102250e-02  2.869732474839801e-17
 1.302989908109007e+01 -2.776926912257255e-01 -2.290294052521656e-16
 9.958416693253453e+00  1.740086880533591e+00 -1.951006644601552e-16
-7.308906158969351e+00 -2.035148705833268e-01  1.321617448415661e-16
-2.138257456295493e+01  6.679816265540199e-01  3.736651518549689e-16
 1.021059164207849e+00 -1.575386988641869e+00 -1.984435713324586e-18
 2.060999920595140e+01 -5.741057857760348e-01 -3.608807919758983e-16
-1.304319988051851e+00 -4.890239079147285e-02  2.371438433734020e-17
 1.847958844602752e+00 -3.628449280149975e-02 -3.251382197117162e-17
 1.954627149353223e+00  1.137014350681852e-03 -3.479660409739140e-17
-4.267965373697679e+00 -3.303964033722783e-02  7.629300514028576e-17
-3.814267599705135e+00  7.364572814321761e-02  6.712275864840834e-17
 3.796173896389080e+00 -1.977642566706387e-01 -6.552548681636138e-17
 2.108538022209128e+00  1.622741961560502e-02 -3.769068011063728e-17
-1.672877335245863e-01  2.234197679975612e-02  2.747528997359852e-18
-1.593033332544908e+00 -2.725108424061001e-02  2.862992338459375e-17
 2.348683361286670e+00 -1.393654999585463e-01 -4.036569214047910e-17
 4.595089576483881e-01 -5.731832679828527e-03 -8.118617532606734e-18
 1.018096736315905e+01 -1.116144859778151e+00 -1.697144755817327e-16
-1.069733689339218e+01 -2.032118861328542e+00  2.112511533395373e-16
-2.344605082971016e+01  9.499127932438043e+00  3.196503532325717e-16
 1.698823522845713e+01  5.660774480997575e-01 -3.081421503485931e-16
 1.648642151884027e+01 -6.897739673331027e-01 -2.863083596811346e-16
-2.777740527717722e+01 -1.020769139860808e+01  5.992123819537076e-16
 3.736120792509142e+00 -5.408200282749425e-01 -6.093199677572889e-17
 1.905733294740065e+01  5.820530167618075e+00 -3.989518052444745e-16
-1.129005901134197e+01  3.966407947713312e-01  1.968447272973389e-16
-1.036401347433128e+01 -1.221000810833287e-01  1.856945163983854e-16
 1.087563632635331e+01 -9.803256056789781e-01 -1.834724318899016e-16
 4.211603439153266e+00  4.123784862664104e-01 -7.918754613978312e-17
-3.479860595873149e+00  2.046728642221185e-01  5.982533088779785e-17
-2.773201202751626e+00 -1.229903867967904e-01  5.061610493331390e-17
 1.030033180942369e+01 -3.905912318896623e+00 -1.431748614426123e-16
-2.141196590868293e+00 -1.140827856169658e-01  3.927730661122710e-17
-7.450527463002949e+00  1.498116555538440e+00  1.171984201285557e-16
 2.305550310948472e+01  1.754981899534269e-01 -4.121033595794481e-16
 2.847744837821379e+00  6.155184884304713e-01 -5.700324515591987e-17
-2.931927436517539e+01  1.834854036806473e+00  5.029190019692612e-16
 3.395559622355498e+00 -1.819148873681751e-01 -5.855892446883556e-17
 7.114650064412396e+00  1.139122830251539e-01 -1.277840918883668e-16
 1.883540316755934e+00  3.193334118036657e-02 -3.384795018483281e-17
-9.315151731217404e-01 -1.624277642446366e-02  1.674431228567015e-17
-5.611837086185889e+00 -6.030106902631762e-02  1.004889065670005e-16
-1.893136864298993e+01  8.148911557519367e-01  3.285335765405352e-16
 6.128418897980826e-01  3.467701254780662e-03 -1.094188182091227e-17
 1.641636937868023e+01 -1.447286718169116e-01 -2.906618407211743e-16
-8.366026883595229e+00 -2.075388308712051e+00  1.702072886932432e-16
-2.397946927683418e+01  1.914941137655734e+00  4.070679349814648e-16
 1.239110495512080e+01 -1.465006478067081e+00 -2.054620839541679e-16
 1.975215951165637e+01 -5.737487266928876e-01 -3.456181800055492e-16
-3.455863546323917e+00  3.140616717835148e+01 -2.611857443014332e-16
-2.134557428469924e+01  1.255194691670103e+00  3.669732868422505e-16
-4.492156110164677e-01  2.107287385574367e-02  7.777811518120462e-18
 8.044714485367381e+00 -1.673021671442562e-01 -1.414463213575178e-16
 3.022926520166571e+00  1.447361482641538e-01 -5.528369464854736e-17
-4.406376693190382e+00 -2.282000954181843e-02  7.865119667938643e-17
-1.490084082964112e+00  6.385530899563408e-05  2.651716760173668e-17
-2.078802910184673e+00  1.548653452198449e-02  3.683565895536019e-17
-1.092724985630882e-01  6.283820375819095e-04  1.938178058904091e-18
 2.827974148302425e+00 -1.699333472698636e-02 -5.015257295620434e-17
 4.637364434800586e+00  7.800303224222413e-02 -8.332888458120282e-17
-2.651139632264313e-01 -2.415510516221128e-03  4.742837708209723e-18
-6.254588023071226e-01 -3.259203448287984e-03  1.116427259323599e-17
-1.800794016616997e+00 -2.078023015515008e-03  3.206862852353749e-17
 2.677382266197829e-02  4.095249161201981e-03 -5.185493193832302e-19
-4.908498358362321e-01  6.132972158050762e-02  8.105117725710631e-18
 2.921625499162074e+01  1.240430176542653e+00 -5.326830774350486e-16
-1.189113637104406e+01  2.963558139884609e+01 -9.287787704447425e-17
-1.209327678551959e+01  1.066213549340501e+00  2.042593288859317e-16
 8.184406818867298e+00  3.102578235428268e-01 -1.488390684800635e-16
 3.821091579431879e+00 -9.107126821343199e-02 -6.706515841712950e-17
 5.292777494136243e+00  1.218448142567740e-01 -9.544320016143185e-17
-1.141929686106515e+01 -3.542674387568035e-01  2.068599783123346e-16
-8.317129615671240e+00  3.116851325365228e+00  1.159887278779917e-16
 1.156945304334986e+01  1.188832551302319e-01 -2.071136997186087e-16
 2.525506950021508e+00 -1.277783707514159e-02 -4.481312107627126e-17
-1.334827463359134e-02  2.618395850359719e-03  2.106454077579524e-19
 3.967457985607301e-01 -2.779835297847411e-03 -7.032002956840935e-18
 1.434039507534262e+01 -2.975513380891440e-02 -2.548987130150983e-16
-1.824480490811237e+01 -1.150082953765617e+00  3.365047510830887e-16
-1.289016970421351e+01  1.554198641859902e+00  2.134271193883485e-16
 1.542657746148923e+01 -1.225607656348768e+00 -2.619416739748979e-16
 2.193179942021001e+01  5.177250983817957e+00 -4.434969049845092e-16
-2.324765489740410e+01  1.630206165389622e+00  3.969699735686066e-16
 7.317045286176043e+00 -6.455940531707946e-02 -1.295522245157619e-16
 9.478211984147709e+00  4.808203150516452e-02 -1.691701136853653e-16
 1.635115103807606e+01  1.286850072216581e+00 -3.042101540921078e-16
-2.566944982593301e+01 -4.447149480250018e+00  5.025113247039969e-16
 1.061316845478063e+01 -1.172894336771559e+00 -1.768229292669180e-16
-3.876173251098060e+00 -2.793070088978071e+00  9.767890717794155e-17
 1.260439653765171e+01 -5.026011312104652e+00 -1.726698309755410e-16
 6.453260179738398e+00  1.573272465628495e+00 -1.310082656878376e-16
-1.371075923583847e+01  2.818474816658914e+00  2.150405105230513e-16
 1.379705709370266e+01  3.907854275372759e-01 -2.495502670150961e-16
-2.010915863529788e+00 -1.347019456421984e-01  3.717066005689365e-17
 6.599537514890421e+00 -3.022285249479523e-03 -1.174155894077822e-16
-4.434902788959341e+00 -4.009620638137001e-01  8.304412482234413e-17
-3.826781360293309e+00  4.106601114318661e-01  6.388275559428803e-17
 4.586661581445059e+00  4.034971513998699e-01 -8.577090065997933e-17
 2.300725567310741e-01 -1.537457240856576e-02 -3.936447441154024e-18
-1.030618473753557e+01 -1.278671463306126e+00  1.965487358769463e-16
-1.191697093646910e+01 -1.378446155798423e-01  2.134930162416634e-16
-1.965487378644647e+00 -1.318934630259501e-02  3.511370816314896e-17
 3.890203243388310e+00  1.765254324459893e-03 -6.924894446546547e-17
 1.625330605600060e+01  8.526268276499743e-01 -2.980073998312394e-16
-2.832298687768788e+00 -5.244295632826059e-01  5.579245686853705e-17
-2.507984027562815e+01  2.091965465743800e+00  4.248314888103334e-16
 2.268463642144811e+01 -8.465751526226075e+00 -3.167176427669236e-16
 2.373619869023715e+01  7.138907707919461e+00 -4.957636525941580e-16
-2.607620720291886e+01 -1.852761459364895e+01  6.544217214019572e-16
-1.616096184601834e+01  3.392894771256930e+00  2.527428322986504e-16
 3.711985558666958e+00  8.806431196967285e-01 -7.510749901050768e-17
 1.692681431127005e+01 -4.488733346116807e+00 -2.551127471958927e-16
-4.277746673974231e+00 -1.853437593936686e+01  2.665615845893196e-16
-1.588534393550283e+01  2.794692310003031e+00  2.539841958022204e-16
 2.797237662405336e+00  3.047911065683975e-01 -5.291179875592241e-17
-8.498115839165250e+00  2.491615316476222e+00  1.256336659657079e-16
 1.073855216776921e+01  1.671694017602729e+00 -2.082813939693670e-16
-1.277810346250297e+00  1.809958086944909e-01  2.088049320096958e-17
-1.431592882575053e+00 -8.820934971457295e-02  2.638322203915644e-17
-1.727222209839982e+00  2.178365050237301e-01  2.849978857399534e-17
 1.117180416388739e+01  9.431107803645548e-01 -2.085057019697973e-16
-1.500473410203386e+01 -6.696922776937538e-01  2.739079865102753e-16
-1.225617213437281e+01  7.853635057780127e-01  2.100438780882950e-16
 7.093932702588569e+00 -3.446998752084952e-01 -1.227033283925495e-16
 4.434065178485637e+00 -1.599127411702756e-02 -7.874517446312613e-17
 7.620558549500308e-01  3.083125238050710e-03 -1.359337094334831e-17
-2.222344669415039e+00 -6.799018135615446e-03  3.961913174170751e-17
 1.053555768324007e+00 -2.914820170768806e-02 -1.844979442399436e-17
-8.001020540467517e+00 -3.446547401247830e-01  1.459289066902595e-16
-2.043870003329684e+00  7.223278138198735e-02  3.563093916879013e-17
 1.321198332570747e-01  1.717199018168745e-02 -2.527665996117863e-18
-3.245847496701135e+00  3.304883589832935e-02  5.742416320775441e-17
-4.201511054999923e+00  8.001862335682529e-02  7.394873867994715e-17
-8.033726706784561e+00  5.420980032013885e-01  1.373998896814579e-16
 1.652262635569868e+01 -6.397114098236877e-01 -2.874670425510034e-16
-5.766515793450346e+00 -8.199216498566471e-01  1.110464241949737e-16
VECTORS SF_force double
0.000000000000000e+00 0.000000000000000e+00 0.000000000000000e+00
0.000000000000000e+00 0.000000000000000e+00 0.000000000000000e+00
0.000000000000000e+00 0.000000000000000e+00 0.000000000000000e+00
0.000000000000000e+00 0.000000000000000e+00 0.000000000000000e+00
0.000000000000000e+00 0.000000000000000e+00 0.000000000000000e+00
0.000000000000000e+00 0.000000000000000e+00 0.000000000000000e+00
0.000000000000000e+00 0.000000000000000e+00 0.000000000000000e+00
0.000000000000000e+00 0.000000000000000e+00 0.000000000000000e+00
0.000000000000000e+00 0.000000000000000e+00 0.000000000000000e+00
0.000000000000000e+00 0.000000000000000e+00 0.000000000000000e+00
0.000000000000000e+00 0.000000000000000e+00 0.000000000000000e+00
0.000000000000000e+00 0.000000000000000e+00 0.000000000000000e+00
0.000000000000000e+00 0.000000000000000e+00 0.000000000000000e+00
0.000000000000000e+00 0.000000000000000e+00 0.000000000000000e+00
0.000000000000000e+00 0.000000000000000e+00 0.000000000000000e+00
0.000000000000000e+00 0.000000000000000e+00 0.000000000000000e+00
0.000000000000000e+00 0.000000000000000e+00 0.000000000000000e+00
0.000000000000000e+00 0.000000000000000e+00 0.000000000000000e+00
0.000000000000000e+00 0.000000000000000e+00 0.000000000000000e+00
0.000000000000000e+00 0.000000000000000e+00 0.000000000000000e+00
0.000000000000000e+00 0.000000000000000e+00 0.000000000000000e+00
0.000000000000000e+00 0.000000000000000e+00 0.000000000000000e+00
0.000000000000000e+00 0.000000000000000e+00 0.000000000000000e+00
0.000000000000000e+00 0.000000000000000e+00 0.000000000000000e+00
0.000000000000000e+00 0.000000000000000e+00 0.000000000000000e+00
0.000000000000000e+00 0.000000000000000e+00 0.000000000000000e+00
0.000000000000000e+00 0.000000000000000e+00 0.000000000000000e+00
0.000000000000000e+00 0.000000000000000e+00 0.000000000000000e+00
0.000000000000000e+00 0.000000000000000e+00 0.000000000000000e+00
0.000000000000000e+00 0.000000000000000e+00 0.000000000000000e+00
0.000000000000000e+00 0.000000000000000e+00 0.000000000000000e+00
0.000000000000000e+00 0.000000000000000e+00 0.000000000000000e+00
0.000000000000000e+00 0.000000000000000e+00 0.000000000000000e+00
0.000000000000000e+00 0.000000000000000e+00 0.000000000000000e+00
0.000000000000000e+00 0.000000000000000e+00 0.000000000000000e+00
0.000000000000000e+00 0.000000000000000e+00 0.000000000000000e+00
0.000000000000000e+00 0.000000000000000e+00 0.000000000000000e+00
0.000000000000000e+00 0.000000000000000e+00 0.000000000000000e+00
0.000000000000000e+00 0.000000000000000e+00 0.000000000000000e+00
0.000000000000000e+00 0.000000000000000e+00 0.000000000000000e+00
0.000000000000000e+00 0.000000000000000e+00 0.000000000000000e+00
0.000000000000000e+00 0.000000000000000e+00 0.000000000000000e+00
0.000000000000000e+00 0.000000000000000e+00 0.000000000000000e+00
0.000000000000000e+00 0.000000000000000e+00 0.000000000000000e+00
0.000000000000000e+00 0.000000000000000e+00 0.000000000000000e+00
0.000000000000000e+00 0.000000000000000e+00 0.000000000000000e+00
0.000000000000000e+00 0.000000000000000e+00 0.000000000000000e+00
0.000000000000000e+00 0.000000000000000e+00 0.000000000000000e+00
0.000000000000000e+00 0.000000000000000e+00 0.000000000000000e+00
0.000000000000000e+00 0.000000000000000e+00 0.000000000000000e+00
0.000000000000000e+00 0.000000000000000e+00 0.000000000000000e+00
0.000000000000000e+00 0.000000000000000e+00 0.000000000000000e+00
0.000000000000000e+00 0.000000000000000e+00 0.000000000000000e+00
0.000000000000000e+00 0.000000000000000e+00 0.000000000000000e+00
0.000000000000000e+00 0.000000000000000e+00 0.000000000000000e+00
0.000000000000000e+00 0.000000000000000e+00 0.000000000000000e+00
0.000000000000000e+00 0.000000000000000e+00 0.000000000000000e+00
0.000000000000000e+00 0.000000000000000e+00 0.000000000000000e+00
0.000000000000000e+00 0.000000000000000e+00 0.000000000000000e+00
0.000000000000000e+00 0.000000000000000e+00 0.000000000000000e+00
0.000000000000000e+00 0.000000000000000e+00 0.000000000000000e+00
0.000000000000000e+00 0.000000000000000e+00 0.000000000000000e+00
0.000000000000000e+00 0.000000000000000e+00 0.000000000000000e+00
0.000000000000000e+00 0.000000000000000e+00 0.000000000000000e+00
0.000000000000000e+00 0.000000000000000e+00 0.000000000000000e+00
0.000000000000000e+00 0.000000000000000e+00 0.000000000000000e+00
0.000000000000000e+00 0.000000000000000e+00 0.000000000000000e+00
0.000000000000000e+00 0.000000000000000e+00 0.000000000000000e+00
0.000000000000000e+00 0.000000000000000e+00 0.000000000000000e+00
0.000000000000000e+00 0.000000000000000e+00 0.000000000000000e+00
0.000000000000000e+00 0.000000000000000e+00 0.000000000000000e+00
0.000000000000000e+00 0.000000000000000e+00 0.000000000000000e+00
0.000000000000000e+00 0.000000000000000e+00 0.000000000000000e+00
0.000000000000000e+00 0.000000000000000e+00 0.000000000000000e+00
0.000000000000000e+00 0.000000000000000e+00 0.000000000000000e+00
0.000000000000000e+00 0.000000000000000e+00 0.000000000000000e+00
0.000000000000000e+00 0.000000000000000e+00 0.000000000000000e+00
0.000000000000000e+00 0.000000000000000e+00 0.000000000000000e+00
0.000000000000000e+00 0.000000000000000e+00 0.000000000000000e+00
0.000000000000000e+00 0.000000000000000e+00 0.000000000000000e+00
0.000000000000000e+00 0.000000000000000e+00 0.000000000000000e+00
0.000000000000000e+00 0.000000000000000e+00 0.000000000000000e+00
0.000000000000000e+00 0.000000000000000e+00 0.000000000000000e+00
0.000000000000000e+00 0.000000000000000e+00 0.000000000000000e+00
0.000000000000000e+00 0.000000000000000e+00 0.000000000000000e+00
0.000000000000000e+00 0.000000000000000e+00 0.000000000000000e+00
0.000000000000000e+00 0.000000000000000e+00 0.000000000000000e+00
0.000000000000000e+00 0.000000000000000e+00 0.000000000000000e+00
0.000000000000000e+00 0.000000000000000e+00 0.000000000000000e+00
0.000000000000000e+00 0.000000000000000e+00 0.000000000000000e+00
0.000000000000000e+00 0.000000000000000e+00 0.000000000000000e+00
0.000000000000000e+00 0.000000000000000e+00 0.000000000000000e+00
0.000000000000000e+00 0.000000000000000e+00 0.000000000000000e+00
0.000000000000000e+00 0.000000000000000e+00 0.000000000000000e+00
0.000000000000000e+00 0.000000000000000e+00 0.000000000000000e+00
0.000000000000000e+00 0.000000000000000e+00 0.000000000000000e+00
0.000000000000000e+00 0.000000000000000e+00 0.000000000000000e+00
0.000000000000000e+00 0.000000000000000e+00 0.000000000000000e+00
0.000000000000000e+00 0.000000000000000e+00 0.000000000000000e+00
0.000000000000000e+00 0.000000000000000e+00 0.000000000000000e+00
0.000000000000000e+00 0.000000000000000e+00 0.000000000000000e+00
0.000000000000000e+00 0.000000000000000e+00 0.000000000000000e+00
0.000000000000000e+00 0.000000000000000e+00 0.000000000000000e+00
0.000000000000000e+00 0.000000000000000e+00 0.000000000000000e+00
0.000000000000000e+00 0.000000000000000e+00 0.000000000000000e+00
0.000000000000000e+00 0.000000000000000e+00 0.000000000000000e+00
0.000000000000000e+00 0.000000000000000e+00 0.000000000000000e+00
0.000000000000000e+00 0.000000000000000e+00 0.000000000000000e+00
0.000000000000000e+00 0.000000000000000e+00 0.000000000000000e+00
0.000000000000000e+00 0.000000000000000e+00 0.000000000000000e+00
0.000000000000000e+00 0.000000000000000e+00 0.000000000000000e+00
0.000000000000000e+00 0.000000000000000e+00 0.000000000000000e+00
0.000000000000000e+00 0.000000000000000e+00 0.000000000000000e+00
0.000000000000000e+00 0.000000000000000e+00 0.000000000000000e+00
0.000000000000000e+00 0.000000000000000e+00 0.000000000000000e+00
0.000000000000000e+00 0.000000000000000e+00 0.000000000000000e+00
0.000000000000000e+00 0.000000000000000e+00 0.000000000000000e+00
0.000000000000000e+00 0.000000000000000e+00 0.000000000000000e+00
0.000000000000000e+00 0.000000000000000e+00 0.000000000000000e+00
0.000000000000000e+00 0.000000000000000e+00 0.000000000000000e+00
0.000000000000000e+00 0.000000000000000e+00 0.000000000000000e+00
0.000000000000000e+00 0.000000000000000e+00 0.000000000000000e+00
0.000000000000000e+00 0.000000000000000e+00 0.000000000000000e+00
0.000000000000000e+00 0.000000000000000e+00 0.000000000000000e+00
0.000000000000000e+00 0.000000000000000e+00 0.000000000000000e+00
0.000000000000000e+00 0.000000000000000e+00 0.000000000000000e+00
0.000000000000000e+00 0.000000000000000e+00 0.000000000000000e+00
0.000000000000000e+00 0.000000000000000e+00 0.000000000000000e+00
0.000000000000000e+00 0.000000000000000e+00 0.000000000000000e+00
0.000000000000000e+00 0.000000000000000e+00 0.000000000000000e+00
0.000000000000000e+00 0.000000000000000e+00 0.000000000000000e+00
0.000000000000000e+00 0.000000000000000e+00 0.000000000000000e+00
0.000000000000000e+00 0.000000000000000e+00 0.000000000000000e+00
0.000000000000000e+00 0.000000000000000e+00 0.000000000000000e+00
0.000000000000000e+00 0.000000000000000e+00 0.000000000000000e+00
0.000000000000000e+00 0.000000000000000e+00 0.000000000000000e+00
0.000000000000000e+00 0.000000000000000e+00 0.000000000000000e+00
0.000000000000000e+00 0.000000000000000e+00 0.000000000000000e+00
0.000000000000000e+00 0.000000000000000e+00 0.000000000000000e+00
0.000000000000000e+00 0.000000000000000e+00 0.000000000000000e+00
0.000000000000000e+00 0.000000000000000e+00 0.000000000000000e+00
0.000000000000000e+00 0.000000000000000e+00 0.000000000000000e+00
0.000000000000000e+00 0.000000000000000e+00 0.000000000000000e+00
0.000000000000000e+00 0.000000000000000e+00 0.000000000000000e+00
0.000000000000000e+00 0.000000000000000e+00 0.000000000000000e+00
0.000000000000000e+00 0.000000000000000e+00 0.000000000000000e+00
0.000000000000000e+00 0.000000000000000e+00 0.000000000000000e+00
0.000000000000000e+00 0.000000000000000e+00 0.000000000000000e+00
0.000000000000000e+00 0.000000000000000e+00 0.000000000000000e+00
0.000000000000000e+00 0.000000000000000e+00 0.000000000000000e+00
0.000000000000000e+00 0.000000000000000e+00 0.000000000000000e+00
0.000000000000000e+00 0.000000000000000e+00 0.000000000000000e+00
0.000000000000000e+00 0.000000000000000e+00 0.000000000000000e+00
0.000000000000000e+00 0.000000000000000e+00 0.000000000000000e+00
0.000000000000000e+00 0.000000000000000e+00 0.000000000000000e+00
0.000000000000000e+00 0.000000000000000e+00 0.000000000000000e+00
0.000000000000000e+00 0.000000000000000e+00 0.000000000000000e+00
0.000000000000000e+00 0.000000000000000e+00 0.000000000000000e+00
0.000000000000000e+00 0.000000000000000e+00 0.000000000000000e+00
0.000000000000000e+00 0.000000000000000e+00 0.000000000000000e+00
0.000000000000000e+00 0.000000000000000e+00 0.000000000000000e+00
0.000000000000000e+00 0.000000000000000e+00 0.000000000000000e+00
0.000000000000000e+00 0.000000000000000e+00 0.000000000000000e+00
0.000000000000000e+00 0.000000000000000e+00 0.000000000000000e+00
0.000000000000000e+00 0.000000000000000e+00 0.000000000000000e+00
0.000000000000000e+00 0.000000000000000e+00 0.000000000000000e+00
0.000000000000000e+00 0.000000000000000e+00 0.000000000000000e+00
0.000000000000000e+00 0.000000000000000e+00 0.000000000000000e+00
0.000000000000000e+00 0.000000000000000e+00 0.000000000000000e+00
0.000000000000000e+00 0.000000000000000e+00 0.000000000000000e+00
0.000000000000000e+00 0.000000000000000e+00 0.000000000000000e+00
0.000000000000000e+00 0.000000000000000e+00 0.000000000000000e+00
0.000000000000000e+00 0.000000000000000e+00 0.000000000000000e+00
0.000000000000000e+00 0.000000000000000e+00 0.000000000000000e+00
0.000000000000000e+00 0.000000000000000e+00 0.000000000000000e+00
0.000000000000000e+00 0.000000000000000e+00 0.000000000000000e+00
0.000000000000000e+00 0.000000000000000e+00 0.000000000000000e+00
0.000000000000000e+00 0.000000000000000e+00 0.000000000000000e+00
0.000000000000000e+00 0.000000000000000e+00 0.000000000000000e+00
0.000000000000000e+00 0.000000000000000e+00 0.000000000000000e+00
0.000000000000000e+00 0.000000000000000e+00 0.000000000000000e+00
0.000000000000000e+00 0.000000000000000e+00 0.000000000000000e+00
0.000000000000000e+00 0.000000000000000e+00 0.000000000000000e+00
0.000000000000000e+00 0.000000000000000e+00 0.000000000000000e+00
0.000000000000000e+00 0.000000000000000e+00 0.000000000000000e+00
0.000000000000000e+00 0.000000000000000e+00 0.000000000000000e+00
0.000000000000000e+00 0.000000000000000e+00 0.000000000000000e+00
0.000000000000000e+00 0.000000000000000e+00 0.000000000000000e+00
0.000000000000000e+00 0.000000000000000e+00 0.000000000000000e+00
0.000000000000000e+00 0.000000000000000e+00 0.000000000000000e+00
0.000000000000000e+00 0.000000000000000e+00 0.000000000000000e+00
0.000000000000000e+00 0.000000000000000e+00 0.000000000000000e+00
0.000000000000000e+00 0.000000000000000e+00 0.000000000000000e+00
0.000000000000000e+00 0.000000000000000e+00 0.000000000000000e+00
0.000000000000000e+00 0.000000000000000e+00 0.000000000000000e+00
0.000000000000000e+00 0.000000000000000e+00 0.000000000000000e+00
0.000000000000000e+00 0.000000000000000e+00 0.000000000000000e+00
0.000000000000000e+00 0.000000000000000e+00 0.000000000000000e+00
0.000000000000000e+00 0.000000000000000e+00 0.000000000000000e+00
0.000000000000000e+00 0.000000000000000e+00 0.000000000000000e+00
0.000000000000000e+00 0.000000000000000e+00 0.000000000000000e+00
0.000000000000000e+00 0.000000000000000e+00 0.000000000000000e+00
0.000000000000000e+00 0.000000000000000e+00 0.000000000000000e+00
0.000000000000000e+00 0.000000000000000e+00 0.000000000000000e+00
0.000000000000000e+00 0.000000000000000e+00 0.000000000000000e+00
0.000000000000000e+00 0.000000000000000e+00 0.000000000000000e+00
0.000000000000000e+00 0.000000000000000e+00 0.000000000000000e+00
0.000000000000000e+00 0.000000000000000e+00 0.000000000000000e+00
0.000000000000000e+00 0.000000000000000e+00 0.000000000000000e+00
0.000000000000000e+00 0.000000000000000e+00 0.000000000000000e+00
0.000000000000000e+00 0.000000000000000e+00 0.000000000000000e+00
0.000000000000000e+00 0.000000000000000e+00 0.000000000000000e+00
0.000000000000000e+00 0.000000000000000e+00 0.000000000000000e+00
0.000000000000000e+00 0.000000000000000e+00 0.000000000000000e+00
0.000000000000000e+00 0.000000000000000e+00 0.000000000000000e+00
0.000000000000000e+00 0.000000000000000e+00 0.000000000000000e+00
0.000000000000000e+00 0.000000000000000e+00 0.000000000000000e+00
0.000000000000000e+00 0.000000000000000e+00 0.000000000000000e+00
0.000000000000000e+00 0.000000000000000e+00 0.000000000000000e+00
0.000000000000000e+00 0.000000000000000e+00 0.000000000000000e+00
0.000000000000000e+00 0.000000000000000e+00 0.000000000000000e+00
0.000000000000000e+00 0.000000000000000e+00 0.000000000000000e+00
0.000000000000000e+00 0.000000000000000e+00 0.000000000000000e+00
0.000000000000000e+00 0.000000000000000e+00 0.000000000000000e+00
0.000000000000000e+00 0.000000000000000e+00 0.000000000000000e+00
0.000000000000000e+00 0.000000000000000e+00 0.000000000000000e+00
0.000000000000000e+00 0.000000000000000e+00 0.000000000000000e+00
0.000000000000000e+00 0.000000000000000e+00 0.000000000000000e+00
0.000000000000000e+00 0.000000000000000e+00 0.000000000000000e+00
0.000000000000000e+00 0.000000000000000e+00 0.000000000000000e+00
0.000000000000000e+00 0.000000000000000e+00 0.000000000000000e+00
0.000000000000000e+00 0.000000000000000e+00 0.000000000000000e+00
0.000000000000000e+00 0.000000000000000e+00 0.000000000000000e+00
0.000000000000000e+00 0.000000000000000e+00 0.000000000000000e+00
0.000000000000000e+00 0.000000000000000e+00 0.000000000000000e+00
0.000000000000000e+00 0.000000000000000e+00 0.000000000000000e+00
0.000000000000000e+00 0.000000000000000e+00 0.000000000000000e+00
0.000000000000000e+00 0.000000000000000e+00 0.000000000000000e+00
0.000000000000000e+00 0.000000000000000e+00 0.000000000000000e+00
0.000000000000000e+00 0.000000000000000e+00 0.000000000000000e+00
0.000000000000000e+00 0.000000000000000e+00 0.000000000000000e+00
0.000000000000000e+00 0.000000000000000e+00 0.000000000000000e+00
0.000000000000000e+00 0.000000000000000e+00 0.000000000000000e+00
0.000000000000000e+00 0.000000000000000e+00 0.000000000000000e+00
0.000000000000000e+00 0.000000000000000e+00 0.000000000000000e+00
0.000000000000000e+00 0.000000000000000e+00 0.000000000000000e+00
0.000000000000000e+00 0.000000000000000e+00 0.000000000000000e+00
0.000000000000000e+00 0.000000000000000e+00 0.000000000000000e+00
0.000000000000000e+00 0.000000000000000e+00 0.000000000000000e+00
0.000000000000000e+00 0.000000000000000e+00 0.000000000000000e+00
0.000000000000000e+00 0.000000000000000e+00 0.000000000000000e+00
0.000000000000000e+00 0.000000000000000e+00 0.000000000000000e+00
0.000000000000000e+00 0.000000000000000e+00 0.000000000000000e+00
0.000000000000000e+00 0.000000000000000e+00 0.000000000000000e+00
0.000000000000000e+00 0.000000000000000e+00 0.000000000000000e+00
0.000000000000000e+00 0.000000000000000e+00 0.000000000000000e+00
0.000000000000000e+00 0.000000000000000e+00 0.000000000000000e+00
0.000000000000000e+00 0.000000000000000e+00 0.000000000000000e+00
0.000000000000000e+00 0.000000000000000e+00 0.000000000000000e+00
0.000000000000000e+00 0.000000000000000e+00 0.000000000000000e+00
0.000000000000000e+00 0.000000000000000e+00 0.000000000000000e+00
0.000000000000000e+00 0.000000000000000e+00 0.000000000000000e+00
0.000000000000000e+00 0.000000000000000e+00 0.000000000000000e+00
0.000000000000000e+00 0.000000000000000e+00 0.000000000000000e+00
0.000000000000000e+00 0.000000000000000e+00 0.000000000000000e+00
0.000000000000000e+00 0.000000000000000e+00 0.000000000000000e+00
0.000000000000000e+00 0.000000000000000e+00 0.000000000000000e+00
0.000000000000000e+00 0.000000000000000e+00 0.000000000000000e+00
0.000000000000000e+00 0.000000000000000e+00 0.000000000000000e+00
0.000000000000000e+00 0.000000000000000e+00 0.000000000000000e+00
0.000000000000000e+00 0.000000000000000e+00 0.000000000000000e+00
0.000000000000000e+00 0.000000000000000e+00 0.000000000000000e+00
0.000000000000000e+00 0.000000000000000e+00 0.000000000000000e+00
0.000000000000000e+00 0.000000000000000e+00 0.000000000000000e+00
0.000000000000000e+00 0.000000000000000e+00 0.000000000000000e+00
0.000000000000000e+00 0.000000000000000e+00 0.000000000000000e+00
0.000000000000000e+00 0.000000000000000e+00 0.000000000000000e+00
0.000000000000000e+00 0.000000000000000e+00 0.000000000000000e+00
0.000000000000000e+00 0.000000000000000e+00 0.000000000000000e+00
0.000000000000000e+00 0.000000000000000e+00 0.000000000000000e+00
0.000000000000000e+00 0.000000000000000e+00 0.000000000000000e+00
0.000000000000000e+00 0.000000000000000e+00 0.000000000000000e+00
0.000000000000000e+00 0.000000000000000e+00 0.000000000000000e+00
0.000000000000000e+00 0.000000000000000e+00 0.000000000000000e+00
0.000000000000000e+00 0.000000000000000e+00 0.000000000000000e+00
0.000000000000000e+00 0.000000000000000e+00 0.000000000000000e+00
0.000000000000000e+00 0.000000000000000e+00 0.000000000000000e+00
0.000000000000000e+00 0.000000000000000e+00 0.000000000000000e+00
0.000000000000000e+00 0.000000000000000e+00 0.000000000000000e+00
0.000000000000000e+00 0.000000000000000e+00 0.000000000000000e+00
0.000000000000000e+00 0.000000000000000e+00 0.000000000000000e+00
0.000000000000000e+00 0.000000000000000e+00 0.000000000000000e+00
0.000000000000000e+00 0.000000000000000e+00 0.000000000000000e+00
0.000000000000000e+00 0.000000000000000e+00 0.000000000000000e+00
0.000000000000000e+00 0.000000000000000e+00 0.000000000000000e+00
0.000000000000000e+00 0.000000000000000e+00 0.000000000000000e+00
0.000000000000000e+00 0.000000000000000e+00 0.000000000000000e+00
0.000000000000000e+00 0.000000000000000e+00 0.000000000000000e+00
0.000000000000000e+00 0.000000000000000e+00 0.000000000000000e+00
0.000000000000000e+00 0.000000000000000e+00 0.000000000000000e+00
0.000000000000000e+00 0.000000000000000e+00 0.000000000000000e+00
0.000000000000000e+00 0.000000000000000e+00 0.000000000000000e+00
0.000000000000000e+00 0.000000000000000e+00 0.000000000000000e+00
0.000000000000000e+00 0.000000000000000e+00 0.000000000000000e+00
0.000000000000000e+00 0.000000000000000e+00 0.000000000000000e+00
0.000000000000000e+00 0.000000000000000e+00 0.000000000000000e+00
0.000000000000000e+00 0.000000000000000e+00 0.000000000000000e+00
0.000000000000000e+00 0.000000000000000e+00 0.000000000000000e+00
0.000000000000000e+00 0.000000000000000e+00 0.000000000000000e+00
0.000000000000000e+00 0.000000000000000e+00 0.000000000000000e+00
0.000000000000000e+00 0.000000000000000e+00 0.000000000000000e+00
0.000000000000000e+00 0.000000000000000e+00 0.000000000000000e+00
0.000000000000000e+00 0.000000000000000e+00 0.000000000000000e+00
0.000000000000000e+00 0.000000000000000e+00 0.000000000000000e+00
0.000000000000000e+00 0.000000000000000e+00 0.000000000000000e+00
0.000000000000000e+00 0.000000000000000e+00 0.000000000000000e+00
0.000000000000000e+00 0.000000000000000e+00 0.000000000000000e+00
0.000000000000000e+00 0.000000000000000e+00 0.000000000000000e+00
0.000000000000000e+00 0.000000000000000e+00 0.000000000000000e+00
0.000000000000000e+00 0.000000000000000e+00 0.000000000000000e+00
0.000000000000000e+00 0.000000000000000e+00 0.000000000000000e+00
0.000000000000000e+00 0.000000000000000e+00 0.000000000000000e+00
0.000000000000000e+00 0.000000000000000e+00 0.000000000000000e+00
0.000000000000000e+00 0.000000000000000e+00 0.000000000000000e+00
0.000000000000000e+00 0.000000000000000e+00 0.000000000000000e+00
0.000000000000000e+00 0.000000000000000e+00 0.000000000000000e+00
0.000000000000000e+00 0.000000000000000e+00 0.000000000000000e+00
0.000000000000000e+00 0.000000000000000e+00 0.000000000000000e+00
0.000000000000000e+00 0.000000000000000e+00 0.000000000000000e+00
0.000000000000000e+00 0.000000000000000e+00 0.000000000000000e+00
0.000000000000000e+00 0.000000000000000e+00 0.000000000000000e+00
0.000000000000000e+00 0.000000000000000e+00 0.000000000000000e+00
0.000000000000000e+00 0.000000000000000e+00 0.000000000000000e+00
0.000000000000000e+00 0.000000000000000e+00 0.000000000000000e+00
0.000000000000000e+00 0.000000000000000e+00 0.000000000000000e+00
0.000000000000000e+00 0.000000000000000e+00 0.000000000000000e+00
0.000000000000000e+00 0.000000000000000e+00 0.000000000000000e+00
0.000000000000000e+00 0.000000000000000e+00 0.000000000000000e+00
0.000000000000000e+00 0.000000000000000e+00 0.000000000000000e+00
0.000000000000000e+00 0.000000000000000e+00 0.000000000000000e+00
0.000000000000000e+00 0.000000000000000e+00 0.000000000000000e+00
0.000000000000000e+00 0.000000000000000e+00 0.000000000000000e+00
0.000000000000000e+00 0.000000000000000e+00 0.000000000000000e+00
0.000000000000000e+00 0.000000000000000e+00 0.000000000000000e+00
0.000000000000000e+00 0.000000000000000e+00 0.000000000000000e+00
0.000000000000000e+00 0.000000000000000e+00 0.000000000000000e+00
0.000000000000000e+00 0.000000000000000e+00 0.000000000000000e+00
0.000000000000000e+00 0.000000000000000e+00 0.000000000000000e+00
0.000000000000000e+00 0.000000000000000e+00 0.000000000000000e+00
0.000000000000000e+00 0.000000000000000e+00 0.000000000000000e+00
0.000000000000000e+00 0.000000000000000e+00 0.000000000000000e+00
0.000000000000000e+00 0.000000000000000e+00 0.000000000000000e+00
0.000000000000000e+00 0.000000000000000e+00 0.000000000000000e+00
0.000000000000000e+00 0.000000000000000e+00 0.000000000000000e+00
0.000000000000000e+00 0.000000000000000e+00 0.000000000000000e+00
0.000000000000000e+00 0.000000000000000e+00 0.000000000000000e+00
0.000000000000000e+00 0.000000000000000e+00 0.000000000000000e+00
0.000000000000000e+00 0.000000000000000e+00 0.000000000000000e+00
0.000000000000000e+00 0.000000000000000e+00 0.000000000000000e+00
0.000000000000000e+00 0.000000000000000e+00 0.000000000000000e+00
0.000000000000000e+00 0.000000000000000e+00 0.000000000000000e+00
0.000000000000000e+00 0.000000000000000e+00 0.000000000000000e+00
0.000000000000000e+00 0.000000000000000e+00 0.000000000000000e+00
0.000000000000000e+00 0.000000000000000e+00 0.000000000000000e+00
0.000000000000000e+00 0.000000000000000e+00 0.000000000000000e+00
0.000000000000000e+00 0.000000000000000e+00 0.000000000000000e+00
0.000000000000000e+00 0.000000000000000e+00 0.000000000000000e+00
0.000000000000000e+00 0.000000000000000e+00 0.000000000000000e+00
0.000000000000000e+00 0.000000000000000e+00 0.000000000000000e+00
0.000000000000000e+00 0.000000000000000e+00 0.000000000000000e+00
0.000000000000000e+00 0.000000000000000e+00 0.000000000000000e+00
0.000000000000000e+00 0.000000000000000e+00 0.000000000000000e+00
0.000000000000000e+00 0.000000000000000e+00 0.000000000000000e+00
0.000000000000000e+00 0.000000000000000e+00 0.000000000000000e+00
0.000000000000000e+00 0.000000000000000e+00 0.000000000000000e+00
0.000000000000000e+00 0.000000000000000e+00 0.000000000000000e+00
0.000000000000000e+00 0.000000000000000e+00 0.000000000000000e+00
0.000000000000000e+00 0.000000000000000e+00 0.000000000000000e+00
0.000000000000000e+00 0.000000000000000e+00 0.000000000000000e+00
0.000000000000000e+00 0.000000000000000e+00 0.000000000000000e+00
0.000000000000000e+00 0.000000000000000e+00 0.000000000000000e+00
0.000000000000000e+00 0.000000000000000e+00 0.000000000000000e+00
0.000000000000000e+00 0.000000000000000e+00 0.000000000000000e+00
0.000000000000000e+00 0.000000000000000e+00 0.000000000000000e+00
0.000000000000000e+00 0.000000000000000e+00 0.000000000000000e+00
0.000000000000000e+00 0.000000000000000e+00 0.000000000000000e+00
0.000000000000000e+00 0.000000000000000e+00 0.000000000000000e+00
0.000000000000000e+00 0.000000000000000e+00 0.000000000000000e+00
0.000000000000000e+00 0.000000000000000e+00 0.000000000000000e+00
0.000000000000000e+00 0.000000000000000e+00 0.000000000000000e+00
0.000000000000000e+00 0.000000000000000e+00 0.000000000000000e+00
0.000000000000000e+00 0.000000000000000e+00 0.000000000000000e+00
0.000000000000000e+00 0.000000000000000e+00 0.000000000000000e+00
0.000000000000000e+00 0.000000000000000e+00 0.000000000000000e+00
0.000000000000000e+00 0.000000000000000e+00 0.000000000000000e+00
0.000000000000000e+00 0.000000000000000e+00 0.000000000000000e+00
0.000000000000000e+00 0.000000000000000e+00 0.000000000000000e+00
0.000000000000000e+00 0.000000000000000e+00 0.000000000000000e+00
0.000000000000000e+00 0.000000000000000e+00 0.000000000000000e+00
0.000000000000000e+00 0.000000000000000e+00 0.000000000000000e+00
0.000000000000000e+00 0.000000000000000e+00 0.000000000000000e+00
0.000000000000000e+00 0.000000000000000e+00 0.000000000000000e+00
0.000000000000000e+00 0.000000000000000e+00 0.000000000000000e+00
0.000000000000000e+00 0.000000000000000e+00 0.000000000000000e+00
0.000000000000000e+00 0.000000000000000e+00 0.000000000000000e+00
0.000000000000000e+00 0.000000000000000e+00 0.000000000000000e+00
0.000000000000000e+00 0.000000000000000e+00 0.000000000000000e+00
0.000000000000000e+00 0.000000000000000e+00 0.000000000000000e+00
0.000000000000000e+00 0.000000000000000e+00 0.000000000000000e+00
0.000000000000000e+00 0.000000000000000e+00 0.000000000000000e+00
0.000000000000000e+00 0.000000000000000e+00 0.000000000000000e+00
0.000000000000000e+00 0.000000000000000e+00 0.000000000000000e+00
0.000000000000000e+00 0.000000000000000e+00 0.000000000000000e+00
0.000000000000000e+00 0.000000000000000e+00 0.000000000000000e+00
0.000000000000000e+00 0.000000000000000e+00 0.000000000000000e+00
0.000000000000000e+00 0.000000000000000e+00 0.000000000000000e+00
0.000000000000000e+00 0.000000000000000e+00 0.000000000000000e+00
0.000000000000000e+00 0.000000000000000e+00 0.000000000000000e+00
0.000000000000000e+00 0.000000000000000e+00 0.000000000000000e+00
0.000000000000000e+00 0.000000000000000e+00 0.000000000000000e+00
0.000000000000000e+00 0.000000000000000e+00 0.000000000000000e+00
0.000000000000000e+00 0.000000000000000e+00 0.000000000000000e+00
0.000000000000000e+00 0.000000000000000e+00 0.000000000000000e+00
0.000000000000000e+00 0.000000000000000e+00 0.000000000000000e+00
0.000000000000000e+00 0.000000000000000e+00 0.000000000000000e+00
0.000000000000000e+00 0.000000000000000e+00 0.000000000000000e+00
0.000000000000000e+00 0.000000000000000e+00 0.000000000000000e+00
0.000000000000000e+00 0.000000000000000e+00 0.000000000000000e+00
0.000000000000000e+00 0.000000000000000e+00 0.000000000000000e+00
0.000000000000000e+00 0.000000000000000e+00 0.000000000000000e+00
0.000000000000000e+00 0.000000000000000e+00 0.000000000000000e+00
0.000000000000000e+00 0.000000000000000e+00 0.000000000000000e+00
0.000000000000000e+00 0.000000000000000e+00 0.000000000000000e+00
0.000000000000000e+00 0.000000000000000e+00 0.000000000000000e+00
0.000000000000000e+00 0.000000000000000e+00 0.000000000000000e+00
0.000000000000000e+00 0.000000000000000e+00 0.000000000000000e+00
0.000000000000000e+00 0.000000000000000e+00 0.000000000000000e+00
0.000000000000000e+00 0.000000000000000e+00 0.000000000000000e+00
0.000000000000000e+00 0.000000000000000e+00 0.000000000000000e+00
0.000000000000000e+00 0.000000000000000e+00 0.000000000000000e+00
0.000000000000000e+00 0.000000000000000e+00 0.000000000000000e+00
0.000000000000000e+00 0.000000000000000e+00 0.000000000000000e+00
0.000000000000000e+00 0.000000000000000e+00 0.000000000000000e+00
0.000000000000000e+00 0.000000000000000e+00 0.000000000000000e+00
0.000000000000000e+00 0.000000000000000e+00 0.000000000000000e+00
0.000000000000000e+00 0.000000000000000e+00 0.000000000000000e+00
0.000000000000000e+00 0.000000000000000e+00 0.000000000000000e+00
0.000000000000000e+00 0.000000000000000e+00 0.000000000000000e+00
0.000000000000000e+00 0.000000000000000e+00 0.000000000000000e+00
0.000000000000000e+00 0.000000000000000e+00 0.000000000000000e+00
0.000000000000000e+00 0.000000000000000e+00 0.000000000000000e+00
0.000000000000000e+00 0.000000000000000e+00 0.000000000000000e+00
0.000000000000000e+00 0.000000000000000e+00 0.000000000000000e+00
0.000000000000000e+00 0.000000000000000e+00 0.000000000000000e+00
0.000000000000000e+00 0.000000000000000e+00 0.000000000000000e+00
0.000000000000000e+00 0.000000000000000e+00 0.000000000000000e+00
0.000000000000000e+00 0.000000000000000e+00 0.000000000000000e+00
0.000000000000000e+00 0.000000000000000e+00 0.000000000000000e+00
0.000000000000000e+00 0.000000000000000e+00 0.000000000000000e+00
0.000000000000000e+00 0.000000000000000e+00 0.000000000000000e+00
0.000000000000000e+00 0.000000000000000e+00 0.000000000000000e+00
0.000000000000000e+00 0.000000000000000e+00 0.000000000000000e+00
0.000000000000000e+00 0.000000000000000e+00 0.000000000000000e+00
0.000000000000000e+00 0.000000000000000e+00 0.000000000000000e+00
0.000000000000000e+00 0.000000000000000e+00 0.000000000000000e+00
0.000000000000000e+00 0.000000000000000e+00 0.000000000000000e+00
0.000000000000000e+00 0.000000000000000e+00 0.000000000000000e+00
0.000000000000000e+00 0.000000000000000e+00 0.000000000000000e+00
0.000000000000000e+00 0.000000000000000e+00 0.000000000000000e+00
0.000000000000000e+00 0.000000000000000e+00 0.000000000000000e+00
0.000000000000000e+00 0.000000000000000e+00 0.000000000000000e+00
0.000000000000000e+00 0.000000000000000e+00 0.000000000000000e+00
0.000000000000000e+00 0.000000000000000e+00 0.000000000000000e+00
0.000000000000000e+00 0.000000000000000e+00 0.000000000000000e+00
0.000000000000000e+00 0.000000000000000e+00 0.000000000000000e+00
0.000000000000000e+00 0.000000000000000e+00 0.000000000000000e+00
0.000000000000000e+00 0.000000000000000e+00 0.000000000000000e+00
0.000000000000000e+00 0.000000000000000e+00 0.000000000000000e+00
0.000000000000000e+00 0.000000000000000e+00 0.000000000000000e+00
0.000000000000000e+00 0.000000000000000e+00 0.000000000000000e+00
0.000000000000000e+00 0.000000000000000e+00 0.000000000000000e+00
0.000000000000000e+00 0.000000000000000e+00 0.000000000000000e+00
0.000000000000000e+00 0.000000000000000e+00 0.000000000000000e+00
0.000000000000000e+00 0.000000000000000e+00 0.000000000000000e+00
0.000000000000000e+00 0.000000000000000e+00 0.000000000000000e+00
0.000000000000000e+00 0.000000000000000e+00 0.000000000000000e+00
0.000000000000000e+00 0.000000000000000e+00 0.000000000000000e+00
0.000000000000000e+00 0.000000000000000e+00 0.000000000000000e+00
0.000000000000000e+00 0.000000000000000e+00 0.000000000000000e+00
0.000000000000000e+00 0.000000000000000e+00 0.000000000000000e+00
0.000000000000000e+00 0.000000000000000e+00 0.000000000000000e+00
0.000000000000000e+00 0.000000000000000e+00 0.000000000000000e+00
0.000000000000000e+00 0.000000000000000e+00 0.000000000000000e+00
0.000000000000000e+00 0.000000000000000e+00 0.000000000000000e+00
0.000000000000000e+00 0.000000000000000e+00 0.000000000000000e+00
0.000000000000000e+00 0.000000000000000e+00 0.000000000000000e+00
0.000000000000000e+00 0.000000000000000e+00 0.000000000000000e+00
0.000000000000000e+00 0.000000000000000e+00 0.000000000000000e+00
0.000000000000000e+00 0.000000000000000e+00 0.000000000000000e+00
0.000000000000000e+00 0.000000000000000e+00 0.000000000000000e+00
0.000000000000000e+00 0.000000000000000e+00 0.000000000000000e+00
0.000000000000000e+00 0.000000000000000e+00 0.000000000000000e+00
0.000000000000000e+00 0.000000000000000e+00 0.000000000000000e+00
0.000000000000000e+00 0.000000000000000e+00 0.000000000000000e+00
0.000000000000000e+00 0.000000000000000e+00 0.000000000000000e+00
0.000000000000000e+00 0.000000000000000e+00 0.000000000000000e+00
0.000000000000000e+00 0.000000000000000e+00 0.000000000000000e+00
0.000000000000000e+00 0.000000000000000e+00 0.000000000000000e+00
0.000000000000000e+00 0.000000000000000e+00 0.000000000000000e+00
0.000000000000000e+00 0.000000000000000e+00 0.000000000000000e+00
0.000000000000000e+00 0.000000000000000e+00 0.000000000000000e+00
0.000000000000000e+00 0.000000000000000e+00 0.000000000000000e+00
0.000000000000000e+00 0.000000000000000e+00 0.000000000000000e+00
0.000000000000000e+00 0.000000000000000e+00 0.000000000000000e+00
0.000000000000000e+00 0.000000000000000e+00 0.000000000000000e+00
0.000000000000000e+00 0.000000000000000e+00 0.000000000000000e+00
0.000000000000000e+00 0.000000000000000e+00 0.000000000000000e+00
0.000000000000000e+00 0.000000000000000e+00 0.000000000000000e+00
0.000000000000000e+00 0.000000000000000e+00 0.000000000000000e+00
0.000000000000000e+00 0.000000000000000e+00 0.000000000000000e+00
0.000000000000000e+00 0.000000000000000e+00 0.000000000000000e+00
0.000000000000000e+00 0.000000000000000e+00 0.000000000000000e+00
0.000000000000000e+00 0.000000000000000e+00 0.000000000000000e+00
0.000000000000000e+00 0.000000000000000e+00 0.000000000000000e+00
0.000000000000000e+00 0.000000000000000e+00 0.000000000000000e+00
0.000000000000000e+00 0.000000000000000e+00 0.000000000000000e+00
0.000000000000000e+00 0.000000000000000e+00 0.000000000000000e+00
0.000000000000000e+00 0.000000000000000e+00 0.000000000000000e+00
0.000000000000000e+00 0.000000000000000e+00 0.000000000000000e+00
0.000000000000000e+00 0.000000000000000e+00 0.000000000000000e+00
0.000000000000000e+00 0.000000000000000e+00 0.000000000000000e+00
0.000000000000000e+00 0.000000000000000e+00 0.000000000000000e+00
0.000000000000000e+00 0.000000000000000e+00 0.000000000000000e+00
0.000000000000000e+00 0.000000000000000e+00 0.000000000000000e+00
0.000000000000000e+00 0.000000000000000e+00 0.000000000000000e+00
0.000000000000000e+00 0.000000000000000e+00 0.000000000000000e+00
0.000000000000000e+00 0.000000000000000e+00 0.000000000000000e+00
0.000000000000000e+00 0.000000000000000e+00 0.000000000000000e+00
0.000000000000000e+00 0.000000000000000e+00 0.000000000000000e+00
0.000000000000000e+00 0.000000000000000e+00 0.000000000000000e+00
0.000000000000000e+00 0.000000000000000e+00 0.000000000000000e+00
0.000000000000000e+00 0.000000000000000e+00 0.000000000000000e+00
0.000000000000000e+00 0.000000000000000e+00 0.000000000000000e+00
0.000000000000000e+00 0.000000000000000e+00 0.000000000000000e+00
0.000000000000000e+00 0.000000000000000e+00 0.000000000000000e+00
0.000000000000000e+00 0.000000000000000e+00 0.000000000000000e+00
0.000000000000000e+00 0.000000000000000e+00 0.000000000000000e+00
0.000000000000000e+00 0.000000000000000e+00 0.000000000000000e+00
0.000000000000000e+00 0.000000000000000e+00 0.000000000000000e+00
0.000000000000000e+00 0.000000000000000e+00 0.000000000000000e+00
0.000000000000000e+00 0.000000000000000e+00 0.000000000000000e+00
0.000000000000000e+00 0.000000000000000e+00 0.000000000000000e+00
0.000000000000000e+00 0.000000000000000e+00 0.000000000000000e+00
0.000000000000000e+00 0.000000000000000e+00 0.000000000000000e+00
0.000000000000000e+00 0.000000000000000e+00 0.000000000000000e+00
0.000000000000000e+00 0.000000000000000e+00 0.000000000000000e+00
0.000000000000000e+00 0.000000000000000e+00 0.000000000000000e+00
0.000000000000000e+00 0.000000000000000e+00 0.000000000000000e+00
0.000000000000000e+00 0.000000000000000e+00 0.000000000000000e+00
0.000000000000000e+00 0.000000000000000e+00 0.000000000000000e+00
0.000000000000000e+00 0.000000000000000e+00 0.000000000000000e+00
0.000000000000000e+00 0.000000000000000e+00 0.000000000000000e+00
0.000000000000000e+00 0.000000000000000e+00 0.000000000000000e+00
0.000000000000000e+00 0.000000000000000e+00 0.000000000000000e+00
0.000000000000000e+00 0.000000000000000e+00 0.000000000000000e+00
0.000000000000000e+00 0.000000000000000e+00 0.000000000000000e+00
0.000000000000000e+00 0.000000000000000e+00 0.000000000000000e+00
0.000000000000000e+00 0.000000000000000e+00 0.000000000000000e+00
0.000000000000000e+00 0.000000000000000e+00 0.000000000000000e+00
0.000000000000000e+00 0.000000000000000e+00 0.000000000000000e+00
0.000000000000000e+00 0.000000000000000e+00 0.000000000000000e+00
0.000000000000000e+00 0.000000000000000e+00 0.000000000000000e+00
0.000000000000000e+00 0.000000000000000e+00 0.000000000000000e+00
0.000000000000000e+00 0.000000000000000e+00 0.000000000000000e+00
0.000000000000000e+00 0.000000000000000e+00 0.000000000000000e+00
0.000000000000000e+00 0.000000000000000e+00 0.000000000000000e+00
0.000000000000000e+00 0.000000000000000e+00 0.000000000000000e+00
0.000000000000000e+00 0.000000000000000e+00 0.000000000000000e+00
0.000000000000000e+00 0.000000000000000e+00 0.000000000000000e+00
0.000000000000000e+00 0.000000000000000e+00 0.000000000000000e+00
0.000000000000000e+00 0.000000000000000e+00 0.000000000000000e+00
0.000000000000000e+00 0.000000000000000e+00 0.000000000000000e+00
0.000000000000000e+00 0.000000000000000e+00 0.000000000000000e+00
0.000000000000000e+00 0.000000000000000e+00 0.000000000000000e+00
0.000000000000000e+00 0.000000000000000e+00 0.000000000000000e+00
0.000000000000000e+00 0.000000000000000e+00 0.000000000000000e+00
0.000000000000000e+00 0.000000000000000e+00 0.000000000000000e+00
0.000000000000000e+00 0.000000000000000e+00 0.000000000000000e+00
0.000000000000000e+00 0.000000000000000e+00 0.000000000000000e+00
0.000000000000000e+00 0.000000000000000e+00 0.000000000000000e+00
0.000000000000000e+00 0.000000000000000e+00 0.000000000000000e+00
0.000000000000000e+00 0.000000000000000e+00 0.000000000000000e+00
0.000000000000000e+00 0.000000000000000e+00 0.000000000000000e+00
0.000000000000000e+00 0.000000000000000e+00 0.000000000000000e+00
0.000000000000000e+00 0.000000000000000e+00 0.000000000000000e+00
0.000000000000000e+00 0.000000000000000e+00 0.000000000000000e+00
0.000000000000000e+00 0.000000000000000e+00 0.000000000000000e+00
0.000000000000000e+00 0.000000000000000e+00 0.000000000000000e+00
0.000000000000000e+00 0.000000000000000e+00 0.000000000000000e+00
0.000000000000000e+00 0.000000000000000e+00 0.000000000000000e+00
0.000000000000000e+00 0.000000000000000e+00 0.000000000000000e+00
0.000000000000000e+00 0.000000000000000e+00 0.000000000000000e+00
0.000000000000000e+00 0.000000000000000e+00 0.000000000000000e+00
0.000000000000000e+00 0.000000000000000e+00 0.000000000000000e+00
0.000000000000000e+00 0.000000000000000e+00 0.000000000000000e+00
0.000000000000000e+00 0.000000000000000e+00 0.000000000000000e+00
0.000000000000000e+00 0.000000000000000e+00 0.000000000000000e+00
0.000000000000000e+00 0.000000000000000e+00 0.000000000000000e+00
0.000000000000000e+00 0.000000000000000e+00 0.000000000000000e+00
0.000000000000000e+00 0.000000000000000e+00 0.000000000000000e+00
0.000000000000000e+00 0.000000000000000e+00 0.000000000000000e+00
0.000000000000000e+00 0.000000000000000e+00 0.000000000000000e+00
0.000000000000000e+00 0.000000000000000e+00 0.000000000000000e+00
0.000000000000000e+00 0.000000000000000e+00 0.000000000000000e+00
0.000000000000000e+00 0.000000000000000e+00 0.000000000000000e+00
0.000000000000000e+00 0.000000000000000e+00 0.000000000000000e+00
0.000000000000000e+00 0.000000000000000e+00 0.000000000000000e+00
0.000000000000000e+00 0.000000000000000e+00 0.000000000000000e+00
0.000000000000000e+00 0.000000000000000e+00 0.000000000000000e+00
0.000000000000000e+00 0.000000000000000e+00 0.000000000000000e+00
0.000000000000000e+00 0.000000000000000e+00 0.000000000000000e+00
0.000000000000000e+00 0.000000000000000e+00 0.000000000000000e+00
0.000000000000000e+00 0.000000000000000e+00 0.000000000000000e+00
0.000000000000000e+00 0.000000000000000e+00 0.000000000000000e+00
0.000000000000000e+00 0.000000000000000e+00 0.000000000000000e+00
0.000000000000000e+00 0.000000000000000e+00 0.000000000000000e+00
0.000000000000000e+00 0.000000000000000e+00 0.000000000000000e+00
0.000000000000000e+00 0.000000000000000e+00 0.000000000000000e+00
0.000000000000000e+00 0.000000000000000e+00 0.000000000000000e+00
0.000000000000000e+00 0.000000000000000e+00 0.000000000000000e+00
0.000000000000000e+00 0.000000000000000e+00 0.000000000000000e+00
0.000000000000000e+00 0.000000000000000e+00 0.000000000000000e+00
0.000000000000000e+00 0.000000000000000e+00 0.000000000000000e+00
0.000000000000000e+00 0.000000000000000e+00 0.000000000000000e+00
0.000000000000000e+00 0.000000000000000e+00 0.000000000000000e+00
0.000000000000000e+00 0.000000000000000e+00 0.000000000000000e+00
0.000000000000000e+00 0.000000000000000e+00 0.000000000000000e+00
0.000000000000000e+00 0.000000000000000e+00 0.000000000000000e+00
0.000000000000000e+00 0.000000000000000e+00 0.000000000000000e+00
0.000000000000000e+00 0.000000000000000e+00 0.000000000000000e+00
0.000000000000000e+00 0.000000000000000e+00 0.000000000000000e+00
0.000000000000000e+00 0.000000000000000e+00 0.000000000000000e+00
0.000000000000000e+00 0.000000000000000e+00 0.000000000000000e+00
0.000000000000000e+00 0.000000000000000e+00 0.000000000000000e+00
0.000000000000000e+00 0.000000000000000e+00 0.000000000000000e+00
0.000000000000000e+00 0.000000000000000e+00 0.000000000000000e+00
0.000000000000000e+00 0.000000000000000e+00 0.000000000000000e+00
0.000000000000000e+00 0.000000000000000e+00 0.000000000000000e+00
0.000000000000000e+00 0.000000000000000e+00 0.000000000000000e+00
0.000000000000000e+00 0.000000000000000e+00 0.000000000000000e+00
0.000000000000000e+00 0.000000000000000e+00 0.000000000000000e+00
0.000000000000000e+00 0.000000000000000e+00 0.000000000000000e+00
0.000000000000000e+00 0.000000000000000e+00 0.000000000000000e+00
0.000000000000000e+00 0.000000000000000e+00 0.000000000000000e+00
0.000000000000000e+00 0.000000000000000e+00 0.000000000000000e+00
0.000000000000000e+00 0.000000000000000e+00 0.000000000000000e+00
0.000000000000000e+00 0.000000000000000e+00 0.000000000000000e+00
0.000000000000000e+00 0.000000000000000e+00 0.000000000000000e+00
0.000000000000000e+00 0.000000000000000e+00 0.000000000000000e+00
0.000000000000000e+00 0.000000000000000e+00 0.000000000000000e+00
0.000000000000000e+00 0.000000000000000e+00 0.000000000000000e+00
0.000000000000000e+00 0.000000000000000e+00 0.000000000000000e+00
0.000000000000000e+00 0.000000000000000e+00 0.000000000000000e+00
0.000000000000000e+00 0.000000000000000e+00 0.000000000000000e+00
0.000000000000000e+00 0.000000000000000e+00 0.000000000000000e+00
0.000000000000000e+00 0.000000000000000e+00 0.000000000000000e+00
0.000000000000000e+00 0.000000000000000e+00 0.000000000000000e+00
0.000000000000000e+00 0.000000000000000e+00 0.000000000000000e+00
0.000000000000000e+00 0.000000000000000e+00 0.000000000000000e+00
0.000000000000000e+00 0.000000000000000e+00 0.000000000000000e+00
0.000000000000000e+00 0.000000000000000e+00 0.000000000000000e+00
0.000000000000000e+00 0.000000000000000e+00 0.000000000000000e+00
0.000000000000000e+00 0.000000000000000e+00 0.000000000000000e+00
0.000000000000000e+00 0.000000000000000e+00 0.000000000000000e+00
0.000000000000000e+00 0.000000000000000e+00 0.000000000000000e+00
0.000000000000000e+00 0.000000000000000e+00 0.000000000000000e+00
0.000000000000000e+00 0.000000000000000e+00 0.000000000000000e+00
0.000000000000000e+00 0.000000000000000e+00 0.000000000000000e+00
0.000000000000000e+00 0.000000000000000e+00 0.000000000000000e+00
0.000000000000000e+00 0.000000000000000e+00 0.000000000000000e+00
0.000000000000000e+00 0.000000000000000e+00 0.000000000000000e+00
0.000000000000000e+00 0.000000000000000e+00 0.000000000000000e+00
0.000000000000000e+00 0.000000000000000e+00 0.000000000000000e+00
0.000000000000000e+00 0.000000000000000e+00 0.000000000000000e+00
0.000000000000000e+00 0.000000000000000e+00 0.000000000000000e+00
0.000000000000000e+00 0.000000000000000e+00 0.000000000000000e+00
0.000000000000000e+00 0.000000000000000e+00 0.000000000000000e+00
0.000000000000000e+00 0.000000000000000e+00 0.000000000000000e+00
0.000000000000000e+00 0.000000000000000e+00 0.000000000000000e+00
0.000000000000000e+00 0.000000000000000e+00 0.000000000000000e+00
0.000000000000000e+00 0.000000000000000e+00 0.000000000000000e+00
0.000000000000000e+00 0.000000000000000e+00 0.000000000000000e+00
0.000000000000000e+00 0.000000000000000e+00 0.000000000000000e+00
0.000000000000000e+00 0.000000000000000e+00 0.000000000000000e+00
0.000000000000000e+00 0.000000000000000e+00 0.000000000000000e+00
0.000000000000000e+00 0.000000000000000e+00 0.000000000000000e+00
0.000000000000000e+00 0.000000000000000e+00 0.000000000000000e+00
0.000000000000000e+00 0.000000000000000e+00 0.000000000000000e+00
0.000000000000000e+00 0.000000000000000e+00 0.000000000000000e+00
0.000000000000000e+00 0.000000000000000e+00 0.000000000000000e+00
0.000000000000000e+00 0.000000000000000e+00 0.000000000000000e+00
0.000000000000000e+00 0.000000000000000e+00 0.000000000000000e+00
0.000000000000000e+00 0.000000000000000e+00 0.000000000000000e+00
0.000000000000000e+00 0.000000000000000e+00 0.000000000000000e+00
0.000000000000000e+00 0.000000000000000e+00 0.000000000000000e+00
0.000000000000000e+00 0.000000000000000e+00 0.000000000000000e+00
0.000000000000000e+00 0.000000000000000e+00 0.000000000000000e+00
0.000000000000000e+00 0.000000000000000e+00 0.000000000000000e+00
0.000000000000000e+00 0.000000000000000e+00 0.000000000000000e+00
0.000000000000000e+00 0.000000000000000e+00 0.000000000000000e+00
0.000000000000000e+00 0.000000000000000e+00 0.000000000000000e+00
0.000000000000000e+00 0.000000000000000e+00 0.000000000000000e+00
0.000000000000000e+00 0.000000000000000e+00 0.000000000000000e+00
0.000000000000000e+00 0.000000000000000e+00 0.000000000000000e+00
0.000000000000000e+00 0.000000000000000e+00 0.000000000000000e+00
0.000000000000000e+00 0.000000000000000e+00 0.000000000000000e+00
0.000000000000000e+00 0.000000000000000e+00 0.000000000000000e+00
0.000000000000000e+00 0.000000000000000e+00 0.000000000000000e+00
0.000000000000000e+00 0.000000000000000e+00 0.000000000000000e+00
0.000000000000000e+00 0.000000000000000e+00 0.000000000000000e+00
0.000000000000000e+00 0.000000000000000e+00 0.000000000000000e+00
0.000000000000000e+00 0.000000000000000e+00 0.000000000000000e+00
0.000000000000000e+00 0.000000000000000e+00 0.000000000000000e+00
0.000000000000000e+00 0.000000000000000e+00 0.000000000000000e+00
0.000000000000000e+00 0.000000000000000e+00 0.000000000000000e+00
0.000000000000000e+00 0.000000000000000e+00 0.000000000000000e+00
0.000000000000000e+00 0.000000000000000e+00 0.000000000000000e+00
0.000000000000000e+00 0.000000000000000e+00 0.000000000000000e+00
0.000000000000000e+00 0.000000000000000e+00 0.000000000000000e+00
0.000000000000000e+00 0.000000000000000e+00 0.000000000000000e+00
0.000000000000000e+00 0.000000000000000e+00 0.000000000000000e+00
0.000000000000000e+00 0.000000000000000e+00 0.000000000000000e+00
0.000000000000000e+00 0.000000000000000e+00 0.000000000000000e+00
0.000000000000000e+00 0.000000000000000e+00 0.000000000000000e+00
0.000000000000000e+00 0.000000000000000e+00 0.000000000000000e+00
0.000000000000000e+00 0.000000000000000e+00 0.000000000000000e+00
0.000000000000000e+00 0.000000000000000e+00 0.000000000000000e+00
0.000000000000000e+00 0.000000000000000e+00 0.000000000000000e+00
0.000000000000000e+00 0.000000000000000e+00 0.000000000000000e+00
0.000000000000000e+00 0.000000000000000e+00 0.000000000000000e+00
0.000000000000000e+00 0.000000000000000e+00 0.000000000000000e+00
0.000000000000000e+00 0.000000000000000e+00 0.000000000000000e+00
0.000000000000000e+00 0.000000000000000e+00 0.000000000000000e+00
0.000000000000000e+00 0.000000000000000e+00 0.000000000000000e+00
0.000000000000000e+00 0.000000000000000e+00 0.000000000000000e+00
0.000000000000000e+00 0.000000000000000e+00 0.000000000000000e+00
0.000000000000000e+00 0.000000000000000e+00 0.000000000000000e+00
0.000000000000000e+00 0.000000000000000e+00 0.000000000000000e+00
0.000000000000000e+00 0.000000000000000e+00 0.000000000000000e+00
0.000000000000000e+00 0.000000000000000e+00 0.000000000000000e+00
0.000000000000000e+00 0.000000000000000e+00 0.000000000000000e+00
0.000000000000000e+00 0.000000000000000e+00 0.000000000000000e+00
0.000000000000000e+00 0.000000000000000e+00 0.000000000000000e+00
0.000000000000000e+00 0.000000000000000e+00 0.000000000000000e+00
0.000000000000000e+00 0.000000000000000e+00 0.000000000000000e+00
0.000000000000000e+00 0.000000000000000e+00 0.000000000000000e+00
0.000000000000000e+00 0.000000000000000e+00 0.000000000000000e+00
0.000000000000000e+00 0.000000000000000e+00 0.000000000000000e+00
0.000000000000000e+00 0.000000000000000e+00 0.000000000000000e+00
0.000000000000000e+00 0.000000000000000e+00 0.000000000000000e+00
0.000000000000000e+00 0.000000000000000e+00 0.000000000000000e+00
0.000000000000000e+00 0.000000000000000e+00 0.000000000000000e+00
0.000000000000000e+00 0.000000000000000e+00 0.000000000000000e+00
0.000000000000000e+00 0.000000000000000e+00 0.000000000000000e+00
0.000000000000000e+00 0.000000000000000e+00 0.000000000000000e+00
0.000000000000000e+00 0.000000000000000e+00 0.000000000000000e+00
0.000000000000000e+00 0.000000000000000e+00 0.000000000000000e+00
0.000000000000000e+00 0.000000000000000e+00 0.000000000000000e+00
0.000000000000000e+00 0.000000000000000e+00 0.000000000000000e+00
0.000000000000000e+00 0.000000000000000e+00 0.000000000000000e+00
0.000000000000000e+00 0.000000000000000e+00 0.000000000000000e+00
0.000000000000000e+00 0.000000000000000e+00 0.000000000000000e+00
0.000000000000000e+00 0.000000000000000e+00 0.000000000000000e+00
0.000000000000000e+00 0.000000000000000e+00 0.000000000000000e+00
0.000000000000000e+00 0.000000000000000e+00 0.000000000000000e+00
0.000000000000000e+00 0.000000000000000e+00 0.000000000000000e+00
0.000000000000000e+00 0.000000000000000e+00 0.000000000000000e+00
0.000000000000000e+00 0.000000000000000e+00 0.000000000000000e+00
0.000000000000000e+00 0.000000000000000e+00 0.000000000000000e+00
0.000000000000000e+00 0.000000000000000e+00 0.000000000000000e+00
0.000000000000000e+00 0.000000000000000e+00 0.000000000000000e+00
0.000000000000000e+00 0.000000000000000e+00 0.000000000000000e+00
0.000000000000000e+00 0.000000000000000e+00 0.000000000000000e+00
0.000000000000000e+00 0.000000000000000e+00 0.000000000000000e+00
0.000000000000000e+00 0.000000000000000e+00 0.000000000000000e+00
0.000000000000000e+00 0.000000000000000e+00 0.000000000000000e+00
0.000000000000000e+00 0.000000000000000e+00 0.000000000000000e+00
0.000000000000000e+00 0.000000000000000e+00 0.000000000000000e+00
0.000000000000000e+00 0.000000000000000e+00 0.000000000000000e+00
0.000000000000000e+00 0.000000000000000e+00 0.000000000000000e+00
0.000000000000000e+00 0.000000000000000e+00 0.000000000000000e+00
0.000000000000000e+00 0.000000000000000e+00 0.000000000000000e+00
0.000000000000000e+00 0.000000000000000e+00 0.000000000000000e+00
0.000000000000000e+00 0.000000000000000e+00 0.000000000000000e+00
0.000000000000000e+00 0.000000000000000e+00 0.000000000000000e+00
0.000000000000000e+00 0.000000000000000e+00 0.000000000000000e+00
0.000000000000000e+00 0.000000000000000e+00 0.000000000000000e+00
0.000000000000000e+00 0.000000000000000e+00 0.000000000000000e+00
0.000000000000000e+00 0.000000000000000e+00 0.000000000000000e+00
0.000000000000000e+00 0.000000000000000e+00 0.000000000000000e+00
0.000000000000000e+00 0.000000000000000e+00 0.000000000000000e+00
0.000000000000000e+00 0.000000000000000e+00 0.000000000000000e+00
0.000000000000000e+00 0.000000000000000e+00 0.000000000000000e+00
0.000000000000000e+00 0.000000000000000e+00 0.000000000000000e+00
0.000000000000000e+00 0.000000000000000e+00 0.000000000000000e+00
0.000000000000000e+00 0.000000000000000e+00 0.000000000000000e+00
0.000000000000000e+00 0.000000000000000e+00 0.000000000000000e+00
0.000000000000000e+00 0.000000000000000e+00 0.000000000000000e+00
0.000000000000000e+00 0.000000000000000e+00 0.000000000000000e+00
0.000000000000000e+00 0.000000000000000e+00 0.000000000000000e+00
0.000000000000000e+00 0.000000000000000e+00 0.000000000000000e+00
0.000000000000000e+00 0.000000000000000e+00 0.000000000000000e+00
0.000000000000000e+00 0.000000000000000e+00 0.000000000000000e+00
0.000000000000000e+00 0.000000000000000e+00 0.000000000000000e+00
0.000000000000000e+00 0.000000000000000e+00 0.000000000000000e+00
0.000000000000000e+00 0.000000000000000e+00 0.000000000000000e+00
0.000000000000000e+00 0.000000000000000e+00 0.000000000000000e+00
0.000000000000000e+00 0.000000000000000e+00 0.000000000000000e+00
0.000000000000000e+00 0.000000000000000e+00 0.000000000000000e+00
0.000000000000000e+00 0.000000000000000e+00 0.000000000000000e+00
0.000000000000000e+00 0.000000000000000e+00 0.000000000000000e+00
0.000000000000000e+00 0.000000000000000e+00 0.000000000000000e+00
0.000000000000000e+00 0.000000000000000e+00 0.000000000000000e+00
0.000000000000000e+00 0.000000000000000e+00 0.000000000000000e+00
0.000000000000000e+00 0.000000000000000e+00 0.000000000000000e+00
0.000000000000000e+00 0.000000000000000e+00 0.000000000000000e+00
0.000000000000000e+00 0.000000000000000e+00 0.000000000000000e+00
0.000000000000000e+00 0.000000000000000e+00 0.000000000000000e+00
0.000000000000000e+00 0.000000000000000e+00 0.000000000000000e+00
0.000000000000000e+00 0.000000000000000e+00 0.000000000000000e+00
0.000000000000000e+00 0.000000000000000e+00 0.000000000000000e+00
0.000000000000000e+00 0.000000000000000e+00 0.000000000000000e+00
0.000000000000000e+00 0.000000000000000e+00 0.000000000000000e+00
0.000000000000000e+00 0.000000000000000e+00 0.000000000000000e+00
0.000000000000000e+00 0.000000000000000e+00 0.000000000000000e+00
0.000000000000000e+00 0.000000000000000e+00 0.000000000000000e+00
0.000000000000000e+00 0.000000000000000e+00 0.000000000000000e+00
0.000000000000000e+00 0.000000000000000e+00 0.000000000000000e+00
0.000000000000000e+00 0.000000000000000e+00 0.000000000000000e+00
0.000000000000000e+00 0.000000000000000e+00 0.000000000000000e+00
0.000000000000000e+00 0.000000000000000e+00 0.000000000000000e+00
0.000000000000000e+00 0.000000000000000e+00 0.000000000000000e+00
0.000000000000000e+00 0.000000000000000e+00 0.000000000000000e+00
0.000000000000000e+00 0.000000000000000e+00 0.000000000000000e+00
0.000000000000000e+00 0.000000000000000e+00 0.000000000000000e+00
0.000000000000000e+00 0.000000000000000e+00 0.000000000000000e+00
0.000000000000000e+00 0.000000000000000e+00 0.000000000000000e+00
0.000000000000000e+00 0.000000000000000e+00 0.000000000000000e+00
0.000000000000000e+00 0.000000000000000e+00 0.000000000000000e+00
0.000000000000000e+00 0.000000000000000e+00 0.000000000000000e+00
0.000000000000000e+00 0.000000000000000e+00 0.000000000000000e+00
0.000000000000000e+00 0.000000000000000e+00 0.000000000000000e+00
0.000000000000000e+00 0.000000000000000e+00 0.000000000000000e+00
0.000000000000000e+00 0.000000000000000e+00 0.000000000000000e+00
0.000000000000000e+00 0.000000000000000e+00 0.000000000000000e+00
0.000000000000000e+00 0.000000000000000e+00 0.000000000000000e+00
0.000000000000000e+00 0.000000000000000e+00 0.000000000000000e+00
0.000000000000000e+00 0.000000000000000e+00 0.000000000000000e+00
0.000000000000000e+00 0.000000000000000e+00 0.000000000000000e+00
0.000000000000000e+00 0.000000000000000e+00 0.000000000000000e+00
0.000000000000000e+00 0.000000000000000e+00 0.000000000000000e+00
0.000000000000000e+00 0.000000000000000e+00 0.000000000000000e+00
0.000000000000000e+00 0.000000000000000e+00 0.000000000000000e+00
0.000000000000000e+00 0.000000000000000e+00 0.000000000000000e+00
0.000000000000000e+00 0.000000000000000e+00 0.000000000000000e+00
0.000000000000000e+00 0.000000000000000e+00 0.000000000000000e+00
0.000000000000000e+00 0.000000000000000e+00 0.000000000000000e+00
0.000000000000000e+00 0.000000000000000e+00 0.000000000000000e+00
0.000000000000000e+00 0.000000000000000e+00 0.000000000000000e+00
0.000000000000000e+00 0.000000000000000e+00 0.000000000000000e+00
0.000000000000000e+00 0.000000000000000e+00 0.000000000000000e+00
0.000000000000000e+00 0.000000000000000e+00 0.000000000000000e+00
0.000000000000000e+00 0.000000000000000e+00 0.000000000000000e+00
0.000000000000000e+00 0.000000000000000e+00 0.000000000000000e+00
0.000000000000000e+00 0.000000000000000e+00 0.000000000000000e+00
0.000000000000000e+00 0.000000000000000e+00 0.000000000000000e+00
0.000000000000000e+00 0.000000000000000e+00 0.000000000000000e+00
0.000000000000000e+00 0.000000000000000e+00 0.000000000000000e+00
0.000000000000000e+00 0.000000000000000e+00 0.000000000000000e+00
0.000000000000000e+00 0.000000000000000e+00 0.000000000000000e+00
0.000000000000000e+00 0.000000000000000e+00 0.000000000000000e+00
0.000000000000000e+00 0.000000000000000e+00 0.000000000000000e+00
0.000000000000000e+00 0.000000000000000e+00 0.000000000000000e+00
0.000000000000000e+00 0.000000000000000e+00 0.000000000000000e+00
0.000000000000000e+00 0.000000000000000e+00 0.000000000000000e+00
0.000000000000000e+00 0.000000000000000e+00 0.000000000000000e+00
0.000000000000000e+00 0.000000000000000e+00 0.000000000000000e+00
0.000000000000000e+00 0.000000000000000e+00 0.000000000000000e+00
0.000000000000000e+00 0.000000000000000e+00 0.000000000000000e+00
0.000000000000000e+00 0.000000000000000e+00 0.000000000000000e+00
0.000000000000000e+00 0.000000000000000e+00 0.000000000000000e+00
0.000000000000000e+00 0.000000000000000e+00 0.000000000000000e+00
0.000000000000000e+00 0.000000000000000e+00 0.000000000000000e+00
0.000000000000000e+00 0.000000000000000e+00 0.000000000000000e+00
0.000000000000000e+00 0.000000000000000e+00 0.000000000000000e+00
0.000000000000000e+00 0.000000000000000e+00 0.000000000000000e+00
0.000000000000000e+00 0.000000000000000e+00 0.000000000000000e+00
0.000000000000000e+00 0.000000000000000e+00 0.000000000000000e+00
0.000000000000000e+00 0.000000000000000e+00 0.000000000000000e+00
0.000000000000000e+00 0.000000000000000e+00 0.000000000000000e+00
0.000000000000000e+00 0.000000000000000e+00 0.000000000000000e+00
0.000000000000000e+00 0.000000000000000e+00 0.000000000000000e+00
0.000000000000000e+00 0.000000000000000e+00 0.000000000000000e+00
0.000000000000000e+00 0.000000000000000e+00 0.000000000000000e+00
0.000000000000000e+00 0.000000000000000e+00 0.000000000000000e+00
0.000000000000000e+00 0.000000000000000e+00 0.000000000000000e+00
0.000000000000000e+00 0.000000000000000e+00 0.000000000000000e+00
0.000000000000000e+00 0.000000000000000e+00 0.000000000000000e+00
0.000000000000000e+00 0.000000000000000e+00 0.000000000000000e+00
0.000000000000000e+00 0.000000000000000e+00 0.000000000000000e+00
0.000000000000000e+00 0.000000000000000e+00 0.000000000000000e+00
0.000000000000000e+00 0.000000000000000e+00 0.000000000000000e+00
0.000000000000000e+00 0.000000000000000e+00 0.000000000000000e+00
0.000000000000000e+00 0.000000000000000e+00 0.000000000000000e+00
0.000000000000000e+00 0.000000000000000e+00 0.000000000000000e+00
0.000000000000000e+00 0.000000000000000e+00 0.000000000000000e+00
0.000000000000000e+00 0.000000000000000e+00 0.000000000000000e+00
0.000000000000000e+00 0.000000000000000e+00 0.000000000000000e+00
0.000000000000000e+00 0.000000000000000e+00 0.000000000000000e+00
0.000000000000000e+00 0.000000000000000e+00 0.000000000000000e+00
0.000000000000000e+00 0.000000000000000e+00 0.000000000000000e+00
0.000000000000000e+00 0.000000000000000e+00 0.000000000000000e+00
0.000000000000000e+00 0.000000000000000e+00 0.000000000000000e+00
0.000000000000000e+00 0.000000000000000e+00 0.000000000000000e+00
0.000000000000000e+00 0.000000000000000e+00 0.000000000000000e+00
0.000000000000000e+00 0.000000000000000e+00 0.000000000000000e+00
0.000000000000000e+00 0.000000000000000e+00 0.000000000000000e+00
0.000000000000000e+00 0.000000000000000e+00 0.000000000000000e+00
0.000000000000000e+00 0.000000000000000e+00 0.000000000000000e+00
0.000000000000000e+00 0.000000000000000e+00 0.000000000000000e+00
0.000000000000000e+00 0.000000000000000e+00 0.000000000000000e+00
0.000000000000000e+00 0.000000000000000e+00 0.000000000000000e+00
0.000000000000000e+00 0.000000000000000e+00 0.000000000000000e+00
0.000000000000000e+00 0.000000000000000e+00 0.000000000000000e+00
0.000000000000000e+00 0.000000000000000e+00 0.000000000000000e+00
0.000000000000000e+00 0.000000000000000e+00 0.000000000000000e+00
0.000000000000000e+00 0.000000000000000e+00 0.000000000000000e+00
0.000000000000000e+00 0.000000000000000e+00 0.000000000000000e+00
0.000000000000000e+00 0.000000000000000e+00 0.000000000000000e+00
0.000000000000000e+00 0.000000000000000e+00 0.000000000000000e+00
0.000000000000000e+00 0.000000000000000e+00 0.000000000000000e+00
0.000000000000000e+00 0.000000000000000e+00 0.000000000000000e+00
0.000000000000000e+00 0.000000000000000e+00 0.000000000000000e+00
0.000000000000000e+00 0.000000000000000e+00 0.000000000000000e+00
0.000000000000000e+00 0.000000000000000e+00 0.000000000000000e+00
0.000000000000000e+00 0.000000000000000e+00 0.000000000000000e+00
0.000000000000000e+00 0.000000000000000e+00 0.000000000000000e+00
0.000000000000000e+00 0.000000000000000e+00 0.000000000000000e+00
0.000000000000000e+00 0.000000000000000e+00 0.000000000000000e+00
0.000000000000000e+00 0.000000000000000e+00 0.000000000000000e+00
0.000000000000000e+00 0.000000000000000e+00 0.000000000000000e+00
0.000000000000000e+00 0.000000000000000e+00 0.000000000000000e+00
0.000000000000000e+00 0.000000000000000e+00 0.000000000000000e+00
0.000000000000000e+00 0.000000000000000e+00 0.000000000000000e+00
0.000000000000000e+00 0.000000000000000e+00 0.000000000000000e+00
0.000000000000000e+00 0.000000000000000e+00 0.000000000000000e+00
0.000000000000000e+00 0.000000000000000e+00 0.000000000000000e+00
0.000000000000000e+00 0.000000000000000e+00 0.000000000000000e+00
0.000000000000000e+00 0.000000000000000e+00 0.000000000000000e+00
0.000000000000000e+00 0.000000000000000e+00 0.000000000000000e+00
0.000000000000000e+00 0.000000000000000e+00 0.000000000000000e+00
0.000000000000000e+00 0.000000000000000e+00 0.000000000000000e+00
0.000000000000000e+00 0.000000000000000e+00 0.000000000000000e+00
0.000000000000000e+00 0.000000000000000e+00 0.000000000000000e+00
0.000000000000000e+00 0.000000000000000e+00 0.000000000000000e+00
0.000000000000000e+00 0.000000000000000e+00 0.000000000000000e+00
0.000000000000000e+00 0.000000000000000e+00 0.000000000000000e+00
0.000000000000000e+00 0.000000000000000e+00 0.000000000000000e+00
0.000000000000000e+00 0.000000000000000e+00 0.000000000000000e+00
0.000000000000000e+00 0.000000000000000e+00 0.000000000000000e+00
0.000000000000000e+00 0.000000000000000e+00 0.000000000000000e+00
0.000000000000000e+00 0.000000000000000e+00 0.000000000000000e+00
0.000000000000000e+00 0.000000000000000e+00 0.000000000000000e+00
0.000000000000000e+00 0.000000000000000e+00 0.000000000000000e+00
0.000000000000000e+00 0.000000000000000e+00 0.000000000000000e+00
0.000000000000000e+00 0.000000000000000e+00 0.000000000000000e+00
0.000000000000000e+00 0.000000000000000e+00 0.000000000000000e+00
0.000000000000000e+00 0.000000000000000e+00 0.000000000000000e+00
0.000000000000000e+00 0.000000000000000e+00 0.000000000000000e+00
0.000000000000000e+00 0.000000000000000e+00 0.000000000000000e+00
0.000000000000000e+00 0.000000000000000e+00 0.000000000000000e+00
0.000000000000000e+00 0.000000000000000e+00 0.000000000000000e+00
0.000000000000000e+00 0.000000000000000e+00 0.000000000000000e+00
0.000000000000000e+00 0.000000000000000e+00 0.000000000000000e+00
0.000000000000000e+00 0.000000000000000e+00 0.000000000000000e+00
0.000000000000000e+00 0.000000000000000e+00 0.000000000000000e+00
0.000000000000000e+00 0.000000000000000e+00 0.000000000000000e+00
0.000000000000000e+00 0.000000000000000e+00 0.000000000000000e+00
0.000000000000000e+00 0.000000000000000e+00 0.000000000000000e+00
0.000000000000000e+00 0.000000000000000e+00 0.000000000000000e+00
0.000000000000000e+00 0.000000000000000e+00 0.000000000000000e+00
0.000000000000000e+00 0.000000000000000e+00 0.000000000000000e+00
0.000000000000000e+00 0.000000000000000e+00 0.000000000000000e+00
0.000000000000000e+00 0.000000000000000e+00 0.000000000000000e+00
0.000000000000000e+00 0.000000000000000e+00 0.000000000000000e+00
0.000000000000000e+00 0.000000000000000e+00 0.000000000000000e+00
0.000000000000000e+00 0.000000000000000e+00 0.000000000000000e+00
0.000000000000000e+00 0.000000000000000e+00 0.000000000000000e+00
0.000000000000000e+00 0.000000000000000e+00 0.000000000000000e+00
0.000000000000000e+00 0.000000000000000e+00 0.000000000000000e+00
0.000000000000000e+00 0.000000000000000e+00 0.000000000000000e+00
0.000000000000000e+00 0.000000000000000e+00 0.000000000000000e+00
0.000000000000000e+00 0.000000000000000e+00 0.000000000000000e+00
0.000000000000000e+00 0.000000000000000e+00 0.000000000000000e+00
0.000000000000000e+00 0.000000000000000e+00 0.000000000000000e+00
0.000000000000000e+00 0.000000000000000e+00 0.000000000000000e+00
0.000000000000000e+00 0.000000000000000e+00 0.000000000000000e+00
0.000000000000000e+00 0.000000000000000e+00 0.000000000000000e+00
0.000000000000000e+00 0.000000000000000e+00 0.000000000000000e+00
0.000000000000000e+00 0.000000000000000e+00 0.000000000000000e+00
0.000000000000000e+00 0.000000000000000e+00 0.000000000000000e+00
0.000000000000000e+00 0.000000000000000e+00 0.000000000000000e+00
0.000000000000000e+00 0.000000000000000e+00 0.000000000000000e+00
0.000000000000000e+00 0.000000000000000e+00 0.000000000000000e+00
0.000000000000000e+00 0.000000000000000e+00 0.000000000000000e+00
0.000000000000000e+00 0.000000000000000e+00 0.000000000000000e+00
0.000000000000000e+00 0.000000000000000e+00 0.000000000000000e+00
0.000000000000000e+00 0.000000000000000e+00 0.000000000000000e+00
0.000000000000000e+00 0.000000000000000e+00 0.000000000000000e+00
0.000000000000000e+00 0.000000000000000e+00 0.000000000000000e+00
0.000000000000000e+00 0.000000000000000e+00 0.000000000000000e+00
0.000000000000000e+00 0.000000000000000e+00 0.000000000000000e+00
0.000000000000000e+00 0.000000000000000e+00 0.000000000000000e+00
0.000000000000000e+00 0.000000000000000e+00 0.000000000000000e+00
0.000000000000000e+00 0.000000000000000e+00 0.000000000000000e+00
0.000000000000000e+00 0.000000000000000e+00 0.000000000000000e+00
0.000000000000000e+00 0.000000000000000e+00 0.000000000000000e+00
0.000000000000000e+00 0.000000000000000e+00 0.000000000000000e+00
0.000000000000000e+00 0.000000000000000e+00 0.000000000000000e+00
0.000000000000000e+00 0.000000000000000e+00 0.000000000000000e+00
0.000000000000000e+00 0.000000000000000e+00 0.000000000000000e+00
0.000000000000000e+00 0.000000000000000e+00 0.000000000000000e+00
0.000000000000000e+00 0.000000000000000e+00 0.000000000000000e+00
0.000000000000000e+00 0.000000000000000e+00 0.000000000000000e+00
0.000000000000000e+00 0.000000000000000e+00 0.000000000000000e+00
0.000000000000000e+00 0.000000000000000e+00 0.000000000000000e+00
0.000000000000000e+00 0.000000000000000e+00 0.000000000000000e+00
0.000000000000000e+00 0.000000000000000e+00 0.000000000000000e+00
0.000000000000000e+00 0.000000000000000e+00 0.000000000000000e+00
0.000000000000000e+00 0.000000000000000e+00 0.000000000000000e+00
0.000000000000000e+00 0.000000000000000e+00 0.000000000000000e+00
0.000000000000000e+00 0.000000000000000e+00 0.000000000000000e+00
0.000000000000000e+00 0.000000000000000e+00 0.000000000000000e+00
0.000000000000000e+00 0.000000000000000e+00 0.000000000000000e+00
0.000000000000000e+00 0.000000000000000e+00 0.000000000000000e+00
0.000000000000000e+00 0.000000000000000e+00 0.000000000000000e+00
0.000000000000000e+00 0.000000000000000e+00 0.000000000000000e+00
0.000000000000000e+00 0.000000000000000e+00 0.000000000000000e+00
0.000000000000000e+00 0.000000000000000e+00 0.000000000000000e+00
0.000000000000000e+00 0.000000000000000e+00 0.000000000000000e+00
0.000000000000000e+00 0.000000000000000e+00 0.000000000000000e+00
0.000000000000000e+00 0.000000000000000e+00 0.000000000000000e+00
0.000000000000000e+00 0.000000000000000e+00 0.000000000000000e+00
0.000000000000000e+00 0.000000000000000e+00 0.000000000000000e+00
0.000000000000000e+00 0.000000000000000e+00 0.000000000000000e+00
0.000000000000000e+00 0.000000000000000e+00 0.000000000000000e+00
0.000000000000000e+00 0.000000000000000e+00 0.000000000000000e+00
0.000000000000000e+00 0.000000000000000e+00 0.000000000000000e+00
0.000000000000000e+00 0.000000000000000e+00 0.000000000000000e+00
0.000000000000000e+00 0.000000000000000e+00 0.000000000000000e+00
0.000000000000000e+00 0.000000000000000e+00 0.000000000000000e+00
0.000000000000000e+00 0.000000000000000e+00 0.000000000000000e+00
0.000000000000000e+00 0.000000000000000e+00 0.000000000000000e+00
0.000000000000000e+00 0.000000000000000e+00 0.000000000000000e+00
0.000000000000000e+00 0.000000000000000e+00 0.000000000000000e+00
0.000000000000000e+00 0.000000000000000e+00 0.000000000000000e+00
0.000000000000000e+00 0.000000000000000e+00 0.000000000000000e+00
0.000000000000000e+00 0.000000000000000e+00 0.000000000000000e+00
0.000000000000000e+00 0.000000000000000e+00 0.000000000000000e+00
0.000000000000000e+00 0.000000000000000e+00 0.000000000000000e+00
0.000000000000000e+00 0.000000000000000e+00 0.000000000000000e+00
0.000000000000000e+00 0.000000000000000e+00 0.000000000000000e+00
0.000000000000000e+00 0.000000000000000e+00 0.000000000000000e+00
0.000000000000000e+00 0.000000000000000e+00 0.000000000000000e+00
0.000000000000000e+00 0.000000000000000e+00 0.000000000000000e+00
0.000000000000000e+00 0.000000000000000e+00 0.000000000000000e+00
0.000000000000000e+00 0.000000000000000e+00 0.000000000000000e+00
0.000000000000000e+00 0.000000000000000e+00 0.000000000000000e+00
0.000000000000000e+00 0.000000000000000e+00 0.000000000000000e+00
0.000000000000000e+00 0.000000000000000e+00 0.000000000000000e+00
0.000000000000000e+00 0.000000000000000e+00 0.000000000000000e+00
0.000000000000000e+00 0.000000000000000e+00 0.000000000000000e+00
0.000000000000000e+00 0.000000000000000e+00 0.000000000000000e+00
0.000000000000000e+00 0.000000000000000e+00 0.000000000000000e+00
0.000000000000000e+00 0.000000000000000e+00 0.000000000000000e+00
0.000000000000000e+00 0.000000000000000e+00 0.000000000000000e+00
0.000000000000000e+00 0.000000000000000e+00 0.000000000000000e+00
0.000000000000000e+00 0.000000000000000e+00 0.000000000000000e+00
0.000000000000000e+00 0.000000000000000e+00 0.000000000000000e+00
0.000000000000000e+00 0.000000000000000e+00 0.000000000000000e+00
0.000000000000000e+00 0.000000000000000e+00 0.000000000000000e+00
0.000000000000000e+00 0.000000000000000e+00 0.000000000000000e+00
0.000000000000000e+00 0.000000000000000e+00 0.000000000000000e+00
0.000000000000000e+00 0.000000000000000e+00 0.000000000000000e+00
0.000000000000000e+00 0.000000000000000e+00 0.000000000000000e+00
0.000000000000000e+00 0.000000000000000e+00 0.000000000000000e+00
0.000000000000000e+00 0.000000000000000e+00 0.000000000000000e+00
0.000000000000000e+00 0.000000000000000e+00 0.000000000000000e+00
0.000000000000000e+00 0.000000000000000e+00 0.000000000000000e+00
0.000000000000000e+00 0.000000000000000e+00 0.000000000000000e+00
0.000000000000000e+00 0.000000000000000e+00 0.000000000000000e+00
0.000000000000000e+00 0.000000000000000e+00 0.000000000000000e+00
0.000000000000000e+00 0.000000000000000e+00 0.000000000000000e+00
0.000000000000000e+00 0.000000000000000e+00 0.000000000000000e+00
0.000000000000000e+00 0.000000000000000e+00 0.000000000000000e+00
0.000000000000000e+00 0.000000000000000e+00 0.000000000000000e+00
0.000000000000000e+00 0.000000000000000e+00 0.000000000000000e+00
0.000000000000000e+00 0.000000000000000e+00 0.000000000000000e+00
0.000000000000000e+00 0.000000000000000e+00 0.000000000000000e+00
0.000000000000000e+00 0.000000000000000e+00 0.000000000000000e+00
0.000000000000000e+00 0.000000000000000e+00 0.000000000000000e+00
0.000000000000000e+00 0.000000000000000e+00 0.000000000000000e+00
0.000000000000000e+00 0.000000000000000e+00 0.000000000000000e+00
0.000000000000000e+00 0.000000000000000e+00 0.000000000000000e+00
0.000000000000000e+00 0.000000000000000e+00 0.000000000000000e+00
0.000000000000000e+00 0.000000000000000e+00 0.000000000000000e+00
0.000000000000000e+00 0.000000000000000e+00 0.000000000000000e+00
0.000000000000000e+00 0.000000000000000e+00 0.000000000000000e+00
0.000000000000000e+00 0.000000000000000e+00 0.000000000000000e+00
0.000000000000000e+00 0.000000000000000e+00 0.000000000000000e+00
0.000000000000000e+00 0.000000000000000e+00 0.000000000000000e+00
0.000000000000000e+00 0.000000000000000e+00 0.000000000000000e+00
0.000000000000000e+00 0.000000000000000e+00 0.000000000000000e+00
0.000000000000000e+00 0.000000000000000e+00 0.000000000000000e+00
0.000000000000000e+00 0.000000000000000e+00 0.000000000000000e+00
0.000000000000000e+00 0.000000000000000e+00 0.000000000000000e+00
0.000000000000000e+00 0.000000000000000e+00 0.000000000000000e+00
0.000000000000000e+00 0.000000000000000e+00 0.000000000000000e+00
0.000000000000000e+00 0.000000000000000e+00 0.000000000000000e+00
0.000000000000000e+00 0.000000000000000e+00 0.000000000000000e+00
0.000000000000000e+00 0.000000000000000e+00 0.000000000000000e+00
0.000000000000000e+00 0.000000000000000e+00 0.000000000000000e+00
0.000000000000000e+00 0.000000000000000e+00 0.000000000000000e+00
0.000000000000000e+00 0.000000000000000e+00 0.000000000000000e+00
0.000000000000000e+00 0.000000000000000e+00 0.000000000000000e+00
0.000000000000000e+00 0.000000000000000e+00 0.000000000000000e+00
0.000000000000000e+00 0.000000000000000e+00 0.000000000000000e+00
0.000000000000000e+00 0.000000000000000e+00 0.000000000000000e+00
0.000000000000000e+00 0.000000000000000e+00 0.000000000000000e+00
0.000000000000000e+00 0.000000000000000e+00 0.000000000000000e+00
0.000000000000000e+00 0.000000000000000e+00 0.000000000000000e+00
0.000000000000000e+00 0.000000000000000e+00 0.000000000000000e+00
0.000000000000000e+00 0.000000000000000e+00 0.000000000000000e+00
0.000000000000000e+00 0.000000000000000e+00 0.000000000000000e+00
0.000000000000000e+00 0.000000000000000e+00 0.000000000000000e+00
0.000000000000000e+00 0.000000000000000e+00 0.000000000000000e+00
0.000000000000000e+00 0.000000000000000e+00 0.000000000000000e+00
0.000000000000000e+00 0.000000000000000e+00 0.000000000000000e+00
0.000000000000000e+00 0.000000000000000e+00 0.000000000000000e+00
0.000000000000000e+00 0.000000000000000e+00 0.000000000000000e+00
0.000000000000000e+00 0.000000000000000e+00 0.000000000000000e+00
0.000000000000000e+00 0.000000000000000e+00 0.000000000000000e+00
0.000000000000000e+00 0.000000000000000e+00 0.000000000000000e+00
0.000000000000000e+00 0.000000000000000e+00 0.000000000000000e+00
0.000000000000000e+00 0.000000000000000e+00 0.000000000000000e+00
0.000000000000000e+00 0.000000000000000e+00 0.000000000000000e+00
0.000000000000000e+00 0.000000000000000e+00 0.000000000000000e+00
0.000000000000000e+00 0.000000000000000e+00 0.000000000000000e+00
0.000000000000000e+00 0.000000000000000e+00 0.000000000000000e+00
0.000000000000000e+00 0.000000000000000e+00 0.000000000000000e+00
0.000000000000000e+00 0.000000000000000e+00 0.000000000000000e+00
0.000000000000000e+00 0.000000000000000e+00 0.000000000000000e+00
0.000000000000000e+00 0.000000000000000e+00 0.000000000000000e+00
0.000000000000000e+00 0.000000000000000e+00 0.000000000000000e+00
0.000000000000000e+00 0.000000000000000e+00 0.000000000000000e+00
0.000000000000000e+00 0.000000000000000e+00 0.000000000000000e+00
0.000000000000000e+00 0.000000000000000e+00 0.000000000000000e+00
0.000000000000000e+00 0.000000000000000e+00 0.000000000000000e+00
0.000000000000000e+00 0.000000000000000e+00 0.000000000000000e+00
0.000000000000000e+00 0.000000000000000e+00 0.000000000000000e+00
0.000000000000000e+00 0.000000000000000e+00 0.000000000000000e+00
0.000000000000000e+00 0.000000000000000e+00 0.000000000000000e+00
0.000000000000000e+00 0.000000000000000e+00 0.000000000000000e+00
0.000000000000000e+00 0.000000000000000e+00 0.000000000000000e+00
0.000000000000000e+00 0.000000000000000e+00 0.000000000000000e+00
0.000000000000000e+00 0.000000000000000e+00 0.000000000000000e+00
0.000000000000000e+00 0.000000000000000e+00 0.000000000000000e+00
0.000000000000000e+00 0.000000000000000e+00 0.000000000000000e+00
0.000000000000000e+00 0.000000000000000e+00 0.000000000000000e+00
0.000000000000000e+00 0.000000000000000e+00 0.000000000000000e+00
0.000000000000000e+00 0.000000000000000e+00 0.000000000000000e+00
0.000000000000000e+00 0.000000000000000e+00 0.000000000000000e+00
0.000000000000000e+00 0.000000000000000e+00 0.000000000000000e+00
0.000000000000000e+00 0.000000000000000e+00 0.000000000000000e+00
0.000000000000000e+00 0.000000000000000e+00 0.000000000000000e+00
0.000000000000000e+00 0.000000000000000e+00 0.000000000000000e+00
0.000000000000000e+00 0.000000000000000e+00 0.000000000000000e+00
0.000000000000000e+00 0.000000000000000e+00 0.000000000000000e+00
0.000000000000000e+00 0.000000000000000e+00 0.000000000000000e+00
0.000000000000000e+00 0.000000000000000e+00 0.000000000000000e+00
0.000000000000000e+00 0.000000000000000e+00 0.000000000000000e+00
0.000000000000000e+00 0.000000000000000e+00 0.000000000000000e+00
0.000000000000000e+00 0.000000000000000e+00 0.000000000000000e+00
0.000000000000000e+00 0.000000000000000e+00 0.000000000000000e+00
0.000000000000000e+00 0.000000000000000e+00 0.000000000000000e+00
0.000000000000000e+00 0.000000000000000e+00 0.000000000000000e+00
0.000000000000000e+00 0.000000000000000e+00 0.000000000000000e+00
0.000000000000000e+00 0.000000000000000e+00 0.000000000000000e+00
0.000000000000000e+00 0.000000000000000e+00 0.000000000000000e+00
0.000000000000000e+00 0.000000000000000e+00 0.000000000000000e+00
0.000000000000000e+00 0.000000000000000e+00 0.000000000000000e+00
0.000000000000000e+00 0.000000000000000e+00 0.000000000000000e+00
0.000000000000000e+00 0.000000000000000e+00 0.000000000000000e+00
0.000000000000000e+00 0.000000000000000e+00 0.000000000000000e+00
0.000000000000000e+00 0.000000000000000e+00 0.000000000000000e+00
0.000000000000000e+00 0.000000000000000e+00 0.000000000000000e+00
0.000000000000000e+00 0.000000000000000e+00 0.000000000000000e+00
0.000000000000000e+00 0.000000000000000e+00 0.000000000000000e+00
0.000000000000000e+00 0.000000000000000e+00 0.000000000000000e+00
0.000000000000000e+00 0.000000000000000e+00 0.000000000000000e+00
0.000000000000000e+00 0.000000000000000e+00 0.000000000000000e+00
0.000000000000000e+00 0.000000000000000e+00 0.000000000000000e+00
0.000000000000000e+00 0.000000000000000e+00 0.000000000000000e+00
0.000000000000000e+00 0.000000000000000e+00 0.000000000000000e+00
0.000000000000000e+00 0.000000000000000e+00 0.000000000000000e+00
0.000000000000000e+00 0.000000000000000e+00 0.000000000000000e+00
0.000000000000000e+00 0.000000000000000e+00 0.000000000000000e+00
0.000000000000000e+00 0.000000000000000e+00 0.000000000000000e+00
0.000000000000000e+00 0.000000000000000e+00 0.000000000000000e+00
0.000000000000000e+00 0.000000000000000e+00 0.000000000000000e+00
0.000000000000000e+00 0.000000000000000e+00 0.000000000000000e+00
0.000000000000000e+00 0.000000000000000e+00 0.000000000000000e+00
0.000000000000000e+00 0.000000000000000e+00 0.000000000000000e+00
0.000000000000000e+00 0.000000000000000e+00 0.000000000000000e+00
0.000000000000000e+00 0.000000000000000e+00 0.000000000000000e+00
0.000000000000000e+00 0.000000000000000e+00 0.000000000000000e+00
0.000000000000000e+00 0.000000000000000e+00 0.000000000000000e+00
0.000000000000000e+00 0.000000000000000e+00 0.000000000000000e+00
0.000000000000000e+00 0.000000000000000e+00 0.000000000000000e+00
0.000000000000000e+00 0.000000000000000e+00 0.000000000000000e+00
0.000000000000000e+00 0.000000000000000e+00 0.000000000000000e+00
0.000000000000000e+00 0.000000000000000e+00 0.000000000000000e+00
0.000000000000000e+00 0.000000000000000e+00 0.000000000000000e+00
0.000000000000000e+00 0.000000000000000e+00 0.000000000000000e+00
0.000000000000000e+00 0.000000000000000e+00 0.000000000000000e+00
0.000000000000000e+00 0.000000000000000e+00 0.000000000000000e+00
0.000000000000000e+00 0.000000000000000e+00 0.000000000000000e+00
0.000000000000000e+00 0.000000000000000e+00 0.000000000000000e+00
0.000000000000000e+00 0.000000000000000e+00 0.000000000000000e+00
0.000000000000000e+00 0.000000000000000e+00 0.000000000000000e+00
0.000000000000000e+00 0.000000000000000e+00 0.000000000000000e+00
0.000000000000000e+00 0.000000000000000e+00 0.000000000000000e+00
0.000000000000000e+00 0.000000000000000e+00 0.000000000000000e+00
0.000000000000000e+00 0.000000000000000e+00 0.000000000000000e+00
0.000000000000000e+00 0.000000000000000e+00 0.000000000000000e+00
0.000000000000000e+00 0.000000000000000e+00 0.000000000000000e+00
0.000000000000000e+00 0.000000000000000e+00 0.000000000000000e+00
0.000000000000000e+00 0.000000000000000e+00 0.000000000000000e+00
0.000000000000000e+00 0.000000000000000e+00 0.000000000000000e+00
0.000000000000000e+00 0.000000000000000e+00 0.000000000000000e+00
0.000000000000000e+00 0.000000000000000e+00 0.000000000000000e+00
0.000000000000000e+00 0.000000000000000e+00 0.000000000000000e+00
0.000000000000000e+00 0.000000000000000e+00 0.000000000000000e+00
0.000000000000000e+00 0.000000000000000e+00 0.000000000000000e+00
0.000000000000000e+00 0.000000000000000e+00 0.000000000000000e+00
0.000000000000000e+00 0.000000000000000e+00 0.000000000000000e+00
0.000000000000000e+00 0.000000000000000e+00 0.000000000000000e+00
0.000000000000000e+00 0.000000000000000e+00 0.000000000000000e+00
0.000000000000000e+00 0.000000000000000e+00 0.000000000000000e+00
0.000000000000000e+00 0.000000000000000e+00 0.000000000000000e+00
0.000000000000000e+00 0.000000000000000e+00 0.000000000000000e+00
0.000000000000000e+00 0.000000000000000e+00 0.000000000000000e+00
0.000000000000000e+00 0.000000000000000e+00 0.000000000000000e+00
0.000000000000000e+00 0.000000000000000e+00 0.000000000000000e+00
0.000000000000000e+00 0.000000000000000e+00 0.000000000000000e+00
0.000000000000000e+00 0.000000000000000e+00 0.000000000000000e+00
0.000000000000000e+00 0.000000000000000e+00 0.000000000000000e+00
0.000000000000000e+00 0.000000000000000e+00 0.000000000000000e+00
0.000000000000000e+00 0.000000000000000e+00 0.000000000000000e+00
0.000000000000000e+00 0.000000000000000e+00 0.000000000000000e+00
0.000000000000000e+00 0.000000000000000e+00 0.000000000000000e+00
0.000000000000000e+00 0.000000000000000e+00 0.000000000000000e+00
0.000000000000000e+00 0.000000000000000e+00 0.000000000000000e+00
0.000000000000000e+00 0.000000000000000e+00 0.000000000000000e+00
0.000000000000000e+00 0.000000000000000e+00 0.000000000000000e+00
0.000000000000000e+00 0.000000000000000e+00 0.000000000000000e+00
0.000000000000000e+00 0.000000000000000e+00 0.000000000000000e+00
0.000000000000000e+00 0.000000000000000e+00 0.000000000000000e+00
0.000000000000000e+00 0.000000000000000e+00 0.000000000000000e+00
0.000000000000000e+00 0.000000000000000e+00 0.000000000000000e+00
0.000000000000000e+00 0.000000000000000e+00 0.000000000000000e+00
0.000000000000000e+00 0.000000000000000e+00 0.000000000000000e+00
0.000000000000000e+00 0.000000000000000e+00 0.000000000000000e+00
0.000000000000000e+00 0.000000000000000e+00 0.000000000000000e+00
0.000000000000000e+00 0.000000000000000e+00 0.000000000000000e+00
0.000000000000000e+00 0.000000000000000e+00 0.000000000000000e+00
0.000000000000000e+00 0.000000000000000e+00 0.000000000000000e+00
0.000000000000000e+00 0.000000000000000e+00 0.000000000000000e+00
0.000000000000000e+00 0.000000000000000e+00 0.000000000000000e+00
0.000000000000000e+00 0.000000000000000e+00 0.000000000000000e+00
0.000000000000000e+00 0.000000000000000e+00 0.000000000000000e+00
0.000000000000000e+00 0.000000000000000e+00 0.000000000000000e+00
0.000000000000000e+00 0.000000000000000e+00 0.000000000000000e+00
0.000000000000000e+00 0.000000000000000e+00 0.000000000000000e+00
0.000000000000000e+00 0.000000000000000e+00 0.000000000000000e+00
0.000000000000000e+00 0.000000000000000e+00 0.000000000000000e+00
0.000000000000000e+00 0.000000000000000e+00 0.000000000000000e+00
0.000000000000000e+00 0.000000000000000e+00 0.000000000000000e+00
0.000000000000000e+00 0.000000000000000e+00 0.000000000000000e+00
0.000000000000000e+00 0.000000000000000e+00 0.000000000000000e+00
0.000000000000000e+00 0.000000000000000e+00 0.000000000000000e+00
0.000000000000000e+00 0.000000000000000e+00 0.000000000000000e+00
0.000000000000000e+00 0.000000000000000e+00 0.000000000000000e+00
0.000000000000000e+00 0.000000000000000e+00 0.000000000000000e+00
0.000000000000000e+00 0.000000000000000e+00 0.000000000000000e+00
0.000000000000000e+00 0.000000000000000e+00 0.000000000000000e+00
0.000000000000000e+00 0.000000000000000e+00 0.000000000000000e+00
0.000000000000000e+00 0.000000000000000e+00 0.000000000000000e+00
0.000000000000000e+00 0.000000000000000e+00 0.000000000000000e+00
0.000000000000000e+00 0.000000000000000e+00 0.000000000000000e+00
0.000000000000000e+00 0.000000000000000e+00 0.000000000000000e+00
0.000000000000000e+00 0.000000000000000e+00 0.000000000000000e+00
0.000000000000000e+00 0.000000000000000e+00 0.000000000000000e+00
0.000000000000000e+00 0.000000000000000e+00 0.000000000000000e+00
0.000000000000000e+00 0.000000000000000e+00 0.000000000000000e+00
0.000000000000000e+00 0.000000000000000e+00 0.000000000000000e+00
0.000000000000000e+00 0.000000000000000e+00 0.000000000000000e+00
0.000000000000000e+00 0.000000000000000e+00 0.000000000000000e+00
0.000000000000000e+00 0.000000000000000e+00 0.000000000000000e+00
0.000000000000000e+00 0.000000000000000e+00 0.000000000000000e+00
0.000000000000000e+00 0.000000000000000e+00 0.000000000000000e+00
0.000000000000000e+00 0.000000000000000e+00 0.000000000000000e+00
0.000000000000000e+00 0.000000000000000e+00 0.000000000000000e+00
0.000000000000000e+00 0.000000000000000e+00 0.000000000000000e+00
0.000000000000000e+00 0.000000000000000e+00 0.000000000000000e+00
0.000000000000000e+00 0.000000000000000e+00 0.000000000000000e+00
0.000000000000000e+00 0.000000000000000e+00 0.000000000000000e+00
0.000000000000000e+00 0.000000000000000e+00 0.000000000000000e+00
0.000000000000000e+00 0.000000000000000e+00 0.000000000000000e+00
0.000000000000000e+00 0.000000000000000e+00 0.000000000000000e+00
0.000000000000000e+00 0.000000000000000e+00 0.000000000000000e+00
0.000000000000000e+00 0.000000000000000e+00 0.000000000000000e+00
0.000000000000000e+00 0.000000000000000e+00 0.000000000000000e+00
0.000000000000000e+00 0.000000000000000e+00 0.000000000000000e+00
0.000000000000000e+00 0.000000000000000e+00 0.000000000000000e+00
0.000000000000000e+00 0.000000000000000e+00 0.000000000000000e+00
0.000000000000000e+00 0.000000000000000e+00 0.000000000000000e+00
0.000000000000000e+00 0.000000000000000e+00 0.000000000000000e+00
0.000000000000000e+00 0.000000000000000e+00 0.000000000000000e+00
0.000000000000000e+00 0.000000000000000e+00 0.000000000000000e+00
0.000000000000000e+00 0.000000000000000e+00 0.000000000000000e+00
0.000000000000000e+00 0.000000000000000e+00 0.000000000000000e+00
0.000000000000000e+00 0.000000000000000e+00 0.000000000000000e+00
0.000000000000000e+00 0.000000000000000e+00 0.000000000000000e+00
0.000000000000000e+00 0.000000000000000e+00 0.000000000000000e+00
0.000000000000000e+00 0.000000000000000e+00 0.000000000000000e+00
0.000000000000000e+00 0.000000000000000e+00 0.000000000000000e+00
0.000000000000000e+00 0.000000000000000e+00 0.000000000000000e+00
0.000000000000000e+00 0.000000000000000e+00 0.000000000000000e+00
0.000000000000000e+00 0.000000000000000e+00 0.000000000000000e+00
0.000000000000000e+00 0.000000000000000e+00 0.000000000000000e+00
0.000000000000000e+00 0.000000000000000e+00 0.000000000000000e+00
0.000000000000000e+00 0.000000000000000e+00 0.000000000000000e+00
0.000000000000000e+00 0.000000000000000e+00 0.000000000000000e+00
0.000000000000000e+00 0.000000000000000e+00 0.000000000000000e+00
0.000000000000000e+00 0.000000000000000e+00 0.000000000000000e+00
0.000000000000000e+00 0.000000000000000e+00 0.000000000000000e+00
0.000000000000000e+00 0.000000000000000e+00 0.000000000000000e+00
0.000000000000000e+00 0.000000000000000e+00 0.000000000000000e+00
0.000000000000000e+00 0.000000000000000e+00 0.000000000000000e+00
0.000000000000000e+00 0.000000000000000e+00 0.000000000000000e+00
0.000000000000000e+00 0.000000000000000e+00 0.000000000000000e+00
0.000000000000000e+00 0.000000000000000e+00 0.000000000000000e+00
0.000000000000000e+00 0.000000000000000e+00 0.000000000000000e+00
0.000000000000000e+00 0.000000000000000e+00 0.000000000000000e+00
0.000000000000000e+00 0.000000000000000e+00 0.000000000000000e+00
0.000000000000000e+00 0.000000000000000e+00 0.000000000000000e+00
0.000000000000000e+00 0.000000000000000e+00 0.000000000000000e+00
0.000000000000000e+00 0.000000000000000e+00 0.000000000000000e+00
0.000000000000000e+00 0.000000000000000e+00 0.000000000000000e+00
0.000000000000000e+00 0.000000000000000e+00 0.000000000000000e+00
0.000000000000000e+00 0.000000000000000e+00 0.000000000000000e+00
0.000000000000000e+00 0.000000000000000e+00 0.000000000000000e+00
0.000000000000000e+00 0.000000000000000e+00 0.000000000000000e+00
0.000000000000000e+00 0.000000000000000e+00 0.000000000000000e+00
0.000000000000000e+00 0.000000000000000e+00 0.000000000000000e+00
0.000000000000000e+00 0.000000000000000e+00 0.000000000000000e+00
-1.099919197236119e-01 -1.333264982824609e-03  1.971136227954231e-18
-1.099881526434292e-01 -1.614397127612525e-03  1.973957718929259e-18
-1.085109495409196e-01  1.803812156872014e-02  1.745746637242414e-18
-1.099318102278734e-01  3.872608942658066e-03  1.916578044337346e-18
-1.092840365071526e-01 -1.252993873501662e-02  2.073580357095641e-18
-1.096470450402411e-01 -8.804857406185706e-03  2.041766669516126e-18
-1.099791033570467e-01  2.144020704183979e-03  1.935180298187853e-18
-1.099948827925487e-01  1.061018121149455e-03  1.946588570181774e-18
-1.099948827925487e-01  1.061018121149455e-03  1.946588570181774e-18
-1.092475498766039e-01 -1.284417556555753e-02  2.076159703262740e-18
-1.098981825772600e-01 -4.731750861484788e-03  2.004386271451554e-18
-1.099763331765048e-01  2.281696967246229e-03  1.933716425931608e-18
-1.099992866176056e-01  3.961611007751481e-04  1.953498105862514e-18
-1.099999802490285e-01 -6.591823169780381e-05  1.958258147142012e-18
-1.094000385791326e-01 -1.147307974713952e-02  2.064785910165056e-18
-1.099923426902847e-01 -1.297901961976719e-03  1.970780412957868e-18
-1.099923426902847e-01 -1.297901961976719e-03  1.970780412957868e-18
-1.096265657088653e-01  9.056273564759907e-03  1.857885583097972e-18
-1.099957268761917e-01 -9.695715436059303e-04  1.967467162807190e-18
-1.099910486933344e-01 -1.403284483085927e-03  1.971840151860538e-18
-1.099910486933344e-01 -1.403284483085927e-03  1.971840151860538e-18
-1.095228424929472e-01  1.023459682962730e-02  1.843932861249856e-18
-1.095576371967202e-01 -9.855157627950936e-03  2.050967003525698e-18
-1.095576371967202e-01 -9.855157627950936e-03  2.050967003525698e-18
-1.098685858197583e-01  5.375299988496765e-03  1.900013285966882e-18
-1.098685858197583e-01  5.375299988496765e-03  1.900013285966882e-18
-1.099982571207099e-01  6.192175757528663e-04  1.951187960486877e-18
-1.081166493513813e-01  2.026795828470143e-02  1.715818832810575e-18
-1.033656840952698e-01 -3.762360099082528e-02  2.226084480127483e-18
-1.085967865683319e-01 -1.751393579502015e-02  2.112558683900671e-18
-1.036251361224321e-01  3.690299667516639e-02  1.464968020802840e-18
-1.098905275538110e-01 -4.906317758260623e-03  2.006043652627241e-18
-1.099188399333090e-01 -4.224763628360840e-03  1.999544784097066e-18
-1.099692895015226e-01 -2.599108795383350e-03  1.983739581486980e-18
-1.074997884994687e-01  2.331942264657108e-02  1.673488370324177e-18
-1.091860692487744e-01 -1.335673171107996e-02  2.080331910352000e-18
-1.098289989559224e-01  6.131149022810451e-03  1.891542716254797e-18
-1.089206861252972e-01 -1.537153648775646e-02  2.096310488268591e-18
-1.092887142788212e-01  1.248907247485248e-02  1.816602352133166e-18
-1.096601657913020e-01 -8.639909642125038e-03  2.040305390577341e-18
-1.097334226706055e-01  7.653492601040393e-03  1.874200295007693e-18
-1.090778901746701e-01 -1.421315851746366e-02  2.087206209007835e-18
-1.097512069328593e-01  7.394090666243512e-03  1.877182047815059e-18
-1.092912400570200e-01 -1.246695018032681e-02  2.073061368340742e-18
-1.097894897611910e-01  6.802053952834431e-03  1.883946298570880e-18
-1.097249592479303e-01 -7.773886932543743e-03  2.032560398686843e-18
-1.089940245347465e-01  1.484259464241344e-02  1.787176411314406e-18
-1.096399521130434e-01 -8.892744269880664e-03  2.042543448013569e-18
-1.099186924388388e-01  4.228599358639866e-03  1.912686925430948e-18
-1.091136411679934e-01 -1.393604359430248e-02  2.084995185411810e-18
-1.099428674481861e-01  3.544840937265000e-03  1.920142517948998e-18
-1.098721275161818e-01 -5.302414079249102e-03  2.009785947816944e-18
-1.098071401779262e-01  6.510911299134113e-03  1.887251793793822e-18
-1.098151890189994e-01 -6.373716397940207e-03  2.019779901491900e-18
-1.095618111208811e-01  9.808646385323442e-03  1.849002840546991e-18
-1.099382234909953e-01 -3.686056923583043e-03  1.994354721932808e-18
-1.099598950215190e-01  2.970098795738603e-03  1.926350810644460e-18
-1.097385429998644e-01 -7.579721648374527e-03  2.030807159995661e-18
-1.080616505606017e-01  2.055917503496561e-02  1.711847917405484e-18
-1.096266035541714e-01  9.055815434098094e-03  1.857890963726462e-18
-1.096737058653409e-01 -8.466300358635204e-03  2.038762580025483e-18
-7.683381623921932e-02 -7.871826142717968e-02  2.176150950738533e-18
-1.099206254328135e-01  4.178050317914602e-03  1.913240698394917e-18
-1.099975898134214e-01  7.281725332756880e-04  1.950056612349363e-18
-1.099984074514666e-01  5.919105853551377e-04  1.951471205208501e-18
-1.099190438506827e-01 -4.219454816872997e-03  1.999493866940474e-18
-1.099961245229026e-01  9.233579706803014e-04  1.948025076292683e-18
-1.099992882108812e-01  3.957184597821437e-04  1.953502682192158e-18
-1.099998740024802e-01  1.664915565286380e-04  1.955868330211762e-18
-1.099998740024802e-01  1.664915565286380e-04  1.955868330211762e-18
-1.099837243189929e-01 -1.892190509354886e-03  1.976733137696620e-18
-1.099817271682741e-01  2.004916228486716e-03  1.936656239993546e-18
-1.099971537633393e-01 -7.913052282290922e-04  1.965660934334598e-18
-1.099913183724233e-01 -1.381985056413091e-03  1.971626107250020e-18
-1.099995470451715e-01  3.156736558883014e-04  1.954329719739121e-18
-1.099902619258006e-01  1.463653474596135e-03  1.942369404355284e-18
-1.099996741508334e-01  2.677437401751948e-04  1.954824444208373e-18
-1.099949387060899e-01  1.055205687741782e-03  1.946649285871710e-18
-1.099955920793450e-01  9.847452027119529e-04  1.947384869315555e-18
-1.099994084610255e-01  3.607467593615648e-04  1.953864143704517e-18
-1.099927670359841e-01  1.261427670405050e-03  1.944491782454406e-18
-1.099999959263602e-01 -2.993661070130866e-05  1.957888728054187e-18
-1.099895278824809e-01  1.517812962415962e-03  1.941799872116058e-18
-1.099911199554666e-01 -1.397687712650789e-03  1.971783915272110e-18
-1.099896767787495e-01  1.506984441241316e-03  1.941913781024143e-18
-1.099999959705946e-01  2.977363067585775e-05  1.957275227802267e-18
-1.089933496960074e-01  1.484754936155355e-02  1.787113493814811e-18
-1.099988090150680e-01  5.118742682773764e-04  1.952300695594855e-18
-1.099722735332828e-01  2.469626271473201e-03  1.931713274406373e-18
-1.098905605740683e-01 -4.905578122602514e-03  2.006036640774409e-18
-1.099847398405026e-01 -1.832212383127392e-03  1.976134956654595e-18
-1.099027616865971e-01  4.624172754015454e-03  1.908339045754951e-18
-1.099967341490978e-01  8.476299502972483e-04  1.948814003217621e-18
-1.099967341490978e-01  8.476299502972483e-04  1.948814003217621e-18
-1.099967341490978e-01  8.476299502972483e-04  1.948814003217621e-18
-1.099996453652504e-01  2.793197434446690e-04  1.954704992706224e-18
-1.099994747183352e-01  3.399436574629874e-04  1.954079067147213e-18
-1.099977945915674e-01  6.965522171980057e-04  1.950385143881678e-18
-1.099908673735157e-01  1.417425279023429e-03  1.942855156935703e-18
-1.099998865437770e-01  1.579884683055429e-04  1.955955919541661e-18
-1.099999497052998e-01  1.051895024873630e-04  1.956499533769727e-18
-1.099991975843533e-01  4.201556834380781e-04  1.953249985789271e-18
-1.099991975843533e-01  4.201556834380781e-04  1.953249985789271e-18
-1.099743449582887e-01 -2.375594871869506e-03  1.981533025002620e-18
-1.099903499251407e-01  1.457025512824471e-03  1.942439070307965e-18
-1.099982587167152e-01 -6.189339952786994e-04  1.963909546496940e-18
-1.099988902052719e-01  4.941190225715840e-04  1.952484569171034e-18
-1.099480116080605e-01 -3.381529747570842e-03  1.991400007044173e-18
-1.099945395929406e-01  1.096019952807083e-03  1.946222831430248e-18
-1.099451387806876e-01 -3.473680828066069e-03  1.992295700530471e-18
-1.099987093148093e-01  5.328687230407408e-04  1.952083210913818e-18
-1.099600202364692e-01  2.965459423970309e-03  1.926400706853429e-18
-1.099993906547116e-01 -3.661360294572536e-04  1.961332283419276e-18
-1.081030009237555e-01 -2.034062907774604e-02  2.132814425969663e-18
-1.098695661033290e-01  5.355225883765162e-03  1.900236985416116e-18
-1.092698406906586e-01  1.265313856076950e-02  1.814580754686308e-18
-1.098743622124537e-01 -5.255904147381122e-03  2.009347844248532e-18
-1.097730456745078e-01 -7.062467227700480e-03  2.026106574978554e-18
-1.099345432343590e-01  3.794232972917144e-03  1.917431966065141e-18
-1.099892190077646e-01 -1.540033136632488e-03  1.973212633161606e-18
-1.094926810411957e-01 -1.055238354168884e-02  2.056974774237028e-18
-1.096589693585739e-01 -8.655081698937191e-03  2.040439986001958e-18
-1.093093556345646e-01  1.230710245168169e-02  1.818839365564090e-18
-1.099264445872245e-01 -4.022036848637762e-03  1.997597173967846e-18
-1.099264445872245e-01 -4.022036848637762e-03  1.997597173967846e-18
-1.098437240463547e-01 -5.861423686120912e-03  2.015024094828868e-18
-1.098725960957397e-01 -5.292695644222469e-03  2.009694433359651e-18
-1.097805338598534e-01 -6.945097943550894e-03  2.025033909411280e-18
-1.015758302299395e-01  4.221789564981234e-02  1.373889521731898e-18
-1.092989260008420e-01  1.239938607602814e-02  1.817705577074923e-18
-1.099983661712642e-01 -5.995328618333880e-04  1.963712119180542e-18
-1.099752504356176e-01 -2.333300585677061e-03  1.981114580625459e-18
-1.090355033871461e-01  1.453475149810214e-02  1.791077553447799e-18
-1.086862090030822e-01  1.695016143103863e-02  1.760043983618482e-18
-1.086873048358185e-01 -1.694313334439007e-02  2.108304776620697e-18
-1.097574750651593e-01  7.300456651529322e-03  1.878255652192862e-18
-1.047327445646347e-01  3.363111975475856e-02  1.518296581012758e-18
-1.099898397473423e-01 -1.495042592663452e-03  1.972761418467336e-18
-1.099842194131787e-01 -1.863190831260664e-03  1.976443987330563e-18
-1.099776655327367e-01 -2.216547759338835e-03  1.979957967281867e-18
-1.099999619917105e-01 -9.144299960131539e-05  1.958520079949049e-18
-1.099918442408749e-01  1.339477693374437e-03  1.943673424582021e-18
-1.099963813150429e-01 -8.922430137589240e-04  1.966684286774260e-18
-1.099908451956239e-01 -1.419145218860484e-03  1.971999493674373e-18
-1.099999973362549e-01 -2.420792947755892e-05  1.957829893026436e-18
-1.099947162783794e-01  1.078142309140266e-03  1.946409662052628e-18
-1.099993889986082e-01  3.666332401639697e-04  1.953803315895731e-18
-1.099997502997609e-01  2.343800122986043e-04  1.955168599553215e-18
-1.099994335404327e-01  3.530166906122538e-04  1.953944013670770e-18
-1.099994335404327e-01  3.530166906122538e-04  1.953944013670770e-18
-1.099979546408642e-01  6.708016296183115e-04  1.950652570082759e-18
-1.099986031521255e-01 -5.543505940487504e-04  1.963252105149591e-18
-1.099883383249651e-01  1.601696760612492e-03  1.940916826967225e-18
-1.099544097938740e-01  3.166664946082205e-03  1.924233548687590e-18
-1.099912909309299e-01 -1.384167384193138e-03  1.971648041521075e-18
-1.095738626075531e-01 -9.673088093313376e-03  2.049385055738101e-18
-1.093024256650446e-01  1.236849803886131e-02  1.818085221135108e-18
-1.099902854971942e-01 -1.461881064118710e-03  1.972428628458499e-18
-1.099902854971942e-01 -1.461881064118710e-03  1.972428628458499e-18
-1.099902854971942e-01 -1.461881064118710e-03  1.972428628458499e-18
-1.099968033954744e-01 -8.385957174157248e-04  1.966140591717618e-18
-1.099862089488183e-01  1.741792486724794e-03  1.939439499485654e-18
-1.099993570234739e-01 -3.761042704451742e-04  1.961434104966257e-18
-1.091751886066407e-01 -1.344537811682341e-02  2.081049085962639e-18
-1.099968400127700e-01  8.337788705763861e-04  1.948958202000376e-18
-1.099986467608380e-01  5.456287971718732e-04  1.951950992564955e-18
-1.099750615555417e-01 -2.342186127260597e-03  1.981202514991112e-18
-1.099749296546872e-01 -2.348371232692855e-03  1.981263717369512e-18
-1.099945925783336e-01 -1.090689472909884e-03  1.968691419348680e-18
-1.099945925783336e-01 -1.090689472909884e-03  1.968691419348680e-18
-1.099056301559972e-01 -4.555486803084080e-03  2.002707760830609e-18
-4.428829860431243e-02 -1.006903501172540e-01  1.822719872184871e-18
-1.097887956539073e-01  6.813248040730855e-03  1.883818930917162e-18
-1.098336902049332e-01  6.046527595792776e-03  1.892495657048927e-18
-1.029086569928096e-01 -3.885625195430190e-02  2.230616178540374e-18
-1.099999416267360e-01 -1.133230541487853e-04  1.958744527142113e-18
-1.097303473346838e-01  7.697458918992620e-03  1.873693827791321e-18
-1.097303473346838e-01  7.697458918992620e-03  1.873693827791321e-18
-1.099993209702349e-01 -3.865049639602975e-04  1.961540326703457e-18
-1.054722557864714e-01 -3.123464837825245e-02  2.197929269011922e-18
-1.099980613320676e-01  6.530721144085780e-04  1.950836633108142e-18
-1.099980613320676e-01  6.530721144085780e-04  1.950836633108142e-18
-1.083970340407105e-01  1.871050536936327e-02  1.736810875739089e-18
-1.099636091247645e-01 -2.829252243250619e-03  1.986003132729065e-18
-1.098406551986180e-01 -5.918654030963089e-03  2.015557502025845e-18
-1.099202972989187e-01  4.186674302744418e-03  1.913146250549566e-18
-1.099202972989187e-01  4.186674302744418e-03  1.913146250549566e-18
-1.099202972989187e-01  4.186674302744418e-03  1.913146250549566e-18
-1.099095389828081e-01  4.460183918462889e-03  1.910144581538119e-18
-1.099622281812121e-01 -2.882424920612149e-03  1.986524887135076e-18
-1.097757757886632e-01 -7.019903845286540e-03  2.025717837324305e-18
-1.099471319291227e-01 -3.410011812298627e-03  1.991676994976512e-18
-1.097974425382755e-01  6.672451727364596e-03  1.885419443511432e-18
-1.099852790196741e-01  1.799555212921590e-03  1.938829459259152e-18
-1.099729838413105e-01 -2.437791016222702e-03  1.982147845091541e-18
-1.099999490728356e-01  1.058488238052658e-04  1.956492748227243e-18
-1.099999989405478e-01 -1.526693902555774e-05  1.957738056147854e-18
-1.099999997279908e-01 -7.735758383613371e-06  1.957660690016109e-18
-1.099992444935596e-01 -4.076896442319193e-04  1.961756630603798e-18
-1.099992444935596e-01 -4.076896442319193e-04  1.961756630603798e-18
-1.099999997279908e-01 -7.735758359868637e-06  1.957660690015865e-18
-1.099880184692639e-01  1.623512613067798e-03  1.940686984794584e-18
-1.099203586555697e-01  4.185063085646865e-03  1.913163897134728e-18
-1.099912967757522e-01 -1.383702854056502e-03  1.971643372658257e-18
-1.099994232745437e-01 -3.562011618258629e-04  1.961230786772241e-18
-1.099994232745437e-01 -3.562011618258629e-04  1.961230786772241e-18
-1.099983061823609e-01 -6.104400146619477e-04  1.963823118639508e-18
-1.099983061823609e-01 -6.104400146619477e-04  1.963823118639508e-18
-1.099983061823609e-01 -6.104400146619477e-04  1.963823118639508e-18
-1.099717655082112e-01  2.492145863895565e-03  1.931472852862815e-18
-1.099977917371775e-01  6.970028295903878e-04  1.950380463205769e-18
-1.098960869462071e-01 -4.780175092151702e-03  2.004846518576170e-18
-1.098942141553646e-01  4.823037961161006e-03  1.906143664479433e-18
-1.099920912921063e-01 -1.319034946037394e-03  1.970993072761620e-18
-1.099781394034330e-01 -2.192909792714362e-03  1.979723528856094e-18
-1.099999344801424e-01  1.200598363441031e-04  1.956346475541479e-18
-1.099675447507380e-01  2.671909709243451e-03  1.929550731240999e-18
-1.095255980013466e-01 -1.020506650871714e-02  2.053992014464260e-18
-1.099986456571044e-01 -5.458512642776038e-04  1.963165534050558e-18
-1.099962030387880e-01 -9.139568095168816e-04  1.966904215499058e-18
-1.099962030387880e-01 -9.139568095168816e-04  1.966904215499058e-18
-1.099962030387880e-01 -9.139568095168816e-04  1.966904215499058e-18
-1.099877670833335e-01 -1.640454821783380e-03  1.974218590769031e-18
-1.099951446667615e-01 -1.033513298484261e-03  1.968113779999056e-18
-1.099568848209046e-01 -3.079526015844148e-03  1.988454937816922e-18
-1.092143337371489e-01  1.312361635947115e-02  1.808758953767002e-18
-1.099432366977829e-01  3.533370121457097e-03  1.920266947651437e-18
-1.099101955985546e-01 -4.443973839638794e-03  2.001643253136848e-18
-1.099464496976653e-01  3.431938064518036e-03  1.921366304354628e-18
-1.099902111455584e-01  1.467464532929183e-03  1.942329343420377e-18
-1.099979819102809e-01 -6.663149896488129e-04  1.964391442901247e-18
-1.099926016209311e-01  1.275769829969489e-03  1.944341478216797e-18
-1.099999191170093e-01 -1.333950948934557e-04  1.958950359481728e-18
-1.099968024365306e-01  8.387214905894204e-04  1.948906749661255e-18
-1.099976939687108e-01 -7.122650951501653e-04  1.964858439279202e-18
-1.099989440337362e-01  4.819869945370931e-04  1.952610179293600e-18
-1.099989440337362e-01  4.819869945370931e-04  1.952610179293600e-18
-1.099989440337362e-01  4.819869945370931e-04  1.952610179293600e-18
-1.099988292384627e-01  5.075097707815591e-04  1.952345899120561e-18
-1.099988292384627e-01  5.075097707815591e-04  1.952345899120561e-18
-1.099011675009909e-01 -4.661907540810461e-03  2.003721776982047e-18
-1.099960875621381e-01  9.277505173060528e-04  1.947979286710897e-18
-1.099999146915492e-01 -1.369958094724318e-04  1.958987276759650e-18
-1.099934178039182e-01  1.203345259105198e-03  1.945100139322483e-18
-1.099976522331210e-01 -7.186815715500819e-04  1.964923623508685e-18
-1.099964871670604e-01  8.790966423746427e-04  1.948486299047512e-18
-1.099954076340374e-01 -1.005136519022457e-03  1.967826898714914e-18
-1.099726155698171e-01  2.454348127945357e-03  1.931876338729131e-18
-1.099908309521848e-01 -1.420248727451900e-03  1.972010578345286e-18
-1.099972944863345e-01  7.714957462866466e-04  1.949606226375970e-18
-1.099741158342491e-01  2.386178215283254e-03  1.932603458812700e-18
-1.099974884707353e-01 -7.433237049778537e-04  1.965173898130875e-18
-1.099940699220439e-01 -1.142182990788133e-03  1.969211195246632e-18
-1.099953386392568e-01  1.012658696278861e-03  1.947093558040646e-18
-1.099985590226146e-01 -5.630390291014297e-04  1.963340590326212e-18
-1.099992237987605e-01  4.132356109099880e-04  1.953321553537278e-18
-1.099893845904525e-01 -1.528161448751848e-03  1.973093602622724e-18
-1.099999578137694e-01  9.633778525705469e-05  1.956590626248581e-18
-1.099988166999468e-01 -5.102201597601513e-04  1.962802481306811e-18
-1.099988829965058e-01 -4.957212129238777e-04  1.962654689721472e-18
-1.099988829965058e-01 -4.957212129238777e-04  1.962654689721472e-18
-1.099922146350942e-01  1.308709160696804e-03  1.943996151684911e-18
-1.099257560907019e-01 -4.040810300847351e-03  1.997777811752554e-18
-1.099662757833322e-01 -2.723635501320258e-03  1.984965415443394e-18
-1.099538685453957e-01  3.185402941821804e-03  1.924031390426047e-18
-1.099044465232639e-01 -4.583954015361162e-03  2.002979186939053e-18
-1.055898338138645e-01  3.083483411922944e-02  1.562280325670219e-18
-1.098450170933332e-01 -5.837141403569870e-03  2.014797614510102e-18
-1.048603645594176e-01  3.323106896363668e-02  1.524678107602309e-18
-1.094278419420422e-01 -1.120479396987523e-02  2.062524165272254e-18
-1.097404325051071e-01 -7.552315776763324e-03  2.030559200620304e-18
-1.054972746767801e-01  3.115004070257278e-02  1.557394492278962e-18
-9.778677853097460e-02  5.037604534433063e-02  1.222636802515962e-18
-1.064585004760741e-01  2.768731977612974e-02  1.610078851580619e-18
-8.455364979571985e-02 -7.036107095704761e-02  2.227667501275271e-18
-1.099215620907245e-01  4.153334507950724e-03  1.913511313308558e-18
-2.431422102473341e-02  1.072791622635093e-01 -6.695538546139325e-19
-1.083810453396855e-01 -1.880289900725312e-02  2.121962940153626e-18
-1.080569646589620e-01 -2.058378946384178e-02  2.134493540357529e-18
-1.095360609446538e-01 -1.009214311873423e-02  2.053017968210829e-18
-1.099743347415131e-01 -2.376067793969356e-03  1.981537702285688e-18
-1.010246805013168e-01 -4.352027033012075e-02  2.245009664092619e-18
-1.099625952580739e-01  2.868387022167266e-03  1.927443916099378e-18
-1.030779684644796e-01  3.840484887661533e-02  1.439799533854492e-18
-1.082601001873429e-01 -1.948719342097259e-02  2.126841453415440e-18
-1.098719122009040e-01 -5.306873779992529e-03  2.009827937829795e-18
-1.090506922005957e-01  1.442035126378229e-02  1.792523277350305e-18
-1.092803040855780e-01  1.256244956063702e-02  1.815698759811726e-18
-1.094683352874264e-01 -1.080201691349920e-02  2.059106404718714e-18
-1.099974876536058e-01 -7.434446144533064e-04  1.965175125890018e-18
-1.099974876536058e-01 -7.434446144533064e-04  1.965175125890018e-18
-1.099960136354362e-01 -9.364744058737961e-04  1.967132204963053e-18
-1.099997317616653e-01  2.429246006610300e-04  1.955080477104271e-18
-1.099913142401811e-01 -1.382313899832520e-03  1.971629412458516e-18
-1.099976754110973e-01  7.151252721122473e-04  1.950192191530866e-18
-1.099889224118775e-01 -1.561072283377139e-03  1.973423524473883e-18
-1.099872773984419e-01  1.672964577663017e-03  1.940165695583596e-18
-1.099986539632149e-01 -5.441748623756027e-04  1.963148457447146e-18
-1.099976774935558e-01  7.148048850080366e-04  1.950195520451806e-18
-1.099938485147053e-01  1.163309470426878e-03  1.945519157519521e-18
-1.099840562221549e-01 -1.872799220897708e-03  1.976539805864699e-18
-1.098048668150987e-01 -6.549139158573259e-03  2.021398610700143e-18
-1.099797053345208e-01  2.112916120417778e-03  1.935510599393859e-18
-1.099586516537906e-01  3.015779580848249e-03  1.925859329960114e-18
-1.099377949637447e-01 -3.698815825309897e-03  1.994478188859515e-18
-1.099637405894247e-01 -2.824138024536334e-03  1.985952925560071e-18
-1.098238068521284e-01  6.223459528777801e-03  1.890501859659371e-18
-1.097611339445820e-01  7.245238105091085e-03  1.878888116821989e-18
-1.095100409587524e-01 -1.037067641054765e-02  2.055416739914144e-18
-1.099999622592226e-01 -9.112063167050210e-05  1.958516772496366e-18
-1.083984802426579e-01  1.870212504187755e-02  1.736922717448418e-18
-1.099820787909305e-01 -1.985533889280158e-03  1.977662922881640e-18
-1.099781374449132e-01 -2.193008013599768e-03  1.979724503185814e-18
-1.099973186749997e-01  7.680392636282896e-04  1.949642170945796e-18
-1.099728188939270e-01  2.445220751479029e-03  1.931973737601678e-18
-1.099728188939270e-01  2.445220751479029e-03  1.931973737601678e-18
-1.097868170035661e-01 -6.845057503439920e-03  2.024117846268149e-18
-1.091494045969098e-01 -1.365311232430214e-02  2.082724622271136e-18
-1.061727650906199e-01  2.876358727648496e-02  1.593935591970053e-18
-1.099928763531570e-01  1.251859240905671e-03  1.944592040021065e-18
-1.099431367652177e-01 -3.536478223396524e-03  1.992905292701615e-18
-1.099999803431090e-01 -6.576104893659850e-05  1.958256533820516e-18
-1.099892356246107e-01  1.538845903196143e-03  1.941578565212790e-18
-1.099985029080178e-01  5.738971987364768e-04  1.951657984975453e-18
-1.099849587833878e-01  1.819022104432550e-03  1.938623745033934e-18
-1.099999959690283e-01  2.977941693020120e-05  1.957275168322731e-18
-1.099991116293218e-01  4.420868239626326e-04  1.953023121615023e-18
-1.098294365838149e-01  6.123304637343056e-03  1.891631102576201e-18
-1.098956836252630e-01  4.789438436395764e-03  1.906515038360339e-18
-1.098954125906117e-01 -4.795653400648545e-03  2.004993551610928e-18
-1.099994493909122e-01  3.480426641641888e-04  1.953995402063790e-18
-1.099999345265612e-01  1.200172995311203e-04  1.956346913417857e-18
-1.099413581326471e-01 -3.591346815466650e-03  1.993437394664718e-18
-1.096311524928768e-01  9.000577930528816e-03  1.858539462799862e-18
-1.099934766959398e-01  1.197950057251900e-03  1.945156621115376e-18
-1.099934766959398e-01  1.197950057251900e-03  1.945156621115376e-18
-1.098135939458927e-01 -6.401139327223293e-03  2.020033275899712e-18
-1.098720169482475e-01  5.304704678295373e-03  1.900799688158205e-18
-1.099830709715273e-01  1.929792649981784e-03  1.937452022054270e-18
-1.099976534814073e-01  7.184904899635311e-04  1.950157224874940e-18
-1.068620275231007e-01 -2.608653050238781e-02  2.169766873834661e-18
-1.079906252965378e-01  2.092904317121785e-02  1.706783677372005e-18
-1.095083653673125e-01 -1.038835475805044e-02  2.055568559364307e-18
-1.098221943845394e-01  6.251849371535243e-03  1.890181468554092e-18
-1.090672425918955e-01 -1.429463512652709e-02  2.087853865131468e-18
-1.092277229598017e-01  1.301170769025881e-02  1.810147051878283e-18
-1.095559088392796e-01 -9.874352555959569e-03  2.051133466255702e-18
-1.097893285439473e-01  6.804655602536418e-03  1.883916698512139e-18
-1.092857860385387e-01 -1.251467018896854e-02  2.073454613329556e-18
-1.094775557061711e-01  1.070816495026709e-02  1.838261188453340e-18
-1.098500988496186e-01 -5.740712737017289e-03  2.013897280905891e-18
-1.098736581350917e-01  5.270602243854090e-03  1.901179285161220e-18
-1.099831436483562e-01 -1.925646183748063e-03  1.977066548870888e-18
-1.099393016698745e-01  3.653758111897847e-03  1.918959976267675e-18
-1.099994214848371e-01  3.567534177768540e-04  1.953905405612894e-18
-1.099929485697298e-01  1.245497867000413e-03  1.944658686007092e-18
-1.097867333583668e-01 -6.846398943883163e-03  2.024130140515297e-18
-1.092553487533059e-01 -1.277766679771423e-02  2.075615140147637e-18
-1.092207187319265e-01  1.307037106134812e-02  1.809419658461083e-18
-1.094723634240774e-01  1.076111733727734e-02  1.837624719059464e-18
-1.093149059982653e-01 -1.225770478476112e-02  2.071332611568397e-18
-1.098190259486661e-01 -6.307260870308995e-03  2.019165377827160e-18
-1.099182606675352e-01  4.239807993731580e-03  1.912564076891774e-18
-1.094033123259514e-01  1.144182031454151e-02  1.829401896589743e-18
-1.099861095496972e-01 -1.748057814240555e-03  1.975294674639201e-18
-1.099967414406703e-01  8.466831959242646e-04  1.948823860537105e-18
-1.099979784467593e-01  6.668865167376204e-04  1.950693220099658e-18
-1.099979784467593e-01  6.668865167376204e-04  1.950693220099658e-18
-1.094893687367146e-01  1.058669606797416e-02  1.839719464062340e-18
-1.096639725280430e-01 -8.591456766378350e-03  2.039875300301736e-18
-1.080980627029166e-01 -2.036685640633404e-02  2.132996020712914e-18
-1.082780591813178e-01  1.938715811889315e-02  1.727741215005046e-18
-1.090472614338364e-01  1.444627196824331e-02  1.792195896941373e-18
-1.096887835885115e-01 -8.268661008446860e-03  2.037000233568211e-18
-1.073795112575720e-01 -2.386714398676340e-02  2.156172723958218e-18
-1.049269666811202e-01  3.302017054921157e-02  1.528030276398742e-18
-1.099974878622076e-01  7.434137498205737e-04  1.949898200042601e-18
-1.099758049716460e-01  2.307015569607269e-03  1.933446886454346e-18
-1.099997565665626e-01  2.314201739143868e-04  1.955199122342600e-18
-1.099885074927213e-01  1.590037585573007e-03  1.941039631297323e-18
-1.099885074927213e-01  1.590037585573007e-03  1.941039631297323e-18
-1.099365815293793e-01 -3.734707703968662e-03  1.994825370362270e-18
-1.099811673000311e-01  2.035396600787095e-03  1.936333101717589e-18
-1.099987309750964e-01  5.283785274748866e-04  1.952129731512743e-18
-1.099952978688992e-01  1.017077544767789e-03  1.947047430420518e-18
-1.099961701731380e-01  9.179037215334081e-04  1.948081929121685e-18
-1.099873898261044e-01 -1.665556735892467e-03  1.974469790075294e-18
-1.099999145022383e-01  1.371477312877017e-04  1.956170548097843e-18
-1.099999145022383e-01  1.371477312877017e-04  1.956170548097843e-18
-1.099975911074241e-01  7.279770352647886e-04  1.950058644048726e-18
-1.099986601288139e-01  5.429271273492392e-04  1.951978989140019e-18
 1.098184973256695e-01  6.316458274369333e-03 -2.019250470335936e-18
 1.099758764077958e-01  2.303607678651757e-03 -1.980820636713958e-18
 1.097112977922201e-01 -7.964366688364194e-03 -1.870612438089741e-18
 1.096802535870471e-01 -8.381048447596996e-03 -1.865778715720284e-18
 1.099896236173906e-01 -1.510859525132960e-03 -1.941873019875069e-18
 1.099896236173906e-01 -1.510859525132960e-03 -1.941873019875069e-18
 1.099999963433830e-01  2.836292774570818e-05 -1.957872566454909e-18
 1.099874920496279e-01 -1.658792522575605e-03 -1.940315128275217e-18
 1.099790914474704e-01 -2.144631527526260e-03 -1.935173810254791e-18
 1.099748122380368e-01 -2.353863464282034e-03 -1.932947874476313e-18
 1.099718526843273e-01 -2.488296038768230e-03 -1.931513959820438e-18
 1.099718526843273e-01 -2.488296038768230e-03 -1.931513959820438e-18
 1.099942872032248e-01 -1.121063180387688e-03 -1.945961029788293e-18
 1.099726720500563e-01 -2.451816096425368e-03 -1.931903359566414e-18
 1.099779267094070e-01 -2.203550929797603e-03 -1.934547706897001e-18
 1.099674204086558e-01 -2.677022350651452e-03 -1.929495987892134e-18
 1.099921018190727e-01  1.318156827799228e-03 -1.970984237755641e-18
 1.099992468363110e-01  4.070570528149977e-04 -1.961750172648846e-18
 1.099133151203834e-01 -4.366137795262133e-03 -1.911178072162230e-18
 1.099790960840786e-01 -2.144393743913417e-03 -1.935176335909005e-18
 1.099790960840786e-01 -2.144393743913417e-03 -1.935176335909005e-18
 1.099760854221467e-01  2.293607468729130e-03 -1.980721607849489e-18
 1.099989446858731e-01  4.818381410520143e-04 -1.962513144037186e-18
 1.099935184536777e-01  1.194109785740786e-03 -1.969734910163857e-18
 1.090793281145132e-01 -1.420211878862774e-02 -1.795275147001210e-18
 1.099968368652853e-01  8.341940012627049e-04 -1.966095961318372e-18
 1.099863313447508e-01 -1.734046516854416e-03 -1.939521264693801e-18
 1.099980055514926e-01  6.624007048161358e-04 -1.964351645770099e-18
 1.098836023261930e-01 -5.059045346603784e-03 -1.903529924170396e-18
 1.099599949262964e-01  2.966397783301807e-03 -1.987347934359122e-18
 1.098664843969565e-01 -5.418081418107782e-03 -1.899536324993474e-18
 1.099709791019513e-01  2.526609458962297e-03 -1.983024745597249e-18
 1.097967348090021e-01 -6.684087468127802e-03 -1.885287295615392e-18
 1.091554836012702e-01  1.360442574211649e-02 -2.082332568459514e-18
 1.098648054230908e-01  5.452020666351956e-03 -2.011192795770963e-18
 1.098014672962168e-01 -6.605889765789030e-03 -1.886174968855032e-18
 1.094937302452808e-01 -1.054149121204470e-02 -1.840261545782912e-18
 1.089517642576821e-01  1.514968861522868e-02 -2.094584154406494e-18
 1.099883095032287e-01 -1.603674724464986e-03 -1.940895991190002e-18
 1.099883095032287e-01 -1.603674724464986e-03 -1.940895991190002e-18
 1.099997182313669e-01 -2.489759422598043e-04 -1.955018060979824e-18
 1.099997576074520e-01 -2.309248832816579e-04 -1.955204229797795e-18
 1.099740674694307e-01  2.388406211060603e-03 -1.981659718613586e-18
 1.099821903739040e-01 -1.979343466474374e-03 -1.936927234130084e-18
 1.099998320744346e-01  1.922071697953840e-04 -1.959553083160153e-18
 9.627997770640662e-02  5.319930349970544e-02 -2.260020567871991e-18
 1.099993734825759e-01  3.712592634539859e-04 -1.961384617188829e-18
 1.099403499928033e-01 -3.622077229964036e-03 -1.919304141977790e-18
 1.099972437986640e-01  7.786890889169126e-04 -1.965532910372251e-18
 1.099999993862972e-01 -1.161957660522074e-05 -1.957461814899493e-18
 1.099996170396180e-01 -2.902604646055581e-04 -1.954592076682330e-18
 1.099996170396180e-01 -2.902604646055581e-04 -1.954592076682330e-18
 1.099999958738339e-01  3.012899693976872e-05 -1.957890703818129e-18
 1.099951731761899e-01  1.030474618772570e-03 -1.968083066028169e-18
 1.099995937314161e-01 -2.989630802048838e-04 -1.954502245671204e-18
 1.099946063582798e-01  1.089298896991328e-03 -1.968677376916854e-18
 1.099861679226818e-01 -1.744381174959090e-03 -1.939412171545408e-18
 1.068147279361688e-01  2.627953378433795e-02 -2.170908159873678e-18
 1.099878863444199e-01 -1.632439121956339e-03 -1.940592916839296e-18
 1.099845412499679e-01 -1.844094909170279e-03 -1.938358700568231e-18
 1.098381623460915e-01 -5.964737415308570e-03 -1.893415608527839e-18
 1.099999884673670e-01  5.037041838467095e-05 -1.958098545263434e-18
 1.050128703055871e-01  3.274594738562127e-02 -2.205282004693694e-18
 1.099914347984668e-01 -1.372687500691974e-03 -1.943324919359956e-18
 1.099914347984668e-01 -1.372687500691974e-03 -1.943324919359956e-18
 1.099990333145710e-01 -4.611614249136849e-04 -1.952825743315100e-18
 1.099990333145710e-01 -4.611614249136849e-04 -1.952825743315100e-18
 1.099999982820443e-01 -1.944094076887356e-05 -1.957381433572493e-18
 1.099981302410467e-01 -6.413606424308155e-04 -1.950958190545750e-18
 1.099981302410467e-01 -6.413606424308155e-04 -1.950958190545750e-18
 1.099947655149473e-01  1.073107316015548e-03 -1.968513846687012e-18
 1.099890397535161e-01 -1.552782695479994e-03 -1.941431883975140e-18
 1.099991170103885e-01 -4.407458845952846e-04 -1.953036995042397e-18
 1.099991170103885e-01 -4.407458845952846e-04 -1.953036995042397e-18
 1.099991951665814e-01  4.207881940604367e-04 -1.961890335612540e-18
 1.099939952874092e-01  1.149347951372017e-03 -1.969283484401454e-18
 1.099999809100208e-01  6.480582521673455e-05 -1.958246729332671e-18
 1.099992227139381e-01 -4.135242790646149e-04 -1.953318568271145e-18
 1.099997333762858e-01  2.421923738918248e-04 -1.960064906522756e-18
 1.099993555696001e-01  3.765292453494531e-04 -1.961438445555601e-18
 1.099998355561587e-01  1.902041481323958e-04 -1.959532564801641e-18
 1.099985195297412e-01 -5.707024312882082e-04 -1.951691105853809e-18
 1.099985195297412e-01 -5.707024312882082e-04 -1.951691105853809e-18
 1.099971592725807e-01  7.905390328317532e-04 -1.965653159998751e-18
 1.099233133147175e-01  4.106724962103834e-03 -1.998411588839559e-18
 1.099737932631777e-01 -2.400998814610963e-03 -1.932445442001517e-18
 1.099323682332256e-01 -3.856736267160573e-03 -1.916751060682847e-18
 1.099623043070351e-01  2.879519315256551e-03 -1.986496387845398e-18
 1.094130059599968e-01  1.134875001035928e-02 -2.063739237295611e-18
 1.099986227093827e-01  5.504562097018617e-04 -1.963212439809866e-18
 1.099690034521992e-01 -2.611183587974778e-03 -1.930200629409474e-18
 1.099994048282774e-01 -3.618527665629786e-04 -1.953852715233217e-18
 1.099994115741491e-01  3.597962491094407e-04 -1.961267516765608e-18
 1.099994115741491e-01  3.597962491094407e-04 -1.961267516765608e-18
 1.099999367791776e-01  1.179346296168937e-04 -1.958791823136709e-18
 1.099993977876334e-01 -3.639867551417125e-04 -1.953830663979129e-18
 1.099998502439829e-01  1.815111601694452e-04 -1.959443508895587e-18
 1.099999997416876e-01 -7.538477430696983e-06 -1.957503753035562e-18
 1.099999628880735e-01  9.035830005106336e-05 -1.958508951007060e-18
 1.099959522879093e-01  9.436526245955251e-04 -1.967204866800357e-18
 1.099982484385187e-01 -6.207579704130443e-04 -1.951171978981377e-18
 1.099984723059721e-01 -5.797330008106385e-04 -1.951597479629212e-18
 1.099984723059721e-01 -5.797330008106385e-04 -1.951597479629212e-18
 1.099958567322449e-01  9.547260022561966e-04 -1.967316941206147e-18
 1.099989457585131e-01  4.815932055446079e-04 -1.962510646502735e-18
 1.099998450347083e-01 -1.846411116129159e-04 -1.955681334610430e-18
 1.099783847793640e-01 -2.180569036306738e-03 -1.934791989405242e-18
 1.099980634672468e-01 -6.527123834152567e-04 -1.950840367211480e-18
 1.099960872434970e-01  9.277882953080562e-04 -1.967044268275651e-18
 1.099960872434970e-01  9.277882953080562e-04 -1.967044268275651e-18
 1.099999883365955e-01  5.065519483075432e-05 -1.958101468910733e-18
 1.099999094480602e-01 -1.411432552161087e-04 -1.956129405595811e-18
 1.099990612496975e-01  4.544493208727679e-04 -1.962233808251718e-18
 1.099990612496975e-01  4.544493208727679e-04 -1.962233808251718e-18
 1.099992264997507e-01  4.125160075276591e-04 -1.961805899512088e-18
 1.099999456651925e-01  1.093327702023280e-04 -1.958703600293269e-18
 1.099994872057460e-01 -3.358786579231707e-04 -1.954121055769156e-18
 1.099962086186049e-01  9.132850224823551e-04 -1.966897412430817e-18
 1.099979001018120e-01 -6.796860979416368e-04 -1.950560314810717e-18
 1.099921217832359e-01  1.316489886683955e-03 -1.970967465827331e-18
 1.099990157818745e-01 -4.653246381257098e-04 -1.952782655796475e-18
 1.099910488846499e-01  1.403269487479013e-03 -1.971840001190812e-18
 1.099999616332004e-01  9.187325169323537e-05 -1.958524494252880e-18
 1.099939371896567e-01  1.154894591635882e-03 -1.969339440196421e-18
 1.099994614875084e-01  3.441982830969400e-04 -1.961108141598892e-18
 1.099996600629542e-01 -2.734703538527292e-04 -1.954765354622538e-18
 1.099996600629542e-01 -2.734703538527292e-04 -1.954765354622538e-18
 1.099930221332859e-01  1.238984255914599e-03 -1.970187146429875e-18
 1.099930221332859e-01  1.238984255914599e-03 -1.970187146429875e-18
 1.099999905492820e-01  4.559778284245848e-05 -1.958049545217160e-18
 1.099999905492820e-01  4.559778284245848e-05 -1.958049545217160e-18
 1.099999692592447e-01  8.223724915857762e-05 -1.958425623541877e-18
 1.099914361763943e-01  1.372577084938907e-03 -1.971531540222957e-18
 1.099987077310749e-01  5.331955490126541e-04 -1.963036605854020e-18
 1.099950399249621e-01 -1.044601314336376e-03 -1.946760043266753e-18
 1.099942101875039e-01 -1.128594358986778e-03 -1.945882279077429e-18
 1.099948841251244e-01  1.060879965110122e-03 -1.968390325907893e-18
 1.099992057125795e-01  4.180222500634090e-04 -1.961862104221374e-18
 1.099992057125795e-01  4.180222500634090e-04 -1.961862104221374e-18
 1.099999368943740e-01 -1.178271346858069e-04 -1.956369458704072e-18
 1.099897628365695e-01 -1.500690226240698e-03 -1.941979983298325e-18
 1.099812820464859e-01  2.029186884258551e-03 -1.978097262529373e-18
 1.099997455248384e-01 -2.366103774557198e-04 -1.955145598386012e-18
 1.099988624123210e-01  5.002679234276627e-04 -1.962701039200084e-18
 1.099989902305691e-01 -4.713260602789173e-04 -1.952720538648037e-18
 1.099454767562832e-01  3.462967056371748e-03 -1.992191635097195e-18
 1.099932168230219e-01 -1.221578046468087e-03 -1.944909227360992e-18
 1.099931395743453e-01  1.228513971644098e-03 -1.970081658066292e-18
 1.099962234752478e-01  9.114939293731646e-04 -1.966879273991455e-18
 1.099962234752478e-01  9.114939293731646e-04 -1.966879273991455e-18
 1.098734978340080e-01 -5.273942900732053e-03 -1.901142108376364e-18
 1.099998322575556e-01 -1.921023413401499e-04 -1.955604445800763e-18
 1.097742171005286e-01  7.044235939116013e-03 -2.025940102034622e-18
 1.096438352741269e-01 -8.844737779044700e-03 -1.860366368964999e-18
 1.099967818118234e-01  8.414220356310400e-04 -1.966169247003744e-18
 1.098300114047816e-01 -6.112985753744383e-03 -1.891747354981394e-18
 1.099717746055208e-01  2.491744391477126e-03 -1.982680676629253e-18
 1.098358799045433e-01 -6.006620147359682e-03 -1.892944659900870e-18
 1.099598527990255e-01  2.971661558216882e-03 -1.987399488409872e-18
 1.084048278250769e-01 -1.866529678883671e-02 -1.737414077170576e-18
 1.099304784018648e-01  3.910232517006687e-03 -1.996520211618891e-18
 1.098698373935940e-01 -5.349657101639532e-03 -1.900299030563350e-18
 1.099074564066212e-01  4.511211170691753e-03 -2.002285345100135e-18
 1.098906860317930e-01 -4.902766918977460e-03 -1.905261691233669e-18
 1.084539061600556e-01  1.837798244165473e-02 -2.118893722012175e-18
 1.096444042505899e-01 -8.837681626601283e-03 -1.860448993982914e-18
 1.098053190518638e-01  6.541552408896034e-03 -2.021328707695941e-18
 1.096590713500361e-01 -8.653789380821095e-03 -1.862599438535702e-18
 1.097297827636303e-01  7.705502880827155e-03 -2.031943617613008e-18
 1.099999512891162e-01 -1.035200076704607e-04 -1.956516715408393e-18
 1.017616322977893e-01 -4.176805228987160e-02 -1.381818068270162e-18
 1.096314615136477e-01  8.996813123629223e-03 -2.043461617336395e-18
 1.090951778230751e-01  1.407984999037823e-02 -2.086144166644035e-18
 7.437518763999001e-02 -8.104524331209206e-02 -4.908847483793759e-19
 1.099974855940344e-01 -7.437492790695645e-04 -1.949894712236608e-18
 1.099825869149466e-01  1.957185605950309e-03 -1.977380697241527e-18
 1.099825869149466e-01  1.957185605950309e-03 -1.977380697241527e-18
 1.099999966975249e-01  2.695448793909515e-05 -1.957858101549922e-18
 1.099998305633999e-01  1.930699957140699e-04 -1.959561921492362e-18
 1.099969770906356e-01  8.154942808501618e-04 -1.965906323961584e-18
 1.099952808333651e-01  1.018918244545483e-03 -1.967966244368938e-18
 1.099985697155478e-01  5.609461058821409e-04 -1.963319276593932e-18
 1.099965813920951e-01  8.672266440327749e-04 -1.966430813272860e-18
 1.099965813920951e-01  8.672266440327749e-04 -1.966430813272860e-18
 1.099994764708554e-01 -3.393761005739006e-04 -1.954084929776259e-18
 1.099951781172366e-01  1.029947065290146e-03 -1.968077733539606e-18
 1.099933269833526e-01  1.211618394214967e-03 -1.969911397312723e-18
 1.099951781172369e-01  1.029947065271588e-03 -1.968077733539418e-18
 1.099967818510606e-01  8.414169062410351e-04 -1.966169194999398e-18
 1.099930833966875e-01  1.233533497422991e-03 -1.970132232121788e-18
 1.099998726078207e-01 -1.674104631005672e-04 -1.955858863960917e-18
 1.099849405823178e-01  1.820122277198664e-03 -1.976014307648222e-18
 1.099754887390662e-01  2.322041473243559e-03 -1.981003138229444e-18
 1.099875430487551e-01  1.655407532355827e-03 -1.974368237475710e-18
 1.099999942971827e-01  3.542061112391645e-05 -1.957945045173192e-18
 1.099382773968774e-01  3.684448806425301e-03 -1.994339158432668e-18
 1.099954465043239e-01  1.000873775427472e-03 -1.967783792316123e-18
 1.099751020784314e-01  2.340282640733870e-03 -1.981183678511691e-18
 1.099755862316485e-01 -2.317419471129539e-03 -1.933336097406467e-18
 1.098643343142927e-01  5.461505806757027e-03 -2.011281868199925e-18
 1.099943176212773e-01 -1.118074697640204e-03 -1.945992276688421e-18
 1.098668382504045e-01  5.410901298247591e-03 -2.010806485788075e-18
 1.099939679601409e-01 -1.151960235171730e-03 -1.945637892462921e-18
 1.099197346052697e-01  4.201421700686976e-03 -1.999320876024417e-18
 1.099882511989114e-01 -1.607668561951350e-03 -1.940853918365802e-18
 1.095160431281777e-01  1.030709937601528e-02 -2.054870324744614e-18
 1.099965379526723e-01  8.727189846921938e-04 -1.966486472021579e-18
 1.097155921151757e-01 -7.904988729677547e-03 -1.871298947644377e-18
 1.099580313047689e-01  3.038313936935000e-03 -1.988051901725245e-18
 1.090384108770171e-01  1.451292366874193e-02 -2.089583605846756e-18
 1.097000662208238e-01 -8.117602549200310e-03 -1.868838116075362e-18
 1.099999895450055e-01 -4.795934327229243e-05 -1.957088261860664e-18
 1.099019471570344e-01  4.643491261147430e-03 -2.003546431307918e-18
 1.099996048766487e-01 -2.948338194274243e-04 -1.954544870668360e-18
 8.945653182197385e-03  1.096356478940302e-01 -1.285665023750003e-18
 1.098041210419998e-01 -6.561631061998025e-03 -1.886676937530272e-18
 1.099698342218598e-01  2.575958310338041e-03 -1.983511412611216e-18
 1.096646877130203e-01 -8.582323042490219e-03 -1.863433679079115e-18
 1.096681313069078e-01  8.538206817051530e-03 -2.039402186847260e-18
 1.096391886634122e-01 -8.902151943694292e-03 -1.859693767299806e-18
 1.098319339532871e-01  6.078345505209803e-03 -2.017043068948637e-18
 1.096061402136564e-01 -9.300216527814075e-03 -1.855015661718447e-18
 1.097945913110251e-01  6.719205224198520e-03 -2.022963112892244e-18
 8.692872330269046e-02  6.740472583553922e-02 -2.239559395254294e-18
 1.097979106019170e-01 -6.664745115409758e-03 -1.885506955900502e-18
 1.098735903835314e-01 -5.272014437753087e-03 -1.901163569662085e-18
 1.099938835807842e-01 -1.159989145131947e-03 -1.945553896698449e-18
 1.099943258093635e-01 -1.117268877004372e-03 -1.946000701919484e-18
 1.099943258093635e-01 -1.117268877004372e-03 -1.946000701919484e-18
 1.099974628448393e-01  7.471062160944136e-04 -1.965212306015132e-18
 1.099945968274786e-01 -1.090260868028588e-03 -1.946283022491113e-18
 1.099845124799935e-01 -1.845809995120972e-03 -1.938340566687115e-18
 1.099896875132573e-01 -1.506200762164144e-03 -1.941922024075343e-18
 1.099915445512589e-01 -1.363864813076218e-03 -1.943417522452032e-18
 1.099807414777637e-01 -2.058276949596732e-03 -1.936090436430159e-18
 1.099893538839471e-01 -1.530369952583350e-03 -1.941667757092222e-18
 1.099893538839471e-01 -1.530369952583350e-03 -1.941667757092222e-18
 1.099965091407586e-01 -8.763428820535460e-04 -1.948514983982620e-18
 1.099894165642927e-01 -1.525858396587726e-03 -1.941715227162673e-18
 1.099765227227590e-01 -2.272542587148666e-03 -1.933813857063278e-18
 1.099907506512869e-01 -1.426454053363166e-03 -1.942760312347966e-18
 1.099904310986638e-01 -1.450884809361116e-03 -1.942503608384978e-18
 1.099917842453620e-01 -1.344395225250351e-03 -1.943621831036678e-18
 1.099814243654594e-01 -2.021458519153842e-03 -1.936480885229000e-18
 1.099814243654594e-01 -2.021458519153842e-03 -1.936480885229000e-18
 1.099935223264308e-01  1.193752999952527e-03 -1.969731313239753e-18
 1.099979920292151e-01 -6.646424156311842e-04 -1.950716519139311e-18
 1.099842398136802e-01  1.861986199418064e-03 -1.976431973227245e-18
 1.041721846064357e-01 -3.532925069008117e-02 -1.490873069418516e-18
 1.099916419298715e-01 -1.355988779765669e-03 -1.943500178801728e-18
 1.099916419298715e-01 -1.355988779765669e-03 -1.943500178801728e-18
 1.099969841450457e-01 -8.145421993341558e-04 -1.949158416815032e-18
 1.084565139976986e-01  1.836258618678018e-02 -2.118781940667956e-18
 1.094524102113570e-01 -1.096220319665460e-02 -1.835203543681701e-18
 1.099834137557501e-01  1.910156703360669e-03 -1.976912206970066e-18
 1.099754582367878e-01 -2.323485659192587e-03 -1.933271491706568e-18
 1.098483579273666e-01  5.773929395229646e-03 -2.014207588214238e-18
 1.099166248030838e-01 -4.282007928299645e-03 -1.912101375734877e-18
 1.099998424399229e-01  1.861805362344575e-04 -1.959491346155846e-18
 1.099998424399229e-01  1.861805362344575e-04 -1.959491346155846e-18
 1.099998424399229e-01  1.861805362344575e-04 -1.959491346155846e-18
 1.099974987047359e-01  7.418077254598239e-04 -1.965158504118287e-18
 1.099998194797624e-01 -1.992847701443031e-04 -1.955530421557898e-18
 1.099962292730221e-01 -9.107940034384648e-04 -1.948156030645286e-18
 1.099566765612798e-01  3.086953125338592e-03 -1.988527542440477e-18
 1.095317124669721e-01  1.013922896735635e-02 -2.053424371853079e-18
 1.099234421986944e-01 -4.103273716219283e-03 -1.914059128521942e-18
 1.045015824384166e-01 -3.434267415136363e-02 -1.506871812298816e-18
 1.011498240418405e-01  4.322861432320772e-02 -2.244240083152123e-18
 1.099994576246968e-01  3.454305609653412e-04 -1.961120734062998e-18
 1.099994576246968e-01  3.454305609653412e-04 -1.961120734062998e-18
 1.087542923805394e-01 -1.650769180739939e-02 -1.765801823179441e-18
 1.049786098006148e-01  3.285561571984582e-02 -2.205799100435088e-18
 1.099165332649448e-01  4.284357013158616e-03 -2.000116034562255e-18
 1.088336337872486e-01 -1.597623724983441e-02 -1.772674300670404e-18
 1.099999965699636e-01 -2.747012772007916e-05 -1.957298906124826e-18
 1.001359830107473e-01  4.552784759321761e-02 -2.249821359254033e-18
 1.099993042039295e-01  3.912475575904857e-04 -1.961588756753753e-18
 1.091257926135241e-01 -1.384057030869943e-02 -1.799816817476996e-18
 1.099803292640149e-01  2.080186284641729e-03 -1.978604306941092e-18
 1.098406526421705e-01 -5.918701474308498e-03 -1.893932928887331e-18
 1.097488268833893e-01  7.429333598632238e-03 -2.029444991390628e-18
 1.099878690483636e-01 -1.633604052377196e-03 -1.940580639798455e-18
 1.099878690483636e-01 -1.633604052377196e-03 -1.940580639798455e-18
 1.099926370761895e-01 -1.272709324856342e-03 -1.944373554763657e-18
 1.099972688143487e-01  7.751473304111228e-04 -1.965496965274171e-18
 1.099972688143487e-01  7.751473304111228e-04 -1.965496965274171e-18
 1.098342578820076e-01 -6.036207046529485e-03 -1.892611799434134e-18
 1.099553415686886e-01 -3.134144303149015e-03 -1.924584268524193e-18
 1.099579079494158e-01  3.042774948581615e-03 -1.988095541743703e-18
 1.099927936949533e-01 -1.259100940898063e-03 -1.944516163183013e-18
 1.099347933561667e-01 -3.786978972329290e-03 -1.917510949501934e-18
 1.099347933561667e-01 -3.786978972329290e-03 -1.917510949501934e-18
 1.099866414107320e-01  1.714266953236659e-03 -1.974956950919183e-18
 1.067300701203690e-01  2.662127217285140e-02 -2.172912810856202e-18
 1.087688383407529e-01 -1.641157536627993e-02 -1.767048247408635e-18
 1.099370888700689e-01 -3.719743374819425e-03 -1.918242622249654e-18
 1.097741264818382e-01  7.045647958088749e-03 -2.025952997348930e-18
 1.099930117055948e-01 -1.239909647034623e-03 -1.944717226515229e-18
 1.099930117055948e-01 -1.239909647034623e-03 -1.944717226515229e-18
 1.099930117055948e-01 -1.239909647034623e-03 -1.944717226515229e-18
 1.094869710630310e-01  1.061146396323044e-02 -2.057480188233589e-18
 1.096942012041419e-01  8.196476205367488e-03 -2.036354973871758e-18
 1.099536994392926e-01  3.191234810171048e-03 -1.989546017432569e-18
 1.097305056915094e-01  7.695201146529369e-03 -2.031850636399373e-18
 1.098620697451759e-01  5.506871281047101e-03 -2.011707681259565e-18
 7.716406110933138e-02  7.839456405335322e-02 -2.178702179206462e-18
 1.089975371923002e-01 -1.481677718038097e-02 -1.787504188289262e-18
 1.098626356894249e-01 -5.495569067223304e-03 -1.898671675206434e-18
 1.098762787750185e-01 -5.215684284380980e-03 -1.901790184658190e-18
 1.099469678503172e-01 -3.415298013533634e-03 -1.921546495978153e-18
 1.099469678503172e-01 -3.415298013533634e-03 -1.921546495978153e-18
 1.099860725880036e-01 -1.750381862999032e-03 -1.939348820061358e-18
 1.099902359687494e-01 -1.465602790235686e-03 -1.942348913908529e-18
 1.099446168580863e-01  3.490161017563549e-03 -1.992455740255514e-18
 1.096097984624829e-01 -9.257001729167429e-03 -1.855524780977424e-18
 1.099654484602308e-01  2.756836037970721e-03 -1.985291815695214e-18
 1.061276618740487e-01  2.892955902096555e-02 -2.185909046364047e-18
 1.098940074297688e-01  4.827745957053427e-03 -2.005298284456343e-18
 5.590538724999740e-02 -9.473430042190498e-02 -2.154252990422182e-20
 1.094127325075605e-01 -1.135138604880170e-02 -1.830498719186567e-18
 1.098888465874999e-01  4.943823992501647e-03 -2.006399100758489e-18
 1.091405470879005e-01  1.372373787835137e-02 -2.083292644244305e-18
 1.085256184685794e-01 -1.794965559592348e-02 -1.746916644041174e-18
 1.085256184685794e-01 -1.794965559592348e-02 -1.746916644041174e-18
 1.093538324913586e-01  1.190543235047800e-02 -2.068405883654450e-18
 1.084547188146722e-01  1.837318608272155e-02 -2.118858903324788e-18
 1.045042914749673e-01 -3.433442970714663e-02 -1.507004731505050e-18
 1.096788746787475e-01  8.399074306346312e-03 -2.038163841959676e-18
 9.785259143439076e-02  5.024808801908911e-02 -2.257684438071993e-18
 1.095285396739804e-01 -1.017344567416726e-02 -1.844662555290068e-18
 1.031165729264978e-01 -3.830107554487464e-02 -1.441552779590922e-18
 1.097902446497592e-01  6.789858595430490e-03 -2.023611696593189e-18
 1.097902446497592e-01  6.789858595430490e-03 -2.023611696593189e-18
 1.099107166179859e-01  4.431069004282612e-03 -2.001519932803797e-18
 1.099999874812709e-01  5.247971201318984e-05 -1.958120199940464e-18
 1.099999874812709e-01  5.247971201318984e-05 -1.958120199940464e-18
 1.099999874812709e-01  5.247971201318984e-05 -1.958120199940464e-18
 1.099999874812709e-01  5.247971201318984e-05 -1.958120199940464e-18
 1.093391174375329e-01  1.203982549629797e-02 -2.069524852470979e-18
 1.099837801283357e-01  1.888943800604089e-03 -1.976700772137468e-18
 1.099837801283357e-01  1.888943800604089e-03 -1.976700772137468e-18
 1.099706255546841e-01  2.541951044256243e-03 -1.983176083017638e-18
 1.099706255546841e-01  2.541951044256243e-03 -1.983176083017638e-18
 1.099584343370995e-01  3.023692797511629e-03 -1.987908847270186e-18
 1.099584343370995e-01  3.023692797511629e-03 -1.987908847270186e-18
 1.099906084628054e-01  1.437376075271797e-03 -1.972182596158357e-18
 1.099754849331880e-01  2.322221718537897e-03 -1.981004922454225e-18
 1.099754849331880e-01  2.322221718537897e-03 -1.981004922454225e-18
 1.095480440942667e-01 -9.961226587149007e-03 -1.847190133740759e-18
 1.099914208899926e-01  1.373801514202389e-03 -1.971543848749086e-18
 1.098973342134428e-01  4.751413766320448e-03 -2.004573203009677e-18
 1.099867583898405e-01  1.706745117112719e-03 -1.974881748568249e-18
 1.098623894066904e-01 -5.500490328384602e-03 -1.898616728140716e-18
 1.094581145751839e-01 -1.090509759909736e-02 -1.835891798910479e-18
 1.074904558798119e-01  2.336240344549604e-02 -2.152961090146814e-18
 1.099999844371169e-01  5.851353667703021e-05 -1.958182141122617e-18
 1.098646851076708e-01  5.454444627298953e-03 -2.011215559932721e-18
 1.070070051990481e-01 -2.548530632209136e-02 -1.642465035717704e-18
 1.099976357220387e-01 -7.212042440255901e-04 -1.950129025988633e-18
 1.099836999927357e-01 -1.893603946934621e-03 -1.937835042014485e-18
 1.099436722716933e-01  3.519790819699608e-03 -1.992743365667193e-18
 1.099787348599170e-01 -2.162840403729582e-03 -1.934980374765699e-18
 1.099982632196631e-01  6.181332037926787e-04 -1.963901398790655e-18
 1.099982632196631e-01  6.181332037926787e-04 -1.963901398790655e-18
 1.097869711926341e-01 -6.842584040232687e-03 -1.883485045714562e-18
 1.097164853376354e-01 -7.892581653449865e-03 -1.871442321804625e-18
 1.094599082821552e-01  1.088707852741480e-02 -2.059830413290344e-18
 1.099220806201274e-01  4.139588402505094e-03 -1.998727311480689e-18
 1.094082557032591e-01 -1.139445408829202e-02 -1.829976540653524e-18
 1.094082557032591e-01 -1.139445408829202e-02 -1.829976540653524e-18
 1.095733309287035e-01  9.679108904685220e-03 -2.049437455528420e-18
 1.041753357729512e-01  3.531995776601100e-02 -2.216824100232131e-18
 1.084321418772841e-01 -1.850596141529667e-02 -1.739537276392118e-18
 1.099331714735416e-01 -3.833772263558309e-03 -1.917001302097258e-18
 1.099527756592980e-01 -3.222906268575220e-03 -1.923626608155793e-18
 1.099652749970856e-01  2.763746517918993e-03 -1.985359731382720e-18
 1.099652749970856e-01  2.763746517918993e-03 -1.985359731382720e-18
 1.099934654593885e-01 -1.198981331910965e-03 -1.945145825175052e-18
 1.099934654593885e-01 -1.198981331910965e-03 -1.945145825175052e-18
 1.099995941495812e-01  2.988091822401322e-04 -1.960644145955982e-18
 1.099995941495812e-01  2.988091822401322e-04 -1.960644145955982e-18
 8.000959759974725e-02 -7.548817319240465e-02 -6.482526713356621e-19
 1.099992024834696e-01 -4.188711026193303e-04 -1.953263271576151e-18
 1.061041985102012e-01  2.901549686818739e-02 -2.186374467977707e-18
 1.098528551153842e-01  5.687725643732260e-03 -2.013401908808177e-18
 1.099623408998926e-01 -2.878121577657762e-03 -1.927339370470751e-18
 1.099623408998926e-01 -2.878121577657762e-03 -1.927339370470751e-18
 1.001836012621119e-01 -4.542296817860033e-02 -1.316182190616597e-18
 1.099711658811822e-01  2.518466742576914e-03 -1.982944406103619e-18
 1.098740136854261e-01  5.263185029500490e-03 -2.009416450213178e-18
 1.099980595062748e-01  6.533795634969060e-04 -1.964259917009876e-18
 1.099980595062748e-01  6.533795634969060e-04 -1.964259917009876e-18
 1.099868676808508e-01 -1.699687546284104e-03 -1.939883835375442e-18
 1.098866762096062e-01  4.991832489688964e-03 -2.006853746163435e-18
 1.099490115972392e-01  3.348857833668862e-03 -1.991082110997867e-18
 1.099938773944949e-01  1.160575600635382e-03 -1.969396746373913e-18
 1.035093396624310e-01 -3.722655775985017e-02 -1.459582812065478e-18
 1.087324844380100e-01  1.665073055267735e-02 -2.106104469070611e-18
 1.099944279858216e-01 -1.107163976959009e-03 -1.946106344448581e-18
 1.099298307562263e-01  3.928397880486833e-03 -1.996695328503015e-18
 1.097698301879242e-01 -7.112269716079219e-03 -1.880409078738997e-18
 1.097256524466734e-01  7.764096544466283e-03 -2.032472142304428e-18
 1.094381529682723e-01 -1.110363340951873e-02 -1.833496674974733e-18
 1.097430957626078e-01  7.513516649283271e-03 -2.030207949524135e-18
 1.099598118770206e-01 -2.973175401856840e-03 -1.926317719978711e-18
 1.095276664675426e-01  1.018284234262236e-02 -2.053800480054354e-18
 1.099344529031237e-01 -3.796849337389815e-03 -1.917403476318553e-18
 1.098240599766557e-01  6.218991095338091e-03 -2.018348024488103e-18
 1.097824088183232e-01 -6.915396882791305e-03 -1.882655727315036e-18
 1.099196532972471e-01  4.203548383562261e-03 -1.999341279945149e-18
 1.099313557302779e-01 -3.885489326076315e-03 -1.916437614749944e-18
 1.097846146570815e-01  6.880289572110517e-03 -2.024440649592186e-18
 1.099794805386062e-01 -2.124584773148697e-03 -1.935386707714492e-18
 1.099749497853142e-01  2.347428320012827e-03 -1.981254387532779e-18
 1.099447762921760e-01 -3.485135013646614e-03 -1.920789944780472e-18
 1.099705097607079e-01  2.546955627804858e-03 -1.983225442603648e-18
 1.099996994658608e-01 -2.571330789202664e-04 -1.954933915409326e-18
 1.099920792057139e-01  1.320042425044070e-03 -1.971003209150654e-18
 1.099999933628321e-01 -3.821226059593031e-05 -1.957188477537106e-18
 1.099823706264029e-01  1.969302261335260e-03 -1.977501342361339e-18
 1.099974721762736e-01  7.457310707371866e-04 -1.965198342960143e-18
 1.099982092060623e-01  6.276714581114743e-04 -1.963998439652348e-18
 1.099994365238334e-01  3.520858405546929e-04 -1.961188739128072e-18
 1.099973250036471e-01  7.671323497251626e-04 -1.965415614214827e-18
 1.099999800191403e-01  6.630074438186482e-05 -1.958262073229750e-18
 1.099891030407872e-01  1.548293345288027e-03 -1.973295440034152e-18
 1.099985909197093e-01 -5.567725553630181e-04 -1.951835500738254e-18
 1.099909299685296e-01  1.412559612189659e-03 -1.971933337593168e-18
 1.099750446234598e-01 -2.342981021687668e-03 -1.933063823196492e-18
 1.099719554510655e-01  2.483750041535745e-03 -1.982601755949912e-18
 1.099990435078542e-01 -4.587236174124778e-04 -1.952850972303222e-18
 1.099520668189577e-01  3.246998958949809e-03 -1.990089919377431e-18
 1.099970443963030e-01 -8.063647299402506e-04 -1.949243509585408e-18
 1.099818895751916e-01  1.995987342225035e-03 -1.977766960993429e-18
 1.097362028164516e-01 -7.613526871730295e-03 -1.874660404369557e-18
 1.099870061637603e-01  1.690702556014898e-03 -1.974721326513233e-18
 1.099968645917271e-01 -8.305299447966944e-04 -1.948992020944384e-18
 1.099752219475163e-01  2.334642926553280e-03 -1.981127865710583e-18
 1.099425549654546e-01 -3.554519330083637e-03 -1.920037514975722e-18
 1.099948543222494e-01  1.063965519699264e-03 -1.968421498482689e-18
 1.099996637467362e-01 -2.719845674650369e-04 -1.954780686095220e-18
 1.099837937439520e-01  1.888150864679506e-03 -1.976692867315027e-18
 1.099662850452027e-01 -2.723261529342142e-03 -1.929000691981502e-18
 1.099999730546347e-01  7.699337379031569e-05 -1.958371812170911e-18
 1.099999730546347e-01  7.699337379031569e-05 -1.958371812170911e-18
 1.099974839239162e-01  7.439962417637304e-04 -1.965180727285967e-18
 1.099080196360309e-01 -4.497468141722545e-03 -1.909734461100178e-18
 1.099725299567252e-01  2.458181221379175e-03 -1.982349269624734e-18
 1.099694138413669e-01  2.593842590856976e-03 -1.983687685924381e-18
 1.098992264115442e-01 -4.707444544986043e-03 -1.907420543916396e-18
 1.098396332036260e-01 -5.937590226082921e-03 -1.893720711699663e-18
 1.099244375600421e-01  4.076521447064950e-03 -1.998121265981208e-18
 1.098942138476992e-01 -4.823044971396942e-03 -1.906143586976534e-18
 1.096516929957017e-01  8.746783590345461e-03 -2.041252698066630e-18
 1.094860136707103e-01 -1.062133750979639e-02 -1.839303828430247e-18
 1.099072550870012e-01  4.516113289190386e-03 -2.002332129864128e-18
 1.094681111428552e-01 -1.080428816792082e-02 -1.837105480040678e-18
 1.099337562237918e-01  3.816967713757276e-03 -1.995620282397062e-18
 1.097427091963210e-01 -7.519160741178927e-03 -1.875745770871319e-18
 1.091499287947574e-01  1.364892098663299e-02 -2.082690886525162e-18
 1.096592345467268e-01 -8.651721136625174e-03 -1.862623593273259e-18
 1.099377095275403e-01  3.701354324857251e-03 -1.994502750581031e-18
 1.097074161291035e-01 -8.017658403529759e-03 -1.869995806250397e-18
 1.097926535696001e-01  6.750794186296307e-03 -2.023253193582352e-18
 1.098722429498730e-01 -5.300021619204750e-03 -1.900851826857651e-18
 1.099093235035670e-01  4.465490677205421e-03 -2.001848810855816e-18
 1.091340040398652e-01 -1.377567284115962e-02 -1.800629747507254e-18
 1.098680505470171e-01  5.386229571606340e-03 -2.010574567023672e-18
 1.096172510367800e-01 -9.168330008215110e-03 -1.856568478147673e-18
 1.030923228777836e-01  3.836629984325807e-02 -2.228850652092719e-18
 1.096779051735026e-01 -8.411724956995353e-03 -1.865421732909802e-18
 1.096668030690743e-01 -8.555250119595228e-03 -1.863749488811311e-18
 1.099996195335222e-01 -2.893138094171172e-04 -1.954601847602501e-18
 1.094821105447628e-01  1.066149476688456e-02 -2.057907737845953e-18
 1.098609328614669e-01 -5.529505475920720e-03 -1.898292687080474e-18
 1.099981624103160e-01 -6.358194348264944e-04 -1.951015696931443e-18
 1.099812862213023e-01  2.028960597929809e-03 -1.978095011815386e-18
 1.099994992895253e-01 -3.318976554437845e-04 -1.954162174168714e-18
 1.099965334237025e-01 -8.732896245108000e-04 -1.948546787238660e-18
 1.099965334237025e-01 -8.732896245108000e-04 -1.948546787238660e-18
 1.099982215562321e-01 -6.255033701208029e-04 -1.951122743320891e-18
 1.099987041561379e-01 -5.339325523158509e-04 -1.952072188649763e-18
 1.099988948139012e-01  4.930919998108377e-04 -1.962627885816498e-18
 1.099984300214944e-01 -5.877012900881795e-04 -1.951514855848818e-18
 1.099997230078484e-01 -2.468566316936438e-04 -1.955039921129190e-18
 1.099998159617602e-01 -2.012172429166343e-04 -1.955510503495129e-18
 1.099999909008574e-01 -4.474160560230548e-05 -1.957121347075312e-18
 1.099912784446364e-01 -1.385159237932498e-03 -1.943193994287518e-18
 1.099986025618613e-01 -5.544677065898322e-04 -1.951859389408095e-18
 1.099127261588735e-01  4.380939205748049e-03 -2.001040629511738e-18
 1.099636605165659e-01  2.827254109097270e-03 -1.985983517204913e-18
 1.099316332373272e-01 -3.877629917067115e-03 -1.916523305891378e-18
 1.098236793756684e-01 -6.225708665713548e-03 -1.890476481998740e-18
 1.098338183735841e-01  6.044198993952354e-03 -2.016725761456922e-18
 1.093903153218503e-01  1.156541887637967e-02 -2.065561624212170e-18
 1.099652161900452e-01 -2.766085370444839e-03 -1.928541671018346e-18
 1.099652161900452e-01 -2.766085370444839e-03 -1.928541671018346e-18
 9.812424599297007e-02 -4.971551416118573e-02 -1.235429156502631e-18
 1.097383179170922e-01  7.582979673398276e-03 -2.030836629402811e-18
 1.097046873776397e-01  8.054909519931997e-03 -2.035087041571796e-18
 1.073978678374033e-01 -2.378440631967935e-02 -1.666897032241459e-18
 1.098265861905708e-01  6.174217822937213e-03 -2.017932952369032e-18
 1.098357355763042e-01  6.009258724015663e-03 -2.016400881785450e-18
 6.428450546215053e-02 -8.926086688738076e-02 -2.268964746886401e-19
 1.081366434541692e-01  2.016101045250092e-02 -2.131567618804561e-18
 1.099994284678109e-01 -3.545937886133529e-04 -1.953927719288367e-18
 1.099958636067286e-01 -9.539336506875712e-04 -1.947706278973330e-18
 1.099958636067286e-01 -9.539336506875712e-04 -1.947706278973330e-18
 1.099958636067286e-01 -9.539336506875712e-04 -1.947706278973330e-18
 1.099958636067286e-01 -9.539336506875712e-04 -1.947706278973330e-18
 1.099989866096537e-01 -4.721703603475362e-04 -1.952711799333033e-18
 1.099999998814974e-01  5.105930550402000e-06 -1.957633672222298e-18
 1.099998117028417e-01  2.035321579598397e-04 -1.959669080762703e-18
 9.510250417619465e-02 -5.527670123494021e-02 -1.124514479446612e-18
 1.007771737005800e-01  4.409037605785524e-02 -2.246462614586051e-18
 1.099791765346533e-01 -2.140263712613706e-03 -1.935220202194228e-18
 1.042354729811010e-01 -3.514208548743413e-02 -1.493922416004217e-18
 1.099403317127911e-01  3.622632037819679e-03 -1.993740572593671e-18
 8.210746857068180e-02  7.320084429099478e-02 -2.213312427862888e-18
 2.537249862812840e-02 -1.070338092070238e-01  6.481996287766698e-19
 1.037549449454818e-01  3.653643933609290e-02 -2.221841650216563e-18
 1.094034313083205e-01 -1.144068258302671e-02 -1.829415703800937e-18
 1.070884373052890e-01  2.514093465866292e-02 -2.164080452193759e-18
 1.034680955708177e-01 -3.734103907161788e-02 -1.457672570366865e-18
 1.040825886490759e-01  3.559234103156487e-02 -2.217972193634502e-18
 1.055102309777039e-01 -3.110612735509745e-02 -1.558076258801581e-18
 1.066787550460317e-01  2.682616673751100e-02 -2.174104815117065e-18
 1.095921100482107e-01 -9.464111959441969e-03 -1.853082012167105e-18
 1.096287651917309e-01  9.029609212822380e-03 -2.043750600974174e-18
 1.093569621671433e-01 -1.187665043578983e-02 -1.824109318690820e-18
 1.099331467592774e-01  3.834480877920867e-03 -1.995789377648780e-18
 1.090885511789840e-01 -1.413110051164338e-02 -1.796168969432239e-18
 1.097435832819086e-01  7.506392505509203e-03 -2.030143427522345e-18
 1.099526547565663e-01 -3.227028351796567e-03 -1.923582103639801e-18
 1.098687564951331e-01  5.371810329219013e-03 -2.010438977735050e-18
 1.099991829229286e-01  4.239767541558739e-04 -1.961922879018800e-18
 1.099991829229286e-01  4.239767541558739e-04 -1.961922879018800e-18
 1.099993960308278e-01  3.645172877555435e-04 -1.961315747110734e-18
 1.099864002834581e-01 -1.729668374830428e-03 -1.939567475359174e-18
 1.098751866123864e-01  5.238641703078801e-03 -2.009185150084461e-18
 1.099312143269286e-01  3.889487962038228e-03 -1.996320165516849e-18
 1.097568485439317e-01 -7.309869882863688e-03 -1.878147784967872e-18
 1.099993566931004e-01 -3.762008825409319e-04 -1.953704436930912e-18
 1.099993566931004e-01 -3.762008825409319e-04 -1.953704436930912e-18
 1.099656307366412e-01  2.749555726413049e-03 -1.985220256964838e-18
 1.075598200331723e-01  2.304094430425004e-02 -2.150892632097042e-18
 1.084064996694405e-01 -1.865558440305659e-02 -1.737543620870932e-18
 1.094988916306900e-01 -1.048774197100414e-02 -1.840905652719121e-18
 1.095120484524079e-01  1.034945620587963e-02 -2.055234435764100e-18
 1.098873461859698e-01 -4.977062206241792e-03 -1.904438897606047e-18
 1.098522230445204e-01  5.699920365839822e-03 -2.013515956692855e-18
 1.091828630903530e-01 -1.338291475700273e-02 -1.805534699228787e-18
 1.097218594637035e-01  7.817515962712077e-03 -2.032953506764771e-18
 1.097808426103153e-01 -6.940215830156939e-03 -1.882372849107127e-18
 1.098424913553357e-01  5.884478978886294e-03 -2.015239042379615e-18
 1.099549794338545e-01 -3.146823430158423e-03 -1.924447550478794e-18
 1.078577394523775e-01  2.160342658522052e-02 -2.141424491179050e-18
 1.099988957660170e-01  4.928795561705841e-04 -1.962625719979307e-18
 1.099986174821937e-01  5.514997787770661e-04 -1.963223069078951e-18
 1.099628671291864e-01 -2.857945543368240e-03 -1.927556036771692e-18
 1.098888700503131e-01  4.943302445264854e-03 -2.006394159598842e-18
 1.099512160043419e-01 -3.275683007636167e-03 -1.923056590413856e-18
 1.099930902042869e-01  1.232926320413918e-03 -1.970126114747942e-18
 1.099930902042869e-01  1.232926320413918e-03 -1.970126114747942e-18
 9.210014214463558e-02  6.014618705236345e-02 -2.257012113061105e-18
 1.099699467915294e-01 -2.571148122562948e-03 -1.930628767121474e-18
 1.099699467915294e-01 -2.571148122562948e-03 -1.930628767121474e-18
 1.099916754481135e-01 -1.353267200826454e-03 -1.943528738533755e-18
 1.099886291790243e-01 -1.581597710877023e-03 -1.941128513496775e-18
 1.099912933435533e-01 -1.383975654542106e-03 -1.943206420320891e-18
 1.099642316273073e-01  2.804953228822359e-03 -1.985764547358249e-18
 1.099682614945114e-01 -2.642245990578332e-03 -1.929868270484712e-18
 1.099986223837174e-01 -5.505212841498824e-04 -1.951900290218618e-18
 1.099912886242383e-01 -1.384350670700492e-03 -1.943202483180256e-18
 1.099011743238732e-01  4.661746693418340e-03 -2.003720245754854e-18
 1.098262226068291e-01 -6.180681832546870e-03 -1.890984376184745e-18
 1.099995803004830e-01 -3.038646368990249e-04 -1.954451644937292e-18
 1.099999667981010e-01  8.546588003264052e-05 -1.958458752752250e-18
 1.099907508333303e-01  1.426440016341883e-03 -1.972072765778926e-18
 1.092002467040125e-01 -1.324032174015301e-02 -1.807309152817944e-18
 1.099992897731560e-01  3.952839501265994e-04 -1.961629972407928e-18
 1.099999992746700e-01 -1.263220340898332e-05 -1.957451408540406e-18
 1.099988192514970e-01 -5.096697719687750e-04 -1.952323528163060e-18
 1.099922587973697e-01 -1.304992203969565e-03 -1.944035127985389e-18
 1.099988192514970e-01 -5.096697719526456e-04 -1.952323528163227e-18
 1.099999757370090e-01 -7.306064182331690e-05 -1.956830109406870e-18
 1.098447856368511e-01  5.841495390238161e-03 -2.014838231097250e-18
 1.098781685824406e-01 -5.175719174058652e-03 -1.902234443025889e-18
 1.099982287328591e-01 -6.242400448378098e-04 -1.951135851245881e-18
 1.099977842373430e-01  6.981854158595123e-04 -1.964715382127221e-18
 1.099996382813186e-01  2.820956912801996e-04 -1.960473206284812e-18
 1.099996382813186e-01  2.820956912801996e-04 -1.960473206284812e-18
 1.099995583451706e-01  3.117111922419725e-04 -1.960776072239625e-18
 1.099998565680215e-01 -1.776373121239722e-04 -1.955753501354966e-18
 1.099982714376210e-01  6.166690647451489e-04 -1.963886501542185e-18
 1.099140826843025e-01  4.346772097576580e-03 -2.000713715875344e-18
 1.099888305705052e-01 -1.567529818744372e-03 -1.941276639979606e-18
 1.099888305705052e-01 -1.567529818744372e-03 -1.941276639979606e-18
 1.099982602876837e-01  6.186547364717986e-04 -1.963906705171403e-18
 1.099989441307068e-01  4.819648634580490e-04 -1.962514436184028e-18
 1.099989441307068e-01  4.819648634580490e-04 -1.962514436184028e-18
 1.099997596399442e-01  2.299546791341093e-04 -1.959939636047858e-18
 1.099995256909768e-01 -3.230290391050221e-04 -1.954253765825201e-18
 1.099995256909768e-01 -3.230290391050221e-04 -1.954253765825201e-18
 1.099995256909768e-01 -3.230290391050221e-04 -1.954253765825201e-18
 1.099883137617857e-01  1.603382623996462e-03 -1.973847416199202e-18
 1.099952379519142e-01  1.023536956709853e-03 -1.968012936832010e-18
 1.083301136541174e-01 -1.909414768157978e-02 -1.731678162242408e-18
 1.093577296238113e-01  1.186958177550271e-02 -2.068106886140733e-18
 1.098763903320681e-01  5.213333635494748e-03 -2.008946540511317e-18
 1.099436641172389e-01 -3.520045521823007e-03 -1.920411459511295e-18
 1.099436641172389e-01 -3.520045521823007e-03 -1.920411459511295e-18
 1.099943919958455e-01  1.110733750382586e-03 -1.968893797413559e-18
 1.099996929909026e-01  2.598882589321537e-04 -1.960246006607070e-18
 1.099974797107535e-01  7.446188839443535e-04 -1.965187049729929e-18
 1.099974797107535e-01  7.446188839443535e-04 -1.965187049729929e-18
 8.956379782282162e-02  6.386177353904832e-02 -2.250051141777635e-18
 1.099781812898111e-01 -2.190808112413678e-03 -1.934683165278482e-18
 1.099781812898111e-01 -2.190808112413678e-03 -1.934683165278482e-18
 1.099990474310367e-01 -4.577818962100418e-04 -1.952860717964190e-18
 1.099725501799948e-01 -2.457276319118554e-03 -1.931845088938667e-18
 1.099986988909711e-01  5.350161618627407e-04 -1.963055154669483e-18
 1.099534298174117e-01 -3.200511113475649e-03 -1.923868351762863e-18
 1.099925179078507e-01  1.282966987534431e-03 -1.970630079726517e-18
 1.099479196693584e-01 -3.384517747077963e-03 -1.921879690789602e-18
 1.099899341297421e-01  1.488082704335420e-03 -1.972691587790482e-18
 1.085908593428186e-01 -1.755064862585302e-02 -1.752177334890030e-18
 1.097344680278830e-01  7.638489813927637e-03 -2.031338462560711e-18
 1.066221644198418e-01  2.705021357453910e-02 -2.175399717280921e-18
 1.096907916526651e-01  8.241979532344061e-03 -2.036761826990792e-18
 1.073371578693933e-01 -2.405690213890579e-02 -1.663016830390646e-18
 1.098449618148121e-01  5.838181557850358e-03 -2.014807317970255e-18
 1.096797435413417e-01 -8.387720590570505e-03 -1.865701085003298e-18
 1.095349558749520e-01  1.010412992158567e-02 -2.053121462222146e-18
 1.097825849725961e-01 -6.912599853504586e-03 -1.882687600650289e-18
 1.089027923054750e-01  1.549780074947920e-02 -2.097289365821335e-18
 1.095609189340992e-01 -9.818606943742864e-03 -1.848884621899596e-18
 1.093755643691023e-01  1.170409838220446e-02 -2.066723994956492e-18
 1.071896678204682e-01 -2.470577083471920e-02 -1.653725178903506e-18
 1.097913249250010e-01  6.772368213025868e-03 -2.023451214054265e-18
 1.061513919521550e-01 -2.884236444225600e-02 -1.592745824715465e-18
 1.090699730147095e-01  1.427378669346386e-02 -2.087688246186324e-18
 1.085737003148706e-01 -1.765648889039483e-02 -1.750784499250244e-18
 1.099883536061299e-01  1.600647060689636e-03 -1.973820018357609e-18
 1.028528486572634e-01 -3.900373729639301e-02 -1.429639897398296e-18
 8.425999408780242e-02  7.071246987854027e-02 -2.226052043932815e-18
 1.098006713858235e-01  6.619105923187529e-03 -2.022042831121185e-18
 1.099142352616056e-01  4.342912255202315e-03 -2.000676772692227e-18
 1.099988240794739e-01  5.086267127412309e-04 -1.962786240545034e-18
 1.085565557147129e-01  1.776159371673599e-02 -2.114387323050001e-18
 1.099943947405784e-01  1.110461910104607e-03 -1.968891053199250e-18
 1.057858634599913e-01 -3.015544879493661e-02 -1.572749344461493e-18
 1.075651308867829e-01  2.301613819278210e-02 -2.150732271288075e-18
 1.097134217656081e-01  7.935054157455866e-03 -2.034011010115035e-18
 1.077398399975806e-01 -2.218393286357690e-02 -1.689427118106126e-18
 1.097159591892149e-01 -7.899892353095312e-03 -1.871357843582782e-18
 1.095600927886302e-01  9.827821129156221e-03 -2.050729831118328e-18
 1.066309190320235e-01  2.701568260077871e-02 -2.175200722836301e-18
 1.099868874469374e-01  1.698408000063438e-03 -1.974798384444190e-18
 1.097190410288385e-01 -7.856973699332916e-03 -1.871853662171323e-18
 1.087107365876319e-01  1.679213359208658e-02 -2.107170304993600e-18
 1.099988899269827e-01 -4.941809704087941e-04 -1.952483927727022e-18
 1.099937597447143e-01 -1.171672830630237e-03 -1.945431647263722e-18
 1.098043736712805e-01  6.557402127197278e-03 -2.021474733618566e-18
 1.076951353174716e-01  2.239995153904237e-02 -2.146714761182918e-18
 1.099575564881725e-01  3.055449418715645e-03 -1.988219512647993e-18
 1.042220838472177e-01 -3.518177423814037e-02 -1.493276352899910e-18
 1.097811655317279e-01  6.935105946943236e-03 -2.024942486630435e-18
 1.092770465904074e-01  1.259075408694456e-02 -2.074080818837863e-18
 1.089588083058288e-01 -1.509894342573743e-02 -1.783915805888915e-18
 1.099976824063061e-01  7.140484867056332e-04 -1.964876557212796e-18
 1.099897412970875e-01  1.502268085168989e-03 -1.972833905738295e-18
 1.098765153210702e-01  5.210698695815890e-03 -2.008921691791701e-18
 1.099884800833972e-01 -1.591932455886399e-03 -1.941019674411588e-18
 1.099658997777859e-01  2.738774554780060e-03 -1.985114272250896e-18
 1.099049584896465e-01 -4.571662650397946e-03 -1.908917662724906e-18
 1.099747978431384e-01  2.354535911982284e-03 -1.981324711466017e-18
 1.099992825485489e-01 -3.972893208454307e-04 -1.953486441397425e-18
 1.099948299073996e-01  1.066486587909278e-03 -1.968446967051342e-18
 1.099948299073996e-01  1.066486587909278e-03 -1.968446967051342e-18
 1.098615990195156e-01 -5.516254243155719e-03 -1.898440693760441e-18
 1.099999306772644e-01 -1.234949269739524e-04 -1.956311113556377e-18
 1.093712901415494e-01 -1.174397261462094e-02 -1.825727518500851e-18
 1.092525114600298e-01  1.280190375202160e-02 -2.075813673030255e-18
 1.090459467589745e-01  1.445619228700478e-02 -2.089134821516856e-18
 1.098837637806906e-01 -5.055537299769599e-03 -1.903568841352618e-18
 9.953404031429795e-02 -4.682920903359011e-02 -1.290173864788024e-18
 1.087668741130399e-01  1.642458814333210e-02 -2.104392943254314e-18
 1.099961862199886e-01  9.159787429643179e-04 -1.966924690820122e-18
 1.099873967583665e-01 -1.665098891248307e-03 -1.940248636806363e-18
 1.099733462368647e-01 -2.421387508567970e-03 -1.932228000211265e-18
 1.099707676461388e-01  2.535796387507816e-03 -1.983115374842290e-18
 1.099705490682878e-01 -2.545257868913352e-03 -1.930905498305872e-18
 1.099977044497030e-01  7.106446339337946e-04 -1.964841976150631e-18
 1.099844258007524e-01 -1.850967660107711e-03 -1.938286030992518e-18
 1.099924506802766e-01  1.288717714195164e-03 -1.970687969959009e-18
 1.099880087309460e-01 -1.624172220335394e-03 -1.940680034264542e-18
 1.099987712940030e-01  5.199171179944075e-04 -1.962901305977108e-18
 1.099790173121272e-01 -2.148429905488157e-03 -1.935133463974209e-18
 1.099999951283880e-01 -3.273766291371685e-05 -1.957244758459700e-18
 1.099988240559027e-01 -5.086318103819672e-04 -1.952334278341433e-18
 1.099999958420175e-01 -3.024493504022145e-05 -1.957270383032951e-18
 1.099946163345425e-01  1.088291053331173e-03 -1.968667199228860e-18
 1.099578569248815e-01 -3.044618282682132e-03 -1.925548879626124e-18
 1.098203859764107e-01 -6.283535946594343e-03 -1.889823717726389e-18
 1.099931405457678e-01  1.228426993734814e-03 -1.970080781687493e-18
 1.099103773474564e-01  4.439476471354203e-03 -2.001600278749995e-18
 1.096054497628797e-01 -9.308350137205610e-03 -1.854919804441486e-18
 1.099846763556687e-01  1.836019318737286e-03 -1.976172941746689e-18
 1.099756068364894e-01 -2.316441440196668e-03 -1.933346513006734e-18
 1.098646273598393e-01  5.455607673174867e-03 -2.011226482115050e-18
 1.098733736026252e-01 -5.276530410971021e-03 -1.901113311802983e-18
 1.099784712345201e-01  2.176204245419315e-03 -1.979557790756304e-18
 1.096421270178634e-01 -8.865888731463045e-03 -1.860118650154546e-18
 1.098941096465120e-01  4.825418634725816e-03 -2.005276191133751e-18
 1.097817355916640e-01 -6.926076124469371e-03 -1.882534021114804e-18
 1.089230153500574e-01  1.535502286065118e-02 -2.096182268082023e-18
 1.097093131280138e-01 -7.991658962905292e-03 -1.870296700416391e-18
 1.092339365373197e-01  1.295944090463684e-02 -2.077101747138033e-18
 1.092136153800998e-01 -1.312959312422097e-02 -1.808684760659808e-18
 1.092603149569289e-01  1.273513154673590e-02 -2.075266485413048e-18
 1.095350456212306e-01 -1.010315696972346e-02 -1.845500527286244e-18
 1.085881607053097e-01  1.756733772197088e-02 -2.112953861778913e-18
 1.086128498043814e-01 -1.741404195960406e-02 -1.753972265255120e-18
 1.099400906651692e-01  3.629940018010862e-03 -1.993811369705392e-18
 1.096487595665096e-01 -8.783480262727530e-03 -1.861083401348911e-18
 1.099942929894362e-01  1.120495316379276e-03 -1.968992332020924e-18
 1.053740986759942e-01 -3.156420960869737e-02 -1.550946993360632e-18
 1.008213330695753e-01  4.398930322332614e-02 -2.246209996574613e-18
 1.099677144004165e-01 -2.664918300508807e-03 -1.929625584544363e-18
 1.099771063005429e-01  2.244123383204936e-03 -1.980231344595690e-18
 1.097369454460072e-01 -7.602815542941233e-03 -1.874783675360527e-18
 1.098555369350301e-01  5.635690260846201e-03 -2.012914990331581e-18
 1.098215815210224e-01 -6.262605865084914e-03 -1.890060042853059e-18
 1.091311517635035e-01  1.379825042427976e-02 -2.083891032580645e-18
 1.099007638304773e-01 -4.671414076873923e-03 -1.907818104091223e-18
 1.097926036388736e-01  6.751606193875252e-03 -2.023260648088406e-18
 1.099474145241346e-01 -3.400888039626191e-03 -1.921702502318713e-18
 1.099935438635795e-01  1.191766894479851e-03 -1.969711290006769e-18
 1.094750023406408e-01 -1.073423786380035e-02 -1.837947858552956e-18
 1.098059992111243e-01  6.530125362236479e-03 -2.021223403188000e-18
 1.099649608710465e-01  2.776216963635122e-03 -1.985482270434728e-18
 1.053553455837915e-01 -3.162674749195398e-02 -1.549970705683151e-18
 1.098074912712878e-01 -6.504987371702780e-03 -1.887318908121356e-18
 1.098438789116941e-01  5.858520771752555e-03 -2.014997024451724e-18
 1.099999987143148e-01 -1.681816567896588e-05 -1.957408389326533e-18
 1.099546120341778e-01 -3.159634854444012e-03 -1.924309379432787e-18
 1.099546120341778e-01 -3.159634854444012e-03 -1.924309379432787e-18
 1.097903240189077e-01  6.788575095204273e-03 -2.023599921563295e-18
 1.089897630468697e-01  1.487385461093275e-02 -2.092426293995158e-18
 1.065379163187014e-01 -2.738014584455941e-02 -1.614648251790188e-18
 1.099968623607476e-01 -8.308253671622500e-04 -1.948988945883953e-18
 9.875987351841060e-02  4.844055514367582e-02 -2.255258861332571e-18
 1.097391128175163e-01 -7.571467362698036e-03 -1.875144337485964e-18
 1.097391128175163e-01 -7.571467362698036e-03 -1.875144337485964e-18
 1.098805086109325e-01  5.125800171948988e-03 -2.008120455656645e-18
 1.099817936012577e-01 -2.001268660204183e-03 -1.936694899686779e-18
 1.098630539663481e-01 -5.487200851732853e-03 -1.898765099317450e-18
 1.099594404980067e-01 -2.986878866859832e-03 -1.926170312721333e-18
 1.098037271551723e-01  6.568219152284576e-03 -2.021574369096485e-18
 1.098349350339013e-01 -6.023873014816918e-03 -1.892750577855065e-18
 1.099870850117403e-01  1.685565371074526e-03 -1.974669946998020e-18
 1.092593287622943e-01 -1.274358969885821e-02 -1.813464329796438e-18
 1.062374762635417e-01  2.852365048785623e-02 -2.183692761693700e-18
 1.098345499040812e-01 -6.030891092355443e-03 -1.892671615813275e-18
 1.099989029909876e-01  4.912644697777305e-04 -1.962609254130305e-18
 1.099903616725828e-01 -1.456138432428274e-03 -1.942448393796528e-18
 1.099903616725828e-01 -1.456138432428274e-03 -1.942448393796528e-18
 1.099871018801292e-01 -1.684464309515816e-03 -1.940044416458593e-18
 1.099777240194376e-01 -2.213643942547929e-03 -1.934440397747711e-18
 1.099777240194376e-01 -2.213643942547929e-03 -1.934440397747711e-18
 1.099990890012038e-01  4.476817007720966e-04 -1.962164767284826e-18
 1.099990890012038e-01  4.476817007720966e-04 -1.962164767284826e-18
 1.099999981834058e-01 -1.999126476034952e-05 -1.957375777438010e-18
 1.099115608917159e-01 -4.410077362880666e-03 -1.910695390475281e-18
 1.099621601676600e-01  2.885018416206758e-03 -1.986550323977878e-18
 1.099513852357319e-01  3.269997667223431e-03 -1.990314093163643e-18
 1.099152094812972e-01 -4.318185346012284e-03 -1.911704478570653e-18
 1.099860060536063e-01  1.754557601228782e-03 -1.975359615752926e-18
 1.099860060536063e-01  1.754557601228782e-03 -1.975359615752926e-18
-8.322432841278123e-02  7.192851423629924e-02  7.420368434748683e-19
-1.099558435410484e-01  3.116483784083153e-03  1.924774657138950e-18
-1.099407161035443e-01 -3.610947609677220e-03  1.993627360031100e-18
-1.097986797403926e-01 -6.652061880850855e-03  2.022345997908054e-18
-1.097986797403926e-01 -6.652061880850855e-03  2.022345997908054e-18
-1.097436754832679e-01  7.505044398478954e-03  1.875908007393345e-18
-1.097436754832679e-01  7.505044398478954e-03  1.875908007393345e-18
-1.097436754832679e-01  7.505044398478954e-03  1.875908007393345e-18
-1.098884903624594e-01 -4.951735641129120e-03  2.006474050624544e-18
-1.098884903624594e-01 -4.951735641129120e-03  2.006474050624544e-18
-1.099222342121194e-01  4.135507927199715e-03  1.913706436151845e-18
-1.099222342121194e-01  4.135507927199715e-03  1.913706436151845e-18
-6.648061594517717e-02  8.763747887490726e-02  2.826586024471707e-19
-1.099521040235746e-01  3.245738866421028e-03  1.923380058948505e-18
-1.099885656334119e-01 -1.586010688680404e-03  1.973673408230588e-18
-1.099885656334119e-01 -1.586010688680404e-03  1.973673408230588e-18
-1.099999948453633e-01  3.367521374652733e-05  1.957235120428714e-18
-1.099791284466272e-01  2.142733329238768e-03  1.935193971996763e-18
-1.099791284466272e-01  2.142733329238768e-03  1.935193971996763e-18
-1.099961813251359e-01 -9.165663575441624e-04  1.966930641236725e-18
-1.099570649690787e-01  3.073086947317570e-03  1.925242280640656e-18
-1.099772728415451e-01  2.235946854536758e-03  1.934203214180254e-18
-1.099883406208654e-01  1.601539093642487e-03  1.940918487796351e-18
-1.078547577384674e-01 -2.161830782407532e-02  2.141524327346606e-18
-1.089748001972887e-01  1.498308786468840e-02  1.785390774476025e-18
-1.099601968661048e-01 -2.958902696513443e-03  1.987274518824895e-18
-1.099187310080541e-01  4.227596667021729e-03  1.912697914108269e-18
-1.096799992309648e-01 -8.384376464324770e-03  2.038032839720332e-18
-1.098319002667779e-01  6.078954168977192e-03  1.892130631704515e-18
-1.099700233548467e-01 -2.567871362516605e-03  1.983431688007215e-18
-1.098725536963147e-01  5.293575752778983e-03  1.900923585897177e-18
-1.099909068626542e-01 -1.414357638964636e-03  1.971951400468495e-18
-1.099888821105849e-01  1.563909224928661e-03  1.941314757483001e-18
-1.099955111618046e-01 -9.937425487956393e-04  1.967711672210047e-18
-1.099974361678297e-01  7.510236375689456e-04  1.949819091247324e-18
-1.099988053757369e-01 -5.126557428748026e-04  1.962827304510714e-18
-1.099989132887425e-01  4.889532653247786e-04  1.952538056248067e-18
-1.099936942883438e-01 -1.177801682091536e-03  1.969570479510754e-18
-1.099991388715739e-01  4.352556859529800e-04  1.953093793884886e-18
-1.099976197545808e-01 -7.236354929248244e-04  1.964973945256827e-18
-1.099990798010693e-01  4.499365710170940e-04  1.952941901893907e-18
-1.099939141146793e-01 -1.157090200683527e-03  1.969361588635036e-18
-1.099906015627507e-01  1.437903982953899e-03  1.942640015272512e-18
-1.099968635992368e-01 -8.306613815907358e-04  1.966060140697099e-18
-1.099938410084493e-01  1.164018989516099e-03  1.945511733885846e-18
-1.099541294650927e-01 -3.176383725812907e-03  1.989401080757832e-18
-1.099945337057611e-01  1.096610620111120e-03  1.946216657768892e-18
-1.099992932049382e-01 -3.943278001824793e-04  1.961620209387253e-18
-1.099752051555192e-01 -2.335433792988518e-03  1.981135692742288e-18
-1.098333091172166e-01  6.053445990665080e-03  1.892417791144375e-18
-1.099639279155474e-01  2.816834639140517e-03  1.927997314336860e-18
-1.098219866464028e-01 -6.255497505177444e-03  2.018686217202459e-18
-1.099999017249565e-01  1.470391099969059e-04  1.956068690387892e-18
-1.099275434862692e-01  3.991889662097103e-03  1.915276546519988e-18
-1.096504616320985e-01  8.762206563855240e-03  1.861332271164148e-18
-1.097246518689552e-01 -7.778224234139137e-03  2.032599492709601e-18
-1.099875332858947e-01 -1.656056063108708e-03  1.974374727151858e-18
-1.099875332858947e-01 -1.656056063108708e-03  1.974374727151858e-18
-6.189547191247118e-02  9.093377016671232e-02  1.671922994525754e-19
-1.099862842355107e-01 -1.737031970179501e-03  1.975184496839270e-18
-1.099020337977570e-01 -4.641440198540538e-03  2.003526899259734e-18
-1.099981371904222e-01  6.401676632207641e-04  1.950970571646184e-18
-1.099981371904222e-01  6.401676632207641e-04  1.950970571646184e-18
-1.099981371904222e-01  6.401676632207641e-04  1.950970571646184e-18
-1.099981371904222e-01  6.401676632207641e-04  1.950970571646184e-18
-1.099998322715690e-01 -1.920943170430106e-04  1.959551927147361e-18
-1.099984773122960e-01  5.787823220055560e-04  1.951607336602087e-18
-1.099838515754168e-01 -1.884779201033157e-03  1.976659253875790e-18
-1.099807936253946e-01  2.055488634925570e-03  1.936120013379789e-18
-1.099774479453467e-01 -2.227317541014650e-03  1.980064750649081e-18
-1.099925866703208e-01  1.277058170929891e-03  1.944327974917501e-18
-1.099669696713062e-01 -2.695474227290595e-03  1.984688417147123e-18
-1.099014249196144e-01  4.655835117175922e-03  1.907989937112498e-18
-1.097395032938384e-01 -7.565805761555845e-03  2.030681268890590e-18
-1.098690206630054e-01  5.366404620604515e-03  1.900112421194824e-18
-1.099297241798239e-01 -3.931379115246759e-03  1.996724062952967e-18
-1.097050893393885e-01  8.049433087910708e-03  1.869627924912745e-18
-1.099351074505176e-01 -3.777849896846852e-03  1.995242407730080e-18
-1.098918828642455e-01  4.875867158866627e-03  1.905559375558019e-18
-1.098637564715730e-01 -5.473117389100297e-03  2.011390889589871e-18
-1.099134961645929e-01  4.361577796620580e-03  1.911228146389421e-18
-1.099673787908542e-01 -2.678731391678827e-03  1.984523671363777e-18
-1.099428818453002e-01  3.544394384139044e-03  1.920147362333967e-18
-1.099659299416701e-01 -2.737563161585127e-03  1.985102362428182e-18
-1.099390482782338e-01  3.661374561028805e-03  1.918877210613190e-18
-1.099349401260110e-01 -3.782715888133459e-03  1.995289426283687e-18
-1.099794156419041e-01  2.127941508889999e-03  1.935351063559931e-18
-1.099808538344306e-01 -2.052264566178668e-03  1.978326756783325e-18
-1.099973257563505e-01  7.670244137518740e-04  1.949652724180692e-18
-1.099999411776747e-01 -1.137581121423859e-04  1.958748989213370e-18
-1.099995780979141e-01  3.046609276817003e-04  1.954443424141429e-18
-1.099995780979141e-01  3.046609276817003e-04  1.954443424141429e-18
-1.099995780979141e-01  3.046609276817003e-04  1.954443424141429e-18
-1.098098521201100e-01 -6.465011783403539e-03  2.020622951930710e-18
-1.099999964486719e-01  2.795160319649828e-05  1.957293956980683e-18
-1.099999964486719e-01  2.795160319649828e-05  1.957293956980683e-18
-1.096351639817145e-01  8.951581910619896e-03  1.859114268334515e-18
-1.099836159405713e-01 -1.898479559247802e-03  1.976795826676345e-18
-1.079187986665179e-01 -2.129631175522036e-02  2.139355619416540e-18
-1.099271411630616e-01 -4.002953374232205e-03  1.997413494598739e-18
-1.099254311770108e-01  4.049639557816910e-03  1.914645596257447e-18
-1.096824280497194e-01  8.352543152722627e-03  1.866110294427006e-18
-1.091204886784969e-01 -1.388232511382719e-02  2.084565107156732e-18
-1.068720732816227e-01 -2.604534416143170e-02  2.169522475399075e-18
-1.090798443498669e-01  1.419815328163392e-02  1.795325078168923e-18
-1.090798443498669e-01  1.419815328163392e-02  1.795325078168923e-18
-1.099547801063886e-01  3.153780549705130e-03  1.924372521332752e-18
-1.099746135014642e-01 -2.363130382253800e-03  1.981409735945950e-18
-1.099964206738892e-01 -8.873775593045805e-04  1.966634996434840e-18
-1.099989768050843e-01 -4.744489798592224e-04  1.962437794689879e-18
-1.099989768050843e-01 -4.744489798592224e-04  1.962437794689879e-18
-1.099980632291864e-01 -6.527525012339767e-04  1.964253540426573e-18
-1.099992357161322e-01 -4.100510538427863e-04  1.961780737024924e-18
-1.099999991867969e-01 -1.337552400952273e-05  1.957718626927960e-18
-1.099505933142447e-01 -3.296517836373353e-03  1.990572485080136e-18
-1.099995228313321e-01 -3.240013568175430e-04  1.960901717204853e-18
-1.099995228313321e-01 -3.240013568175430e-04  1.960901717204853e-18
-1.099991846705010e-01 -4.235231103282108e-04  1.961918249093403e-18
-1.099998257269541e-01 -1.958061278390203e-04  1.959589948185665e-18
-1.099969569359496e-01 -8.182083052729509e-04  1.965933850899921e-18
-1.099999999777717e-01  2.211376802943988e-06  1.957558491260727e-18
-1.099992445755044e-01 -4.076675340661953e-04  1.961756404888181e-18
-1.099995187559020e-01 -3.253820368927682e-04  1.960915830663925e-18
-1.099998396168776e-01 -1.878410529654725e-04  1.959508357122580e-18
-1.099999973382244e-01 -2.419897900105793e-05  1.957829801098592e-18
-1.099999997601968e-01 -7.263378610473601e-06  1.957655837058686e-18
-1.099990590295805e-01 -4.549863809177893e-04  1.962239286838954e-18
-1.099990590295805e-01 -4.549863809177893e-04  1.962239286838954e-18
-1.099979606907126e-01 -6.698088416870340e-04  1.964426963334192e-18
-1.099831900212159e-01  1.922995776670064e-03  1.937523976089655e-18
-1.099851761192740e-01  1.805833329036384e-03  1.938763122661367e-18
-1.096956338265588e-01 -8.177280684279113e-03  2.036183242090561e-18
-1.099999079330058e-01  1.423191139850201e-04  1.956117297111916e-18
-1.099996351051266e-01 -2.833315001210888e-04  1.960485847247594e-18
-1.099996351051266e-01 -2.833315001210888e-04  1.960485847247594e-18
-1.095872481833226e-01  9.520243463630994e-03  1.852418758667411e-18
-1.099993757166042e-01  3.705967583570021e-04  1.953762355817026e-18
-1.099983558712554e-01 -6.014196709449619e-04  1.963731322157799e-18
-1.099760673402199e-01  2.294474314388343e-03  1.933580412457578e-18
-1.099719385529227e-01  2.484498120777180e-03  1.931554510182206e-18
-1.099582032107460e-01 -3.032086190107843e-03  1.987990973160877e-18
-1.099987105239899e-01  5.326190565837070e-04  1.952085797664778e-18
-1.099964296667636e-01  8.862621309224905e-04  1.948411652969328e-18
-1.099985309681576e-01  5.684934891781575e-04  1.951714005491809e-18
-1.099981848362016e-01  6.319277971379594e-04  1.951056081190356e-18
-1.099984485359172e-01  5.842257193559093e-04  1.951550895561755e-18
-1.099984485359172e-01  5.842257193559093e-04  1.951550895561755e-18
-1.099993398166924e-01  3.811035184802451e-04  1.953653763791812e-18
-1.099990936483889e-01  4.465383890840144e-04  1.952977063408378e-18
-1.099941411422453e-01  1.135303650920719e-03  1.945812114797364e-18
-1.099993487677412e-01  3.785111263965119e-04  1.953680558973320e-18
-1.099964582046404e-01 -8.827131101086712e-04  1.966587738818299e-18
-1.099482169727860e-01  3.374845849091498e-03  1.921984356897020e-18
-1.094124450270692e-01  1.135415664849315e-02  1.830465136222955e-18
-1.094124450270692e-01  1.135415664849315e-02  1.830465136222955e-18
-1.079601699941143e-01 -2.108558025860095e-02  2.137926681965594e-18
-1.086139842778663e-01 -1.740696467760461e-02  2.111765648284113e-18
-1.073576162938868e-01  2.396543810771107e-02  1.664320672152454e-18
-1.085292834934883e-01  1.792748237734473e-02  1.747209689297229e-18
-1.099971576075866e-01  7.907706694777851e-04  1.949405747621618e-18
-1.099384393742667e-01 -3.679612472887288e-03  1.994292349443325e-18
-1.099650735618065e-01 -2.771749726516092e-03  1.985438376662647e-18
-1.098073397193006e-01  6.507545141609113e-03  1.887289930916342e-18
-1.095737492761959e-01  9.674371791352372e-03  1.850594916936096e-18
-1.089895410498644e-01 -1.487548122716980e-02  2.092439056184574e-18
-1.099998602151162e-01  1.753643489245481e-04  1.955776920130537e-18
-1.099981907227241e-01 -6.309023119110156e-04  1.964031306568412e-18
-1.099992584491180e-01 -4.039067269738938e-04  1.961718010859006e-18
-1.099988131240250e-01 -5.109905143998597e-04  1.962810332783091e-18
-1.099976851749325e-01 -7.136218581274900e-04  1.964872223030146e-18
-1.099976851749325e-01 -7.136218581274900e-04  1.964872223030146e-18
-1.099985691881039e-01 -5.610495253389526e-04  1.963320329804789e-18
-1.099876933559090e-01 -1.645390606050198e-03  1.974267992091882e-18
-1.099964680618204e-01 -8.814839334252526e-04  1.966575284894678e-18
-1.099998203142582e-01 -1.988236174791318e-04  1.959620855470171e-18
-1.099964680618205e-01 -8.814839334165827e-04  1.966575284894590e-18
-1.099891887676936e-01 -1.542191370948223e-03  1.973234270077042e-18
-1.099945794831368e-01 -1.092009307590400e-03  1.968704747125916e-18
-1.099977937980738e-01 -6.966775124871619e-04  1.964700059112458e-18
-1.099977937980738e-01 -6.966775124871619e-04  1.964700059112458e-18
-1.099930973669848e-01 -1.232287148744524e-03  1.970119674959985e-18
-1.096710156895008e-01 -8.501077439550662e-03  2.039072027010338e-18
-1.098206903780988e-01  6.278213510045285e-03  1.889883821019585e-18
-1.099901572413241e-01  1.471499245243500e-03  1.942286928926895e-18
-1.090187752500401e-01 -1.465969450504376e-02  2.090742183467825e-18
-1.094240472513317e-01 -1.124179181173058e-02  2.062836773609393e-18
-1.097980130721786e-01  6.663056761101958e-03  1.885526126708220e-18
-1.099999470824048e-01 -1.078974888789106e-04  1.958688878520051e-18
-1.099975012905707e-01 -7.414241909136511e-04  1.965154609458167e-18
-1.099206203953891e-01 -4.178182845775816e-03  1.999097868924000e-18
-1.099889575029225e-01 -1.558597902050605e-03  1.973398725591629e-18
-1.099818966887359e-01  1.995595336780862e-03  1.936755025588640e-18
-1.099912123100109e-01  1.390400868124751e-03  1.943138961496878e-18
-1.099793596650370e-01 -2.130832623272541e-03  1.979107424501765e-18
-1.099793596650370e-01 -2.130832623272541e-03  1.979107424501765e-18
-1.099941908614433e-01 -1.130476331619371e-03  1.969093065837242e-18
-1.099994531598664e-01 -3.468494346557196e-04  1.961135233017748e-18
-1.099969849720828e-01 -8.144305073897110e-04  1.965895534335469e-18
-1.099993305010550e-01 -3.837829069145455e-04  1.961512528168470e-18
-1.099993305010550e-01 -3.837829069145455e-04  1.961512528168470e-18
-1.099993305010550e-01 -3.837829069145455e-04  1.961512528168470e-18
-1.724183536026643e-02 -1.086403199250142e-01  1.423078848345644e-18
-1.099975575294616e-01  7.330331184484790e-04  1.950006097070850e-18
-1.099975575294616e-01  7.330331184484790e-04  1.950006097070850e-18
-1.099943923523615e-01  1.110698444551114e-03  1.946069394938116e-18
-1.099999961416795e-01 -2.913469500794636e-05  1.957880492493615e-18
-1.099999961416795e-01 -2.913469500794636e-05  1.957880492493615e-18
-1.099928109678790e-01 -1.257591103824133e-03  1.970374567092505e-18
-1.099958300780254e-01 -9.577919639048260e-04  1.967347968504681e-18
-1.099886355847894e-01  1.581152173685666e-03  1.941133205227797e-18
-1.098679165597481e-01  5.388961942730150e-03  1.899861004069928e-18
-1.099532249332748e-01  3.207542170050615e-03  1.923792464053125e-18
-1.099662386741526e-01 -2.725133365407452e-03  1.984980145050644e-18
-1.099662386741526e-01 -2.725133365407452e-03  1.984980145050644e-18
-1.099614947653316e-01  2.910269570661757e-03  1.926994003547265e-18
-1.099522313797677e-01  3.241421695795751e-03  1.923426682763748e-18
-1.099522313797677e-01  3.241421695795751e-03  1.923426682763748e-18
-1.092639117595247e-01 -1.270423500281619e-02  2.075013044040718e-18
-1.099998959984748e-01  1.512624364769096e-04  1.956025195332951e-18
-1.099998959984748e-01  1.512624364769096e-04  1.956025195332951e-18
-8.960404725520370e-02  6.380528751982226e-02  9.390347538554089e-19
-1.099956653482722e-01  9.765267998762908e-04  1.947470614327138e-18
-1.099956653482722e-01  9.765267998762908e-04  1.947470614327138e-18
-1.099842185414669e-01  1.863242287740881e-03  1.938156225226395e-18
-1.099999807422549e-01  6.508996477322425e-05  1.956912094292361e-18
-1.099991448241984e-01 -4.337487118090216e-04  1.962022604321464e-18
-1.099791071543195e-01  2.143825911464339e-03  1.935182367189284e-18
-1.098961879979726e-01  4.777851349113921e-03  1.906643067386906e-18
-1.099991235940031e-01 -4.390997052915588e-04  1.962077206018985e-18
-1.098176517117887e-01  6.331143064901327e-03  1.889285912379593e-18
-1.099970806112056e-01 -8.014093909518239e-04  1.965763449106542e-18
-1.098871588947326e-01  4.981195643996336e-03  1.904393094963704e-18
-1.098921849730468e-01 -4.869053486009499e-03  2.005690271519249e-18
-1.097325799694317e-01  7.665565422866100e-03  1.874061254276548e-18
-1.092754151320046e-01 -1.260490570087820e-02  2.074197187781803e-18
-1.060621369677946e-01  2.916887213837265e-02  1.587802677834895e-18
-1.099987485936803e-01 -5.246978409312903e-04  1.962950022189264e-18
-1.099824879427150e-01  1.962739394451600e-03  1.937103130530277e-18
-1.069809495582563e-01 -2.559446095571841e-02  2.166827397468379e-18
-1.093997853214260e-01  1.147549439570613e-02  1.828993140385915e-18
-1.077979841264976e-01 -2.189964881598190e-02  2.143404649688281e-18
-1.099890052498377e-01  1.555224791187643e-03  1.941406178294773e-18
-1.099999694639475e-01  8.196298301771779e-05  1.956738529448451e-18
-1.097621772973347e-01  7.229414564709592e-03  1.879069265657960e-18
-1.097279156673645e-01 -7.732045220748913e-03  2.032183103308427e-18
-1.099380659771381e-01  3.690751848389671e-03  1.918557888437758e-18
-1.099749532775036e-01 -2.347264708306776e-03  1.981252768629611e-18
-1.070732855017136e-01  2.520538696129245e-02  1.646520642511144e-18
-1.099694486503543e-01 -2.592366397144591e-03  1.983673138037698e-18
-1.089615729290886e-01  1.507897956822263e-02  1.784170127041250e-18
-1.099935307558798e-01 -1.192976049761031e-03  1.969723480370879e-18
-1.079559132443429e-01 -2.110736353929306e-02  2.138074743321644e-18
-1.099460072788310e-01  3.446082332621083e-03  1.921213103767186e-18
-1.098924232705843e-01  4.863672246225945e-03  1.905694291030756e-18
-1.099938248193020e-01 -1.165547777080863e-03  1.969446898042369e-18
-1.099867800715880e-01 -1.705347320664937e-03  1.974867772570088e-18
-1.099867800715880e-01 -1.705347320664937e-03  1.974867772570088e-18
-1.099867800715880e-01 -1.705347320664937e-03  1.974867772570088e-18
-1.099497735323359e-01  3.323747912825972e-03  1.922537070463649e-18
-1.099730922867527e-01  2.432893933020646e-03  1.932105256534805e-18
-1.099730922867527e-01  2.432893933020646e-03  1.932105256534805e-18
-1.080943182512484e-01 -2.038672023150814e-02  2.133133477316639e-18
-1.095747586508647e-01  9.662932608929711e-03  1.850730413406216e-18
-1.095747586508647e-01  9.662932608929711e-03  1.850730413406216e-18
-1.099999399559427e-01  1.149334109618747e-04  1.956399245148397e-18
-2.794253321736683e-02 -1.063917987318398e-01  1.590407792530855e-18
-1.099820033115803e-01  1.989710424031700e-03  1.936817388410017e-18
-1.098109227039046e-01  6.446801913898303e-03  1.887977808999759e-18
-1.099793883374476e-01  2.129352230345096e-03  1.935336082994079e-18
-1.099244395479161e-01 -4.076467843182467e-03  1.998120750597378e-18
-1.099999046955896e-01 -1.447997278041945e-04  1.959067281295542e-18
-1.099999046955896e-01 -1.447997278041945e-04  1.959067281295542e-18
-1.099968585985814e-01  8.313233087371120e-04  1.948983762762926e-18
-1.099968585985814e-01  8.313233087371120e-04  1.948983762762926e-18
-1.099968585985814e-01  8.313233087371120e-04  1.948983762762926e-18
-1.099924571723527e-01 -1.288163494327537e-03  1.970682391085439e-18
-1.099988180673222e-01 -5.099252809218675e-04  1.962799475867944e-18
-1.099988180673222e-01 -5.099252809218675e-04  1.962799475867944e-18
-1.099988180673222e-01 -5.099252809218675e-04  1.962799475867944e-18
-1.099896045694917e-01  1.512245564324066e-03  1.941858439845807e-18
-1.099980853662455e-01 -6.490113713408867e-04  1.964215495631340e-18
-1.099980853662455e-01 -6.490113713408867e-04  1.964215495631340e-18
 3.903809754449883e-03 -1.099307066719805e-01  1.060025125155167e-18
-1.098915170787223e-01  4.884104230751849e-03  1.905468233046981e-18
-1.099762501794167e-01 -2.285693871518683e-03  1.980643230565085e-18
-1.099742910172233e-01  2.378090675112269e-03  1.932689672939975e-18
-1.099787637242659e-01 -2.161372175735757e-03  1.979410601832293e-18
-1.099931484351566e-01 -1.227720375967048e-03  1.970073661847707e-18
-1.069801290599407e-01  2.559789027084835e-02  1.640829983588325e-18
-1.099988552374289e-01  5.018430582689396e-04  1.952404585215688e-18
-1.099985223104142e-01  5.701662260077199e-04  1.951696664653671e-18
-1.099985223104142e-01  5.701662260077199e-04  1.951696664653671e-18
-1.099690144189856e-01  2.610721685069819e-03  1.930205570461071e-18
-1.099999609924034e-01  9.263730187312012e-05  1.956628703938654e-18
-1.099261292857328e-01 -4.030645141451408e-03  1.997680009883212e-18
-1.095255972898175e-01  1.020507414518330e-02  1.844285221004117e-18
-1.097569862452018e-01  7.307802020480218e-03  1.878171482061025e-18
-1.083205728818142e-01 -1.914819810205526e-02  2.124434583393439e-18
-1.099445330723461e-01  3.492799379258559e-03  1.920706867821060e-18
-1.099956652071163e-01  9.765426995078280e-04  1.947470448452161e-18
-1.099964368847281e-01 -8.853658362458766e-04  1.966614615202428e-18
-1.096913769218645e-01 -8.234186601322776e-03  2.036692173019036e-18
-1.091176276041761e-01 -1.390479579268637e-02  2.084745068988702e-18
-1.097541886686465e-01  7.349698611991126e-03  1.877691223591214e-18
-1.053396034972052e-01 -3.167914037740868e-02  2.200135557111131e-18
-1.053119724045403e-01  3.177087452786433e-02  1.547717975284232e-18
-1.083467685186379e-01 -1.899941450594337e-02  2.123372068596786e-18
-1.091599598190326e-01  1.356846241499649e-02  1.803220673413907e-18
-1.099306546048578e-01 -3.905275681358468e-03  1.996472417675726e-18
-1.099306546048578e-01 -3.905275681358468e-03  1.996472417675726e-18
-1.099929753167829e-01 -1.243133525231606e-03  1.970228945509280e-18
-1.097086429232334e-01 -8.000854200797927e-03  2.034602036456632e-18
-1.097383444118309e-01  7.582596240757652e-03  1.875016317610947e-18
-1.097554705262422e-01 -7.330531328842232e-03  2.028548065509971e-18
-1.099941677746921e-01 -1.132720421311893e-03  1.969115712187341e-18
-1.094964322056041e-01 -1.051338833314556e-02  2.056640869080289e-18
-1.099923137512752e-01 -1.300352121924903e-03  1.970805072457069e-18
-1.099923137512752e-01 -1.300352121924903e-03  1.970805072457069e-18
-1.099923137512752e-01 -1.300352121924903e-03  1.970805072457069e-18
-1.099923137512752e-01 -1.300352121924903e-03  1.970805072457069e-18
-1.068232997425370e-01 -2.624466864176534e-02  2.170702478718397e-18
-1.096604903426426e-01  8.635789356576917e-03  1.862809634911982e-18
-1.053914279903696e-01  3.150629946773666e-02  1.551850394842366e-18
-1.062968719409581e-01 -2.830150200196993e-02  2.182467283630774e-18
-9.853083181828848e-02 -4.890475622264265e-02  2.255952288523458e-18
-1.086507080366680e-01  1.717625230167193e-02  1.757089200010655e-18
-1.094014387744724e-01 -1.145972050598685e-02  2.064673566961526e-18
-1.087482081011472e-01  1.654772597034246e-02  1.765282209689094e-18
-5.237671986520392e-02 -9.672992926784305e-02  1.925971091220650e-18
-1.095431351566901e-01  1.001506565345887e-02  1.846549596492850e-18
-1.096495525361311e-01 -8.773575589587147e-03  2.041489884094777e-18
-1.079120784492286e-01  2.133033813064136e-02  1.701262682600988e-18
-1.094739676253420e-01 -1.074478535688472e-02  2.058618605436795e-18
-1.097986427217371e-01  6.652672881203835e-03  1.885644022666972e-18
-1.099197453994109e-01 -4.201139289364367e-03  1.999318166445289e-18
-1.095001657335783e-01  1.047443097828472e-02  1.841065092514511e-18
-1.097972353768304e-01 -6.675859765218423e-03  2.022564808352352e-18
-1.099255371888558e-01 -4.046760895018513e-03  1.997835056326513e-18
-1.098485593174843e-01  5.770096695298098e-03  1.895600497726424e-18
-1.099029098079090e-01  4.620651009825105e-03  1.908377866392588e-18
-1.099999479542820e-01 -1.070049308089011e-04  1.958679723326217e-18
-1.099999479542820e-01 -1.070049308089011e-04  1.958679723326217e-18
-1.099999479542820e-01 -1.070049308089011e-04  1.958679723326217e-18
-1.099923427195118e-01  1.297899485097164e-03  1.944109496589846e-18
-1.099554101469671e-01 -3.131737443047960e-03  1.988965147682751e-18
-1.099538798689226e-01  3.185012051859473e-03  1.924035608194080e-18
-1.099923994191984e-01 -1.293085460243496e-03  1.970731934710944e-18
-1.099887878441911e-01  1.570524933096238e-03  1.941245105901954e-18
-1.099887878441911e-01  1.570524933096238e-03  1.941245105901954e-18
-1.098383985658172e-01  5.960385935209824e-03  1.893464522216878e-18
-1.099693047914821e-01  2.598461790767293e-03  1.930336703946304e-18
-1.092122609643588e-01 -1.314085442628316e-02  2.078579962494198e-18

TENSORS stress double
0.000000000000000e+00 0.000000000000000e+00 0.000000000000000e+00
0.000000000000000e+00 0.000000000000000e+00 0.000000000000000e+00
0.000000000000000e+00 0.000000000000000e+00 0.000000000000000e+00

0.000000000000000e+00 0.000000000000000e+00 0.000000000000000e+00
0.000000000000000e+00 0.000000000000000e+00 0.000000000000000e+00
0.000000000000000e+00 0.000000000000000e+00 0.000000000000000e+00

0.000000000000000e+00 0.000000000000000e+00 0.000000000000000e+00
0.000000000000000e+00 0.000000000000000e+00 0.000000000000000e+00
0.000000000000000e+00 0.000000000000000e+00 0.000000000000000e+00

0.000000000000000e+00 0.000000000000000e+00 0.000000000000000e+00
0.000000000000000e+00 0.000000000000000e+00 0.000000000000000e+00
0.000000000000000e+00 0.000000000000000e+00 0.000000000000000e+00

0.000000000000000e+00 0.000000000000000e+00 0.000000000000000e+00
0.000000000000000e+00 0.000000000000000e+00 0.000000000000000e+00
0.000000000000000e+00 0.000000000000000e+00 0.000000000000000e+00

0.000000000000000e+00 0.000000000000000e+00 0.000000000000000e+00
0.000000000000000e+00 0.000000000000000e+00 0.000000000000000e+00
0.000000000000000e+00 0.000000000000000e+00 0.000000000000000e+00

0.000000000000000e+00 0.000000000000000e+00 0.000000000000000e+00
0.000000000000000e+00 0.000000000000000e+00 0.000000000000000e+00
0.000000000000000e+00 0.000000000000000e+00 0.000000000000000e+00

0.000000000000000e+00 0.000000000000000e+00 0.000000000000000e+00
0.000000000000000e+00 0.000000000000000e+00 0.000000000000000e+00
0.000000000000000e+00 0.000000000000000e+00 0.000000000000000e+00

0.000000000000000e+00 0.000000000000000e+00 0.000000000000000e+00
0.000000000000000e+00 0.000000000000000e+00 0.000000000000000e+00
0.000000000000000e+00 0.000000000000000e+00 0.000000000000000e+00

0.000000000000000e+00 0.000000000000000e+00 0.000000000000000e+00
0.000000000000000e+00 0.000000000000000e+00 0.000000000000000e+00
0.000000000000000e+00 0.000000000000000e+00 0.000000000000000e+00

0.000000000000000e+00 0.000000000000000e+00 0.000000000000000e+00
0.000000000000000e+00 0.000000000000000e+00 0.000000000000000e+00
0.000000000000000e+00 0.000000000000000e+00 0.000000000000000e+00

0.000000000000000e+00 0.000000000000000e+00 0.000000000000000e+00
0.000000000000000e+00 0.000000000000000e+00 0.000000000000000e+00
0.000000000000000e+00 0.000000000000000e+00 0.000000000000000e+00

0.000000000000000e+00 0.000000000000000e+00 0.000000000000000e+00
0.000000000000000e+00 0.000000000000000e+00 0.000000000000000e+00
0.000000000000000e+00 0.000000000000000e+00 0.000000000000000e+00

0.000000000000000e+00 0.000000000000000e+00 0.000000000000000e+00
0.000000000000000e+00 0.000000000000000e+00 0.000000000000000e+00
0.000000000000000e+00 0.000000000000000e+00 0.000000000000000e+00

0.000000000000000e+00 0.000000000000000e+00 0.000000000000000e+00
0.000000000000000e+00 0.000000000000000e+00 0.000000000000000e+00
0.000000000000000e+00 0.000000000000000e+00 0.000000000000000e+00

0.000000000000000e+00 0.000000000000000e+00 0.000000000000000e+00
0.000000000000000e+00 0.000000000000000e+00 0.000000000000000e+00
0.000000000000000e+00 0.000000000000000e+00 0.000000000000000e+00

0.000000000000000e+00 0.000000000000000e+00 0.000000000000000e+00
0.000000000000000e+00 0.000000000000000e+00 0.000000000000000e+00
0.000000000000000e+00 0.000000000000000e+00 0.000000000000000e+00

0.000000000000000e+00 0.000000000000000e+00 0.000000000000000e+00
0.000000000000000e+00 0.000000000000000e+00 0.000000000000000e+00
0.000000000000000e+00 0.000000000000000e+00 0.000000000000000e+00

0.000000000000000e+00 0.000000000000000e+00 0.000000000000000e+00
0.000000000000000e+00 0.000000000000000e+00 0.000000000000000e+00
0.000000000000000e+00 0.000000000000000e+00 0.000000000000000e+00

0.000000000000000e+00 0.000000000000000e+00 0.000000000000000e+00
0.000000000000000e+00 0.000000000000000e+00 0.000000000000000e+00
0.000000000000000e+00 0.000000000000000e+00 0.000000000000000e+00

0.000000000000000e+00 0.000000000000000e+00 0.000000000000000e+00
0.000000000000000e+00 0.000000000000000e+00 0.000000000000000e+00
0.000000000000000e+00 0.000000000000000e+00 0.000000000000000e+00

0.000000000000000e+00 0.000000000000000e+00 0.000000000000000e+00
0.000000000000000e+00 0.000000000000000e+00 0.000000000000000e+00
0.000000000000000e+00 0.000000000000000e+00 0.000000000000000e+00

0.000000000000000e+00 0.000000000000000e+00 0.000000000000000e+00
0.000000000000000e+00 0.000000000000000e+00 0.000000000000000e+00
0.000000000000000e+00 0.000000000000000e+00 0.000000000000000e+00

0.000000000000000e+00 0.000000000000000e+00 0.000000000000000e+00
0.000000000000000e+00 0.000000000000000e+00 0.000000000000000e+00
0.000000000000000e+00 0.000000000000000e+00 0.000000000000000e+00

0.000000000000000e+00 0.000000000000000e+00 0.000000000000000e+00
0.000000000000000e+00 0.000000000000000e+00 0.000000000000000e+00
0.000000000000000e+00 0.000000000000000e+00 0.000000000000000e+00

0.000000000000000e+00 0.000000000000000e+00 0.000000000000000e+00
0.000000000000000e+00 0.000000000000000e+00 0.000000000000000e+00
0.000000000000000e+00 0.000000000000000e+00 0.000000000000000e+00

0.000000000000000e+00 0.000000000000000e+00 0.000000000000000e+00
0.000000000000000e+00 0.000000000000000e+00 0.000000000000000e+00
0.000000000000000e+00 0.000000000000000e+00 0.000000000000000e+00

0.000000000000000e+00 0.000000000000000e+00 0.000000000000000e+00
0.000000000000000e+00 0.000000000000000e+00 0.000000000000000e+00
0.000000000000000e+00 0.000000000000000e+00 0.000000000000000e+00

0.000000000000000e+00 0.000000000000000e+00 0.000000000000000e+00
0.000000000000000e+00 0.000000000000000e+00 0.000000000000000e+00
0.000000000000000e+00 0.000000000000000e+00 0.000000000000000e+00

0.000000000000000e+00 0.000000000000000e+00 0.000000000000000e+00
0.000000000000000e+00 0.000000000000000e+00 0.000000000000000e+00
0.000000000000000e+00 0.000000000000000e+00 0.000000000000000e+00

0.000000000000000e+00 0.000000000000000e+00 0.000000000000000e+00
0.000000000000000e+00 0.000000000000000e+00 0.000000000000000e+00
0.000000000000000e+00 0.000000000000000e+00 0.000000000000000e+00

0.000000000000000e+00 0.000000000000000e+00 0.000000000000000e+00
0.000000000000000e+00 0.000000000000000e+00 0.000000000000000e+00
0.000000000000000e+00 0.000000000000000e+00 0.000000000000000e+00

0.000000000000000e+00 0.000000000000000e+00 0.000000000000000e+00
0.000000000000000e+00 0.000000000000000e+00 0.000000000000000e+00
0.000000000000000e+00 0.000000000000000e+00 0.000000000000000e+00

0.000000000000000e+00 0.000000000000000e+00 0.000000000000000e+00
0.000000000000000e+00 0.000000000000000e+00 0.000000000000000e+00
0.000000000000000e+00 0.000000000000000e+00 0.000000000000000e+00

0.000000000000000e+00 0.000000000000000e+00 0.000000000000000e+00
0.000000000000000e+00 0.000000000000000e+00 0.000000000000000e+00
0.000000000000000e+00 0.000000000000000e+00 0.000000000000000e+00

0.000000000000000e+00 0.000000000000000e+00 0.000000000000000e+00
0.000000000000000e+00 0.000000000000000e+00 0.000000000000000e+00
0.000000000000000e+00 0.000000000000000e+00 0.000000000000000e+00

0.000000000000000e+00 0.000000000000000e+00 0.000000000000000e+00
0.000000000000000e+00 0.000000000000000e+00 0.000000000000000e+00
0.000000000000000e+00 0.000000000000000e+00 0.000000000000000e+00

0.000000000000000e+00 0.000000000000000e+00 0.000000000000000e+00
0.000000000000000e+00 0.000000000000000e+00 0.000000000000000e+00
0.000000000000000e+00 0.000000000000000e+00 0.000000000000000e+00

0.000000000000000e+00 0.000000000000000e+00 0.000000000000000e+00
0.000000000000000e+00 0.000000000000000e+00 0.000000000000000e+00
0.000000000000000e+00 0.000000000000000e+00 0.000000000000000e+00

0.000000000000000e+00 0.000000000000000e+00 0.000000000000000e+00
0.000000000000000e+00 0.000000000000000e+00 0.000000000000000e+00
0.000000000000000e+00 0.000000000000000e+00 0.000000000000000e+00

0.000000000000000e+00 0.000000000000000e+00 0.000000000000000e+00
0.000000000000000e+00 0.000000000000000e+00 0.000000000000000e+00
0.000000000000000e+00 0.000000000000000e+00 0.000000000000000e+00

0.000000000000000e+00 0.000000000000000e+00 0.000000000000000e+00
0.000000000000000e+00 0.000000000000000e+00 0.000000000000000e+00
0.000000000000000e+00 0.000000000000000e+00 0.000000000000000e+00

0.000000000000000e+00 0.000000000000000e+00 0.000000000000000e+00
0.000000000000000e+00 0.000000000000000e+00 0.000000000000000e+00
0.000000000000000e+00 0.000000000000000e+00 0.000000000000000e+00

0.000000000000000e+00 0.000000000000000e+00 0.000000000000000e+00
0.000000000000000e+00 0.000000000000000e+00 0.000000000000000e+00
0.000000000000000e+00 0.000000000000000e+00 0.000000000000000e+00

0.000000000000000e+00 0.000000000000000e+00 0.000000000000000e+00
0.000000000000000e+00 0.000000000000000e+00 0.000000000000000e+00
0.000000000000000e+00 0.000000000000000e+00 0.000000000000000e+00

0.000000000000000e+00 0.000000000000000e+00 0.000000000000000e+00
0.000000000000000e+00 0.000000000000000e+00 0.000000000000000e+00
0.000000000000000e+00 0.000000000000000e+00 0.000000000000000e+00

0.000000000000000e+00 0.000000000000000e+00 0.000000000000000e+00
0.000000000000000e+00 0.000000000000000e+00 0.000000000000000e+00
0.000000000000000e+00 0.000000000000000e+00 0.000000000000000e+00

0.000000000000000e+00 0.000000000000000e+00 0.000000000000000e+00
0.000000000000000e+00 0.000000000000000e+00 0.000000000000000e+00
0.000000000000000e+00 0.000000000000000e+00 0.000000000000000e+00

0.000000000000000e+00 0.000000000000000e+00 0.000000000000000e+00
0.000000000000000e+00 0.000000000000000e+00 0.000000000000000e+00
0.000000000000000e+00 0.000000000000000e+00 0.000000000000000e+00

0.000000000000000e+00 0.000000000000000e+00 0.000000000000000e+00
0.000000000000000e+00 0.000000000000000e+00 0.000000000000000e+00
0.000000000000000e+00 0.000000000000000e+00 0.000000000000000e+00

0.000000000000000e+00 0.000000000000000e+00 0.000000000000000e+00
0.000000000000000e+00 0.000000000000000e+00 0.000000000000000e+00
0.000000000000000e+00 0.000000000000000e+00 0.000000000000000e+00

0.000000000000000e+00 0.000000000000000e+00 0.000000000000000e+00
0.000000000000000e+00 0.000000000000000e+00 0.000000000000000e+00
0.000000000000000e+00 0.000000000000000e+00 0.000000000000000e+00

0.000000000000000e+00 0.000000000000000e+00 0.000000000000000e+00
0.000000000000000e+00 0.000000000000000e+00 0.000000000000000e+00
0.000000000000000e+00 0.000000000000000e+00 0.000000000000000e+00

0.000000000000000e+00 0.000000000000000e+00 0.000000000000000e+00
0.000000000000000e+00 0.000000000000000e+00 0.000000000000000e+00
0.000000000000000e+00 0.000000000000000e+00 0.000000000000000e+00

0.000000000000000e+00 0.000000000000000e+00 0.000000000000000e+00
0.000000000000000e+00 0.000000000000000e+00 0.000000000000000e+00
0.000000000000000e+00 0.000000000000000e+00 0.000000000000000e+00

0.000000000000000e+00 0.000000000000000e+00 0.000000000000000e+00
0.000000000000000e+00 0.000000000000000e+00 0.000000000000000e+00
0.000000000000000e+00 0.000000000000000e+00 0.000000000000000e+00

0.000000000000000e+00 0.000000000000000e+00 0.000000000000000e+00
0.000000000000000e+00 0.000000000000000e+00 0.000000000000000e+00
0.000000000000000e+00 0.000000000000000e+00 0.000000000000000e+00

0.000000000000000e+00 0.000000000000000e+00 0.000000000000000e+00
0.000000000000000e+00 0.000000000000000e+00 0.000000000000000e+00
0.000000000000000e+00 0.000000000000000e+00 0.000000000000000e+00

0.000000000000000e+00 0.000000000000000e+00 0.000000000000000e+00
0.000000000000000e+00 0.000000000000000e+00 0.000000000000000e+00
0.000000000000000e+00 0.000000000000000e+00 0.000000000000000e+00

0.000000000000000e+00 0.000000000000000e+00 0.000000000000000e+00
0.000000000000000e+00 0.000000000000000e+00 0.000000000000000e+00
0.000000000000000e+00 0.000000000000000e+00 0.000000000000000e+00

0.000000000000000e+00 0.000000000000000e+00 0.000000000000000e+00
0.000000000000000e+00 0.000000000000000e+00 0.000000000000000e+00
0.000000000000000e+00 0.000000000000000e+00 0.000000000000000e+00

0.000000000000000e+00 0.000000000000000e+00 0.000000000000000e+00
0.000000000000000e+00 0.000000000000000e+00 0.000000000000000e+00
0.000000000000000e+00 0.000000000000000e+00 0.000000000000000e+00

0.000000000000000e+00 0.000000000000000e+00 0.000000000000000e+00
0.000000000000000e+00 0.000000000000000e+00 0.000000000000000e+00
0.000000000000000e+00 0.000000000000000e+00 0.000000000000000e+00

0.000000000000000e+00 0.000000000000000e+00 0.000000000000000e+00
0.000000000000000e+00 0.000000000000000e+00 0.000000000000000e+00
0.000000000000000e+00 0.000000000000000e+00 0.000000000000000e+00

0.000000000000000e+00 0.000000000000000e+00 0.000000000000000e+00
0.000000000000000e+00 0.000000000000000e+00 0.000000000000000e+00
0.000000000000000e+00 0.000000000000000e+00 0.000000000000000e+00

0.000000000000000e+00 0.000000000000000e+00 0.000000000000000e+00
0.000000000000000e+00 0.000000000000000e+00 0.000000000000000e+00
0.000000000000000e+00 0.000000000000000e+00 0.000000000000000e+00

0.000000000000000e+00 0.000000000000000e+00 0.000000000000000e+00
0.000000000000000e+00 0.000000000000000e+00 0.000000000000000e+00
0.000000000000000e+00 0.000000000000000e+00 0.000000000000000e+00

0.000000000000000e+00 0.000000000000000e+00 0.000000000000000e+00
0.000000000000000e+00 0.000000000000000e+00 0.000000000000000e+00
0.000000000000000e+00 0.000000000000000e+00 0.000000000000000e+00

0.000000000000000e+00 0.000000000000000e+00 0.000000000000000e+00
0.000000000000000e+00 0.000000000000000e+00 0.000000000000000e+00
0.000000000000000e+00 0.000000000000000e+00 0.000000000000000e+00

0.000000000000000e+00 0.000000000000000e+00 0.000000000000000e+00
0.000000000000000e+00 0.000000000000000e+00 0.000000000000000e+00
0.000000000000000e+00 0.000000000000000e+00 0.000000000000000e+00

0.000000000000000e+00 0.000000000000000e+00 0.000000000000000e+00
0.000000000000000e+00 0.000000000000000e+00 0.000000000000000e+00
0.000000000000000e+00 0.000000000000000e+00 0.000000000000000e+00

0.000000000000000e+00 0.000000000000000e+00 0.000000000000000e+00
0.000000000000000e+00 0.000000000000000e+00 0.000000000000000e+00
0.000000000000000e+00 0.000000000000000e+00 0.000000000000000e+00

0.000000000000000e+00 0.000000000000000e+00 0.000000000000000e+00
0.000000000000000e+00 0.000000000000000e+00 0.000000000000000e+00
0.000000000000000e+00 0.000000000000000e+00 0.000000000000000e+00

0.000000000000000e+00 0.000000000000000e+00 0.000000000000000e+00
0.000000000000000e+00 0.000000000000000e+00 0.000000000000000e+00
0.000000000000000e+00 0.000000000000000e+00 0.000000000000000e+00

0.000000000000000e+00 0.000000000000000e+00 0.000000000000000e+00
0.000000000000000e+00 0.000000000000000e+00 0.000000000000000e+00
0.000000000000000e+00 0.000000000000000e+00 0.000000000000000e+00

0.000000000000000e+00 0.000000000000000e+00 0.000000000000000e+00
0.000000000000000e+00 0.000000000000000e+00 0.000000000000000e+00
0.000000000000000e+00 0.000000000000000e+00 0.000000000000000e+00

0.000000000000000e+00 0.000000000000000e+00 0.000000000000000e+00
0.000000000000000e+00 0.000000000000000e+00 0.000000000000000e+00
0.000000000000000e+00 0.000000000000000e+00 0.000000000000000e+00

0.000000000000000e+00 0.000000000000000e+00 0.000000000000000e+00
0.000000000000000e+00 0.000000000000000e+00 0.000000000000000e+00
0.000000000000000e+00 0.000000000000000e+00 0.000000000000000e+00

0.000000000000000e+00 0.000000000000000e+00 0.000000000000000e+00
0.000000000000000e+00 0.000000000000000e+00 0.000000000000000e+00
0.000000000000000e+00 0.000000000000000e+00 0.000000000000000e+00

0.000000000000000e+00 0.000000000000000e+00 0.000000000000000e+00
0.000000000000000e+00 0.000000000000000e+00 0.000000000000000e+00
0.000000000000000e+00 0.000000000000000e+00 0.000000000000000e+00

0.000000000000000e+00 0.000000000000000e+00 0.000000000000000e+00
0.000000000000000e+00 0.000000000000000e+00 0.000000000000000e+00
0.000000000000000e+00 0.000000000000000e+00 0.000000000000000e+00

0.000000000000000e+00 0.000000000000000e+00 0.000000000000000e+00
0.000000000000000e+00 0.000000000000000e+00 0.000000000000000e+00
0.000000000000000e+00 0.000000000000000e+00 0.000000000000000e+00

0.000000000000000e+00 0.000000000000000e+00 0.000000000000000e+00
0.000000000000000e+00 0.000000000000000e+00 0.000000000000000e+00
0.000000000000000e+00 0.000000000000000e+00 0.000000000000000e+00

0.000000000000000e+00 0.000000000000000e+00 0.000000000000000e+00
0.000000000000000e+00 0.000000000000000e+00 0.000000000000000e+00
0.000000000000000e+00 0.000000000000000e+00 0.000000000000000e+00

0.000000000000000e+00 0.000000000000000e+00 0.000000000000000e+00
0.000000000000000e+00 0.000000000000000e+00 0.000000000000000e+00
0.000000000000000e+00 0.000000000000000e+00 0.000000000000000e+00

0.000000000000000e+00 0.000000000000000e+00 0.000000000000000e+00
0.000000000000000e+00 0.000000000000000e+00 0.000000000000000e+00
0.000000000000000e+00 0.000000000000000e+00 0.000000000000000e+00

0.000000000000000e+00 0.000000000000000e+00 0.000000000000000e+00
0.000000000000000e+00 0.000000000000000e+00 0.000000000000000e+00
0.000000000000000e+00 0.000000000000000e+00 0.000000000000000e+00

0.000000000000000e+00 0.000000000000000e+00 0.000000000000000e+00
0.000000000000000e+00 0.000000000000000e+00 0.000000000000000e+00
0.000000000000000e+00 0.000000000000000e+00 0.000000000000000e+00

0.000000000000000e+00 0.000000000000000e+00 0.000000000000000e+00
0.000000000000000e+00 0.000000000000000e+00 0.000000000000000e+00
0.000000000000000e+00 0.000000000000000e+00 0.000000000000000e+00

0.000000000000000e+00 0.000000000000000e+00 0.000000000000000e+00
0.000000000000000e+00 0.000000000000000e+00 0.000000000000000e+00
0.000000000000000e+00 0.000000000000000e+00 0.000000000000000e+00

0.000000000000000e+00 0.000000000000000e+00 0.000000000000000e+00
0.000000000000000e+00 0.000000000000000e+00 0.000000000000000e+00
0.000000000000000e+00 0.000000000000000e+00 0.000000000000000e+00

0.000000000000000e+00 0.000000000000000e+00 0.000000000000000e+00
0.000000000000000e+00 0.000000000000000e+00 0.000000000000000e+00
0.000000000000000e+00 0.000000000000000e+00 0.000000000000000e+00

0.000000000000000e+00 0.000000000000000e+00 0.000000000000000e+00
0.000000000000000e+00 0.000000000000000e+00 0.000000000000000e+00
0.000000000000000e+00 0.000000000000000e+00 0.000000000000000e+00

0.000000000000000e+00 0.000000000000000e+00 0.000000000000000e+00
0.000000000000000e+00 0.000000000000000e+00 0.000000000000000e+00
0.000000000000000e+00 0.000000000000000e+00 0.000000000000000e+00

0.000000000000000e+00 0.000000000000000e+00 0.000000000000000e+00
0.000000000000000e+00 0.000000000000000e+00 0.000000000000000e+00
0.000000000000000e+00 0.000000000000000e+00 0.000000000000000e+00

0.000000000000000e+00 0.000000000000000e+00 0.000000000000000e+00
0.000000000000000e+00 0.000000000000000e+00 0.000000000000000e+00
0.000000000000000e+00 0.000000000000000e+00 0.000000000000000e+00

0.000000000000000e+00 0.000000000000000e+00 0.000000000000000e+00
0.000000000000000e+00 0.000000000000000e+00 0.000000000000000e+00
0.000000000000000e+00 0.000000000000000e+00 0.000000000000000e+00

0.000000000000000e+00 0.000000000000000e+00 0.000000000000000e+00
0.000000000000000e+00 0.000000000000000e+00 0.000000000000000e+00
0.000000000000000e+00 0.000000000000000e+00 0.000000000000000e+00

0.000000000000000e+00 0.000000000000000e+00 0.000000000000000e+00
0.000000000000000e+00 0.000000000000000e+00 0.000000000000000e+00
0.000000000000000e+00 0.000000000000000e+00 0.000000000000000e+00

0.000000000000000e+00 0.000000000000000e+00 0.000000000000000e+00
0.000000000000000e+00 0.000000000000000e+00 0.000000000000000e+00
0.000000000000000e+00 0.000000000000000e+00 0.000000000000000e+00

0.000000000000000e+00 0.000000000000000e+00 0.000000000000000e+00
0.000000000000000e+00 0.000000000000000e+00 0.000000000000000e+00
0.000000000000000e+00 0.000000000000000e+00 0.000000000000000e+00

0.000000000000000e+00 0.000000000000000e+00 0.000000000000000e+00
0.000000000000000e+00 0.000000000000000e+00 0.000000000000000e+00
0.000000000000000e+00 0.000000000000000e+00 0.000000000000000e+00

0.000000000000000e+00 0.000000000000000e+00 0.000000000000000e+00
0.000000000000000e+00 0.000000000000000e+00 0.000000000000000e+00
0.000000000000000e+00 0.000000000000000e+00 0.000000000000000e+00

0.000000000000000e+00 0.000000000000000e+00 0.000000000000000e+00
0.000000000000000e+00 0.000000000000000e+00 0.000000000000000e+00
0.000000000000000e+00 0.000000000000000e+00 0.000000000000000e+00

0.000000000000000e+00 0.000000000000000e+00 0.000000000000000e+00
0.000000000000000e+00 0.000000000000000e+00 0.000000000000000e+00
0.000000000000000e+00 0.000000000000000e+00 0.000000000000000e+00

0.000000000000000e+00 0.000000000000000e+00 0.000000000000000e+00
0.000000000000000e+00 0.000000000000000e+00 0.000000000000000e+00
0.000000000000000e+00 0.000000000000000e+00 0.000000000000000e+00

0.000000000000000e+00 0.000000000000000e+00 0.000000000000000e+00
0.000000000000000e+00 0.000000000000000e+00 0.000000000000000e+00
0.000000000000000e+00 0.000000000000000e+00 0.000000000000000e+00

0.000000000000000e+00 0.000000000000000e+00 0.000000000000000e+00
0.000000000000000e+00 0.000000000000000e+00 0.000000000000000e+00
0.000000000000000e+00 0.000000000000000e+00 0.000000000000000e+00

0.000000000000000e+00 0.000000000000000e+00 0.000000000000000e+00
0.000000000000000e+00 0.000000000000000e+00 0.000000000000000e+00
0.000000000000000e+00 0.000000000000000e+00 0.000000000000000e+00

0.000000000000000e+00 0.000000000000000e+00 0.000000000000000e+00
0.000000000000000e+00 0.000000000000000e+00 0.000000000000000e+00
0.000000000000000e+00 0.000000000000000e+00 0.000000000000000e+00

0.000000000000000e+00 0.000000000000000e+00 0.000000000000000e+00
0.000000000000000e+00 0.000000000000000e+00 0.000000000000000e+00
0.000000000000000e+00 0.000000000000000e+00 0.000000000000000e+00

0.000000000000000e+00 0.000000000000000e+00 0.000000000000000e+00
0.000000000000000e+00 0.000000000000000e+00 0.000000000000000e+00
0.000000000000000e+00 0.000000000000000e+00 0.000000000000000e+00

0.000000000000000e+00 0.000000000000000e+00 0.000000000000000e+00
0.000000000000000e+00 0.000000000000000e+00 0.000000000000000e+00
0.000000000000000e+00 0.000000000000000e+00 0.000000000000000e+00

0.000000000000000e+00 0.000000000000000e+00 0.000000000000000e+00
0.000000000000000e+00 0.000000000000000e+00 0.000000000000000e+00
0.000000000000000e+00 0.000000000000000e+00 0.000000000000000e+00

0.000000000000000e+00 0.000000000000000e+00 0.000000000000000e+00
0.000000000000000e+00 0.000000000000000e+00 0.000000000000000e+00
0.000000000000000e+00 0.000000000000000e+00 0.000000000000000e+00

0.000000000000000e+00 0.000000000000000e+00 0.000000000000000e+00
0.000000000000000e+00 0.000000000000000e+00 0.000000000000000e+00
0.000000000000000e+00 0.000000000000000e+00 0.000000000000000e+00

0.000000000000000e+00 0.000000000000000e+00 0.000000000000000e+00
0.000000000000000e+00 0.000000000000000e+00 0.000000000000000e+00
0.000000000000000e+00 0.000000000000000e+00 0.000000000000000e+00

0.000000000000000e+00 0.000000000000000e+00 0.000000000000000e+00
0.000000000000000e+00 0.000000000000000e+00 0.000000000000000e+00
0.000000000000000e+00 0.000000000000000e+00 0.000000000000000e+00

0.000000000000000e+00 0.000000000000000e+00 0.000000000000000e+00
0.000000000000000e+00 0.000000000000000e+00 0.000000000000000e+00
0.000000000000000e+00 0.000000000000000e+00 0.000000000000000e+00

0.000000000000000e+00 0.000000000000000e+00 0.000000000000000e+00
0.000000000000000e+00 0.000000000000000e+00 0.000000000000000e+00
0.000000000000000e+00 0.000000000000000e+00 0.000000000000000e+00

0.000000000000000e+00 0.000000000000000e+00 0.000000000000000e+00
0.000000000000000e+00 0.000000000000000e+00 0.000000000000000e+00
0.000000000000000e+00 0.000000000000000e+00 0.000000000000000e+00

0.000000000000000e+00 0.000000000000000e+00 0.000000000000000e+00
0.000000000000000e+00 0.000000000000000e+00 0.000000000000000e+00
0.000000000000000e+00 0.000000000000000e+00 0.000000000000000e+00

0.000000000000000e+00 0.000000000000000e+00 0.000000000000000e+00
0.000000000000000e+00 0.000000000000000e+00 0.000000000000000e+00
0.000000000000000e+00 0.000000000000000e+00 0.000000000000000e+00

0.000000000000000e+00 0.000000000000000e+00 0.000000000000000e+00
0.000000000000000e+00 0.000000000000000e+00 0.000000000000000e+00
0.000000000000000e+00 0.000000000000000e+00 0.000000000000000e+00

0.000000000000000e+00 0.000000000000000e+00 0.000000000000000e+00
0.000000000000000e+00 0.000000000000000e+00 0.000000000000000e+00
0.000000000000000e+00 0.000000000000000e+00 0.000000000000000e+00

0.000000000000000e+00 0.000000000000000e+00 0.000000000000000e+00
0.000000000000000e+00 0.000000000000000e+00 0.000000000000000e+00
0.000000000000000e+00 0.000000000000000e+00 0.000000000000000e+00

0.000000000000000e+00 0.000000000000000e+00 0.000000000000000e+00
0.000000000000000e+00 0.000000000000000e+00 0.000000000000000e+00
0.000000000000000e+00 0.000000000000000e+00 0.000000000000000e+00

0.000000000000000e+00 0.000000000000000e+00 0.000000000000000e+00
0.000000000000000e+00 0.000000000000000e+00 0.000000000000000e+00
0.000000000000000e+00 0.000000000000000e+00 0.000000000000000e+00

0.000000000000000e+00 0.000000000000000e+00 0.000000000000000e+00
0.000000000000000e+00 0.000000000000000e+00 0.000000000000000e+00
0.000000000000000e+00 0.000000000000000e+00 0.000000000000000e+00

0.000000000000000e+00 0.000000000000000e+00 0.000000000000000e+00
0.000000000000000e+00 0.000000000000000e+00 0.000000000000000e+00
0.000000000000000e+00 0.000000000000000e+00 0.000000000000000e+00

0.000000000000000e+00 0.000000000000000e+00 0.000000000000000e+00
0.000000000000000e+00 0.000000000000000e+00 0.000000000000000e+00
0.000000000000000e+00 0.000000000000000e+00 0.000000000000000e+00

0.000000000000000e+00 0.000000000000000e+00 0.000000000000000e+00
0.000000000000000e+00 0.000000000000000e+00 0.000000000000000e+00
0.000000000000000e+00 0.000000000000000e+00 0.000000000000000e+00

0.000000000000000e+00 0.000000000000000e+00 0.000000000000000e+00
0.000000000000000e+00 0.000000000000000e+00 0.000000000000000e+00
0.000000000000000e+00 0.000000000000000e+00 0.000000000000000e+00

0.000000000000000e+00 0.000000000000000e+00 0.000000000000000e+00
0.000000000000000e+00 0.000000000000000e+00 0.000000000000000e+00
0.000000000000000e+00 0.000000000000000e+00 0.000000000000000e+00

0.000000000000000e+00 0.000000000000000e+00 0.000000000000000e+00
0.000000000000000e+00 0.000000000000000e+00 0.000000000000000e+00
0.000000000000000e+00 0.000000000000000e+00 0.000000000000000e+00

0.000000000000000e+00 0.000000000000000e+00 0.000000000000000e+00
0.000000000000000e+00 0.000000000000000e+00 0.000000000000000e+00
0.000000000000000e+00 0.000000000000000e+00 0.000000000000000e+00

0.000000000000000e+00 0.000000000000000e+00 0.000000000000000e+00
0.000000000000000e+00 0.000000000000000e+00 0.000000000000000e+00
0.000000000000000e+00 0.000000000000000e+00 0.000000000000000e+00

0.000000000000000e+00 0.000000000000000e+00 0.000000000000000e+00
0.000000000000000e+00 0.000000000000000e+00 0.000000000000000e+00
0.000000000000000e+00 0.000000000000000e+00 0.000000000000000e+00

0.000000000000000e+00 0.000000000000000e+00 0.000000000000000e+00
0.000000000000000e+00 0.000000000000000e+00 0.000000000000000e+00
0.000000000000000e+00 0.000000000000000e+00 0.000000000000000e+00

0.000000000000000e+00 0.000000000000000e+00 0.000000000000000e+00
0.000000000000000e+00 0.000000000000000e+00 0.000000000000000e+00
0.000000000000000e+00 0.000000000000000e+00 0.000000000000000e+00

0.000000000000000e+00 0.000000000000000e+00 0.000000000000000e+00
0.000000000000000e+00 0.000000000000000e+00 0.000000000000000e+00
0.000000000000000e+00 0.000000000000000e+00 0.000000000000000e+00

0.000000000000000e+00 0.000000000000000e+00 0.000000000000000e+00
0.000000000000000e+00 0.000000000000000e+00 0.000000000000000e+00
0.000000000000000e+00 0.000000000000000e+00 0.000000000000000e+00

0.000000000000000e+00 0.000000000000000e+00 0.000000000000000e+00
0.000000000000000e+00 0.000000000000000e+00 0.000000000000000e+00
0.000000000000000e+00 0.000000000000000e+00 0.000000000000000e+00

0.000000000000000e+00 0.000000000000000e+00 0.000000000000000e+00
0.000000000000000e+00 0.000000000000000e+00 0.000000000000000e+00
0.000000000000000e+00 0.000000000000000e+00 0.000000000000000e+00

0.000000000000000e+00 0.000000000000000e+00 0.000000000000000e+00
0.000000000000000e+00 0.000000000000000e+00 0.000000000000000e+00
0.000000000000000e+00 0.000000000000000e+00 0.000000000000000e+00

0.000000000000000e+00 0.000000000000000e+00 0.000000000000000e+00
0.000000000000000e+00 0.000000000000000e+00 0.000000000000000e+00
0.000000000000000e+00 0.000000000000000e+00 0.000000000000000e+00

0.000000000000000e+00 0.000000000000000e+00 0.000000000000000e+00
0.000000000000000e+00 0.000000000000000e+00 0.000000000000000e+00
0.000000000000000e+00 0.000000000000000e+00 0.000000000000000e+00

0.000000000000000e+00 0.000000000000000e+00 0.000000000000000e+00
0.000000000000000e+00 0.000000000000000e+00 0.000000000000000e+00
0.000000000000000e+00 0.000000000000000e+00 0.000000000000000e+00

0.000000000000000e+00 0.000000000000000e+00 0.000000000000000e+00
0.000000000000000e+00 0.000000000000000e+00 0.000000000000000e+00
0.000000000000000e+00 0.000000000000000e+00 0.000000000000000e+00

0.000000000000000e+00 0.000000000000000e+00 0.000000000000000e+00
0.000000000000000e+00 0.000000000000000e+00 0.000000000000000e+00
0.000000000000000e+00 0.000000000000000e+00 0.000000000000000e+00

0.000000000000000e+00 0.000000000000000e+00 0.000000000000000e+00
0.000000000000000e+00 0.000000000000000e+00 0.000000000000000e+00
0.000000000000000e+00 0.000000000000000e+00 0.000000000000000e+00

0.000000000000000e+00 0.000000000000000e+00 0.000000000000000e+00
0.000000000000000e+00 0.000000000000000e+00 0.000000000000000e+00
0.000000000000000e+00 0.000000000000000e+00 0.000000000000000e+00

0.000000000000000e+00 0.000000000000000e+00 0.000000000000000e+00
0.000000000000000e+00 0.000000000000000e+00 0.000000000000000e+00
0.000000000000000e+00 0.000000000000000e+00 0.000000000000000e+00

0.000000000000000e+00 0.000000000000000e+00 0.000000000000000e+00
0.000000000000000e+00 0.000000000000000e+00 0.000000000000000e+00
0.000000000000000e+00 0.000000000000000e+00 0.000000000000000e+00

0.000000000000000e+00 0.000000000000000e+00 0.000000000000000e+00
0.000000000000000e+00 0.000000000000000e+00 0.000000000000000e+00
0.000000000000000e+00 0.000000000000000e+00 0.000000000000000e+00

0.000000000000000e+00 0.000000000000000e+00 0.000000000000000e+00
0.000000000000000e+00 0.000000000000000e+00 0.000000000000000e+00
0.000000000000000e+00 0.000000000000000e+00 0.000000000000000e+00

0.000000000000000e+00 0.000000000000000e+00 0.000000000000000e+00
0.000000000000000e+00 0.000000000000000e+00 0.000000000000000e+00
0.000000000000000e+00 0.000000000000000e+00 0.000000000000000e+00

0.000000000000000e+00 0.000000000000000e+00 0.000000000000000e+00
0.000000000000000e+00 0.000000000000000e+00 0.000000000000000e+00
0.000000000000000e+00 0.000000000000000e+00 0.000000000000000e+00

0.000000000000000e+00 0.000000000000000e+00 0.000000000000000e+00
0.000000000000000e+00 0.000000000000000e+00 0.000000000000000e+00
0.000000000000000e+00 0.000000000000000e+00 0.000000000000000e+00

0.000000000000000e+00 0.000000000000000e+00 0.000000000000000e+00
0.000000000000000e+00 0.000000000000000e+00 0.000000000000000e+00
0.000000000000000e+00 0.000000000000000e+00 0.000000000000000e+00

0.000000000000000e+00 0.000000000000000e+00 0.000000000000000e+00
0.000000000000000e+00 0.000000000000000e+00 0.000000000000000e+00
0.000000000000000e+00 0.000000000000000e+00 0.000000000000000e+00

0.000000000000000e+00 0.000000000000000e+00 0.000000000000000e+00
0.000000000000000e+00 0.000000000000000e+00 0.000000000000000e+00
0.000000000000000e+00 0.000000000000000e+00 0.000000000000000e+00

0.000000000000000e+00 0.000000000000000e+00 0.000000000000000e+00
0.000000000000000e+00 0.000000000000000e+00 0.000000000000000e+00
0.000000000000000e+00 0.000000000000000e+00 0.000000000000000e+00

0.000000000000000e+00 0.000000000000000e+00 0.000000000000000e+00
0.000000000000000e+00 0.000000000000000e+00 0.000000000000000e+00
0.000000000000000e+00 0.000000000000000e+00 0.000000000000000e+00

0.000000000000000e+00 0.000000000000000e+00 0.000000000000000e+00
0.000000000000000e+00 0.000000000000000e+00 0.000000000000000e+00
0.000000000000000e+00 0.000000000000000e+00 0.000000000000000e+00

0.000000000000000e+00 0.000000000000000e+00 0.000000000000000e+00
0.000000000000000e+00 0.000000000000000e+00 0.000000000000000e+00
0.000000000000000e+00 0.000000000000000e+00 0.000000000000000e+00

0.000000000000000e+00 0.000000000000000e+00 0.000000000000000e+00
0.000000000000000e+00 0.000000000000000e+00 0.000000000000000e+00
0.000000000000000e+00 0.000000000000000e+00 0.000000000000000e+00

0.000000000000000e+00 0.000000000000000e+00 0.000000000000000e+00
0.000000000000000e+00 0.000000000000000e+00 0.000000000000000e+00
0.000000000000000e+00 0.000000000000000e+00 0.000000000000000e+00

0.000000000000000e+00 0.000000000000000e+00 0.000000000000000e+00
0.000000000000000e+00 0.000000000000000e+00 0.000000000000000e+00
0.000000000000000e+00 0.000000000000000e+00 0.000000000000000e+00

0.000000000000000e+00 0.000000000000000e+00 0.000000000000000e+00
0.000000000000000e+00 0.000000000000000e+00 0.000000000000000e+00
0.000000000000000e+00 0.000000000000000e+00 0.000000000000000e+00

0.000000000000000e+00 0.000000000000000e+00 0.000000000000000e+00
0.000000000000000e+00 0.000000000000000e+00 0.000000000000000e+00
0.000000000000000e+00 0.000000000000000e+00 0.000000000000000e+00

0.000000000000000e+00 0.000000000000000e+00 0.000000000000000e+00
0.000000000000000e+00 0.000000000000000e+00 0.000000000000000e+00
0.000000000000000e+00 0.000000000000000e+00 0.000000000000000e+00

0.000000000000000e+00 0.000000000000000e+00 0.000000000000000e+00
0.000000000000000e+00 0.000000000000000e+00 0.000000000000000e+00
0.000000000000000e+00 0.000000000000000e+00 0.000000000000000e+00

0.000000000000000e+00 0.000000000000000e+00 0.000000000000000e+00
0.000000000000000e+00 0.000000000000000e+00 0.000000000000000e+00
0.000000000000000e+00 0.000000000000000e+00 0.000000000000000e+00

0.000000000000000e+00 0.000000000000000e+00 0.000000000000000e+00
0.000000000000000e+00 0.000000000000000e+00 0.000000000000000e+00
0.000000000000000e+00 0.000000000000000e+00 0.000000000000000e+00

0.000000000000000e+00 0.000000000000000e+00 0.000000000000000e+00
0.000000000000000e+00 0.000000000000000e+00 0.000000000000000e+00
0.000000000000000e+00 0.000000000000000e+00 0.000000000000000e+00

0.000000000000000e+00 0.000000000000000e+00 0.000000000000000e+00
0.000000000000000e+00 0.000000000000000e+00 0.000000000000000e+00
0.000000000000000e+00 0.000000000000000e+00 0.000000000000000e+00

0.000000000000000e+00 0.000000000000000e+00 0.000000000000000e+00
0.000000000000000e+00 0.000000000000000e+00 0.000000000000000e+00
0.000000000000000e+00 0.000000000000000e+00 0.000000000000000e+00

0.000000000000000e+00 0.000000000000000e+00 0.000000000000000e+00
0.000000000000000e+00 0.000000000000000e+00 0.000000000000000e+00
0.000000000000000e+00 0.000000000000000e+00 0.000000000000000e+00

0.000000000000000e+00 0.000000000000000e+00 0.000000000000000e+00
0.000000000000000e+00 0.000000000000000e+00 0.000000000000000e+00
0.000000000000000e+00 0.000000000000000e+00 0.000000000000000e+00

0.000000000000000e+00 0.000000000000000e+00 0.000000000000000e+00
0.000000000000000e+00 0.000000000000000e+00 0.000000000000000e+00
0.000000000000000e+00 0.000000000000000e+00 0.000000000000000e+00

0.000000000000000e+00 0.000000000000000e+00 0.000000000000000e+00
0.000000000000000e+00 0.000000000000000e+00 0.000000000000000e+00
0.000000000000000e+00 0.000000000000000e+00 0.000000000000000e+00

0.000000000000000e+00 0.000000000000000e+00 0.000000000000000e+00
0.000000000000000e+00 0.000000000000000e+00 0.000000000000000e+00
0.000000000000000e+00 0.000000000000000e+00 0.000000000000000e+00

0.000000000000000e+00 0.000000000000000e+00 0.000000000000000e+00
0.000000000000000e+00 0.000000000000000e+00 0.000000000000000e+00
0.000000000000000e+00 0.000000000000000e+00 0.000000000000000e+00

0.000000000000000e+00 0.000000000000000e+00 0.000000000000000e+00
0.000000000000000e+00 0.000000000000000e+00 0.000000000000000e+00
0.000000000000000e+00 0.000000000000000e+00 0.000000000000000e+00

0.000000000000000e+00 0.000000000000000e+00 0.000000000000000e+00
0.000000000000000e+00 0.000000000000000e+00 0.000000000000000e+00
0.000000000000000e+00 0.000000000000000e+00 0.000000000000000e+00

0.000000000000000e+00 0.000000000000000e+00 0.000000000000000e+00
0.000000000000000e+00 0.000000000000000e+00 0.000000000000000e+00
0.000000000000000e+00 0.000000000000000e+00 0.000000000000000e+00

0.000000000000000e+00 0.000000000000000e+00 0.000000000000000e+00
0.000000000000000e+00 0.000000000000000e+00 0.000000000000000e+00
0.000000000000000e+00 0.000000000000000e+00 0.000000000000000e+00

0.000000000000000e+00 0.000000000000000e+00 0.000000000000000e+00
0.000000000000000e+00 0.000000000000000e+00 0.000000000000000e+00
0.000000000000000e+00 0.000000000000000e+00 0.000000000000000e+00

0.000000000000000e+00 0.000000000000000e+00 0.000000000000000e+00
0.000000000000000e+00 0.000000000000000e+00 0.000000000000000e+00
0.000000000000000e+00 0.000000000000000e+00 0.000000000000000e+00

0.000000000000000e+00 0.000000000000000e+00 0.000000000000000e+00
0.000000000000000e+00 0.000000000000000e+00 0.000000000000000e+00
0.000000000000000e+00 0.000000000000000e+00 0.000000000000000e+00

0.000000000000000e+00 0.000000000000000e+00 0.000000000000000e+00
0.000000000000000e+00 0.000000000000000e+00 0.000000000000000e+00
0.000000000000000e+00 0.000000000000000e+00 0.000000000000000e+00

0.000000000000000e+00 0.000000000000000e+00 0.000000000000000e+00
0.000000000000000e+00 0.000000000000000e+00 0.000000000000000e+00
0.000000000000000e+00 0.000000000000000e+00 0.000000000000000e+00

0.000000000000000e+00 0.000000000000000e+00 0.000000000000000e+00
0.000000000000000e+00 0.000000000000000e+00 0.000000000000000e+00
0.000000000000000e+00 0.000000000000000e+00 0.000000000000000e+00

0.000000000000000e+00 0.000000000000000e+00 0.000000000000000e+00
0.000000000000000e+00 0.000000000000000e+00 0.000000000000000e+00
0.000000000000000e+00 0.000000000000000e+00 0.000000000000000e+00

0.000000000000000e+00 0.000000000000000e+00 0.000000000000000e+00
0.000000000000000e+00 0.000000000000000e+00 0.000000000000000e+00
0.000000000000000e+00 0.000000000000000e+00 0.000000000000000e+00

0.000000000000000e+00 0.000000000000000e+00 0.000000000000000e+00
0.000000000000000e+00 0.000000000000000e+00 0.000000000000000e+00
0.000000000000000e+00 0.000000000000000e+00 0.000000000000000e+00

0.000000000000000e+00 0.000000000000000e+00 0.000000000000000e+00
0.000000000000000e+00 0.000000000000000e+00 0.000000000000000e+00
0.000000000000000e+00 0.000000000000000e+00 0.000000000000000e+00

0.000000000000000e+00 0.000000000000000e+00 0.000000000000000e+00
0.000000000000000e+00 0.000000000000000e+00 0.000000000000000e+00
0.000000000000000e+00 0.000000000000000e+00 0.000000000000000e+00

0.000000000000000e+00 0.000000000000000e+00 0.000000000000000e+00
0.000000000000000e+00 0.000000000000000e+00 0.000000000000000e+00
0.000000000000000e+00 0.000000000000000e+00 0.000000000000000e+00

0.000000000000000e+00 0.000000000000000e+00 0.000000000000000e+00
0.000000000000000e+00 0.000000000000000e+00 0.000000000000000e+00
0.000000000000000e+00 0.000000000000000e+00 0.000000000000000e+00

0.000000000000000e+00 0.000000000000000e+00 0.000000000000000e+00
0.000000000000000e+00 0.000000000000000e+00 0.000000000000000e+00
0.000000000000000e+00 0.000000000000000e+00 0.000000000000000e+00

0.000000000000000e+00 0.000000000000000e+00 0.000000000000000e+00
0.000000000000000e+00 0.000000000000000e+00 0.000000000000000e+00
0.000000000000000e+00 0.000000000000000e+00 0.000000000000000e+00

0.000000000000000e+00 0.000000000000000e+00 0.000000000000000e+00
0.000000000000000e+00 0.000000000000000e+00 0.000000000000000e+00
0.000000000000000e+00 0.000000000000000e+00 0.000000000000000e+00

0.000000000000000e+00 0.000000000000000e+00 0.000000000000000e+00
0.000000000000000e+00 0.000000000000000e+00 0.000000000000000e+00
0.000000000000000e+00 0.000000000000000e+00 0.000000000000000e+00

0.000000000000000e+00 0.000000000000000e+00 0.000000000000000e+00
0.000000000000000e+00 0.000000000000000e+00 0.000000000000000e+00
0.000000000000000e+00 0.000000000000000e+00 0.000000000000000e+00

0.000000000000000e+00 0.000000000000000e+00 0.000000000000000e+00
0.000000000000000e+00 0.000000000000000e+00 0.000000000000000e+00
0.000000000000000e+00 0.000000000000000e+00 0.000000000000000e+00

0.000000000000000e+00 0.000000000000000e+00 0.000000000000000e+00
0.000000000000000e+00 0.000000000000000e+00 0.000000000000000e+00
0.000000000000000e+00 0.000000000000000e+00 0.000000000000000e+00

0.000000000000000e+00 0.000000000000000e+00 0.000000000000000e+00
0.000000000000000e+00 0.000000000000000e+00 0.000000000000000e+00
0.000000000000000e+00 0.000000000000000e+00 0.000000000000000e+00

0.000000000000000e+00 0.000000000000000e+00 0.000000000000000e+00
0.000000000000000e+00 0.000000000000000e+00 0.000000000000000e+00
0.000000000000000e+00 0.000000000000000e+00 0.000000000000000e+00

0.000000000000000e+00 0.000000000000000e+00 0.000000000000000e+00
0.000000000000000e+00 0.000000000000000e+00 0.000000000000000e+00
0.000000000000000e+00 0.000000000000000e+00 0.000000000000000e+00

0.000000000000000e+00 0.000000000000000e+00 0.000000000000000e+00
0.000000000000000e+00 0.000000000000000e+00 0.000000000000000e+00
0.000000000000000e+00 0.000000000000000e+00 0.000000000000000e+00

0.000000000000000e+00 0.000000000000000e+00 0.000000000000000e+00
0.000000000000000e+00 0.000000000000000e+00 0.000000000000000e+00
0.000000000000000e+00 0.000000000000000e+00 0.000000000000000e+00

0.000000000000000e+00 0.000000000000000e+00 0.000000000000000e+00
0.000000000000000e+00 0.000000000000000e+00 0.000000000000000e+00
0.000000000000000e+00 0.000000000000000e+00 0.000000000000000e+00

0.000000000000000e+00 0.000000000000000e+00 0.000000000000000e+00
0.000000000000000e+00 0.000000000000000e+00 0.000000000000000e+00
0.000000000000000e+00 0.000000000000000e+00 0.000000000000000e+00

0.000000000000000e+00 0.000000000000000e+00 0.000000000000000e+00
0.000000000000000e+00 0.000000000000000e+00 0.000000000000000e+00
0.000000000000000e+00 0.000000000000000e+00 0.000000000000000e+00

0.000000000000000e+00 0.000000000000000e+00 0.000000000000000e+00
0.000000000000000e+00 0.000000000000000e+00 0.000000000000000e+00
0.000000000000000e+00 0.000000000000000e+00 0.000000000000000e+00

0.000000000000000e+00 0.000000000000000e+00 0.000000000000000e+00
0.000000000000000e+00 0.000000000000000e+00 0.000000000000000e+00
0.000000000000000e+00 0.000000000000000e+00 0.000000000000000e+00

0.000000000000000e+00 0.000000000000000e+00 0.000000000000000e+00
0.000000000000000e+00 0.000000000000000e+00 0.000000000000000e+00
0.000000000000000e+00 0.000000000000000e+00 0.000000000000000e+00

0.000000000000000e+00 0.000000000000000e+00 0.000000000000000e+00
0.000000000000000e+00 0.000000000000000e+00 0.000000000000000e+00
0.000000000000000e+00 0.000000000000000e+00 0.000000000000000e+00

0.000000000000000e+00 0.000000000000000e+00 0.000000000000000e+00
0.000000000000000e+00 0.000000000000000e+00 0.000000000000000e+00
0.000000000000000e+00 0.000000000000000e+00 0.000000000000000e+00

0.000000000000000e+00 0.000000000000000e+00 0.000000000000000e+00
0.000000000000000e+00 0.000000000000000e+00 0.000000000000000e+00
0.000000000000000e+00 0.000000000000000e+00 0.000000000000000e+00

0.000000000000000e+00 0.000000000000000e+00 0.000000000000000e+00
0.000000000000000e+00 0.000000000000000e+00 0.000000000000000e+00
0.000000000000000e+00 0.000000000000000e+00 0.000000000000000e+00

0.000000000000000e+00 0.000000000000000e+00 0.000000000000000e+00
0.000000000000000e+00 0.000000000000000e+00 0.000000000000000e+00
0.000000000000000e+00 0.000000000000000e+00 0.000000000000000e+00

0.000000000000000e+00 0.000000000000000e+00 0.000000000000000e+00
0.000000000000000e+00 0.000000000000000e+00 0.000000000000000e+00
0.000000000000000e+00 0.000000000000000e+00 0.000000000000000e+00

0.000000000000000e+00 0.000000000000000e+00 0.000000000000000e+00
0.000000000000000e+00 0.000000000000000e+00 0.000000000000000e+00
0.000000000000000e+00 0.000000000000000e+00 0.000000000000000e+00

0.000000000000000e+00 0.000000000000000e+00 0.000000000000000e+00
0.000000000000000e+00 0.000000000000000e+00 0.000000000000000e+00
0.000000000000000e+00 0.000000000000000e+00 0.000000000000000e+00

0.000000000000000e+00 0.000000000000000e+00 0.000000000000000e+00
0.000000000000000e+00 0.000000000000000e+00 0.000000000000000e+00
0.000000000000000e+00 0.000000000000000e+00 0.000000000000000e+00

0.000000000000000e+00 0.000000000000000e+00 0.000000000000000e+00
0.000000000000000e+00 0.000000000000000e+00 0.000000000000000e+00
0.000000000000000e+00 0.000000000000000e+00 0.000000000000000e+00

0.000000000000000e+00 0.000000000000000e+00 0.000000000000000e+00
0.000000000000000e+00 0.000000000000000e+00 0.000000000000000e+00
0.000000000000000e+00 0.000000000000000e+00 0.000000000000000e+00

0.000000000000000e+00 0.000000000000000e+00 0.000000000000000e+00
0.000000000000000e+00 0.000000000000000e+00 0.000000000000000e+00
0.000000000000000e+00 0.000000000000000e+00 0.000000000000000e+00

0.000000000000000e+00 0.000000000000000e+00 0.000000000000000e+00
0.000000000000000e+00 0.000000000000000e+00 0.000000000000000e+00
0.000000000000000e+00 0.000000000000000e+00 0.000000000000000e+00

0.000000000000000e+00 0.000000000000000e+00 0.000000000000000e+00
0.000000000000000e+00 0.000000000000000e+00 0.000000000000000e+00
0.000000000000000e+00 0.000000000000000e+00 0.000000000000000e+00

0.000000000000000e+00 0.000000000000000e+00 0.000000000000000e+00
0.000000000000000e+00 0.000000000000000e+00 0.000000000000000e+00
0.000000000000000e+00 0.000000000000000e+00 0.000000000000000e+00

0.000000000000000e+00 0.000000000000000e+00 0.000000000000000e+00
0.000000000000000e+00 0.000000000000000e+00 0.000000000000000e+00
0.000000000000000e+00 0.000000000000000e+00 0.000000000000000e+00

0.000000000000000e+00 0.000000000000000e+00 0.000000000000000e+00
0.000000000000000e+00 0.000000000000000e+00 0.000000000000000e+00
0.000000000000000e+00 0.000000000000000e+00 0.000000000000000e+00

0.000000000000000e+00 0.000000000000000e+00 0.000000000000000e+00
0.000000000000000e+00 0.000000000000000e+00 0.000000000000000e+00
0.000000000000000e+00 0.000000000000000e+00 0.000000000000000e+00

0.000000000000000e+00 0.000000000000000e+00 0.000000000000000e+00
0.000000000000000e+00 0.000000000000000e+00 0.000000000000000e+00
0.000000000000000e+00 0.000000000000000e+00 0.000000000000000e+00

0.000000000000000e+00 0.000000000000000e+00 0.000000000000000e+00
0.000000000000000e+00 0.000000000000000e+00 0.000000000000000e+00
0.000000000000000e+00 0.000000000000000e+00 0.000000000000000e+00

0.000000000000000e+00 0.000000000000000e+00 0.000000000000000e+00
0.000000000000000e+00 0.000000000000000e+00 0.000000000000000e+00
0.000000000000000e+00 0.000000000000000e+00 0.000000000000000e+00

0.000000000000000e+00 0.000000000000000e+00 0.000000000000000e+00
0.000000000000000e+00 0.000000000000000e+00 0.000000000000000e+00
0.000000000000000e+00 0.000000000000000e+00 0.000000000000000e+00

0.000000000000000e+00 0.000000000000000e+00 0.000000000000000e+00
0.000000000000000e+00 0.000000000000000e+00 0.000000000000000e+00
0.000000000000000e+00 0.000000000000000e+00 0.000000000000000e+00

0.000000000000000e+00 0.000000000000000e+00 0.000000000000000e+00
0.000000000000000e+00 0.000000000000000e+00 0.000000000000000e+00
0.000000000000000e+00 0.000000000000000e+00 0.000000000000000e+00

0.000000000000000e+00 0.000000000000000e+00 0.000000000000000e+00
0.000000000000000e+00 0.000000000000000e+00 0.000000000000000e+00
0.000000000000000e+00 0.000000000000000e+00 0.000000000000000e+00

0.000000000000000e+00 0.000000000000000e+00 0.000000000000000e+00
0.000000000000000e+00 0.000000000000000e+00 0.000000000000000e+00
0.000000000000000e+00 0.000000000000000e+00 0.000000000000000e+00

0.000000000000000e+00 0.000000000000000e+00 0.000000000000000e+00
0.000000000000000e+00 0.000000000000000e+00 0.000000000000000e+00
0.000000000000000e+00 0.000000000000000e+00 0.000000000000000e+00

0.000000000000000e+00 0.000000000000000e+00 0.000000000000000e+00
0.000000000000000e+00 0.000000000000000e+00 0.000000000000000e+00
0.000000000000000e+00 0.000000000000000e+00 0.000000000000000e+00

0.000000000000000e+00 0.000000000000000e+00 0.000000000000000e+00
0.000000000000000e+00 0.000000000000000e+00 0.000000000000000e+00
0.000000000000000e+00 0.000000000000000e+00 0.000000000000000e+00

0.000000000000000e+00 0.000000000000000e+00 0.000000000000000e+00
0.000000000000000e+00 0.000000000000000e+00 0.000000000000000e+00
0.000000000000000e+00 0.000000000000000e+00 0.000000000000000e+00

0.000000000000000e+00 0.000000000000000e+00 0.000000000000000e+00
0.000000000000000e+00 0.000000000000000e+00 0.000000000000000e+00
0.000000000000000e+00 0.000000000000000e+00 0.000000000000000e+00

0.000000000000000e+00 0.000000000000000e+00 0.000000000000000e+00
0.000000000000000e+00 0.000000000000000e+00 0.000000000000000e+00
0.000000000000000e+00 0.000000000000000e+00 0.000000000000000e+00

0.000000000000000e+00 0.000000000000000e+00 0.000000000000000e+00
0.000000000000000e+00 0.000000000000000e+00 0.000000000000000e+00
0.000000000000000e+00 0.000000000000000e+00 0.000000000000000e+00

0.000000000000000e+00 0.000000000000000e+00 0.000000000000000e+00
0.000000000000000e+00 0.000000000000000e+00 0.000000000000000e+00
0.000000000000000e+00 0.000000000000000e+00 0.000000000000000e+00

0.000000000000000e+00 0.000000000000000e+00 0.000000000000000e+00
0.000000000000000e+00 0.000000000000000e+00 0.000000000000000e+00
0.000000000000000e+00 0.000000000000000e+00 0.000000000000000e+00

0.000000000000000e+00 0.000000000000000e+00 0.000000000000000e+00
0.000000000000000e+00 0.000000000000000e+00 0.000000000000000e+00
0.000000000000000e+00 0.000000000000000e+00 0.000000000000000e+00

0.000000000000000e+00 0.000000000000000e+00 0.000000000000000e+00
0.000000000000000e+00 0.000000000000000e+00 0.000000000000000e+00
0.000000000000000e+00 0.000000000000000e+00 0.000000000000000e+00

0.000000000000000e+00 0.000000000000000e+00 0.000000000000000e+00
0.000000000000000e+00 0.000000000000000e+00 0.000000000000000e+00
0.000000000000000e+00 0.000000000000000e+00 0.000000000000000e+00

0.000000000000000e+00 0.000000000000000e+00 0.000000000000000e+00
0.000000000000000e+00 0.000000000000000e+00 0.000000000000000e+00
0.000000000000000e+00 0.000000000000000e+00 0.000000000000000e+00

0.000000000000000e+00 0.000000000000000e+00 0.000000000000000e+00
0.000000000000000e+00 0.000000000000000e+00 0.000000000000000e+00
0.000000000000000e+00 0.000000000000000e+00 0.000000000000000e+00

0.000000000000000e+00 0.000000000000000e+00 0.000000000000000e+00
0.000000000000000e+00 0.000000000000000e+00 0.000000000000000e+00
0.000000000000000e+00 0.000000000000000e+00 0.000000000000000e+00

0.000000000000000e+00 0.000000000000000e+00 0.000000000000000e+00
0.000000000000000e+00 0.000000000000000e+00 0.000000000000000e+00
0.000000000000000e+00 0.000000000000000e+00 0.000000000000000e+00

0.000000000000000e+00 0.000000000000000e+00 0.000000000000000e+00
0.000000000000000e+00 0.000000000000000e+00 0.000000000000000e+00
0.000000000000000e+00 0.000000000000000e+00 0.000000000000000e+00

0.000000000000000e+00 0.000000000000000e+00 0.000000000000000e+00
0.000000000000000e+00 0.000000000000000e+00 0.000000000000000e+00
0.000000000000000e+00 0.000000000000000e+00 0.000000000000000e+00

0.000000000000000e+00 0.000000000000000e+00 0.000000000000000e+00
0.000000000000000e+00 0.000000000000000e+00 0.000000000000000e+00
0.000000000000000e+00 0.000000000000000e+00 0.000000000000000e+00

0.000000000000000e+00 0.000000000000000e+00 0.000000000000000e+00
0.000000000000000e+00 0.000000000000000e+00 0.000000000000000e+00
0.000000000000000e+00 0.000000000000000e+00 0.000000000000000e+00

0.000000000000000e+00 0.000000000000000e+00 0.000000000000000e+00
0.000000000000000e+00 0.000000000000000e+00 0.000000000000000e+00
0.000000000000000e+00 0.000000000000000e+00 0.000000000000000e+00

0.000000000000000e+00 0.000000000000000e+00 0.000000000000000e+00
0.000000000000000e+00 0.000000000000000e+00 0.000000000000000e+00
0.000000000000000e+00 0.000000000000000e+00 0.000000000000000e+00

0.000000000000000e+00 0.000000000000000e+00 0.000000000000000e+00
0.000000000000000e+00 0.000000000000000e+00 0.000000000000000e+00
0.000000000000000e+00 0.000000000000000e+00 0.000000000000000e+00

0.000000000000000e+00 0.000000000000000e+00 0.000000000000000e+00
0.000000000000000e+00 0.000000000000000e+00 0.000000000000000e+00
0.000000000000000e+00 0.000000000000000e+00 0.000000000000000e+00

0.000000000000000e+00 0.000000000000000e+00 0.000000000000000e+00
0.000000000000000e+00 0.000000000000000e+00 0.000000000000000e+00
0.000000000000000e+00 0.000000000000000e+00 0.000000000000000e+00

0.000000000000000e+00 0.000000000000000e+00 0.000000000000000e+00
0.000000000000000e+00 0.000000000000000e+00 0.000000000000000e+00
0.000000000000000e+00 0.000000000000000e+00 0.000000000000000e+00

0.000000000000000e+00 0.000000000000000e+00 0.000000000000000e+00
0.000000000000000e+00 0.000000000000000e+00 0.000000000000000e+00
0.000000000000000e+00 0.000000000000000e+00 0.000000000000000e+00

0.000000000000000e+00 0.000000000000000e+00 0.000000000000000e+00
0.000000000000000e+00 0.000000000000000e+00 0.000000000000000e+00
0.000000000000000e+00 0.000000000000000e+00 0.000000000000000e+00

0.000000000000000e+00 0.000000000000000e+00 0.000000000000000e+00
0.000000000000000e+00 0.000000000000000e+00 0.000000000000000e+00
0.000000000000000e+00 0.000000000000000e+00 0.000000000000000e+00

0.000000000000000e+00 0.000000000000000e+00 0.000000000000000e+00
0.000000000000000e+00 0.000000000000000e+00 0.000000000000000e+00
0.000000000000000e+00 0.000000000000000e+00 0.000000000000000e+00

0.000000000000000e+00 0.000000000000000e+00 0.000000000000000e+00
0.000000000000000e+00 0.000000000000000e+00 0.000000000000000e+00
0.000000000000000e+00 0.000000000000000e+00 0.000000000000000e+00

0.000000000000000e+00 0.000000000000000e+00 0.000000000000000e+00
0.000000000000000e+00 0.000000000000000e+00 0.000000000000000e+00
0.000000000000000e+00 0.000000000000000e+00 0.000000000000000e+00

0.000000000000000e+00 0.000000000000000e+00 0.000000000000000e+00
0.000000000000000e+00 0.000000000000000e+00 0.000000000000000e+00
0.000000000000000e+00 0.000000000000000e+00 0.000000000000000e+00

0.000000000000000e+00 0.000000000000000e+00 0.000000000000000e+00
0.000000000000000e+00 0.000000000000000e+00 0.000000000000000e+00
0.000000000000000e+00 0.000000000000000e+00 0.000000000000000e+00

0.000000000000000e+00 0.000000000000000e+00 0.000000000000000e+00
0.000000000000000e+00 0.000000000000000e+00 0.000000000000000e+00
0.000000000000000e+00 0.000000000000000e+00 0.000000000000000e+00

0.000000000000000e+00 0.000000000000000e+00 0.000000000000000e+00
0.000000000000000e+00 0.000000000000000e+00 0.000000000000000e+00
0.000000000000000e+00 0.000000000000000e+00 0.000000000000000e+00

0.000000000000000e+00 0.000000000000000e+00 0.000000000000000e+00
0.000000000000000e+00 0.000000000000000e+00 0.000000000000000e+00
0.000000000000000e+00 0.000000000000000e+00 0.000000000000000e+00

0.000000000000000e+00 0.000000000000000e+00 0.000000000000000e+00
0.000000000000000e+00 0.000000000000000e+00 0.000000000000000e+00
0.000000000000000e+00 0.000000000000000e+00 0.000000000000000e+00

0.000000000000000e+00 0.000000000000000e+00 0.000000000000000e+00
0.000000000000000e+00 0.000000000000000e+00 0.000000000000000e+00
0.000000000000000e+00 0.000000000000000e+00 0.000000000000000e+00

0.000000000000000e+00 0.000000000000000e+00 0.000000000000000e+00
0.000000000000000e+00 0.000000000000000e+00 0.000000000000000e+00
0.000000000000000e+00 0.000000000000000e+00 0.000000000000000e+00

0.000000000000000e+00 0.000000000000000e+00 0.000000000000000e+00
0.000000000000000e+00 0.000000000000000e+00 0.000000000000000e+00
0.000000000000000e+00 0.000000000000000e+00 0.000000000000000e+00

0.000000000000000e+00 0.000000000000000e+00 0.000000000000000e+00
0.000000000000000e+00 0.000000000000000e+00 0.000000000000000e+00
0.000000000000000e+00 0.000000000000000e+00 0.000000000000000e+00

0.000000000000000e+00 0.000000000000000e+00 0.000000000000000e+00
0.000000000000000e+00 0.000000000000000e+00 0.000000000000000e+00
0.000000000000000e+00 0.000000000000000e+00 0.000000000000000e+00

0.000000000000000e+00 0.000000000000000e+00 0.000000000000000e+00
0.000000000000000e+00 0.000000000000000e+00 0.000000000000000e+00
0.000000000000000e+00 0.000000000000000e+00 0.000000000000000e+00

0.000000000000000e+00 0.000000000000000e+00 0.000000000000000e+00
0.000000000000000e+00 0.000000000000000e+00 0.000000000000000e+00
0.000000000000000e+00 0.000000000000000e+00 0.000000000000000e+00

0.000000000000000e+00 0.000000000000000e+00 0.000000000000000e+00
0.000000000000000e+00 0.000000000000000e+00 0.000000000000000e+00
0.000000000000000e+00 0.000000000000000e+00 0.000000000000000e+00

0.000000000000000e+00 0.000000000000000e+00 0.000000000000000e+00
0.000000000000000e+00 0.000000000000000e+00 0.000000000000000e+00
0.000000000000000e+00 0.000000000000000e+00 0.000000000000000e+00

0.000000000000000e+00 0.000000000000000e+00 0.000000000000000e+00
0.000000000000000e+00 0.000000000000000e+00 0.000000000000000e+00
0.000000000000000e+00 0.000000000000000e+00 0.000000000000000e+00

0.000000000000000e+00 0.000000000000000e+00 0.000000000000000e+00
0.000000000000000e+00 0.000000000000000e+00 0.000000000000000e+00
0.000000000000000e+00 0.000000000000000e+00 0.000000000000000e+00

0.000000000000000e+00 0.000000000000000e+00 0.000000000000000e+00
0.000000000000000e+00 0.000000000000000e+00 0.000000000000000e+00
0.000000000000000e+00 0.000000000000000e+00 0.000000000000000e+00

0.000000000000000e+00 0.000000000000000e+00 0.000000000000000e+00
0.000000000000000e+00 0.000000000000000e+00 0.000000000000000e+00
0.000000000000000e+00 0.000000000000000e+00 0.000000000000000e+00

0.000000000000000e+00 0.000000000000000e+00 0.000000000000000e+00
0.000000000000000e+00 0.000000000000000e+00 0.000000000000000e+00
0.000000000000000e+00 0.000000000000000e+00 0.000000000000000e+00

0.000000000000000e+00 0.000000000000000e+00 0.000000000000000e+00
0.000000000000000e+00 0.000000000000000e+00 0.000000000000000e+00
0.000000000000000e+00 0.000000000000000e+00 0.000000000000000e+00

0.000000000000000e+00 0.000000000000000e+00 0.000000000000000e+00
0.000000000000000e+00 0.000000000000000e+00 0.000000000000000e+00
0.000000000000000e+00 0.000000000000000e+00 0.000000000000000e+00

0.000000000000000e+00 0.000000000000000e+00 0.000000000000000e+00
0.000000000000000e+00 0.000000000000000e+00 0.000000000000000e+00
0.000000000000000e+00 0.000000000000000e+00 0.000000000000000e+00

0.000000000000000e+00 0.000000000000000e+00 0.000000000000000e+00
0.000000000000000e+00 0.000000000000000e+00 0.000000000000000e+00
0.000000000000000e+00 0.000000000000000e+00 0.000000000000000e+00

0.000000000000000e+00 0.000000000000000e+00 0.000000000000000e+00
0.000000000000000e+00 0.000000000000000e+00 0.000000000000000e+00
0.000000000000000e+00 0.000000000000000e+00 0.000000000000000e+00

0.000000000000000e+00 0.000000000000000e+00 0.000000000000000e+00
0.000000000000000e+00 0.000000000000000e+00 0.000000000000000e+00
0.000000000000000e+00 0.000000000000000e+00 0.000000000000000e+00

0.000000000000000e+00 0.000000000000000e+00 0.000000000000000e+00
0.000000000000000e+00 0.000000000000000e+00 0.000000000000000e+00
0.000000000000000e+00 0.000000000000000e+00 0.000000000000000e+00

0.000000000000000e+00 0.000000000000000e+00 0.000000000000000e+00
0.000000000000000e+00 0.000000000000000e+00 0.000000000000000e+00
0.000000000000000e+00 0.000000000000000e+00 0.000000000000000e+00

0.000000000000000e+00 0.000000000000000e+00 0.000000000000000e+00
0.000000000000000e+00 0.000000000000000e+00 0.000000000000000e+00
0.000000000000000e+00 0.000000000000000e+00 0.000000000000000e+00

0.000000000000000e+00 0.000000000000000e+00 0.000000000000000e+00
0.000000000000000e+00 0.000000000000000e+00 0.000000000000000e+00
0.000000000000000e+00 0.000000000000000e+00 0.000000000000000e+00

0.000000000000000e+00 0.000000000000000e+00 0.000000000000000e+00
0.000000000000000e+00 0.000000000000000e+00 0.000000000000000e+00
0.000000000000000e+00 0.000000000000000e+00 0.000000000000000e+00

0.000000000000000e+00 0.000000000000000e+00 0.000000000000000e+00
0.000000000000000e+00 0.000000000000000e+00 0.000000000000000e+00
0.000000000000000e+00 0.000000000000000e+00 0.000000000000000e+00

0.000000000000000e+00 0.000000000000000e+00 0.000000000000000e+00
0.000000000000000e+00 0.000000000000000e+00 0.000000000000000e+00
0.000000000000000e+00 0.000000000000000e+00 0.000000000000000e+00

0.000000000000000e+00 0.000000000000000e+00 0.000000000000000e+00
0.000000000000000e+00 0.000000000000000e+00 0.000000000000000e+00
0.000000000000000e+00 0.000000000000000e+00 0.000000000000000e+00

0.000000000000000e+00 0.000000000000000e+00 0.000000000000000e+00
0.000000000000000e+00 0.000000000000000e+00 0.000000000000000e+00
0.000000000000000e+00 0.000000000000000e+00 0.000000000000000e+00

0.000000000000000e+00 0.000000000000000e+00 0.000000000000000e+00
0.000000000000000e+00 0.000000000000000e+00 0.000000000000000e+00
0.000000000000000e+00 0.000000000000000e+00 0.000000000000000e+00

0.000000000000000e+00 0.000000000000000e+00 0.000000000000000e+00
0.000000000000000e+00 0.000000000000000e+00 0.000000000000000e+00
0.000000000000000e+00 0.000000000000000e+00 0.000000000000000e+00

0.000000000000000e+00 0.000000000000000e+00 0.000000000000000e+00
0.000000000000000e+00 0.000000000000000e+00 0.000000000000000e+00
0.000000000000000e+00 0.000000000000000e+00 0.000000000000000e+00

0.000000000000000e+00 0.000000000000000e+00 0.000000000000000e+00
0.000000000000000e+00 0.000000000000000e+00 0.000000000000000e+00
0.000000000000000e+00 0.000000000000000e+00 0.000000000000000e+00

0.000000000000000e+00 0.000000000000000e+00 0.000000000000000e+00
0.000000000000000e+00 0.000000000000000e+00 0.000000000000000e+00
0.000000000000000e+00 0.000000000000000e+00 0.000000000000000e+00

0.000000000000000e+00 0.000000000000000e+00 0.000000000000000e+00
0.000000000000000e+00 0.000000000000000e+00 0.000000000000000e+00
0.000000000000000e+00 0.000000000000000e+00 0.000000000000000e+00

0.000000000000000e+00 0.000000000000000e+00 0.000000000000000e+00
0.000000000000000e+00 0.000000000000000e+00 0.000000000000000e+00
0.000000000000000e+00 0.000000000000000e+00 0.000000000000000e+00

0.000000000000000e+00 0.000000000000000e+00 0.000000000000000e+00
0.000000000000000e+00 0.000000000000000e+00 0.000000000000000e+00
0.000000000000000e+00 0.000000000000000e+00 0.000000000000000e+00

0.000000000000000e+00 0.000000000000000e+00 0.000000000000000e+00
0.000000000000000e+00 0.000000000000000e+00 0.000000000000000e+00
0.000000000000000e+00 0.000000000000000e+00 0.000000000000000e+00

0.000000000000000e+00 0.000000000000000e+00 0.000000000000000e+00
0.000000000000000e+00 0.000000000000000e+00 0.000000000000000e+00
0.000000000000000e+00 0.000000000000000e+00 0.000000000000000e+00

0.000000000000000e+00 0.000000000000000e+00 0.000000000000000e+00
0.000000000000000e+00 0.000000000000000e+00 0.000000000000000e+00
0.000000000000000e+00 0.000000000000000e+00 0.000000000000000e+00

0.000000000000000e+00 0.000000000000000e+00 0.000000000000000e+00
0.000000000000000e+00 0.000000000000000e+00 0.000000000000000e+00
0.000000000000000e+00 0.000000000000000e+00 0.000000000000000e+00

0.000000000000000e+00 0.000000000000000e+00 0.000000000000000e+00
0.000000000000000e+00 0.000000000000000e+00 0.000000000000000e+00
0.000000000000000e+00 0.000000000000000e+00 0.000000000000000e+00

0.000000000000000e+00 0.000000000000000e+00 0.000000000000000e+00
0.000000000000000e+00 0.000000000000000e+00 0.000000000000000e+00
0.000000000000000e+00 0.000000000000000e+00 0.000000000000000e+00

0.000000000000000e+00 0.000000000000000e+00 0.000000000000000e+00
0.000000000000000e+00 0.000000000000000e+00 0.000000000000000e+00
0.000000000000000e+00 0.000000000000000e+00 0.000000000000000e+00

0.000000000000000e+00 0.000000000000000e+00 0.000000000000000e+00
0.000000000000000e+00 0.000000000000000e+00 0.000000000000000e+00
0.000000000000000e+00 0.000000000000000e+00 0.000000000000000e+00

0.000000000000000e+00 0.000000000000000e+00 0.000000000000000e+00
0.000000000000000e+00 0.000000000000000e+00 0.000000000000000e+00
0.000000000000000e+00 0.000000000000000e+00 0.000000000000000e+00

0.000000000000000e+00 0.000000000000000e+00 0.000000000000000e+00
0.000000000000000e+00 0.000000000000000e+00 0.000000000000000e+00
0.000000000000000e+00 0.000000000000000e+00 0.000000000000000e+00

0.000000000000000e+00 0.000000000000000e+00 0.000000000000000e+00
0.000000000000000e+00 0.000000000000000e+00 0.000000000000000e+00
0.000000000000000e+00 0.000000000000000e+00 0.000000000000000e+00

0.000000000000000e+00 0.000000000000000e+00 0.000000000000000e+00
0.000000000000000e+00 0.000000000000000e+00 0.000000000000000e+00
0.000000000000000e+00 0.000000000000000e+00 0.000000000000000e+00

0.000000000000000e+00 0.000000000000000e+00 0.000000000000000e+00
0.000000000000000e+00 0.000000000000000e+00 0.000000000000000e+00
0.000000000000000e+00 0.000000000000000e+00 0.000000000000000e+00

0.000000000000000e+00 0.000000000000000e+00 0.000000000000000e+00
0.000000000000000e+00 0.000000000000000e+00 0.000000000000000e+00
0.000000000000000e+00 0.000000000000000e+00 0.000000000000000e+00

0.000000000000000e+00 0.000000000000000e+00 0.000000000000000e+00
0.000000000000000e+00 0.000000000000000e+00 0.000000000000000e+00
0.000000000000000e+00 0.000000000000000e+00 0.000000000000000e+00

0.000000000000000e+00 0.000000000000000e+00 0.000000000000000e+00
0.000000000000000e+00 0.000000000000000e+00 0.000000000000000e+00
0.000000000000000e+00 0.000000000000000e+00 0.000000000000000e+00

0.000000000000000e+00 0.000000000000000e+00 0.000000000000000e+00
0.000000000000000e+00 0.000000000000000e+00 0.000000000000000e+00
0.000000000000000e+00 0.000000000000000e+00 0.000000000000000e+00

0.000000000000000e+00 0.000000000000000e+00 0.000000000000000e+00
0.000000000000000e+00 0.000000000000000e+00 0.000000000000000e+00
0.000000000000000e+00 0.000000000000000e+00 0.000000000000000e+00

0.000000000000000e+00 0.000000000000000e+00 0.000000000000000e+00
0.000000000000000e+00 0.000000000000000e+00 0.000000000000000e+00
0.000000000000000e+00 0.000000000000000e+00 0.000000000000000e+00

0.000000000000000e+00 0.000000000000000e+00 0.000000000000000e+00
0.000000000000000e+00 0.000000000000000e+00 0.000000000000000e+00
0.000000000000000e+00 0.000000000000000e+00 0.000000000000000e+00

0.000000000000000e+00 0.000000000000000e+00 0.000000000000000e+00
0.000000000000000e+00 0.000000000000000e+00 0.000000000000000e+00
0.000000000000000e+00 0.000000000000000e+00 0.000000000000000e+00

0.000000000000000e+00 0.000000000000000e+00 0.000000000000000e+00
0.000000000000000e+00 0.000000000000000e+00 0.000000000000000e+00
0.000000000000000e+00 0.000000000000000e+00 0.000000000000000e+00

0.000000000000000e+00 0.000000000000000e+00 0.000000000000000e+00
0.000000000000000e+00 0.000000000000000e+00 0.000000000000000e+00
0.000000000000000e+00 0.000000000000000e+00 0.000000000000000e+00

0.000000000000000e+00 0.000000000000000e+00 0.000000000000000e+00
0.000000000000000e+00 0.000000000000000e+00 0.000000000000000e+00
0.000000000000000e+00 0.000000000000000e+00 0.000000000000000e+00

0.000000000000000e+00 0.000000000000000e+00 0.000000000000000e+00
0.000000000000000e+00 0.000000000000000e+00 0.000000000000000e+00
0.000000000000000e+00 0.000000000000000e+00 0.000000000000000e+00

0.000000000000000e+00 0.000000000000000e+00 0.000000000000000e+00
0.000000000000000e+00 0.000000000000000e+00 0.000000000000000e+00
0.000000000000000e+00 0.000000000000000e+00 0.000000000000000e+00

0.000000000000000e+00 0.000000000000000e+00 0.000000000000000e+00
0.000000000000000e+00 0.000000000000000e+00 0.000000000000000e+00
0.000000000000000e+00 0.000000000000000e+00 0.000000000000000e+00

0.000000000000000e+00 0.000000000000000e+00 0.000000000000000e+00
0.000000000000000e+00 0.000000000000000e+00 0.000000000000000e+00
0.000000000000000e+00 0.000000000000000e+00 0.000000000000000e+00

0.000000000000000e+00 0.000000000000000e+00 0.000000000000000e+00
0.000000000000000e+00 0.000000000000000e+00 0.000000000000000e+00
0.000000000000000e+00 0.000000000000000e+00 0.000000000000000e+00

0.000000000000000e+00 0.000000000000000e+00 0.000000000000000e+00
0.000000000000000e+00 0.000000000000000e+00 0.000000000000000e+00
0.000000000000000e+00 0.000000000000000e+00 0.000000000000000e+00

0.000000000000000e+00 0.000000000000000e+00 0.000000000000000e+00
0.000000000000000e+00 0.000000000000000e+00 0.000000000000000e+00
0.000000000000000e+00 0.000000000000000e+00 0.000000000000000e+00

0.000000000000000e+00 0.000000000000000e+00 0.000000000000000e+00
0.000000000000000e+00 0.000000000000000e+00 0.000000000000000e+00
0.000000000000000e+00 0.000000000000000e+00 0.000000000000000e+00

0.000000000000000e+00 0.000000000000000e+00 0.000000000000000e+00
0.000000000000000e+00 0.000000000000000e+00 0.000000000000000e+00
0.000000000000000e+00 0.000000000000000e+00 0.000000000000000e+00

0.000000000000000e+00 0.000000000000000e+00 0.000000000000000e+00
0.000000000000000e+00 0.000000000000000e+00 0.000000000000000e+00
0.000000000000000e+00 0.000000000000000e+00 0.000000000000000e+00

0.000000000000000e+00 0.000000000000000e+00 0.000000000000000e+00
0.000000000000000e+00 0.000000000000000e+00 0.000000000000000e+00
0.000000000000000e+00 0.000000000000000e+00 0.000000000000000e+00

0.000000000000000e+00 0.000000000000000e+00 0.000000000000000e+00
0.000000000000000e+00 0.000000000000000e+00 0.000000000000000e+00
0.000000000000000e+00 0.000000000000000e+00 0.000000000000000e+00

0.000000000000000e+00 0.000000000000000e+00 0.000000000000000e+00
0.000000000000000e+00 0.000000000000000e+00 0.000000000000000e+00
0.000000000000000e+00 0.000000000000000e+00 0.000000000000000e+00

0.000000000000000e+00 0.000000000000000e+00 0.000000000000000e+00
0.000000000000000e+00 0.000000000000000e+00 0.000000000000000e+00
0.000000000000000e+00 0.000000000000000e+00 0.000000000000000e+00

0.000000000000000e+00 0.000000000000000e+00 0.000000000000000e+00
0.000000000000000e+00 0.000000000000000e+00 0.000000000000000e+00
0.000000000000000e+00 0.000000000000000e+00 0.000000000000000e+00

0.000000000000000e+00 0.000000000000000e+00 0.000000000000000e+00
0.000000000000000e+00 0.000000000000000e+00 0.000000000000000e+00
0.000000000000000e+00 0.000000000000000e+00 0.000000000000000e+00

0.000000000000000e+00 0.000000000000000e+00 0.000000000000000e+00
0.000000000000000e+00 0.000000000000000e+00 0.000000000000000e+00
0.000000000000000e+00 0.000000000000000e+00 0.000000000000000e+00

0.000000000000000e+00 0.000000000000000e+00 0.000000000000000e+00
0.000000000000000e+00 0.000000000000000e+00 0.000000000000000e+00
0.000000000000000e+00 0.000000000000000e+00 0.000000000000000e+00

0.000000000000000e+00 0.000000000000000e+00 0.000000000000000e+00
0.000000000000000e+00 0.000000000000000e+00 0.000000000000000e+00
0.000000000000000e+00 0.000000000000000e+00 0.000000000000000e+00

0.000000000000000e+00 0.000000000000000e+00 0.000000000000000e+00
0.000000000000000e+00 0.000000000000000e+00 0.000000000000000e+00
0.000000000000000e+00 0.000000000000000e+00 0.000000000000000e+00

0.000000000000000e+00 0.000000000000000e+00 0.000000000000000e+00
0.000000000000000e+00 0.000000000000000e+00 0.000000000000000e+00
0.000000000000000e+00 0.000000000000000e+00 0.000000000000000e+00

0.000000000000000e+00 0.000000000000000e+00 0.000000000000000e+00
0.000000000000000e+00 0.000000000000000e+00 0.000000000000000e+00
0.000000000000000e+00 0.000000000000000e+00 0.000000000000000e+00

0.000000000000000e+00 0.000000000000000e+00 0.000000000000000e+00
0.000000000000000e+00 0.000000000000000e+00 0.000000000000000e+00
0.000000000000000e+00 0.000000000000000e+00 0.000000000000000e+00

0.000000000000000e+00 0.000000000000000e+00 0.000000000000000e+00
0.000000000000000e+00 0.000000000000000e+00 0.000000000000000e+00
0.000000000000000e+00 0.000000000000000e+00 0.000000000000000e+00

0.000000000000000e+00 0.000000000000000e+00 0.000000000000000e+00
0.000000000000000e+00 0.000000000000000e+00 0.000000000000000e+00
0.000000000000000e+00 0.000000000000000e+00 0.000000000000000e+00

0.000000000000000e+00 0.000000000000000e+00 0.000000000000000e+00
0.000000000000000e+00 0.000000000000000e+00 0.000000000000000e+00
0.000000000000000e+00 0.000000000000000e+00 0.000000000000000e+00

0.000000000000000e+00 0.000000000000000e+00 0.000000000000000e+00
0.000000000000000e+00 0.000000000000000e+00 0.000000000000000e+00
0.000000000000000e+00 0.000000000000000e+00 0.000000000000000e+00

0.000000000000000e+00 0.000000000000000e+00 0.000000000000000e+00
0.000000000000000e+00 0.000000000000000e+00 0.000000000000000e+00
0.000000000000000e+00 0.000000000000000e+00 0.000000000000000e+00

0.000000000000000e+00 0.000000000000000e+00 0.000000000000000e+00
0.000000000000000e+00 0.000000000000000e+00 0.000000000000000e+00
0.000000000000000e+00 0.000000000000000e+00 0.000000000000000e+00

0.000000000000000e+00 0.000000000000000e+00 0.000000000000000e+00
0.000000000000000e+00 0.000000000000000e+00 0.000000000000000e+00
0.000000000000000e+00 0.000000000000000e+00 0.000000000000000e+00

0.000000000000000e+00 0.000000000000000e+00 0.000000000000000e+00
0.000000000000000e+00 0.000000000000000e+00 0.000000000000000e+00
0.000000000000000e+00 0.000000000000000e+00 0.000000000000000e+00

0.000000000000000e+00 0.000000000000000e+00 0.000000000000000e+00
0.000000000000000e+00 0.000000000000000e+00 0.000000000000000e+00
0.000000000000000e+00 0.000000000000000e+00 0.000000000000000e+00

0.000000000000000e+00 0.000000000000000e+00 0.000000000000000e+00
0.000000000000000e+00 0.000000000000000e+00 0.000000000000000e+00
0.000000000000000e+00 0.000000000000000e+00 0.000000000000000e+00

0.000000000000000e+00 0.000000000000000e+00 0.000000000000000e+00
0.000000000000000e+00 0.000000000000000e+00 0.000000000000000e+00
0.000000000000000e+00 0.000000000000000e+00 0.000000000000000e+00

0.000000000000000e+00 0.000000000000000e+00 0.000000000000000e+00
0.000000000000000e+00 0.000000000000000e+00 0.000000000000000e+00
0.000000000000000e+00 0.000000000000000e+00 0.000000000000000e+00

0.000000000000000e+00 0.000000000000000e+00 0.000000000000000e+00
0.000000000000000e+00 0.000000000000000e+00 0.000000000000000e+00
0.000000000000000e+00 0.000000000000000e+00 0.000000000000000e+00

0.000000000000000e+00 0.000000000000000e+00 0.000000000000000e+00
0.000000000000000e+00 0.000000000000000e+00 0.000000000000000e+00
0.000000000000000e+00 0.000000000000000e+00 0.000000000000000e+00

0.000000000000000e+00 0.000000000000000e+00 0.000000000000000e+00
0.000000000000000e+00 0.000000000000000e+00 0.000000000000000e+00
0.000000000000000e+00 0.000000000000000e+00 0.000000000000000e+00

0.000000000000000e+00 0.000000000000000e+00 0.000000000000000e+00
0.000000000000000e+00 0.000000000000000e+00 0.000000000000000e+00
0.000000000000000e+00 0.000000000000000e+00 0.000000000000000e+00

0.000000000000000e+00 0.000000000000000e+00 0.000000000000000e+00
0.000000000000000e+00 0.000000000000000e+00 0.000000000000000e+00
0.000000000000000e+00 0.000000000000000e+00 0.000000000000000e+00

0.000000000000000e+00 0.000000000000000e+00 0.000000000000000e+00
0.000000000000000e+00 0.000000000000000e+00 0.000000000000000e+00
0.000000000000000e+00 0.000000000000000e+00 0.000000000000000e+00

0.000000000000000e+00 0.000000000000000e+00 0.000000000000000e+00
0.000000000000000e+00 0.000000000000000e+00 0.000000000000000e+00
0.000000000000000e+00 0.000000000000000e+00 0.000000000000000e+00

0.000000000000000e+00 0.000000000000000e+00 0.000000000000000e+00
0.000000000000000e+00 0.000000000000000e+00 0.000000000000000e+00
0.000000000000000e+00 0.000000000000000e+00 0.000000000000000e+00

0.000000000000000e+00 0.000000000000000e+00 0.000000000000000e+00
0.000000000000000e+00 0.000000000000000e+00 0.000000000000000e+00
0.000000000000000e+00 0.000000000000000e+00 0.000000000000000e+00

0.000000000000000e+00 0.000000000000000e+00 0.000000000000000e+00
0.000000000000000e+00 0.000000000000000e+00 0.000000000000000e+00
0.000000000000000e+00 0.000000000000000e+00 0.000000000000000e+00

0.000000000000000e+00 0.000000000000000e+00 0.000000000000000e+00
0.000000000000000e+00 0.000000000000000e+00 0.000000000000000e+00
0.000000000000000e+00 0.000000000000000e+00 0.000000000000000e+00

0.000000000000000e+00 0.000000000000000e+00 0.000000000000000e+00
0.000000000000000e+00 0.000000000000000e+00 0.000000000000000e+00
0.000000000000000e+00 0.000000000000000e+00 0.000000000000000e+00

0.000000000000000e+00 0.000000000000000e+00 0.000000000000000e+00
0.000000000000000e+00 0.000000000000000e+00 0.000000000000000e+00
0.000000000000000e+00 0.000000000000000e+00 0.000000000000000e+00

0.000000000000000e+00 0.000000000000000e+00 0.000000000000000e+00
0.000000000000000e+00 0.000000000000000e+00 0.000000000000000e+00
0.000000000000000e+00 0.000000000000000e+00 0.000000000000000e+00

0.000000000000000e+00 0.000000000000000e+00 0.000000000000000e+00
0.000000000000000e+00 0.000000000000000e+00 0.000000000000000e+00
0.000000000000000e+00 0.000000000000000e+00 0.000000000000000e+00

0.000000000000000e+00 0.000000000000000e+00 0.000000000000000e+00
0.000000000000000e+00 0.000000000000000e+00 0.000000000000000e+00
0.000000000000000e+00 0.000000000000000e+00 0.000000000000000e+00

0.000000000000000e+00 0.000000000000000e+00 0.000000000000000e+00
0.000000000000000e+00 0.000000000000000e+00 0.000000000000000e+00
0.000000000000000e+00 0.000000000000000e+00 0.000000000000000e+00

0.000000000000000e+00 0.000000000000000e+00 0.000000000000000e+00
0.000000000000000e+00 0.000000000000000e+00 0.000000000000000e+00
0.000000000000000e+00 0.000000000000000e+00 0.000000000000000e+00

0.000000000000000e+00 0.000000000000000e+00 0.000000000000000e+00
0.000000000000000e+00 0.000000000000000e+00 0.000000000000000e+00
0.000000000000000e+00 0.000000000000000e+00 0.000000000000000e+00

0.000000000000000e+00 0.000000000000000e+00 0.000000000000000e+00
0.000000000000000e+00 0.000000000000000e+00 0.000000000000000e+00
0.000000000000000e+00 0.000000000000000e+00 0.000000000000000e+00

0.000000000000000e+00 0.000000000000000e+00 0.000000000000000e+00
0.000000000000000e+00 0.000000000000000e+00 0.000000000000000e+00
0.000000000000000e+00 0.000000000000000e+00 0.000000000000000e+00

0.000000000000000e+00 0.000000000000000e+00 0.000000000000000e+00
0.000000000000000e+00 0.000000000000000e+00 0.000000000000000e+00
0.000000000000000e+00 0.000000000000000e+00 0.000000000000000e+00

0.000000000000000e+00 0.000000000000000e+00 0.000000000000000e+00
0.000000000000000e+00 0.000000000000000e+00 0.000000000000000e+00
0.000000000000000e+00 0.000000000000000e+00 0.000000000000000e+00

0.000000000000000e+00 0.000000000000000e+00 0.000000000000000e+00
0.000000000000000e+00 0.000000000000000e+00 0.000000000000000e+00
0.000000000000000e+00 0.000000000000000e+00 0.000000000000000e+00

0.000000000000000e+00 0.000000000000000e+00 0.000000000000000e+00
0.000000000000000e+00 0.000000000000000e+00 0.000000000000000e+00
0.000000000000000e+00 0.000000000000000e+00 0.000000000000000e+00

0.000000000000000e+00 0.000000000000000e+00 0.000000000000000e+00
0.000000000000000e+00 0.000000000000000e+00 0.000000000000000e+00
0.000000000000000e+00 0.000000000000000e+00 0.000000000000000e+00

0.000000000000000e+00 0.000000000000000e+00 0.000000000000000e+00
0.000000000000000e+00 0.000000000000000e+00 0.000000000000000e+00
0.000000000000000e+00 0.000000000000000e+00 0.000000000000000e+00

0.000000000000000e+00 0.000000000000000e+00 0.000000000000000e+00
0.000000000000000e+00 0.000000000000000e+00 0.000000000000000e+00
0.000000000000000e+00 0.000000000000000e+00 0.000000000000000e+00

0.000000000000000e+00 0.000000000000000e+00 0.000000000000000e+00
0.000000000000000e+00 0.000000000000000e+00 0.000000000000000e+00
0.000000000000000e+00 0.000000000000000e+00 0.000000000000000e+00

0.000000000000000e+00 0.000000000000000e+00 0.000000000000000e+00
0.000000000000000e+00 0.000000000000000e+00 0.000000000000000e+00
0.000000000000000e+00 0.000000000000000e+00 0.000000000000000e+00

0.000000000000000e+00 0.000000000000000e+00 0.000000000000000e+00
0.000000000000000e+00 0.000000000000000e+00 0.000000000000000e+00
0.000000000000000e+00 0.000000000000000e+00 0.000000000000000e+00

0.000000000000000e+00 0.000000000000000e+00 0.000000000000000e+00
0.000000000000000e+00 0.000000000000000e+00 0.000000000000000e+00
0.000000000000000e+00 0.000000000000000e+00 0.000000000000000e+00

0.000000000000000e+00 0.000000000000000e+00 0.000000000000000e+00
0.000000000000000e+00 0.000000000000000e+00 0.000000000000000e+00
0.000000000000000e+00 0.000000000000000e+00 0.000000000000000e+00

0.000000000000000e+00 0.000000000000000e+00 0.000000000000000e+00
0.000000000000000e+00 0.000000000000000e+00 0.000000000000000e+00
0.000000000000000e+00 0.000000000000000e+00 0.000000000000000e+00

0.000000000000000e+00 0.000000000000000e+00 0.000000000000000e+00
0.000000000000000e+00 0.000000000000000e+00 0.000000000000000e+00
0.000000000000000e+00 0.000000000000000e+00 0.000000000000000e+00

0.000000000000000e+00 0.000000000000000e+00 0.000000000000000e+00
0.000000000000000e+00 0.000000000000000e+00 0.000000000000000e+00
0.000000000000000e+00 0.000000000000000e+00 0.000000000000000e+00

0.000000000000000e+00 0.000000000000000e+00 0.000000000000000e+00
0.000000000000000e+00 0.000000000000000e+00 0.000000000000000e+00
0.000000000000000e+00 0.000000000000000e+00 0.000000000000000e+00

0.000000000000000e+00 0.000000000000000e+00 0.000000000000000e+00
0.000000000000000e+00 0.000000000000000e+00 0.000000000000000e+00
0.000000000000000e+00 0.000000000000000e+00 0.000000000000000e+00

0.000000000000000e+00 0.000000000000000e+00 0.000000000000000e+00
0.000000000000000e+00 0.000000000000000e+00 0.000000000000000e+00
0.000000000000000e+00 0.000000000000000e+00 0.000000000000000e+00

0.000000000000000e+00 0.000000000000000e+00 0.000000000000000e+00
0.000000000000000e+00 0.000000000000000e+00 0.000000000000000e+00
0.000000000000000e+00 0.000000000000000e+00 0.000000000000000e+00

0.000000000000000e+00 0.000000000000000e+00 0.000000000000000e+00
0.000000000000000e+00 0.000000000000000e+00 0.000000000000000e+00
0.000000000000000e+00 0.000000000000000e+00 0.000000000000000e+00

0.000000000000000e+00 0.000000000000000e+00 0.000000000000000e+00
0.000000000000000e+00 0.000000000000000e+00 0.000000000000000e+00
0.000000000000000e+00 0.000000000000000e+00 0.000000000000000e+00

0.000000000000000e+00 0.000000000000000e+00 0.000000000000000e+00
0.000000000000000e+00 0.000000000000000e+00 0.000000000000000e+00
0.000000000000000e+00 0.000000000000000e+00 0.000000000000000e+00

0.000000000000000e+00 0.000000000000000e+00 0.000000000000000e+00
0.000000000000000e+00 0.000000000000000e+00 0.000000000000000e+00
0.000000000000000e+00 0.000000000000000e+00 0.000000000000000e+00

0.000000000000000e+00 0.000000000000000e+00 0.000000000000000e+00
0.000000000000000e+00 0.000000000000000e+00 0.000000000000000e+00
0.000000000000000e+00 0.000000000000000e+00 0.000000000000000e+00

0.000000000000000e+00 0.000000000000000e+00 0.000000000000000e+00
0.000000000000000e+00 0.000000000000000e+00 0.000000000000000e+00
0.000000000000000e+00 0.000000000000000e+00 0.000000000000000e+00

0.000000000000000e+00 0.000000000000000e+00 0.000000000000000e+00
0.000000000000000e+00 0.000000000000000e+00 0.000000000000000e+00
0.000000000000000e+00 0.000000000000000e+00 0.000000000000000e+00

0.000000000000000e+00 0.000000000000000e+00 0.000000000000000e+00
0.000000000000000e+00 0.000000000000000e+00 0.000000000000000e+00
0.000000000000000e+00 0.000000000000000e+00 0.000000000000000e+00

0.000000000000000e+00 0.000000000000000e+00 0.000000000000000e+00
0.000000000000000e+00 0.000000000000000e+00 0.000000000000000e+00
0.000000000000000e+00 0.000000000000000e+00 0.000000000000000e+00

0.000000000000000e+00 0.000000000000000e+00 0.000000000000000e+00
0.000000000000000e+00 0.000000000000000e+00 0.000000000000000e+00
0.000000000000000e+00 0.000000000000000e+00 0.000000000000000e+00

0.000000000000000e+00 0.000000000000000e+00 0.000000000000000e+00
0.000000000000000e+00 0.000000000000000e+00 0.000000000000000e+00
0.000000000000000e+00 0.000000000000000e+00 0.000000000000000e+00

0.000000000000000e+00 0.000000000000000e+00 0.000000000000000e+00
0.000000000000000e+00 0.000000000000000e+00 0.000000000000000e+00
0.000000000000000e+00 0.000000000000000e+00 0.000000000000000e+00

0.000000000000000e+00 0.000000000000000e+00 0.000000000000000e+00
0.000000000000000e+00 0.000000000000000e+00 0.000000000000000e+00
0.000000000000000e+00 0.000000000000000e+00 0.000000000000000e+00

0.000000000000000e+00 0.000000000000000e+00 0.000000000000000e+00
0.000000000000000e+00 0.000000000000000e+00 0.000000000000000e+00
0.000000000000000e+00 0.000000000000000e+00 0.000000000000000e+00

0.000000000000000e+00 0.000000000000000e+00 0.000000000000000e+00
0.000000000000000e+00 0.000000000000000e+00 0.000000000000000e+00
0.000000000000000e+00 0.000000000000000e+00 0.000000000000000e+00

0.000000000000000e+00 0.000000000000000e+00 0.000000000000000e+00
0.000000000000000e+00 0.000000000000000e+00 0.000000000000000e+00
0.000000000000000e+00 0.000000000000000e+00 0.000000000000000e+00

0.000000000000000e+00 0.000000000000000e+00 0.000000000000000e+00
0.000000000000000e+00 0.000000000000000e+00 0.000000000000000e+00
0.000000000000000e+00 0.000000000000000e+00 0.000000000000000e+00

0.000000000000000e+00 0.000000000000000e+00 0.000000000000000e+00
0.000000000000000e+00 0.000000000000000e+00 0.000000000000000e+00
0.000000000000000e+00 0.000000000000000e+00 0.000000000000000e+00

0.000000000000000e+00 0.000000000000000e+00 0.000000000000000e+00
0.000000000000000e+00 0.000000000000000e+00 0.000000000000000e+00
0.000000000000000e+00 0.000000000000000e+00 0.000000000000000e+00

0.000000000000000e+00 0.000000000000000e+00 0.000000000000000e+00
0.000000000000000e+00 0.000000000000000e+00 0.000000000000000e+00
0.000000000000000e+00 0.000000000000000e+00 0.000000000000000e+00

0.000000000000000e+00 0.000000000000000e+00 0.000000000000000e+00
0.000000000000000e+00 0.000000000000000e+00 0.000000000000000e+00
0.000000000000000e+00 0.000000000000000e+00 0.000000000000000e+00

0.000000000000000e+00 0.000000000000000e+00 0.000000000000000e+00
0.000000000000000e+00 0.000000000000000e+00 0.000000000000000e+00
0.000000000000000e+00 0.000000000000000e+00 0.000000000000000e+00

0.000000000000000e+00 0.000000000000000e+00 0.000000000000000e+00
0.000000000000000e+00 0.000000000000000e+00 0.000000000000000e+00
0.000000000000000e+00 0.000000000000000e+00 0.000000000000000e+00

0.000000000000000e+00 0.000000000000000e+00 0.000000000000000e+00
0.000000000000000e+00 0.000000000000000e+00 0.000000000000000e+00
0.000000000000000e+00 0.000000000000000e+00 0.000000000000000e+00

0.000000000000000e+00 0.000000000000000e+00 0.000000000000000e+00
0.000000000000000e+00 0.000000000000000e+00 0.000000000000000e+00
0.000000000000000e+00 0.000000000000000e+00 0.000000000000000e+00

0.000000000000000e+00 0.000000000000000e+00 0.000000000000000e+00
0.000000000000000e+00 0.000000000000000e+00 0.000000000000000e+00
0.000000000000000e+00 0.000000000000000e+00 0.000000000000000e+00

0.000000000000000e+00 0.000000000000000e+00 0.000000000000000e+00
0.000000000000000e+00 0.000000000000000e+00 0.000000000000000e+00
0.000000000000000e+00 0.000000000000000e+00 0.000000000000000e+00

0.000000000000000e+00 0.000000000000000e+00 0.000000000000000e+00
0.000000000000000e+00 0.000000000000000e+00 0.000000000000000e+00
0.000000000000000e+00 0.000000000000000e+00 0.000000000000000e+00

0.000000000000000e+00 0.000000000000000e+00 0.000000000000000e+00
0.000000000000000e+00 0.000000000000000e+00 0.000000000000000e+00
0.000000000000000e+00 0.000000000000000e+00 0.000000000000000e+00

0.000000000000000e+00 0.000000000000000e+00 0.000000000000000e+00
0.000000000000000e+00 0.000000000000000e+00 0.000000000000000e+00
0.000000000000000e+00 0.000000000000000e+00 0.000000000000000e+00

0.000000000000000e+00 0.000000000000000e+00 0.000000000000000e+00
0.000000000000000e+00 0.000000000000000e+00 0.000000000000000e+00
0.000000000000000e+00 0.000000000000000e+00 0.000000000000000e+00

0.000000000000000e+00 0.000000000000000e+00 0.000000000000000e+00
0.000000000000000e+00 0.000000000000000e+00 0.000000000000000e+00
0.000000000000000e+00 0.000000000000000e+00 0.000000000000000e+00

0.000000000000000e+00 0.000000000000000e+00 0.000000000000000e+00
0.000000000000000e+00 0.000000000000000e+00 0.000000000000000e+00
0.000000000000000e+00 0.000000000000000e+00 0.000000000000000e+00

0.000000000000000e+00 0.000000000000000e+00 0.000000000000000e+00
0.000000000000000e+00 0.000000000000000e+00 0.000000000000000e+00
0.000000000000000e+00 0.000000000000000e+00 0.000000000000000e+00

0.000000000000000e+00 0.000000000000000e+00 0.000000000000000e+00
0.000000000000000e+00 0.000000000000000e+00 0.000000000000000e+00
0.000000000000000e+00 0.000000000000000e+00 0.000000000000000e+00

0.000000000000000e+00 0.000000000000000e+00 0.000000000000000e+00
0.000000000000000e+00 0.000000000000000e+00 0.000000000000000e+00
0.000000000000000e+00 0.000000000000000e+00 0.000000000000000e+00

0.000000000000000e+00 0.000000000000000e+00 0.000000000000000e+00
0.000000000000000e+00 0.000000000000000e+00 0.000000000000000e+00
0.000000000000000e+00 0.000000000000000e+00 0.000000000000000e+00

0.000000000000000e+00 0.000000000000000e+00 0.000000000000000e+00
0.000000000000000e+00 0.000000000000000e+00 0.000000000000000e+00
0.000000000000000e+00 0.000000000000000e+00 0.000000000000000e+00

0.000000000000000e+00 0.000000000000000e+00 0.000000000000000e+00
0.000000000000000e+00 0.000000000000000e+00 0.000000000000000e+00
0.000000000000000e+00 0.000000000000000e+00 0.000000000000000e+00

0.000000000000000e+00 0.000000000000000e+00 0.000000000000000e+00
0.000000000000000e+00 0.000000000000000e+00 0.000000000000000e+00
0.000000000000000e+00 0.000000000000000e+00 0.000000000000000e+00

0.000000000000000e+00 0.000000000000000e+00 0.000000000000000e+00
0.000000000000000e+00 0.000000000000000e+00 0.000000000000000e+00
0.000000000000000e+00 0.000000000000000e+00 0.000000000000000e+00

0.000000000000000e+00 0.000000000000000e+00 0.000000000000000e+00
0.000000000000000e+00 0.000000000000000e+00 0.000000000000000e+00
0.000000000000000e+00 0.000000000000000e+00 0.000000000000000e+00

0.000000000000000e+00 0.000000000000000e+00 0.000000000000000e+00
0.000000000000000e+00 0.000000000000000e+00 0.000000000000000e+00
0.000000000000000e+00 0.000000000000000e+00 0.000000000000000e+00

0.000000000000000e+00 0.000000000000000e+00 0.000000000000000e+00
0.000000000000000e+00 0.000000000000000e+00 0.000000000000000e+00
0.000000000000000e+00 0.000000000000000e+00 0.000000000000000e+00

0.000000000000000e+00 0.000000000000000e+00 0.000000000000000e+00
0.000000000000000e+00 0.000000000000000e+00 0.000000000000000e+00
0.000000000000000e+00 0.000000000000000e+00 0.000000000000000e+00

0.000000000000000e+00 0.000000000000000e+00 0.000000000000000e+00
0.000000000000000e+00 0.000000000000000e+00 0.000000000000000e+00
0.000000000000000e+00 0.000000000000000e+00 0.000000000000000e+00

0.000000000000000e+00 0.000000000000000e+00 0.000000000000000e+00
0.000000000000000e+00 0.000000000000000e+00 0.000000000000000e+00
0.000000000000000e+00 0.000000000000000e+00 0.000000000000000e+00

0.000000000000000e+00 0.000000000000000e+00 0.000000000000000e+00
0.000000000000000e+00 0.000000000000000e+00 0.000000000000000e+00
0.000000000000000e+00 0.000000000000000e+00 0.000000000000000e+00

0.000000000000000e+00 0.000000000000000e+00 0.000000000000000e+00
0.000000000000000e+00 0.000000000000000e+00 0.000000000000000e+00
0.000000000000000e+00 0.000000000000000e+00 0.000000000000000e+00

0.000000000000000e+00 0.000000000000000e+00 0.000000000000000e+00
0.000000000000000e+00 0.000000000000000e+00 0.000000000000000e+00
0.000000000000000e+00 0.000000000000000e+00 0.000000000000000e+00

0.000000000000000e+00 0.000000000000000e+00 0.000000000000000e+00
0.000000000000000e+00 0.000000000000000e+00 0.000000000000000e+00
0.000000000000000e+00 0.000000000000000e+00 0.000000000000000e+00

0.000000000000000e+00 0.000000000000000e+00 0.000000000000000e+00
0.000000000000000e+00 0.000000000000000e+00 0.000000000000000e+00
0.000000000000000e+00 0.000000000000000e+00 0.000000000000000e+00

0.000000000000000e+00 0.000000000000000e+00 0.000000000000000e+00
0.000000000000000e+00 0.000000000000000e+00 0.000000000000000e+00
0.000000000000000e+00 0.000000000000000e+00 0.000000000000000e+00

0.000000000000000e+00 0.000000000000000e+00 0.000000000000000e+00
0.000000000000000e+00 0.000000000000000e+00 0.000000000000000e+00
0.000000000000000e+00 0.000000000000000e+00 0.000000000000000e+00

0.000000000000000e+00 0.000000000000000e+00 0.000000000000000e+00
0.000000000000000e+00 0.000000000000000e+00 0.000000000000000e+00
0.000000000000000e+00 0.000000000000000e+00 0.000000000000000e+00

0.000000000000000e+00 0.000000000000000e+00 0.000000000000000e+00
0.000000000000000e+00 0.000000000000000e+00 0.000000000000000e+00
0.000000000000000e+00 0.000000000000000e+00 0.000000000000000e+00

0.000000000000000e+00 0.000000000000000e+00 0.000000000000000e+00
0.000000000000000e+00 0.000000000000000e+00 0.000000000000000e+00
0.000000000000000e+00 0.000000000000000e+00 0.000000000000000e+00

0.000000000000000e+00 0.000000000000000e+00 0.000000000000000e+00
0.000000000000000e+00 0.000000000000000e+00 0.000000000000000e+00
0.000000000000000e+00 0.000000000000000e+00 0.000000000000000e+00

0.000000000000000e+00 0.000000000000000e+00 0.000000000000000e+00
0.000000000000000e+00 0.000000000000000e+00 0.000000000000000e+00
0.000000000000000e+00 0.000000000000000e+00 0.000000000000000e+00

0.000000000000000e+00 0.000000000000000e+00 0.000000000000000e+00
0.000000000000000e+00 0.000000000000000e+00 0.000000000000000e+00
0.000000000000000e+00 0.000000000000000e+00 0.000000000000000e+00

0.000000000000000e+00 0.000000000000000e+00 0.000000000000000e+00
0.000000000000000e+00 0.000000000000000e+00 0.000000000000000e+00
0.000000000000000e+00 0.000000000000000e+00 0.000000000000000e+00

0.000000000000000e+00 0.000000000000000e+00 0.000000000000000e+00
0.000000000000000e+00 0.000000000000000e+00 0.000000000000000e+00
0.000000000000000e+00 0.000000000000000e+00 0.000000000000000e+00

0.000000000000000e+00 0.000000000000000e+00 0.000000000000000e+00
0.000000000000000e+00 0.000000000000000e+00 0.000000000000000e+00
0.000000000000000e+00 0.000000000000000e+00 0.000000000000000e+00

0.000000000000000e+00 0.000000000000000e+00 0.000000000000000e+00
0.000000000000000e+00 0.000000000000000e+00 0.000000000000000e+00
0.000000000000000e+00 0.000000000000000e+00 0.000000000000000e+00

0.000000000000000e+00 0.000000000000000e+00 0.000000000000000e+00
0.000000000000000e+00 0.000000000000000e+00 0.000000000000000e+00
0.000000000000000e+00 0.000000000000000e+00 0.000000000000000e+00

0.000000000000000e+00 0.000000000000000e+00 0.000000000000000e+00
0.000000000000000e+00 0.000000000000000e+00 0.000000000000000e+00
0.000000000000000e+00 0.000000000000000e+00 0.000000000000000e+00

0.000000000000000e+00 0.000000000000000e+00 0.000000000000000e+00
0.000000000000000e+00 0.000000000000000e+00 0.000000000000000e+00
0.000000000000000e+00 0.000000000000000e+00 0.000000000000000e+00

0.000000000000000e+00 0.000000000000000e+00 0.000000000000000e+00
0.000000000000000e+00 0.000000000000000e+00 0.000000000000000e+00
0.000000000000000e+00 0.000000000000000e+00 0.000000000000000e+00

0.000000000000000e+00 0.000000000000000e+00 0.000000000000000e+00
0.000000000000000e+00 0.000000000000000e+00 0.000000000000000e+00
0.000000000000000e+00 0.000000000000000e+00 0.000000000000000e+00

0.000000000000000e+00 0.000000000000000e+00 0.000000000000000e+00
0.000000000000000e+00 0.000000000000000e+00 0.000000000000000e+00
0.000000000000000e+00 0.000000000000000e+00 0.000000000000000e+00

0.000000000000000e+00 0.000000000000000e+00 0.000000000000000e+00
0.000000000000000e+00 0.000000000000000e+00 0.000000000000000e+00
0.000000000000000e+00 0.000000000000000e+00 0.000000000000000e+00

0.000000000000000e+00 0.000000000000000e+00 0.000000000000000e+00
0.000000000000000e+00 0.000000000000000e+00 0.000000000000000e+00
0.000000000000000e+00 0.000000000000000e+00 0.000000000000000e+00

0.000000000000000e+00 0.000000000000000e+00 0.000000000000000e+00
0.000000000000000e+00 0.000000000000000e+00 0.000000000000000e+00
0.000000000000000e+00 0.000000000000000e+00 0.000000000000000e+00

0.000000000000000e+00 0.000000000000000e+00 0.000000000000000e+00
0.000000000000000e+00 0.000000000000000e+00 0.000000000000000e+00
0.000000000000000e+00 0.000000000000000e+00 0.000000000000000e+00

0.000000000000000e+00 0.000000000000000e+00 0.000000000000000e+00
0.000000000000000e+00 0.000000000000000e+00 0.000000000000000e+00
0.000000000000000e+00 0.000000000000000e+00 0.000000000000000e+00

0.000000000000000e+00 0.000000000000000e+00 0.000000000000000e+00
0.000000000000000e+00 0.000000000000000e+00 0.000000000000000e+00
0.000000000000000e+00 0.000000000000000e+00 0.000000000000000e+00

0.000000000000000e+00 0.000000000000000e+00 0.000000000000000e+00
0.000000000000000e+00 0.000000000000000e+00 0.000000000000000e+00
0.000000000000000e+00 0.000000000000000e+00 0.000000000000000e+00

0.000000000000000e+00 0.000000000000000e+00 0.000000000000000e+00
0.000000000000000e+00 0.000000000000000e+00 0.000000000000000e+00
0.000000000000000e+00 0.000000000000000e+00 0.000000000000000e+00

0.000000000000000e+00 0.000000000000000e+00 0.000000000000000e+00
0.000000000000000e+00 0.000000000000000e+00 0.000000000000000e+00
0.000000000000000e+00 0.000000000000000e+00 0.000000000000000e+00

0.000000000000000e+00 0.000000000000000e+00 0.000000000000000e+00
0.000000000000000e+00 0.000000000000000e+00 0.000000000000000e+00
0.000000000000000e+00 0.000000000000000e+00 0.000000000000000e+00

0.000000000000000e+00 0.000000000000000e+00 0.000000000000000e+00
0.000000000000000e+00 0.000000000000000e+00 0.000000000000000e+00
0.000000000000000e+00 0.000000000000000e+00 0.000000000000000e+00

0.000000000000000e+00 0.000000000000000e+00 0.000000000000000e+00
0.000000000000000e+00 0.000000000000000e+00 0.000000000000000e+00
0.000000000000000e+00 0.000000000000000e+00 0.000000000000000e+00

0.000000000000000e+00 0.000000000000000e+00 0.000000000000000e+00
0.000000000000000e+00 0.000000000000000e+00 0.000000000000000e+00
0.000000000000000e+00 0.000000000000000e+00 0.000000000000000e+00

0.000000000000000e+00 0.000000000000000e+00 0.000000000000000e+00
0.000000000000000e+00 0.000000000000000e+00 0.000000000000000e+00
0.000000000000000e+00 0.000000000000000e+00 0.000000000000000e+00

0.000000000000000e+00 0.000000000000000e+00 0.000000000000000e+00
0.000000000000000e+00 0.000000000000000e+00 0.000000000000000e+00
0.000000000000000e+00 0.000000000000000e+00 0.000000000000000e+00

0.000000000000000e+00 0.000000000000000e+00 0.000000000000000e+00
0.000000000000000e+00 0.000000000000000e+00 0.000000000000000e+00
0.000000000000000e+00 0.000000000000000e+00 0.000000000000000e+00

0.000000000000000e+00 0.000000000000000e+00 0.000000000000000e+00
0.000000000000000e+00 0.000000000000000e+00 0.000000000000000e+00
0.000000000000000e+00 0.000000000000000e+00 0.000000000000000e+00

0.000000000000000e+00 0.000000000000000e+00 0.000000000000000e+00
0.000000000000000e+00 0.000000000000000e+00 0.000000000000000e+00
0.000000000000000e+00 0.000000000000000e+00 0.000000000000000e+00

0.000000000000000e+00 0.000000000000000e+00 0.000000000000000e+00
0.000000000000000e+00 0.000000000000000e+00 0.000000000000000e+00
0.000000000000000e+00 0.000000000000000e+00 0.000000000000000e+00

0.000000000000000e+00 0.000000000000000e+00 0.000000000000000e+00
0.000000000000000e+00 0.000000000000000e+00 0.000000000000000e+00
0.000000000000000e+00 0.000000000000000e+00 0.000000000000000e+00

0.000000000000000e+00 0.000000000000000e+00 0.000000000000000e+00
0.000000000000000e+00 0.000000000000000e+00 0.000000000000000e+00
0.000000000000000e+00 0.000000000000000e+00 0.000000000000000e+00

0.000000000000000e+00 0.000000000000000e+00 0.000000000000000e+00
0.000000000000000e+00 0.000000000000000e+00 0.000000000000000e+00
0.000000000000000e+00 0.000000000000000e+00 0.000000000000000e+00

0.000000000000000e+00 0.000000000000000e+00 0.000000000000000e+00
0.000000000000000e+00 0.000000000000000e+00 0.000000000000000e+00
0.000000000000000e+00 0.000000000000000e+00 0.000000000000000e+00

0.000000000000000e+00 0.000000000000000e+00 0.000000000000000e+00
0.000000000000000e+00 0.000000000000000e+00 0.000000000000000e+00
0.000000000000000e+00 0.000000000000000e+00 0.000000000000000e+00

0.000000000000000e+00 0.000000000000000e+00 0.000000000000000e+00
0.000000000000000e+00 0.000000000000000e+00 0.000000000000000e+00
0.000000000000000e+00 0.000000000000000e+00 0.000000000000000e+00

0.000000000000000e+00 0.000000000000000e+00 0.000000000000000e+00
0.000000000000000e+00 0.000000000000000e+00 0.000000000000000e+00
0.000000000000000e+00 0.000000000000000e+00 0.000000000000000e+00

0.000000000000000e+00 0.000000000000000e+00 0.000000000000000e+00
0.000000000000000e+00 0.000000000000000e+00 0.000000000000000e+00
0.000000000000000e+00 0.000000000000000e+00 0.000000000000000e+00

0.000000000000000e+00 0.000000000000000e+00 0.000000000000000e+00
0.000000000000000e+00 0.000000000000000e+00 0.000000000000000e+00
0.000000000000000e+00 0.000000000000000e+00 0.000000000000000e+00

0.000000000000000e+00 0.000000000000000e+00 0.000000000000000e+00
0.000000000000000e+00 0.000000000000000e+00 0.000000000000000e+00
0.000000000000000e+00 0.000000000000000e+00 0.000000000000000e+00

0.000000000000000e+00 0.000000000000000e+00 0.000000000000000e+00
0.000000000000000e+00 0.000000000000000e+00 0.000000000000000e+00
0.000000000000000e+00 0.000000000000000e+00 0.000000000000000e+00

0.000000000000000e+00 0.000000000000000e+00 0.000000000000000e+00
0.000000000000000e+00 0.000000000000000e+00 0.000000000000000e+00
0.000000000000000e+00 0.000000000000000e+00 0.000000000000000e+00

0.000000000000000e+00 0.000000000000000e+00 0.000000000000000e+00
0.000000000000000e+00 0.000000000000000e+00 0.000000000000000e+00
0.000000000000000e+00 0.000000000000000e+00 0.000000000000000e+00

0.000000000000000e+00 0.000000000000000e+00 0.000000000000000e+00
0.000000000000000e+00 0.000000000000000e+00 0.000000000000000e+00
0.000000000000000e+00 0.000000000000000e+00 0.000000000000000e+00

0.000000000000000e+00 0.000000000000000e+00 0.000000000000000e+00
0.000000000000000e+00 0.000000000000000e+00 0.000000000000000e+00
0.000000000000000e+00 0.000000000000000e+00 0.000000000000000e+00

0.000000000000000e+00 0.000000000000000e+00 0.000000000000000e+00
0.000000000000000e+00 0.000000000000000e+00 0.000000000000000e+00
0.000000000000000e+00 0.000000000000000e+00 0.000000000000000e+00

0.000000000000000e+00 0.000000000000000e+00 0.000000000000000e+00
0.000000000000000e+00 0.000000000000000e+00 0.000000000000000e+00
0.000000000000000e+00 0.000000000000000e+00 0.000000000000000e+00

0.000000000000000e+00 0.000000000000000e+00 0.000000000000000e+00
0.000000000000000e+00 0.000000000000000e+00 0.000000000000000e+00
0.000000000000000e+00 0.000000000000000e+00 0.000000000000000e+00

0.000000000000000e+00 0.000000000000000e+00 0.000000000000000e+00
0.000000000000000e+00 0.000000000000000e+00 0.000000000000000e+00
0.000000000000000e+00 0.000000000000000e+00 0.000000000000000e+00

0.000000000000000e+00 0.000000000000000e+00 0.000000000000000e+00
0.000000000000000e+00 0.000000000000000e+00 0.000000000000000e+00
0.000000000000000e+00 0.000000000000000e+00 0.000000000000000e+00

0.000000000000000e+00 0.000000000000000e+00 0.000000000000000e+00
0.000000000000000e+00 0.000000000000000e+00 0.000000000000000e+00
0.000000000000000e+00 0.000000000000000e+00 0.000000000000000e+00

0.000000000000000e+00 0.000000000000000e+00 0.000000000000000e+00
0.000000000000000e+00 0.000000000000000e+00 0.000000000000000e+00
0.000000000000000e+00 0.000000000000000e+00 0.000000000000000e+00

0.000000000000000e+00 0.000000000000000e+00 0.000000000000000e+00
0.000000000000000e+00 0.000000000000000e+00 0.000000000000000e+00
0.000000000000000e+00 0.000000000000000e+00 0.000000000000000e+00

0.000000000000000e+00 0.000000000000000e+00 0.000000000000000e+00
0.000000000000000e+00 0.000000000000000e+00 0.000000000000000e+00
0.000000000000000e+00 0.000000000000000e+00 0.000000000000000e+00

0.000000000000000e+00 0.000000000000000e+00 0.000000000000000e+00
0.000000000000000e+00 0.000000000000000e+00 0.000000000000000e+00
0.000000000000000e+00 0.000000000000000e+00 0.000000000000000e+00

0.000000000000000e+00 0.000000000000000e+00 0.000000000000000e+00
0.000000000000000e+00 0.000000000000000e+00 0.000000000000000e+00
0.000000000000000e+00 0.000000000000000e+00 0.000000000000000e+00

0.000000000000000e+00 0.000000000000000e+00 0.000000000000000e+00
0.000000000000000e+00 0.000000000000000e+00 0.000000000000000e+00
0.000000000000000e+00 0.000000000000000e+00 0.000000000000000e+00

0.000000000000000e+00 0.000000000000000e+00 0.000000000000000e+00
0.000000000000000e+00 0.000000000000000e+00 0.000000000000000e+00
0.000000000000000e+00 0.000000000000000e+00 0.000000000000000e+00

0.000000000000000e+00 0.000000000000000e+00 0.000000000000000e+00
0.000000000000000e+00 0.000000000000000e+00 0.000000000000000e+00
0.000000000000000e+00 0.000000000000000e+00 0.000000000000000e+00

0.000000000000000e+00 0.000000000000000e+00 0.000000000000000e+00
0.000000000000000e+00 0.000000000000000e+00 0.000000000000000e+00
0.000000000000000e+00 0.000000000000000e+00 0.000000000000000e+00

0.000000000000000e+00 0.000000000000000e+00 0.000000000000000e+00
0.000000000000000e+00 0.000000000000000e+00 0.000000000000000e+00
0.000000000000000e+00 0.000000000000000e+00 0.000000000000000e+00

0.000000000000000e+00 0.000000000000000e+00 0.000000000000000e+00
0.000000000000000e+00 0.000000000000000e+00 0.000000000000000e+00
0.000000000000000e+00 0.000000000000000e+00 0.000000000000000e+00

0.000000000000000e+00 0.000000000000000e+00 0.000000000000000e+00
0.000000000000000e+00 0.000000000000000e+00 0.000000000000000e+00
0.000000000000000e+00 0.000000000000000e+00 0.000000000000000e+00

0.000000000000000e+00 0.000000000000000e+00 0.000000000000000e+00
0.000000000000000e+00 0.000000000000000e+00 0.000000000000000e+00
0.000000000000000e+00 0.000000000000000e+00 0.000000000000000e+00

0.000000000000000e+00 0.000000000000000e+00 0.000000000000000e+00
0.000000000000000e+00 0.000000000000000e+00 0.000000000000000e+00
0.000000000000000e+00 0.000000000000000e+00 0.000000000000000e+00

0.000000000000000e+00 0.000000000000000e+00 0.000000000000000e+00
0.000000000000000e+00 0.000000000000000e+00 0.000000000000000e+00
0.000000000000000e+00 0.000000000000000e+00 0.000000000000000e+00

0.000000000000000e+00 0.000000000000000e+00 0.000000000000000e+00
0.000000000000000e+00 0.000000000000000e+00 0.000000000000000e+00
0.000000000000000e+00 0.000000000000000e+00 0.000000000000000e+00

0.000000000000000e+00 0.000000000000000e+00 0.000000000000000e+00
0.000000000000000e+00 0.000000000000000e+00 0.000000000000000e+00
0.000000000000000e+00 0.000000000000000e+00 0.000000000000000e+00

0.000000000000000e+00 0.000000000000000e+00 0.000000000000000e+00
0.000000000000000e+00 0.000000000000000e+00 0.000000000000000e+00
0.000000000000000e+00 0.000000000000000e+00 0.000000000000000e+00

0.000000000000000e+00 0.000000000000000e+00 0.000000000000000e+00
0.000000000000000e+00 0.000000000000000e+00 0.000000000000000e+00
0.000000000000000e+00 0.000000000000000e+00 0.000000000000000e+00

0.000000000000000e+00 0.000000000000000e+00 0.000000000000000e+00
0.000000000000000e+00 0.000000000000000e+00 0.000000000000000e+00
0.000000000000000e+00 0.000000000000000e+00 0.000000000000000e+00

0.000000000000000e+00 0.000000000000000e+00 0.000000000000000e+00
0.000000000000000e+00 0.000000000000000e+00 0.000000000000000e+00
0.000000000000000e+00 0.000000000000000e+00 0.000000000000000e+00

0.000000000000000e+00 0.000000000000000e+00 0.000000000000000e+00
0.000000000000000e+00 0.000000000000000e+00 0.000000000000000e+00
0.000000000000000e+00 0.000000000000000e+00 0.000000000000000e+00

0.000000000000000e+00 0.000000000000000e+00 0.000000000000000e+00
0.000000000000000e+00 0.000000000000000e+00 0.000000000000000e+00
0.000000000000000e+00 0.000000000000000e+00 0.000000000000000e+00

0.000000000000000e+00 0.000000000000000e+00 0.000000000000000e+00
0.000000000000000e+00 0.000000000000000e+00 0.000000000000000e+00
0.000000000000000e+00 0.000000000000000e+00 0.000000000000000e+00

0.000000000000000e+00 0.000000000000000e+00 0.000000000000000e+00
0.000000000000000e+00 0.000000000000000e+00 0.000000000000000e+00
0.000000000000000e+00 0.000000000000000e+00 0.000000000000000e+00

0.000000000000000e+00 0.000000000000000e+00 0.000000000000000e+00
0.000000000000000e+00 0.000000000000000e+00 0.000000000000000e+00
0.000000000000000e+00 0.000000000000000e+00 0.000000000000000e+00

0.000000000000000e+00 0.000000000000000e+00 0.000000000000000e+00
0.000000000000000e+00 0.000000000000000e+00 0.000000000000000e+00
0.000000000000000e+00 0.000000000000000e+00 0.000000000000000e+00

0.000000000000000e+00 0.000000000000000e+00 0.000000000000000e+00
0.000000000000000e+00 0.000000000000000e+00 0.000000000000000e+00
0.000000000000000e+00 0.000000000000000e+00 0.000000000000000e+00

0.000000000000000e+00 0.000000000000000e+00 0.000000000000000e+00
0.000000000000000e+00 0.000000000000000e+00 0.000000000000000e+00
0.000000000000000e+00 0.000000000000000e+00 0.000000000000000e+00

0.000000000000000e+00 0.000000000000000e+00 0.000000000000000e+00
0.000000000000000e+00 0.000000000000000e+00 0.000000000000000e+00
0.000000000000000e+00 0.000000000000000e+00 0.000000000000000e+00

0.000000000000000e+00 0.000000000000000e+00 0.000000000000000e+00
0.000000000000000e+00 0.000000000000000e+00 0.000000000000000e+00
0.000000000000000e+00 0.000000000000000e+00 0.000000000000000e+00

0.000000000000000e+00 0.000000000000000e+00 0.000000000000000e+00
0.000000000000000e+00 0.000000000000000e+00 0.000000000000000e+00
0.000000000000000e+00 0.000000000000000e+00 0.000000000000000e+00

0.000000000000000e+00 0.000000000000000e+00 0.000000000000000e+00
0.000000000000000e+00 0.000000000000000e+00 0.000000000000000e+00
0.000000000000000e+00 0.000000000000000e+00 0.000000000000000e+00

0.000000000000000e+00 0.000000000000000e+00 0.000000000000000e+00
0.000000000000000e+00 0.000000000000000e+00 0.000000000000000e+00
0.000000000000000e+00 0.000000000000000e+00 0.000000000000000e+00

0.000000000000000e+00 0.000000000000000e+00 0.000000000000000e+00
0.000000000000000e+00 0.000000000000000e+00 0.000000000000000e+00
0.000000000000000e+00 0.000000000000000e+00 0.000000000000000e+00

0.000000000000000e+00 0.000000000000000e+00 0.000000000000000e+00
0.000000000000000e+00 0.000000000000000e+00 0.000000000000000e+00
0.000000000000000e+00 0.000000000000000e+00 0.000000000000000e+00

0.000000000000000e+00 0.000000000000000e+00 0.000000000000000e+00
0.000000000000000e+00 0.000000000000000e+00 0.000000000000000e+00
0.000000000000000e+00 0.000000000000000e+00 0.000000000000000e+00

0.000000000000000e+00 0.000000000000000e+00 0.000000000000000e+00
0.000000000000000e+00 0.000000000000000e+00 0.000000000000000e+00
0.000000000000000e+00 0.000000000000000e+00 0.000000000000000e+00

0.000000000000000e+00 0.000000000000000e+00 0.000000000000000e+00
0.000000000000000e+00 0.000000000000000e+00 0.000000000000000e+00
0.000000000000000e+00 0.000000000000000e+00 0.000000000000000e+00

0.000000000000000e+00 0.000000000000000e+00 0.000000000000000e+00
0.000000000000000e+00 0.000000000000000e+00 0.000000000000000e+00
0.000000000000000e+00 0.000000000000000e+00 0.000000000000000e+00

0.000000000000000e+00 0.000000000000000e+00 0.000000000000000e+00
0.000000000000000e+00 0.000000000000000e+00 0.000000000000000e+00
0.000000000000000e+00 0.000000000000000e+00 0.000000000000000e+00

0.000000000000000e+00 0.000000000000000e+00 0.000000000000000e+00
0.000000000000000e+00 0.000000000000000e+00 0.000000000000000e+00
0.000000000000000e+00 0.000000000000000e+00 0.000000000000000e+00

0.000000000000000e+00 0.000000000000000e+00 0.000000000000000e+00
0.000000000000000e+00 0.000000000000000e+00 0.000000000000000e+00
0.000000000000000e+00 0.000000000000000e+00 0.000000000000000e+00

0.000000000000000e+00 0.000000000000000e+00 0.000000000000000e+00
0.000000000000000e+00 0.000000000000000e+00 0.000000000000000e+00
0.000000000000000e+00 0.000000000000000e+00 0.000000000000000e+00

0.000000000000000e+00 0.000000000000000e+00 0.000000000000000e+00
0.000000000000000e+00 0.000000000000000e+00 0.000000000000000e+00
0.000000000000000e+00 0.000000000000000e+00 0.000000000000000e+00

0.000000000000000e+00 0.000000000000000e+00 0.000000000000000e+00
0.000000000000000e+00 0.000000000000000e+00 0.000000000000000e+00
0.000000000000000e+00 0.000000000000000e+00 0.000000000000000e+00

0.000000000000000e+00 0.000000000000000e+00 0.000000000000000e+00
0.000000000000000e+00 0.000000000000000e+00 0.000000000000000e+00
0.000000000000000e+00 0.000000000000000e+00 0.000000000000000e+00

0.000000000000000e+00 0.000000000000000e+00 0.000000000000000e+00
0.000000000000000e+00 0.000000000000000e+00 0.000000000000000e+00
0.000000000000000e+00 0.000000000000000e+00 0.000000000000000e+00

0.000000000000000e+00 0.000000000000000e+00 0.000000000000000e+00
0.000000000000000e+00 0.000000000000000e+00 0.000000000000000e+00
0.000000000000000e+00 0.000000000000000e+00 0.000000000000000e+00

0.000000000000000e+00 0.000000000000000e+00 0.000000000000000e+00
0.000000000000000e+00 0.000000000000000e+00 0.000000000000000e+00
0.000000000000000e+00 0.000000000000000e+00 0.000000000000000e+00

0.000000000000000e+00 0.000000000000000e+00 0.000000000000000e+00
0.000000000000000e+00 0.000000000000000e+00 0.000000000000000e+00
0.000000000000000e+00 0.000000000000000e+00 0.000000000000000e+00

0.000000000000000e+00 0.000000000000000e+00 0.000000000000000e+00
0.000000000000000e+00 0.000000000000000e+00 0.000000000000000e+00
0.000000000000000e+00 0.000000000000000e+00 0.000000000000000e+00

0.000000000000000e+00 0.000000000000000e+00 0.000000000000000e+00
0.000000000000000e+00 0.000000000000000e+00 0.000000000000000e+00
0.000000000000000e+00 0.000000000000000e+00 0.000000000000000e+00

0.000000000000000e+00 0.000000000000000e+00 0.000000000000000e+00
0.000000000000000e+00 0.000000000000000e+00 0.000000000000000e+00
0.000000000000000e+00 0.000000000000000e+00 0.000000000000000e+00

0.000000000000000e+00 0.000000000000000e+00 0.000000000000000e+00
0.000000000000000e+00 0.000000000000000e+00 0.000000000000000e+00
0.000000000000000e+00 0.000000000000000e+00 0.000000000000000e+00

0.000000000000000e+00 0.000000000000000e+00 0.000000000000000e+00
0.000000000000000e+00 0.000000000000000e+00 0.000000000000000e+00
0.000000000000000e+00 0.000000000000000e+00 0.000000000000000e+00

0.000000000000000e+00 0.000000000000000e+00 0.000000000000000e+00
0.000000000000000e+00 0.000000000000000e+00 0.000000000000000e+00
0.000000000000000e+00 0.000000000000000e+00 0.000000000000000e+00

0.000000000000000e+00 0.000000000000000e+00 0.000000000000000e+00
0.000000000000000e+00 0.000000000000000e+00 0.000000000000000e+00
0.000000000000000e+00 0.000000000000000e+00 0.000000000000000e+00

0.000000000000000e+00 0.000000000000000e+00 0.000000000000000e+00
0.000000000000000e+00 0.000000000000000e+00 0.000000000000000e+00
0.000000000000000e+00 0.000000000000000e+00 0.000000000000000e+00

0.000000000000000e+00 0.000000000000000e+00 0.000000000000000e+00
0.000000000000000e+00 0.000000000000000e+00 0.000000000000000e+00
0.000000000000000e+00 0.000000000000000e+00 0.000000000000000e+00

0.000000000000000e+00 0.000000000000000e+00 0.000000000000000e+00
0.000000000000000e+00 0.000000000000000e+00 0.000000000000000e+00
0.000000000000000e+00 0.000000000000000e+00 0.000000000000000e+00

0.000000000000000e+00 0.000000000000000e+00 0.000000000000000e+00
0.000000000000000e+00 0.000000000000000e+00 0.000000000000000e+00
0.000000000000000e+00 0.000000000000000e+00 0.000000000000000e+00

0.000000000000000e+00 0.000000000000000e+00 0.000000000000000e+00
0.000000000000000e+00 0.000000000000000e+00 0.000000000000000e+00
0.000000000000000e+00 0.000000000000000e+00 0.000000000000000e+00

0.000000000000000e+00 0.000000000000000e+00 0.000000000000000e+00
0.000000000000000e+00 0.000000000000000e+00 0.000000000000000e+00
0.000000000000000e+00 0.000000000000000e+00 0.000000000000000e+00

0.000000000000000e+00 0.000000000000000e+00 0.000000000000000e+00
0.000000000000000e+00 0.000000000000000e+00 0.000000000000000e+00
0.000000000000000e+00 0.000000000000000e+00 0.000000000000000e+00

0.000000000000000e+00 0.000000000000000e+00 0.000000000000000e+00
0.000000000000000e+00 0.000000000000000e+00 0.000000000000000e+00
0.000000000000000e+00 0.000000000000000e+00 0.000000000000000e+00

0.000000000000000e+00 0.000000000000000e+00 0.000000000000000e+00
0.000000000000000e+00 0.000000000000000e+00 0.000000000000000e+00
0.000000000000000e+00 0.000000000000000e+00 0.000000000000000e+00

0.000000000000000e+00 0.000000000000000e+00 0.000000000000000e+00
0.000000000000000e+00 0.000000000000000e+00 0.000000000000000e+00
0.000000000000000e+00 0.000000000000000e+00 0.000000000000000e+00

0.000000000000000e+00 0.000000000000000e+00 0.000000000000000e+00
0.000000000000000e+00 0.000000000000000e+00 0.000000000000000e+00
0.000000000000000e+00 0.000000000000000e+00 0.000000000000000e+00

0.000000000000000e+00 0.000000000000000e+00 0.000000000000000e+00
0.000000000000000e+00 0.000000000000000e+00 0.000000000000000e+00
0.000000000000000e+00 0.000000000000000e+00 0.000000000000000e+00

0.000000000000000e+00 0.000000000000000e+00 0.000000000000000e+00
0.000000000000000e+00 0.000000000000000e+00 0.000000000000000e+00
0.000000000000000e+00 0.000000000000000e+00 0.000000000000000e+00

0.000000000000000e+00 0.000000000000000e+00 0.000000000000000e+00
0.000000000000000e+00 0.000000000000000e+00 0.000000000000000e+00
0.000000000000000e+00 0.000000000000000e+00 0.000000000000000e+00

0.000000000000000e+00 0.000000000000000e+00 0.000000000000000e+00
0.000000000000000e+00 0.000000000000000e+00 0.000000000000000e+00
0.000000000000000e+00 0.000000000000000e+00 0.000000000000000e+00

0.000000000000000e+00 0.000000000000000e+00 0.000000000000000e+00
0.000000000000000e+00 0.000000000000000e+00 0.000000000000000e+00
0.000000000000000e+00 0.000000000000000e+00 0.000000000000000e+00

0.000000000000000e+00 0.000000000000000e+00 0.000000000000000e+00
0.000000000000000e+00 0.000000000000000e+00 0.000000000000000e+00
0.000000000000000e+00 0.000000000000000e+00 0.000000000000000e+00

0.000000000000000e+00 0.000000000000000e+00 0.000000000000000e+00
0.000000000000000e+00 0.000000000000000e+00 0.000000000000000e+00
0.000000000000000e+00 0.000000000000000e+00 0.000000000000000e+00

0.000000000000000e+00 0.000000000000000e+00 0.000000000000000e+00
0.000000000000000e+00 0.000000000000000e+00 0.000000000000000e+00
0.000000000000000e+00 0.000000000000000e+00 0.000000000000000e+00

0.000000000000000e+00 0.000000000000000e+00 0.000000000000000e+00
0.000000000000000e+00 0.000000000000000e+00 0.000000000000000e+00
0.000000000000000e+00 0.000000000000000e+00 0.000000000000000e+00

0.000000000000000e+00 0.000000000000000e+00 0.000000000000000e+00
0.000000000000000e+00 0.000000000000000e+00 0.000000000000000e+00
0.000000000000000e+00 0.000000000000000e+00 0.000000000000000e+00

0.000000000000000e+00 0.000000000000000e+00 0.000000000000000e+00
0.000000000000000e+00 0.000000000000000e+00 0.000000000000000e+00
0.000000000000000e+00 0.000000000000000e+00 0.000000000000000e+00

0.000000000000000e+00 0.000000000000000e+00 0.000000000000000e+00
0.000000000000000e+00 0.000000000000000e+00 0.000000000000000e+00
0.000000000000000e+00 0.000000000000000e+00 0.000000000000000e+00

0.000000000000000e+00 0.000000000000000e+00 0.000000000000000e+00
0.000000000000000e+00 0.000000000000000e+00 0.000000000000000e+00
0.000000000000000e+00 0.000000000000000e+00 0.000000000000000e+00

0.000000000000000e+00 0.000000000000000e+00 0.000000000000000e+00
0.000000000000000e+00 0.000000000000000e+00 0.000000000000000e+00
0.000000000000000e+00 0.000000000000000e+00 0.000000000000000e+00

0.000000000000000e+00 0.000000000000000e+00 0.000000000000000e+00
0.000000000000000e+00 0.000000000000000e+00 0.000000000000000e+00
0.000000000000000e+00 0.000000000000000e+00 0.000000000000000e+00

0.000000000000000e+00 0.000000000000000e+00 0.000000000000000e+00
0.000000000000000e+00 0.000000000000000e+00 0.000000000000000e+00
0.000000000000000e+00 0.000000000000000e+00 0.000000000000000e+00

0.000000000000000e+00 0.000000000000000e+00 0.000000000000000e+00
0.000000000000000e+00 0.000000000000000e+00 0.000000000000000e+00
0.000000000000000e+00 0.000000000000000e+00 0.000000000000000e+00

0.000000000000000e+00 0.000000000000000e+00 0.000000000000000e+00
0.000000000000000e+00 0.000000000000000e+00 0.000000000000000e+00
0.000000000000000e+00 0.000000000000000e+00 0.000000000000000e+00

0.000000000000000e+00 0.000000000000000e+00 0.000000000000000e+00
0.000000000000000e+00 0.000000000000000e+00 0.000000000000000e+00
0.000000000000000e+00 0.000000000000000e+00 0.000000000000000e+00

0.000000000000000e+00 0.000000000000000e+00 0.000000000000000e+00
0.000000000000000e+00 0.000000000000000e+00 0.000000000000000e+00
0.000000000000000e+00 0.000000000000000e+00 0.000000000000000e+00

0.000000000000000e+00 0.000000000000000e+00 0.000000000000000e+00
0.000000000000000e+00 0.000000000000000e+00 0.000000000000000e+00
0.000000000000000e+00 0.000000000000000e+00 0.000000000000000e+00

0.000000000000000e+00 0.000000000000000e+00 0.000000000000000e+00
0.000000000000000e+00 0.000000000000000e+00 0.000000000000000e+00
0.000000000000000e+00 0.000000000000000e+00 0.000000000000000e+00

0.000000000000000e+00 0.000000000000000e+00 0.000000000000000e+00
0.000000000000000e+00 0.000000000000000e+00 0.000000000000000e+00
0.000000000000000e+00 0.000000000000000e+00 0.000000000000000e+00

0.000000000000000e+00 0.000000000000000e+00 0.000000000000000e+00
0.000000000000000e+00 0.000000000000000e+00 0.000000000000000e+00
0.000000000000000e+00 0.000000000000000e+00 0.000000000000000e+00

0.000000000000000e+00 0.000000000000000e+00 0.000000000000000e+00
0.000000000000000e+00 0.000000000000000e+00 0.000000000000000e+00
0.000000000000000e+00 0.000000000000000e+00 0.000000000000000e+00

0.000000000000000e+00 0.000000000000000e+00 0.000000000000000e+00
0.000000000000000e+00 0.000000000000000e+00 0.000000000000000e+00
0.000000000000000e+00 0.000000000000000e+00 0.000000000000000e+00

0.000000000000000e+00 0.000000000000000e+00 0.000000000000000e+00
0.000000000000000e+00 0.000000000000000e+00 0.000000000000000e+00
0.000000000000000e+00 0.000000000000000e+00 0.000000000000000e+00

0.000000000000000e+00 0.000000000000000e+00 0.000000000000000e+00
0.000000000000000e+00 0.000000000000000e+00 0.000000000000000e+00
0.000000000000000e+00 0.000000000000000e+00 0.000000000000000e+00

0.000000000000000e+00 0.000000000000000e+00 0.000000000000000e+00
0.000000000000000e+00 0.000000000000000e+00 0.000000000000000e+00
0.000000000000000e+00 0.000000000000000e+00 0.000000000000000e+00

0.000000000000000e+00 0.000000000000000e+00 0.000000000000000e+00
0.000000000000000e+00 0.000000000000000e+00 0.000000000000000e+00
0.000000000000000e+00 0.000000000000000e+00 0.000000000000000e+00

0.000000000000000e+00 0.000000000000000e+00 0.000000000000000e+00
0.000000000000000e+00 0.000000000000000e+00 0.000000000000000e+00
0.000000000000000e+00 0.000000000000000e+00 0.000000000000000e+00

0.000000000000000e+00 0.000000000000000e+00 0.000000000000000e+00
0.000000000000000e+00 0.000000000000000e+00 0.000000000000000e+00
0.000000000000000e+00 0.000000000000000e+00 0.000000000000000e+00

0.000000000000000e+00 0.000000000000000e+00 0.000000000000000e+00
0.000000000000000e+00 0.000000000000000e+00 0.000000000000000e+00
0.000000000000000e+00 0.000000000000000e+00 0.000000000000000e+00

0.000000000000000e+00 0.000000000000000e+00 0.000000000000000e+00
0.000000000000000e+00 0.000000000000000e+00 0.000000000000000e+00
0.000000000000000e+00 0.000000000000000e+00 0.000000000000000e+00

0.000000000000000e+00 0.000000000000000e+00 0.000000000000000e+00
0.000000000000000e+00 0.000000000000000e+00 0.000000000000000e+00
0.000000000000000e+00 0.000000000000000e+00 0.000000000000000e+00

0.000000000000000e+00 0.000000000000000e+00 0.000000000000000e+00
0.000000000000000e+00 0.000000000000000e+00 0.000000000000000e+00
0.000000000000000e+00 0.000000000000000e+00 0.000000000000000e+00

0.000000000000000e+00 0.000000000000000e+00 0.000000000000000e+00
0.000000000000000e+00 0.000000000000000e+00 0.000000000000000e+00
0.000000000000000e+00 0.000000000000000e+00 0.000000000000000e+00

0.000000000000000e+00 0.000000000000000e+00 0.000000000000000e+00
0.000000000000000e+00 0.000000000000000e+00 0.000000000000000e+00
0.000000000000000e+00 0.000000000000000e+00 0.000000000000000e+00

0.000000000000000e+00 0.000000000000000e+00 0.000000000000000e+00
0.000000000000000e+00 0.000000000000000e+00 0.000000000000000e+00
0.000000000000000e+00 0.000000000000000e+00 0.000000000000000e+00

0.000000000000000e+00 0.000000000000000e+00 0.000000000000000e+00
0.000000000000000e+00 0.000000000000000e+00 0.000000000000000e+00
0.000000000000000e+00 0.000000000000000e+00 0.000000000000000e+00

0.000000000000000e+00 0.000000000000000e+00 0.000000000000000e+00
0.000000000000000e+00 0.000000000000000e+00 0.000000000000000e+00
0.000000000000000e+00 0.000000000000000e+00 0.000000000000000e+00

0.000000000000000e+00 0.000000000000000e+00 0.000000000000000e+00
0.000000000000000e+00 0.000000000000000e+00 0.000000000000000e+00
0.000000000000000e+00 0.000000000000000e+00 0.000000000000000e+00

0.000000000000000e+00 0.000000000000000e+00 0.000000000000000e+00
0.000000000000000e+00 0.000000000000000e+00 0.000000000000000e+00
0.000000000000000e+00 0.000000000000000e+00 0.000000000000000e+00

0.000000000000000e+00 0.000000000000000e+00 0.000000000000000e+00
0.000000000000000e+00 0.000000000000000e+00 0.000000000000000e+00
0.000000000000000e+00 0.000000000000000e+00 0.000000000000000e+00

0.000000000000000e+00 0.000000000000000e+00 0.000000000000000e+00
0.000000000000000e+00 0.000000000000000e+00 0.000000000000000e+00
0.000000000000000e+00 0.000000000000000e+00 0.000000000000000e+00

0.000000000000000e+00 0.000000000000000e+00 0.000000000000000e+00
0.000000000000000e+00 0.000000000000000e+00 0.000000000000000e+00
0.000000000000000e+00 0.000000000000000e+00 0.000000000000000e+00

0.000000000000000e+00 0.000000000000000e+00 0.000000000000000e+00
0.000000000000000e+00 0.000000000000000e+00 0.000000000000000e+00
0.000000000000000e+00 0.000000000000000e+00 0.000000000000000e+00

0.000000000000000e+00 0.000000000000000e+00 0.000000000000000e+00
0.000000000000000e+00 0.000000000000000e+00 0.000000000000000e+00
0.000000000000000e+00 0.000000000000000e+00 0.000000000000000e+00

0.000000000000000e+00 0.000000000000000e+00 0.000000000000000e+00
0.000000000000000e+00 0.000000000000000e+00 0.000000000000000e+00
0.000000000000000e+00 0.000000000000000e+00 0.000000000000000e+00

0.000000000000000e+00 0.000000000000000e+00 0.000000000000000e+00
0.000000000000000e+00 0.000000000000000e+00 0.000000000000000e+00
0.000000000000000e+00 0.000000000000000e+00 0.000000000000000e+00

0.000000000000000e+00 0.000000000000000e+00 0.000000000000000e+00
0.000000000000000e+00 0.000000000000000e+00 0.000000000000000e+00
0.000000000000000e+00 0.000000000000000e+00 0.000000000000000e+00

0.000000000000000e+00 0.000000000000000e+00 0.000000000000000e+00
0.000000000000000e+00 0.000000000000000e+00 0.000000000000000e+00
0.000000000000000e+00 0.000000000000000e+00 0.000000000000000e+00

0.000000000000000e+00 0.000000000000000e+00 0.000000000000000e+00
0.000000000000000e+00 0.000000000000000e+00 0.000000000000000e+00
0.000000000000000e+00 0.000000000000000e+00 0.000000000000000e+00

0.000000000000000e+00 0.000000000000000e+00 0.000000000000000e+00
0.000000000000000e+00 0.000000000000000e+00 0.000000000000000e+00
0.000000000000000e+00 0.000000000000000e+00 0.000000000000000e+00

0.000000000000000e+00 0.000000000000000e+00 0.000000000000000e+00
0.000000000000000e+00 0.000000000000000e+00 0.000000000000000e+00
0.000000000000000e+00 0.000000000000000e+00 0.000000000000000e+00

0.000000000000000e+00 0.000000000000000e+00 0.000000000000000e+00
0.000000000000000e+00 0.000000000000000e+00 0.000000000000000e+00
0.000000000000000e+00 0.000000000000000e+00 0.000000000000000e+00

0.000000000000000e+00 0.000000000000000e+00 0.000000000000000e+00
0.000000000000000e+00 0.000000000000000e+00 0.000000000000000e+00
0.000000000000000e+00 0.000000000000000e+00 0.000000000000000e+00

0.000000000000000e+00 0.000000000000000e+00 0.000000000000000e+00
0.000000000000000e+00 0.000000000000000e+00 0.000000000000000e+00
0.000000000000000e+00 0.000000000000000e+00 0.000000000000000e+00

0.000000000000000e+00 0.000000000000000e+00 0.000000000000000e+00
0.000000000000000e+00 0.000000000000000e+00 0.000000000000000e+00
0.000000000000000e+00 0.000000000000000e+00 0.000000000000000e+00

0.000000000000000e+00 0.000000000000000e+00 0.000000000000000e+00
0.000000000000000e+00 0.000000000000000e+00 0.000000000000000e+00
0.000000000000000e+00 0.000000000000000e+00 0.000000000000000e+00

0.000000000000000e+00 0.000000000000000e+00 0.000000000000000e+00
0.000000000000000e+00 0.000000000000000e+00 0.000000000000000e+00
0.000000000000000e+00 0.000000000000000e+00 0.000000000000000e+00

0.000000000000000e+00 0.000000000000000e+00 0.000000000000000e+00
0.000000000000000e+00 0.000000000000000e+00 0.000000000000000e+00
0.000000000000000e+00 0.000000000000000e+00 0.000000000000000e+00

0.000000000000000e+00 0.000000000000000e+00 0.000000000000000e+00
0.000000000000000e+00 0.000000000000000e+00 0.000000000000000e+00
0.000000000000000e+00 0.000000000000000e+00 0.000000000000000e+00

0.000000000000000e+00 0.000000000000000e+00 0.000000000000000e+00
0.000000000000000e+00 0.000000000000000e+00 0.000000000000000e+00
0.000000000000000e+00 0.000000000000000e+00 0.000000000000000e+00

0.000000000000000e+00 0.000000000000000e+00 0.000000000000000e+00
0.000000000000000e+00 0.000000000000000e+00 0.000000000000000e+00
0.000000000000000e+00 0.000000000000000e+00 0.000000000000000e+00

0.000000000000000e+00 0.000000000000000e+00 0.000000000000000e+00
0.000000000000000e+00 0.000000000000000e+00 0.000000000000000e+00
0.000000000000000e+00 0.000000000000000e+00 0.000000000000000e+00

0.000000000000000e+00 0.000000000000000e+00 0.000000000000000e+00
0.000000000000000e+00 0.000000000000000e+00 0.000000000000000e+00
0.000000000000000e+00 0.000000000000000e+00 0.000000000000000e+00

0.000000000000000e+00 0.000000000000000e+00 0.000000000000000e+00
0.000000000000000e+00 0.000000000000000e+00 0.000000000000000e+00
0.000000000000000e+00 0.000000000000000e+00 0.000000000000000e+00

0.000000000000000e+00 0.000000000000000e+00 0.000000000000000e+00
0.000000000000000e+00 0.000000000000000e+00 0.000000000000000e+00
0.000000000000000e+00 0.000000000000000e+00 0.000000000000000e+00

0.000000000000000e+00 0.000000000000000e+00 0.000000000000000e+00
0.000000000000000e+00 0.000000000000000e+00 0.000000000000000e+00
0.000000000000000e+00 0.000000000000000e+00 0.000000000000000e+00

0.000000000000000e+00 0.000000000000000e+00 0.000000000000000e+00
0.000000000000000e+00 0.000000000000000e+00 0.000000000000000e+00
0.000000000000000e+00 0.000000000000000e+00 0.000000000000000e+00

0.000000000000000e+00 0.000000000000000e+00 0.000000000000000e+00
0.000000000000000e+00 0.000000000000000e+00 0.000000000000000e+00
0.000000000000000e+00 0.000000000000000e+00 0.000000000000000e+00

0.000000000000000e+00 0.000000000000000e+00 0.000000000000000e+00
0.000000000000000e+00 0.000000000000000e+00 0.000000000000000e+00
0.000000000000000e+00 0.000000000000000e+00 0.000000000000000e+00

0.000000000000000e+00 0.000000000000000e+00 0.000000000000000e+00
0.000000000000000e+00 0.000000000000000e+00 0.000000000000000e+00
0.000000000000000e+00 0.000000000000000e+00 0.000000000000000e+00

0.000000000000000e+00 0.000000000000000e+00 0.000000000000000e+00
0.000000000000000e+00 0.000000000000000e+00 0.000000000000000e+00
0.000000000000000e+00 0.000000000000000e+00 0.000000000000000e+00

0.000000000000000e+00 0.000000000000000e+00 0.000000000000000e+00
0.000000000000000e+00 0.000000000000000e+00 0.000000000000000e+00
0.000000000000000e+00 0.000000000000000e+00 0.000000000000000e+00

0.000000000000000e+00 0.000000000000000e+00 0.000000000000000e+00
0.000000000000000e+00 0.000000000000000e+00 0.000000000000000e+00
0.000000000000000e+00 0.000000000000000e+00 0.000000000000000e+00

0.000000000000000e+00 0.000000000000000e+00 0.000000000000000e+00
0.000000000000000e+00 0.000000000000000e+00 0.000000000000000e+00
0.000000000000000e+00 0.000000000000000e+00 0.000000000000000e+00

0.000000000000000e+00 0.000000000000000e+00 0.000000000000000e+00
0.000000000000000e+00 0.000000000000000e+00 0.000000000000000e+00
0.000000000000000e+00 0.000000000000000e+00 0.000000000000000e+00

0.000000000000000e+00 0.000000000000000e+00 0.000000000000000e+00
0.000000000000000e+00 0.000000000000000e+00 0.000000000000000e+00
0.000000000000000e+00 0.000000000000000e+00 0.000000000000000e+00

0.000000000000000e+00 0.000000000000000e+00 0.000000000000000e+00
0.000000000000000e+00 0.000000000000000e+00 0.000000000000000e+00
0.000000000000000e+00 0.000000000000000e+00 0.000000000000000e+00

0.000000000000000e+00 0.000000000000000e+00 0.000000000000000e+00
0.000000000000000e+00 0.000000000000000e+00 0.000000000000000e+00
0.000000000000000e+00 0.000000000000000e+00 0.000000000000000e+00

0.000000000000000e+00 0.000000000000000e+00 0.000000000000000e+00
0.000000000000000e+00 0.000000000000000e+00 0.000000000000000e+00
0.000000000000000e+00 0.000000000000000e+00 0.000000000000000e+00

0.000000000000000e+00 0.000000000000000e+00 0.000000000000000e+00
0.000000000000000e+00 0.000000000000000e+00 0.000000000000000e+00
0.000000000000000e+00 0.000000000000000e+00 0.000000000000000e+00

0.000000000000000e+00 0.000000000000000e+00 0.000000000000000e+00
0.000000000000000e+00 0.000000000000000e+00 0.000000000000000e+00
0.000000000000000e+00 0.000000000000000e+00 0.000000000000000e+00

0.000000000000000e+00 0.000000000000000e+00 0.000000000000000e+00
0.000000000000000e+00 0.000000000000000e+00 0.000000000000000e+00
0.000000000000000e+00 0.000000000000000e+00 0.000000000000000e+00

0.000000000000000e+00 0.000000000000000e+00 0.000000000000000e+00
0.000000000000000e+00 0.000000000000000e+00 0.000000000000000e+00
0.000000000000000e+00 0.000000000000000e+00 0.000000000000000e+00

0.000000000000000e+00 0.000000000000000e+00 0.000000000000000e+00
0.000000000000000e+00 0.000000000000000e+00 0.000000000000000e+00
0.000000000000000e+00 0.000000000000000e+00 0.000000000000000e+00

0.000000000000000e+00 0.000000000000000e+00 0.000000000000000e+00
0.000000000000000e+00 0.000000000000000e+00 0.000000000000000e+00
0.000000000000000e+00 0.000000000000000e+00 0.000000000000000e+00

0.000000000000000e+00 0.000000000000000e+00 0.000000000000000e+00
0.000000000000000e+00 0.000000000000000e+00 0.000000000000000e+00
0.000000000000000e+00 0.000000000000000e+00 0.000000000000000e+00

0.000000000000000e+00 0.000000000000000e+00 0.000000000000000e+00
0.000000000000000e+00 0.000000000000000e+00 0.000000000000000e+00
0.000000000000000e+00 0.000000000000000e+00 0.000000000000000e+00

0.000000000000000e+00 0.000000000000000e+00 0.000000000000000e+00
0.000000000000000e+00 0.000000000000000e+00 0.000000000000000e+00
0.000000000000000e+00 0.000000000000000e+00 0.000000000000000e+00

0.000000000000000e+00 0.000000000000000e+00 0.000000000000000e+00
0.000000000000000e+00 0.000000000000000e+00 0.000000000000000e+00
0.000000000000000e+00 0.000000000000000e+00 0.000000000000000e+00

0.000000000000000e+00 0.000000000000000e+00 0.000000000000000e+00
0.000000000000000e+00 0.000000000000000e+00 0.000000000000000e+00
0.000000000000000e+00 0.000000000000000e+00 0.000000000000000e+00

0.000000000000000e+00 0.000000000000000e+00 0.000000000000000e+00
0.000000000000000e+00 0.000000000000000e+00 0.000000000000000e+00
0.000000000000000e+00 0.000000000000000e+00 0.000000000000000e+00

0.000000000000000e+00 0.000000000000000e+00 0.000000000000000e+00
0.000000000000000e+00 0.000000000000000e+00 0.000000000000000e+00
0.000000000000000e+00 0.000000000000000e+00 0.000000000000000e+00

0.000000000000000e+00 0.000000000000000e+00 0.000000000000000e+00
0.000000000000000e+00 0.000000000000000e+00 0.000000000000000e+00
0.000000000000000e+00 0.000000000000000e+00 0.000000000000000e+00

0.000000000000000e+00 0.000000000000000e+00 0.000000000000000e+00
0.000000000000000e+00 0.000000000000000e+00 0.000000000000000e+00
0.000000000000000e+00 0.000000000000000e+00 0.000000000000000e+00

0.000000000000000e+00 0.000000000000000e+00 0.000000000000000e+00
0.000000000000000e+00 0.000000000000000e+00 0.000000000000000e+00
0.000000000000000e+00 0.000000000000000e+00 0.000000000000000e+00

0.000000000000000e+00 0.000000000000000e+00 0.000000000000000e+00
0.000000000000000e+00 0.000000000000000e+00 0.000000000000000e+00
0.000000000000000e+00 0.000000000000000e+00 0.000000000000000e+00

0.000000000000000e+00 0.000000000000000e+00 0.000000000000000e+00
0.000000000000000e+00 0.000000000000000e+00 0.000000000000000e+00
0.000000000000000e+00 0.000000000000000e+00 0.000000000000000e+00

0.000000000000000e+00 0.000000000000000e+00 0.000000000000000e+00
0.000000000000000e+00 0.000000000000000e+00 0.000000000000000e+00
0.000000000000000e+00 0.000000000000000e+00 0.000000000000000e+00

0.000000000000000e+00 0.000000000000000e+00 0.000000000000000e+00
0.000000000000000e+00 0.000000000000000e+00 0.000000000000000e+00
0.000000000000000e+00 0.000000000000000e+00 0.000000000000000e+00

0.000000000000000e+00 0.000000000000000e+00 0.000000000000000e+00
0.000000000000000e+00 0.000000000000000e+00 0.000000000000000e+00
0.000000000000000e+00 0.000000000000000e+00 0.000000000000000e+00

0.000000000000000e+00 0.000000000000000e+00 0.000000000000000e+00
0.000000000000000e+00 0.000000000000000e+00 0.000000000000000e+00
0.000000000000000e+00 0.000000000000000e+00 0.000000000000000e+00

0.000000000000000e+00 0.000000000000000e+00 0.000000000000000e+00
0.000000000000000e+00 0.000000000000000e+00 0.000000000000000e+00
0.000000000000000e+00 0.000000000000000e+00 0.000000000000000e+00

0.000000000000000e+00 0.000000000000000e+00 0.000000000000000e+00
0.000000000000000e+00 0.000000000000000e+00 0.000000000000000e+00
0.000000000000000e+00 0.000000000000000e+00 0.000000000000000e+00

0.000000000000000e+00 0.000000000000000e+00 0.000000000000000e+00
0.000000000000000e+00 0.000000000000000e+00 0.000000000000000e+00
0.000000000000000e+00 0.000000000000000e+00 0.000000000000000e+00

0.000000000000000e+00 0.000000000000000e+00 0.000000000000000e+00
0.000000000000000e+00 0.000000000000000e+00 0.000000000000000e+00
0.000000000000000e+00 0.000000000000000e+00 0.000000000000000e+00

0.000000000000000e+00 0.000000000000000e+00 0.000000000000000e+00
0.000000000000000e+00 0.000000000000000e+00 0.000000000000000e+00
0.000000000000000e+00 0.000000000000000e+00 0.000000000000000e+00

0.000000000000000e+00 0.000000000000000e+00 0.000000000000000e+00
0.000000000000000e+00 0.000000000000000e+00 0.000000000000000e+00
0.000000000000000e+00 0.000000000000000e+00 0.000000000000000e+00

0.000000000000000e+00 0.000000000000000e+00 0.000000000000000e+00
0.000000000000000e+00 0.000000000000000e+00 0.000000000000000e+00
0.000000000000000e+00 0.000000000000000e+00 0.000000000000000e+00

0.000000000000000e+00 0.000000000000000e+00 0.000000000000000e+00
0.000000000000000e+00 0.000000000000000e+00 0.000000000000000e+00
0.000000000000000e+00 0.000000000000000e+00 0.000000000000000e+00

0.000000000000000e+00 0.000000000000000e+00 0.000000000000000e+00
0.000000000000000e+00 0.000000000000000e+00 0.000000000000000e+00
0.000000000000000e+00 0.000000000000000e+00 0.000000000000000e+00

0.000000000000000e+00 0.000000000000000e+00 0.000000000000000e+00
0.000000000000000e+00 0.000000000000000e+00 0.000000000000000e+00
0.000000000000000e+00 0.000000000000000e+00 0.000000000000000e+00

0.000000000000000e+00 0.000000000000000e+00 0.000000000000000e+00
0.000000000000000e+00 0.000000000000000e+00 0.000000000000000e+00
0.000000000000000e+00 0.000000000000000e+00 0.000000000000000e+00

0.000000000000000e+00 0.000000000000000e+00 0.000000000000000e+00
0.000000000000000e+00 0.000000000000000e+00 0.000000000000000e+00
0.000000000000000e+00 0.000000000000000e+00 0.000000000000000e+00

0.000000000000000e+00 0.000000000000000e+00 0.000000000000000e+00
0.000000000000000e+00 0.000000000000000e+00 0.000000000000000e+00
0.000000000000000e+00 0.000000000000000e+00 0.000000000000000e+00

0.000000000000000e+00 0.000000000000000e+00 0.000000000000000e+00
0.000000000000000e+00 0.000000000000000e+00 0.000000000000000e+00
0.000000000000000e+00 0.000000000000000e+00 0.000000000000000e+00

0.000000000000000e+00 0.000000000000000e+00 0.000000000000000e+00
0.000000000000000e+00 0.000000000000000e+00 0.000000000000000e+00
0.000000000000000e+00 0.000000000000000e+00 0.000000000000000e+00

0.000000000000000e+00 0.000000000000000e+00 0.000000000000000e+00
0.000000000000000e+00 0.000000000000000e+00 0.000000000000000e+00
0.000000000000000e+00 0.000000000000000e+00 0.000000000000000e+00

0.000000000000000e+00 0.000000000000000e+00 0.000000000000000e+00
0.000000000000000e+00 0.000000000000000e+00 0.000000000000000e+00
0.000000000000000e+00 0.000000000000000e+00 0.000000000000000e+00

0.000000000000000e+00 0.000000000000000e+00 0.000000000000000e+00
0.000000000000000e+00 0.000000000000000e+00 0.000000000000000e+00
0.000000000000000e+00 0.000000000000000e+00 0.000000000000000e+00

0.000000000000000e+00 0.000000000000000e+00 0.000000000000000e+00
0.000000000000000e+00 0.000000000000000e+00 0.000000000000000e+00
0.000000000000000e+00 0.000000000000000e+00 0.000000000000000e+00

0.000000000000000e+00 0.000000000000000e+00 0.000000000000000e+00
0.000000000000000e+00 0.000000000000000e+00 0.000000000000000e+00
0.000000000000000e+00 0.000000000000000e+00 0.000000000000000e+00

0.000000000000000e+00 0.000000000000000e+00 0.000000000000000e+00
0.000000000000000e+00 0.000000000000000e+00 0.000000000000000e+00
0.000000000000000e+00 0.000000000000000e+00 0.000000000000000e+00

0.000000000000000e+00 0.000000000000000e+00 0.000000000000000e+00
0.000000000000000e+00 0.000000000000000e+00 0.000000000000000e+00
0.000000000000000e+00 0.000000000000000e+00 0.000000000000000e+00

0.000000000000000e+00 0.000000000000000e+00 0.000000000000000e+00
0.000000000000000e+00 0.000000000000000e+00 0.000000000000000e+00
0.000000000000000e+00 0.000000000000000e+00 0.000000000000000e+00

0.000000000000000e+00 0.000000000000000e+00 0.000000000000000e+00
0.000000000000000e+00 0.000000000000000e+00 0.000000000000000e+00
0.000000000000000e+00 0.000000000000000e+00 0.000000000000000e+00

0.000000000000000e+00 0.000000000000000e+00 0.000000000000000e+00
0.000000000000000e+00 0.000000000000000e+00 0.000000000000000e+00
0.000000000000000e+00 0.000000000000000e+00 0.000000000000000e+00

0.000000000000000e+00 0.000000000000000e+00 0.000000000000000e+00
0.000000000000000e+00 0.000000000000000e+00 0.000000000000000e+00
0.000000000000000e+00 0.000000000000000e+00 0.000000000000000e+00

0.000000000000000e+00 0.000000000000000e+00 0.000000000000000e+00
0.000000000000000e+00 0.000000000000000e+00 0.000000000000000e+00
0.000000000000000e+00 0.000000000000000e+00 0.000000000000000e+00

0.000000000000000e+00 0.000000000000000e+00 0.000000000000000e+00
0.000000000000000e+00 0.000000000000000e+00 0.000000000000000e+00
0.000000000000000e+00 0.000000000000000e+00 0.000000000000000e+00

0.000000000000000e+00 0.000000000000000e+00 0.000000000000000e+00
0.000000000000000e+00 0.000000000000000e+00 0.000000000000000e+00
0.000000000000000e+00 0.000000000000000e+00 0.000000000000000e+00

0.000000000000000e+00 0.000000000000000e+00 0.000000000000000e+00
0.000000000000000e+00 0.000000000000000e+00 0.000000000000000e+00
0.000000000000000e+00 0.000000000000000e+00 0.000000000000000e+00

0.000000000000000e+00 0.000000000000000e+00 0.000000000000000e+00
0.000000000000000e+00 0.000000000000000e+00 0.000000000000000e+00
0.000000000000000e+00 0.000000000000000e+00 0.000000000000000e+00

0.000000000000000e+00 0.000000000000000e+00 0.000000000000000e+00
0.000000000000000e+00 0.000000000000000e+00 0.000000000000000e+00
0.000000000000000e+00 0.000000000000000e+00 0.000000000000000e+00

0.000000000000000e+00 0.000000000000000e+00 0.000000000000000e+00
0.000000000000000e+00 0.000000000000000e+00 0.000000000000000e+00
0.000000000000000e+00 0.000000000000000e+00 0.000000000000000e+00

0.000000000000000e+00 0.000000000000000e+00 0.000000000000000e+00
0.000000000000000e+00 0.000000000000000e+00 0.000000000000000e+00
0.000000000000000e+00 0.000000000000000e+00 0.000000000000000e+00

0.000000000000000e+00 0.000000000000000e+00 0.000000000000000e+00
0.000000000000000e+00 0.000000000000000e+00 0.000000000000000e+00
0.000000000000000e+00 0.000000000000000e+00 0.000000000000000e+00

0.000000000000000e+00 0.000000000000000e+00 0.000000000000000e+00
0.000000000000000e+00 0.000000000000000e+00 0.000000000000000e+00
0.000000000000000e+00 0.000000000000000e+00 0.000000000000000e+00

0.000000000000000e+00 0.000000000000000e+00 0.000000000000000e+00
0.000000000000000e+00 0.000000000000000e+00 0.000000000000000e+00
0.000000000000000e+00 0.000000000000000e+00 0.000000000000000e+00

0.000000000000000e+00 0.000000000000000e+00 0.000000000000000e+00
0.000000000000000e+00 0.000000000000000e+00 0.000000000000000e+00
0.000000000000000e+00 0.000000000000000e+00 0.000000000000000e+00

0.000000000000000e+00 0.000000000000000e+00 0.000000000000000e+00
0.000000000000000e+00 0.000000000000000e+00 0.000000000000000e+00
0.000000000000000e+00 0.000000000000000e+00 0.000000000000000e+00

0.000000000000000e+00 0.000000000000000e+00 0.000000000000000e+00
0.000000000000000e+00 0.000000000000000e+00 0.000000000000000e+00
0.000000000000000e+00 0.000000000000000e+00 0.000000000000000e+00

0.000000000000000e+00 0.000000000000000e+00 0.000000000000000e+00
0.000000000000000e+00 0.000000000000000e+00 0.000000000000000e+00
0.000000000000000e+00 0.000000000000000e+00 0.000000000000000e+00

0.000000000000000e+00 0.000000000000000e+00 0.000000000000000e+00
0.000000000000000e+00 0.000000000000000e+00 0.000000000000000e+00
0.000000000000000e+00 0.000000000000000e+00 0.000000000000000e+00

0.000000000000000e+00 0.000000000000000e+00 0.000000000000000e+00
0.000000000000000e+00 0.000000000000000e+00 0.000000000000000e+00
0.000000000000000e+00 0.000000000000000e+00 0.000000000000000e+00

0.000000000000000e+00 0.000000000000000e+00 0.000000000000000e+00
0.000000000000000e+00 0.000000000000000e+00 0.000000000000000e+00
0.000000000000000e+00 0.000000000000000e+00 0.000000000000000e+00

0.000000000000000e+00 0.000000000000000e+00 0.000000000000000e+00
0.000000000000000e+00 0.000000000000000e+00 0.000000000000000e+00
0.000000000000000e+00 0.000000000000000e+00 0.000000000000000e+00

0.000000000000000e+00 0.000000000000000e+00 0.000000000000000e+00
0.000000000000000e+00 0.000000000000000e+00 0.000000000000000e+00
0.000000000000000e+00 0.000000000000000e+00 0.000000000000000e+00

0.000000000000000e+00 0.000000000000000e+00 0.000000000000000e+00
0.000000000000000e+00 0.000000000000000e+00 0.000000000000000e+00
0.000000000000000e+00 0.000000000000000e+00 0.000000000000000e+00

0.000000000000000e+00 0.000000000000000e+00 0.000000000000000e+00
0.000000000000000e+00 0.000000000000000e+00 0.000000000000000e+00
0.000000000000000e+00 0.000000000000000e+00 0.000000000000000e+00

0.000000000000000e+00 0.000000000000000e+00 0.000000000000000e+00
0.000000000000000e+00 0.000000000000000e+00 0.000000000000000e+00
0.000000000000000e+00 0.000000000000000e+00 0.000000000000000e+00

0.000000000000000e+00 0.000000000000000e+00 0.000000000000000e+00
0.000000000000000e+00 0.000000000000000e+00 0.000000000000000e+00
0.000000000000000e+00 0.000000000000000e+00 0.000000000000000e+00

0.000000000000000e+00 0.000000000000000e+00 0.000000000000000e+00
0.000000000000000e+00 0.000000000000000e+00 0.000000000000000e+00
0.000000000000000e+00 0.000000000000000e+00 0.000000000000000e+00

0.000000000000000e+00 0.000000000000000e+00 0.000000000000000e+00
0.000000000000000e+00 0.000000000000000e+00 0.000000000000000e+00
0.000000000000000e+00 0.000000000000000e+00 0.000000000000000e+00

0.000000000000000e+00 0.000000000000000e+00 0.000000000000000e+00
0.000000000000000e+00 0.000000000000000e+00 0.000000000000000e+00
0.000000000000000e+00 0.000000000000000e+00 0.000000000000000e+00

0.000000000000000e+00 0.000000000000000e+00 0.000000000000000e+00
0.000000000000000e+00 0.000000000000000e+00 0.000000000000000e+00
0.000000000000000e+00 0.000000000000000e+00 0.000000000000000e+00

0.000000000000000e+00 0.000000000000000e+00 0.000000000000000e+00
0.000000000000000e+00 0.000000000000000e+00 0.000000000000000e+00
0.000000000000000e+00 0.000000000000000e+00 0.000000000000000e+00

0.000000000000000e+00 0.000000000000000e+00 0.000000000000000e+00
0.000000000000000e+00 0.000000000000000e+00 0.000000000000000e+00
0.000000000000000e+00 0.000000000000000e+00 0.000000000000000e+00

0.000000000000000e+00 0.000000000000000e+00 0.000000000000000e+00
0.000000000000000e+00 0.000000000000000e+00 0.000000000000000e+00
0.000000000000000e+00 0.000000000000000e+00 0.000000000000000e+00

0.000000000000000e+00 0.000000000000000e+00 0.000000000000000e+00
0.000000000000000e+00 0.000000000000000e+00 0.000000000000000e+00
0.000000000000000e+00 0.000000000000000e+00 0.000000000000000e+00

0.000000000000000e+00 0.000000000000000e+00 0.000000000000000e+00
0.000000000000000e+00 0.000000000000000e+00 0.000000000000000e+00
0.000000000000000e+00 0.000000000000000e+00 0.000000000000000e+00

0.000000000000000e+00 0.000000000000000e+00 0.000000000000000e+00
0.000000000000000e+00 0.000000000000000e+00 0.000000000000000e+00
0.000000000000000e+00 0.000000000000000e+00 0.000000000000000e+00

0.000000000000000e+00 0.000000000000000e+00 0.000000000000000e+00
0.000000000000000e+00 0.000000000000000e+00 0.000000000000000e+00
0.000000000000000e+00 0.000000000000000e+00 0.000000000000000e+00

0.000000000000000e+00 0.000000000000000e+00 0.000000000000000e+00
0.000000000000000e+00 0.000000000000000e+00 0.000000000000000e+00
0.000000000000000e+00 0.000000000000000e+00 0.000000000000000e+00

0.000000000000000e+00 0.000000000000000e+00 0.000000000000000e+00
0.000000000000000e+00 0.000000000000000e+00 0.000000000000000e+00
0.000000000000000e+00 0.000000000000000e+00 0.000000000000000e+00

0.000000000000000e+00 0.000000000000000e+00 0.000000000000000e+00
0.000000000000000e+00 0.000000000000000e+00 0.000000000000000e+00
0.000000000000000e+00 0.000000000000000e+00 0.000000000000000e+00

0.000000000000000e+00 0.000000000000000e+00 0.000000000000000e+00
0.000000000000000e+00 0.000000000000000e+00 0.000000000000000e+00
0.000000000000000e+00 0.000000000000000e+00 0.000000000000000e+00

0.000000000000000e+00 0.000000000000000e+00 0.000000000000000e+00
0.000000000000000e+00 0.000000000000000e+00 0.000000000000000e+00
0.000000000000000e+00 0.000000000000000e+00 0.000000000000000e+00

0.000000000000000e+00 0.000000000000000e+00 0.000000000000000e+00
0.000000000000000e+00 0.000000000000000e+00 0.000000000000000e+00
0.000000000000000e+00 0.000000000000000e+00 0.000000000000000e+00

0.000000000000000e+00 0.000000000000000e+00 0.000000000000000e+00
0.000000000000000e+00 0.000000000000000e+00 0.000000000000000e+00
0.000000000000000e+00 0.000000000000000e+00 0.000000000000000e+00

0.000000000000000e+00 0.000000000000000e+00 0.000000000000000e+00
0.000000000000000e+00 0.000000000000000e+00 0.000000000000000e+00
0.000000000000000e+00 0.000000000000000e+00 0.000000000000000e+00

0.000000000000000e+00 0.000000000000000e+00 0.000000000000000e+00
0.000000000000000e+00 0.000000000000000e+00 0.000000000000000e+00
0.000000000000000e+00 0.000000000000000e+00 0.000000000000000e+00

0.000000000000000e+00 0.000000000000000e+00 0.000000000000000e+00
0.000000000000000e+00 0.000000000000000e+00 0.000000000000000e+00
0.000000000000000e+00 0.000000000000000e+00 0.000000000000000e+00

0.000000000000000e+00 0.000000000000000e+00 0.000000000000000e+00
0.000000000000000e+00 0.000000000000000e+00 0.000000000000000e+00
0.000000000000000e+00 0.000000000000000e+00 0.000000000000000e+00

0.000000000000000e+00 0.000000000000000e+00 0.000000000000000e+00
0.000000000000000e+00 0.000000000000000e+00 0.000000000000000e+00
0.000000000000000e+00 0.000000000000000e+00 0.000000000000000e+00

0.000000000000000e+00 0.000000000000000e+00 0.000000000000000e+00
0.000000000000000e+00 0.000000000000000e+00 0.000000000000000e+00
0.000000000000000e+00 0.000000000000000e+00 0.000000000000000e+00

0.000000000000000e+00 0.000000000000000e+00 0.000000000000000e+00
0.000000000000000e+00 0.000000000000000e+00 0.000000000000000e+00
0.000000000000000e+00 0.000000000000000e+00 0.000000000000000e+00

0.000000000000000e+00 0.000000000000000e+00 0.000000000000000e+00
0.000000000000000e+00 0.000000000000000e+00 0.000000000000000e+00
0.000000000000000e+00 0.000000000000000e+00 0.000000000000000e+00

0.000000000000000e+00 0.000000000000000e+00 0.000000000000000e+00
0.000000000000000e+00 0.000000000000000e+00 0.000000000000000e+00
0.000000000000000e+00 0.000000000000000e+00 0.000000000000000e+00

0.000000000000000e+00 0.000000000000000e+00 0.000000000000000e+00
0.000000000000000e+00 0.000000000000000e+00 0.000000000000000e+00
0.000000000000000e+00 0.000000000000000e+00 0.000000000000000e+00

0.000000000000000e+00 0.000000000000000e+00 0.000000000000000e+00
0.000000000000000e+00 0.000000000000000e+00 0.000000000000000e+00
0.000000000000000e+00 0.000000000000000e+00 0.000000000000000e+00

0.000000000000000e+00 0.000000000000000e+00 0.000000000000000e+00
0.000000000000000e+00 0.000000000000000e+00 0.000000000000000e+00
0.000000000000000e+00 0.000000000000000e+00 0.000000000000000e+00

0.000000000000000e+00 0.000000000000000e+00 0.000000000000000e+00
0.000000000000000e+00 0.000000000000000e+00 0.000000000000000e+00
0.000000000000000e+00 0.000000000000000e+00 0.000000000000000e+00

0.000000000000000e+00 0.000000000000000e+00 0.000000000000000e+00
0.000000000000000e+00 0.000000000000000e+00 0.000000000000000e+00
0.000000000000000e+00 0.000000000000000e+00 0.000000000000000e+00

0.000000000000000e+00 0.000000000000000e+00 0.000000000000000e+00
0.000000000000000e+00 0.000000000000000e+00 0.000000000000000e+00
0.000000000000000e+00 0.000000000000000e+00 0.000000000000000e+00

0.000000000000000e+00 0.000000000000000e+00 0.000000000000000e+00
0.000000000000000e+00 0.000000000000000e+00 0.000000000000000e+00
0.000000000000000e+00 0.000000000000000e+00 0.000000000000000e+00

0.000000000000000e+00 0.000000000000000e+00 0.000000000000000e+00
0.000000000000000e+00 0.000000000000000e+00 0.000000000000000e+00
0.000000000000000e+00 0.000000000000000e+00 0.000000000000000e+00

0.000000000000000e+00 0.000000000000000e+00 0.000000000000000e+00
0.000000000000000e+00 0.000000000000000e+00 0.000000000000000e+00
0.000000000000000e+00 0.000000000000000e+00 0.000000000000000e+00

0.000000000000000e+00 0.000000000000000e+00 0.000000000000000e+00
0.000000000000000e+00 0.000000000000000e+00 0.000000000000000e+00
0.000000000000000e+00 0.000000000000000e+00 0.000000000000000e+00

0.000000000000000e+00 0.000000000000000e+00 0.000000000000000e+00
0.000000000000000e+00 0.000000000000000e+00 0.000000000000000e+00
0.000000000000000e+00 0.000000000000000e+00 0.000000000000000e+00

0.000000000000000e+00 0.000000000000000e+00 0.000000000000000e+00
0.000000000000000e+00 0.000000000000000e+00 0.000000000000000e+00
0.000000000000000e+00 0.000000000000000e+00 0.000000000000000e+00

0.000000000000000e+00 0.000000000000000e+00 0.000000000000000e+00
0.000000000000000e+00 0.000000000000000e+00 0.000000000000000e+00
0.000000000000000e+00 0.000000000000000e+00 0.000000000000000e+00

0.000000000000000e+00 0.000000000000000e+00 0.000000000000000e+00
0.000000000000000e+00 0.000000000000000e+00 0.000000000000000e+00
0.000000000000000e+00 0.000000000000000e+00 0.000000000000000e+00

0.000000000000000e+00 0.000000000000000e+00 0.000000000000000e+00
0.000000000000000e+00 0.000000000000000e+00 0.000000000000000e+00
0.000000000000000e+00 0.000000000000000e+00 0.000000000000000e+00

0.000000000000000e+00 0.000000000000000e+00 0.000000000000000e+00
0.000000000000000e+00 0.000000000000000e+00 0.000000000000000e+00
0.000000000000000e+00 0.000000000000000e+00 0.000000000000000e+00

0.000000000000000e+00 0.000000000000000e+00 0.000000000000000e+00
0.000000000000000e+00 0.000000000000000e+00 0.000000000000000e+00
0.000000000000000e+00 0.000000000000000e+00 0.000000000000000e+00

0.000000000000000e+00 0.000000000000000e+00 0.000000000000000e+00
0.000000000000000e+00 0.000000000000000e+00 0.000000000000000e+00
0.000000000000000e+00 0.000000000000000e+00 0.000000000000000e+00

0.000000000000000e+00 0.000000000000000e+00 0.000000000000000e+00
0.000000000000000e+00 0.000000000000000e+00 0.000000000000000e+00
0.000000000000000e+00 0.000000000000000e+00 0.000000000000000e+00

0.000000000000000e+00 0.000000000000000e+00 0.000000000000000e+00
0.000000000000000e+00 0.000000000000000e+00 0.000000000000000e+00
0.000000000000000e+00 0.000000000000000e+00 0.000000000000000e+00

0.000000000000000e+00 0.000000000000000e+00 0.000000000000000e+00
0.000000000000000e+00 0.000000000000000e+00 0.000000000000000e+00
0.000000000000000e+00 0.000000000000000e+00 0.000000000000000e+00

0.000000000000000e+00 0.000000000000000e+00 0.000000000000000e+00
0.000000000000000e+00 0.000000000000000e+00 0.000000000000000e+00
0.000000000000000e+00 0.000000000000000e+00 0.000000000000000e+00

0.000000000000000e+00 0.000000000000000e+00 0.000000000000000e+00
0.000000000000000e+00 0.000000000000000e+00 0.000000000000000e+00
0.000000000000000e+00 0.000000000000000e+00 0.000000000000000e+00

0.000000000000000e+00 0.000000000000000e+00 0.000000000000000e+00
0.000000000000000e+00 0.000000000000000e+00 0.000000000000000e+00
0.000000000000000e+00 0.000000000000000e+00 0.000000000000000e+00

0.000000000000000e+00 0.000000000000000e+00 0.000000000000000e+00
0.000000000000000e+00 0.000000000000000e+00 0.000000000000000e+00
0.000000000000000e+00 0.000000000000000e+00 0.000000000000000e+00

0.000000000000000e+00 0.000000000000000e+00 0.000000000000000e+00
0.000000000000000e+00 0.000000000000000e+00 0.000000000000000e+00
0.000000000000000e+00 0.000000000000000e+00 0.000000000000000e+00

0.000000000000000e+00 0.000000000000000e+00 0.000000000000000e+00
0.000000000000000e+00 0.000000000000000e+00 0.000000000000000e+00
0.000000000000000e+00 0.000000000000000e+00 0.000000000000000e+00

0.000000000000000e+00 0.000000000000000e+00 0.000000000000000e+00
0.000000000000000e+00 0.000000000000000e+00 0.000000000000000e+00
0.000000000000000e+00 0.000000000000000e+00 0.000000000000000e+00

0.000000000000000e+00 0.000000000000000e+00 0.000000000000000e+00
0.000000000000000e+00 0.000000000000000e+00 0.000000000000000e+00
0.000000000000000e+00 0.000000000000000e+00 0.000000000000000e+00

0.000000000000000e+00 0.000000000000000e+00 0.000000000000000e+00
0.000000000000000e+00 0.000000000000000e+00 0.000000000000000e+00
0.000000000000000e+00 0.000000000000000e+00 0.000000000000000e+00

0.000000000000000e+00 0.000000000000000e+00 0.000000000000000e+00
0.000000000000000e+00 0.000000000000000e+00 0.000000000000000e+00
0.000000000000000e+00 0.000000000000000e+00 0.000000000000000e+00

0.000000000000000e+00 0.000000000000000e+00 0.000000000000000e+00
0.000000000000000e+00 0.000000000000000e+00 0.000000000000000e+00
0.000000000000000e+00 0.000000000000000e+00 0.000000000000000e+00

0.000000000000000e+00 0.000000000000000e+00 0.000000000000000e+00
0.000000000000000e+00 0.000000000000000e+00 0.000000000000000e+00
0.000000000000000e+00 0.000000000000000e+00 0.000000000000000e+00

0.000000000000000e+00 0.000000000000000e+00 0.000000000000000e+00
0.000000000000000e+00 0.000000000000000e+00 0.000000000000000e+00
0.000000000000000e+00 0.000000000000000e+00 0.000000000000000e+00

0.000000000000000e+00 0.000000000000000e+00 0.000000000000000e+00
0.000000000000000e+00 0.000000000000000e+00 0.000000000000000e+00
0.000000000000000e+00 0.000000000000000e+00 0.000000000000000e+00

0.000000000000000e+00 0.000000000000000e+00 0.000000000000000e+00
0.000000000000000e+00 0.000000000000000e+00 0.000000000000000e+00
0.000000000000000e+00 0.000000000000000e+00 0.000000000000000e+00

0.000000000000000e+00 0.000000000000000e+00 0.000000000000000e+00
0.000000000000000e+00 0.000000000000000e+00 0.000000000000000e+00
0.000000000000000e+00 0.000000000000000e+00 0.000000000000000e+00

0.000000000000000e+00 0.000000000000000e+00 0.000000000000000e+00
0.000000000000000e+00 0.000000000000000e+00 0.000000000000000e+00
0.000000000000000e+00 0.000000000000000e+00 0.000000000000000e+00

0.000000000000000e+00 0.000000000000000e+00 0.000000000000000e+00
0.000000000000000e+00 0.000000000000000e+00 0.000000000000000e+00
0.000000000000000e+00 0.000000000000000e+00 0.000000000000000e+00

0.000000000000000e+00 0.000000000000000e+00 0.000000000000000e+00
0.000000000000000e+00 0.000000000000000e+00 0.000000000000000e+00
0.000000000000000e+00 0.000000000000000e+00 0.000000000000000e+00

0.000000000000000e+00 0.000000000000000e+00 0.000000000000000e+00
0.000000000000000e+00 0.000000000000000e+00 0.000000000000000e+00
0.000000000000000e+00 0.000000000000000e+00 0.000000000000000e+00

0.000000000000000e+00 0.000000000000000e+00 0.000000000000000e+00
0.000000000000000e+00 0.000000000000000e+00 0.000000000000000e+00
0.000000000000000e+00 0.000000000000000e+00 0.000000000000000e+00

0.000000000000000e+00 0.000000000000000e+00 0.000000000000000e+00
0.000000000000000e+00 0.000000000000000e+00 0.000000000000000e+00
0.000000000000000e+00 0.000000000000000e+00 0.000000000000000e+00

0.000000000000000e+00 0.000000000000000e+00 0.000000000000000e+00
0.000000000000000e+00 0.000000000000000e+00 0.000000000000000e+00
0.000000000000000e+00 0.000000000000000e+00 0.000000000000000e+00

0.000000000000000e+00 0.000000000000000e+00 0.000000000000000e+00
0.000000000000000e+00 0.000000000000000e+00 0.000000000000000e+00
0.000000000000000e+00 0.000000000000000e+00 0.000000000000000e+00

0.000000000000000e+00 0.000000000000000e+00 0.000000000000000e+00
0.000000000000000e+00 0.000000000000000e+00 0.000000000000000e+00
0.000000000000000e+00 0.000000000000000e+00 0.000000000000000e+00

0.000000000000000e+00 0.000000000000000e+00 0.000000000000000e+00
0.000000000000000e+00 0.000000000000000e+00 0.000000000000000e+00
0.000000000000000e+00 0.000000000000000e+00 0.000000000000000e+00

0.000000000000000e+00 0.000000000000000e+00 0.000000000000000e+00
0.000000000000000e+00 0.000000000000000e+00 0.000000000000000e+00
0.000000000000000e+00 0.000000000000000e+00 0.000000000000000e+00

0.000000000000000e+00 0.000000000000000e+00 0.000000000000000e+00
0.000000000000000e+00 0.000000000000000e+00 0.000000000000000e+00
0.000000000000000e+00 0.000000000000000e+00 0.000000000000000e+00

0.000000000000000e+00 0.000000000000000e+00 0.000000000000000e+00
0.000000000000000e+00 0.000000000000000e+00 0.000000000000000e+00
0.000000000000000e+00 0.000000000000000e+00 0.000000000000000e+00

0.000000000000000e+00 0.000000000000000e+00 0.000000000000000e+00
0.000000000000000e+00 0.000000000000000e+00 0.000000000000000e+00
0.000000000000000e+00 0.000000000000000e+00 0.000000000000000e+00

0.000000000000000e+00 0.000000000000000e+00 0.000000000000000e+00
0.000000000000000e+00 0.000000000000000e+00 0.000000000000000e+00
0.000000000000000e+00 0.000000000000000e+00 0.000000000000000e+00

0.000000000000000e+00 0.000000000000000e+00 0.000000000000000e+00
0.000000000000000e+00 0.000000000000000e+00 0.000000000000000e+00
0.000000000000000e+00 0.000000000000000e+00 0.000000000000000e+00

0.000000000000000e+00 0.000000000000000e+00 0.000000000000000e+00
0.000000000000000e+00 0.000000000000000e+00 0.000000000000000e+00
0.000000000000000e+00 0.000000000000000e+00 0.000000000000000e+00

0.000000000000000e+00 0.000000000000000e+00 0.000000000000000e+00
0.000000000000000e+00 0.000000000000000e+00 0.000000000000000e+00
0.000000000000000e+00 0.000000000000000e+00 0.000000000000000e+00

0.000000000000000e+00 0.000000000000000e+00 0.000000000000000e+00
0.000000000000000e+00 0.000000000000000e+00 0.000000000000000e+00
0.000000000000000e+00 0.000000000000000e+00 0.000000000000000e+00

0.000000000000000e+00 0.000000000000000e+00 0.000000000000000e+00
0.000000000000000e+00 0.000000000000000e+00 0.000000000000000e+00
0.000000000000000e+00 0.000000000000000e+00 0.000000000000000e+00

0.000000000000000e+00 0.000000000000000e+00 0.000000000000000e+00
0.000000000000000e+00 0.000000000000000e+00 0.000000000000000e+00
0.000000000000000e+00 0.000000000000000e+00 0.000000000000000e+00

0.000000000000000e+00 0.000000000000000e+00 0.000000000000000e+00
0.000000000000000e+00 0.000000000000000e+00 0.000000000000000e+00
0.000000000000000e+00 0.000000000000000e+00 0.000000000000000e+00

0.000000000000000e+00 0.000000000000000e+00 0.000000000000000e+00
0.000000000000000e+00 0.000000000000000e+00 0.000000000000000e+00
0.000000000000000e+00 0.000000000000000e+00 0.000000000000000e+00

0.000000000000000e+00 0.000000000000000e+00 0.000000000000000e+00
0.000000000000000e+00 0.000000000000000e+00 0.000000000000000e+00
0.000000000000000e+00 0.000000000000000e+00 0.000000000000000e+00

0.000000000000000e+00 0.000000000000000e+00 0.000000000000000e+00
0.000000000000000e+00 0.000000000000000e+00 0.000000000000000e+00
0.000000000000000e+00 0.000000000000000e+00 0.000000000000000e+00

0.000000000000000e+00 0.000000000000000e+00 0.000000000000000e+00
0.000000000000000e+00 0.000000000000000e+00 0.000000000000000e+00
0.000000000000000e+00 0.000000000000000e+00 0.000000000000000e+00

0.000000000000000e+00 0.000000000000000e+00 0.000000000000000e+00
0.000000000000000e+00 0.000000000000000e+00 0.000000000000000e+00
0.000000000000000e+00 0.000000000000000e+00 0.000000000000000e+00

0.000000000000000e+00 0.000000000000000e+00 0.000000000000000e+00
0.000000000000000e+00 0.000000000000000e+00 0.000000000000000e+00
0.000000000000000e+00 0.000000000000000e+00 0.000000000000000e+00

0.000000000000000e+00 0.000000000000000e+00 0.000000000000000e+00
0.000000000000000e+00 0.000000000000000e+00 0.000000000000000e+00
0.000000000000000e+00 0.000000000000000e+00 0.000000000000000e+00

0.000000000000000e+00 0.000000000000000e+00 0.000000000000000e+00
0.000000000000000e+00 0.000000000000000e+00 0.000000000000000e+00
0.000000000000000e+00 0.000000000000000e+00 0.000000000000000e+00

0.000000000000000e+00 0.000000000000000e+00 0.000000000000000e+00
0.000000000000000e+00 0.000000000000000e+00 0.000000000000000e+00
0.000000000000000e+00 0.000000000000000e+00 0.000000000000000e+00

0.000000000000000e+00 0.000000000000000e+00 0.000000000000000e+00
0.000000000000000e+00 0.000000000000000e+00 0.000000000000000e+00
0.000000000000000e+00 0.000000000000000e+00 0.000000000000000e+00

0.000000000000000e+00 0.000000000000000e+00 0.000000000000000e+00
0.000000000000000e+00 0.000000000000000e+00 0.000000000000000e+00
0.000000000000000e+00 0.000000000000000e+00 0.000000000000000e+00

0.000000000000000e+00 0.000000000000000e+00 0.000000000000000e+00
0.000000000000000e+00 0.000000000000000e+00 0.000000000000000e+00
0.000000000000000e+00 0.000000000000000e+00 0.000000000000000e+00

0.000000000000000e+00 0.000000000000000e+00 0.000000000000000e+00
0.000000000000000e+00 0.000000000000000e+00 0.000000000000000e+00
0.000000000000000e+00 0.000000000000000e+00 0.000000000000000e+00

0.000000000000000e+00 0.000000000000000e+00 0.000000000000000e+00
0.000000000000000e+00 0.000000000000000e+00 0.000000000000000e+00
0.000000000000000e+00 0.000000000000000e+00 0.000000000000000e+00

0.000000000000000e+00 0.000000000000000e+00 0.000000000000000e+00
0.000000000000000e+00 0.000000000000000e+00 0.000000000000000e+00
0.000000000000000e+00 0.000000000000000e+00 0.000000000000000e+00

0.000000000000000e+00 0.000000000000000e+00 0.000000000000000e+00
0.000000000000000e+00 0.000000000000000e+00 0.000000000000000e+00
0.000000000000000e+00 0.000000000000000e+00 0.000000000000000e+00

0.000000000000000e+00 0.000000000000000e+00 0.000000000000000e+00
0.000000000000000e+00 0.000000000000000e+00 0.000000000000000e+00
0.000000000000000e+00 0.000000000000000e+00 0.000000000000000e+00

0.000000000000000e+00 0.000000000000000e+00 0.000000000000000e+00
0.000000000000000e+00 0.000000000000000e+00 0.000000000000000e+00
0.000000000000000e+00 0.000000000000000e+00 0.000000000000000e+00

0.000000000000000e+00 0.000000000000000e+00 0.000000000000000e+00
0.000000000000000e+00 0.000000000000000e+00 0.000000000000000e+00
0.000000000000000e+00 0.000000000000000e+00 0.000000000000000e+00

0.000000000000000e+00 0.000000000000000e+00 0.000000000000000e+00
0.000000000000000e+00 0.000000000000000e+00 0.000000000000000e+00
0.000000000000000e+00 0.000000000000000e+00 0.000000000000000e+00

0.000000000000000e+00 0.000000000000000e+00 0.000000000000000e+00
0.000000000000000e+00 0.000000000000000e+00 0.000000000000000e+00
0.000000000000000e+00 0.000000000000000e+00 0.000000000000000e+00

0.000000000000000e+00 0.000000000000000e+00 0.000000000000000e+00
0.000000000000000e+00 0.000000000000000e+00 0.000000000000000e+00
0.000000000000000e+00 0.000000000000000e+00 0.000000000000000e+00

0.000000000000000e+00 0.000000000000000e+00 0.000000000000000e+00
0.000000000000000e+00 0.000000000000000e+00 0.000000000000000e+00
0.000000000000000e+00 0.000000000000000e+00 0.000000000000000e+00

0.000000000000000e+00 0.000000000000000e+00 0.000000000000000e+00
0.000000000000000e+00 0.000000000000000e+00 0.000000000000000e+00
0.000000000000000e+00 0.000000000000000e+00 0.000000000000000e+00

0.000000000000000e+00 0.000000000000000e+00 0.000000000000000e+00
0.000000000000000e+00 0.000000000000000e+00 0.000000000000000e+00
0.000000000000000e+00 0.000000000000000e+00 0.000000000000000e+00

0.000000000000000e+00 0.000000000000000e+00 0.000000000000000e+00
0.000000000000000e+00 0.000000000000000e+00 0.000000000000000e+00
0.000000000000000e+00 0.000000000000000e+00 0.000000000000000e+00

0.000000000000000e+00 0.000000000000000e+00 0.000000000000000e+00
0.000000000000000e+00 0.000000000000000e+00 0.000000000000000e+00
0.000000000000000e+00 0.000000000000000e+00 0.000000000000000e+00

0.000000000000000e+00 0.000000000000000e+00 0.000000000000000e+00
0.000000000000000e+00 0.000000000000000e+00 0.000000000000000e+00
0.000000000000000e+00 0.000000000000000e+00 0.000000000000000e+00

0.000000000000000e+00 0.000000000000000e+00 0.000000000000000e+00
0.000000000000000e+00 0.000000000000000e+00 0.000000000000000e+00
0.000000000000000e+00 0.000000000000000e+00 0.000000000000000e+00

0.000000000000000e+00 0.000000000000000e+00 0.000000000000000e+00
0.000000000000000e+00 0.000000000000000e+00 0.000000000000000e+00
0.000000000000000e+00 0.000000000000000e+00 0.000000000000000e+00

0.000000000000000e+00 0.000000000000000e+00 0.000000000000000e+00
0.000000000000000e+00 0.000000000000000e+00 0.000000000000000e+00
0.000000000000000e+00 0.000000000000000e+00 0.000000000000000e+00

0.000000000000000e+00 0.000000000000000e+00 0.000000000000000e+00
0.000000000000000e+00 0.000000000000000e+00 0.000000000000000e+00
0.000000000000000e+00 0.000000000000000e+00 0.000000000000000e+00

0.000000000000000e+00 0.000000000000000e+00 0.000000000000000e+00
0.000000000000000e+00 0.000000000000000e+00 0.000000000000000e+00
0.000000000000000e+00 0.000000000000000e+00 0.000000000000000e+00

0.000000000000000e+00 0.000000000000000e+00 0.000000000000000e+00
0.000000000000000e+00 0.000000000000000e+00 0.000000000000000e+00
0.000000000000000e+00 0.000000000000000e+00 0.000000000000000e+00

0.000000000000000e+00 0.000000000000000e+00 0.000000000000000e+00
0.000000000000000e+00 0.000000000000000e+00 0.000000000000000e+00
0.000000000000000e+00 0.000000000000000e+00 0.000000000000000e+00

0.000000000000000e+00 0.000000000000000e+00 0.000000000000000e+00
0.000000000000000e+00 0.000000000000000e+00 0.000000000000000e+00
0.000000000000000e+00 0.000000000000000e+00 0.000000000000000e+00

0.000000000000000e+00 0.000000000000000e+00 0.000000000000000e+00
0.000000000000000e+00 0.000000000000000e+00 0.000000000000000e+00
0.000000000000000e+00 0.000000000000000e+00 0.000000000000000e+00

0.000000000000000e+00 0.000000000000000e+00 0.000000000000000e+00
0.000000000000000e+00 0.000000000000000e+00 0.000000000000000e+00
0.000000000000000e+00 0.000000000000000e+00 0.000000000000000e+00

0.000000000000000e+00 0.000000000000000e+00 0.000000000000000e+00
0.000000000000000e+00 0.000000000000000e+00 0.000000000000000e+00
0.000000000000000e+00 0.000000000000000e+00 0.000000000000000e+00

0.000000000000000e+00 0.000000000000000e+00 0.000000000000000e+00
0.000000000000000e+00 0.000000000000000e+00 0.000000000000000e+00
0.000000000000000e+00 0.000000000000000e+00 0.000000000000000e+00

0.000000000000000e+00 0.000000000000000e+00 0.000000000000000e+00
0.000000000000000e+00 0.000000000000000e+00 0.000000000000000e+00
0.000000000000000e+00 0.000000000000000e+00 0.000000000000000e+00

0.000000000000000e+00 0.000000000000000e+00 0.000000000000000e+00
0.000000000000000e+00 0.000000000000000e+00 0.000000000000000e+00
0.000000000000000e+00 0.000000000000000e+00 0.000000000000000e+00

0.000000000000000e+00 0.000000000000000e+00 0.000000000000000e+00
0.000000000000000e+00 0.000000000000000e+00 0.000000000000000e+00
0.000000000000000e+00 0.000000000000000e+00 0.000000000000000e+00

0.000000000000000e+00 0.000000000000000e+00 0.000000000000000e+00
0.000000000000000e+00 0.000000000000000e+00 0.000000000000000e+00
0.000000000000000e+00 0.000000000000000e+00 0.000000000000000e+00

0.000000000000000e+00 0.000000000000000e+00 0.000000000000000e+00
0.000000000000000e+00 0.000000000000000e+00 0.000000000000000e+00
0.000000000000000e+00 0.000000000000000e+00 0.000000000000000e+00

0.000000000000000e+00 0.000000000000000e+00 0.000000000000000e+00
0.000000000000000e+00 0.000000000000000e+00 0.000000000000000e+00
0.000000000000000e+00 0.000000000000000e+00 0.000000000000000e+00

0.000000000000000e+00 0.000000000000000e+00 0.000000000000000e+00
0.000000000000000e+00 0.000000000000000e+00 0.000000000000000e+00
0.000000000000000e+00 0.000000000000000e+00 0.000000000000000e+00

0.000000000000000e+00 0.000000000000000e+00 0.000000000000000e+00
0.000000000000000e+00 0.000000000000000e+00 0.000000000000000e+00
0.000000000000000e+00 0.000000000000000e+00 0.000000000000000e+00

0.000000000000000e+00 0.000000000000000e+00 0.000000000000000e+00
0.000000000000000e+00 0.000000000000000e+00 0.000000000000000e+00
0.000000000000000e+00 0.000000000000000e+00 0.000000000000000e+00

0.000000000000000e+00 0.000000000000000e+00 0.000000000000000e+00
0.000000000000000e+00 0.000000000000000e+00 0.000000000000000e+00
0.000000000000000e+00 0.000000000000000e+00 0.000000000000000e+00

0.000000000000000e+00 0.000000000000000e+00 0.000000000000000e+00
0.000000000000000e+00 0.000000000000000e+00 0.000000000000000e+00
0.000000000000000e+00 0.000000000000000e+00 0.000000000000000e+00

0.000000000000000e+00 0.000000000000000e+00 0.000000000000000e+00
0.000000000000000e+00 0.000000000000000e+00 0.000000000000000e+00
0.000000000000000e+00 0.000000000000000e+00 0.000000000000000e+00

0.000000000000000e+00 0.000000000000000e+00 0.000000000000000e+00
0.000000000000000e+00 0.000000000000000e+00 0.000000000000000e+00
0.000000000000000e+00 0.000000000000000e+00 0.000000000000000e+00

0.000000000000000e+00 0.000000000000000e+00 0.000000000000000e+00
0.000000000000000e+00 0.000000000000000e+00 0.000000000000000e+00
0.000000000000000e+00 0.000000000000000e+00 0.000000000000000e+00

0.000000000000000e+00 0.000000000000000e+00 0.000000000000000e+00
0.000000000000000e+00 0.000000000000000e+00 0.000000000000000e+00
0.000000000000000e+00 0.000000000000000e+00 0.000000000000000e+00

0.000000000000000e+00 0.000000000000000e+00 0.000000000000000e+00
0.000000000000000e+00 0.000000000000000e+00 0.000000000000000e+00
0.000000000000000e+00 0.000000000000000e+00 0.000000000000000e+00

0.000000000000000e+00 0.000000000000000e+00 0.000000000000000e+00
0.000000000000000e+00 0.000000000000000e+00 0.000000000000000e+00
0.000000000000000e+00 0.000000000000000e+00 0.000000000000000e+00

0.000000000000000e+00 0.000000000000000e+00 0.000000000000000e+00
0.000000000000000e+00 0.000000000000000e+00 0.000000000000000e+00
0.000000000000000e+00 0.000000000000000e+00 0.000000000000000e+00

0.000000000000000e+00 0.000000000000000e+00 0.000000000000000e+00
0.000000000000000e+00 0.000000000000000e+00 0.000000000000000e+00
0.000000000000000e+00 0.000000000000000e+00 0.000000000000000e+00

0.000000000000000e+00 0.000000000000000e+00 0.000000000000000e+00
0.000000000000000e+00 0.000000000000000e+00 0.000000000000000e+00
0.000000000000000e+00 0.000000000000000e+00 0.000000000000000e+00

0.000000000000000e+00 0.000000000000000e+00 0.000000000000000e+00
0.000000000000000e+00 0.000000000000000e+00 0.000000000000000e+00
0.000000000000000e+00 0.000000000000000e+00 0.000000000000000e+00

0.000000000000000e+00 0.000000000000000e+00 0.000000000000000e+00
0.000000000000000e+00 0.000000000000000e+00 0.000000000000000e+00
0.000000000000000e+00 0.000000000000000e+00 0.000000000000000e+00

0.000000000000000e+00 0.000000000000000e+00 0.000000000000000e+00
0.000000000000000e+00 0.000000000000000e+00 0.000000000000000e+00
0.000000000000000e+00 0.000000000000000e+00 0.000000000000000e+00

0.000000000000000e+00 0.000000000000000e+00 0.000000000000000e+00
0.000000000000000e+00 0.000000000000000e+00 0.000000000000000e+00
0.000000000000000e+00 0.000000000000000e+00 0.000000000000000e+00

0.000000000000000e+00 0.000000000000000e+00 0.000000000000000e+00
0.000000000000000e+00 0.000000000000000e+00 0.000000000000000e+00
0.000000000000000e+00 0.000000000000000e+00 0.000000000000000e+00

0.000000000000000e+00 0.000000000000000e+00 0.000000000000000e+00
0.000000000000000e+00 0.000000000000000e+00 0.000000000000000e+00
0.000000000000000e+00 0.000000000000000e+00 0.000000000000000e+00

0.000000000000000e+00 0.000000000000000e+00 0.000000000000000e+00
0.000000000000000e+00 0.000000000000000e+00 0.000000000000000e+00
0.000000000000000e+00 0.000000000000000e+00 0.000000000000000e+00

0.000000000000000e+00 0.000000000000000e+00 0.000000000000000e+00
0.000000000000000e+00 0.000000000000000e+00 0.000000000000000e+00
0.000000000000000e+00 0.000000000000000e+00 0.000000000000000e+00

0.000000000000000e+00 0.000000000000000e+00 0.000000000000000e+00
0.000000000000000e+00 0.000000000000000e+00 0.000000000000000e+00
0.000000000000000e+00 0.000000000000000e+00 0.000000000000000e+00

0.000000000000000e+00 0.000000000000000e+00 0.000000000000000e+00
0.000000000000000e+00 0.000000000000000e+00 0.000000000000000e+00
0.000000000000000e+00 0.000000000000000e+00 0.000000000000000e+00

0.000000000000000e+00 0.000000000000000e+00 0.000000000000000e+00
0.000000000000000e+00 0.000000000000000e+00 0.000000000000000e+00
0.000000000000000e+00 0.000000000000000e+00 0.000000000000000e+00

0.000000000000000e+00 0.000000000000000e+00 0.000000000000000e+00
0.000000000000000e+00 0.000000000000000e+00 0.000000000000000e+00
0.000000000000000e+00 0.000000000000000e+00 0.000000000000000e+00

0.000000000000000e+00 0.000000000000000e+00 0.000000000000000e+00
0.000000000000000e+00 0.000000000000000e+00 0.000000000000000e+00
0.000000000000000e+00 0.000000000000000e+00 0.000000000000000e+00

0.000000000000000e+00 0.000000000000000e+00 0.000000000000000e+00
0.000000000000000e+00 0.000000000000000e+00 0.000000000000000e+00
0.000000000000000e+00 0.000000000000000e+00 0.000000000000000e+00

0.000000000000000e+00 0.000000000000000e+00 0.000000000000000e+00
0.000000000000000e+00 0.000000000000000e+00 0.000000000000000e+00
0.000000000000000e+00 0.000000000000000e+00 0.000000000000000e+00

0.000000000000000e+00 0.000000000000000e+00 0.000000000000000e+00
0.000000000000000e+00 0.000000000000000e+00 0.000000000000000e+00
0.000000000000000e+00 0.000000000000000e+00 0.000000000000000e+00

0.000000000000000e+00 0.000000000000000e+00 0.000000000000000e+00
0.000000000000000e+00 0.000000000000000e+00 0.000000000000000e+00
0.000000000000000e+00 0.000000000000000e+00 0.000000000000000e+00

0.000000000000000e+00 0.000000000000000e+00 0.000000000000000e+00
0.000000000000000e+00 0.000000000000000e+00 0.000000000000000e+00
0.000000000000000e+00 0.000000000000000e+00 0.000000000000000e+00

0.000000000000000e+00 0.000000000000000e+00 0.000000000000000e+00
0.000000000000000e+00 0.000000000000000e+00 0.000000000000000e+00
0.000000000000000e+00 0.000000000000000e+00 0.000000000000000e+00

0.000000000000000e+00 0.000000000000000e+00 0.000000000000000e+00
0.000000000000000e+00 0.000000000000000e+00 0.000000000000000e+00
0.000000000000000e+00 0.000000000000000e+00 0.000000000000000e+00

0.000000000000000e+00 0.000000000000000e+00 0.000000000000000e+00
0.000000000000000e+00 0.000000000000000e+00 0.000000000000000e+00
0.000000000000000e+00 0.000000000000000e+00 0.000000000000000e+00

0.000000000000000e+00 0.000000000000000e+00 0.000000000000000e+00
0.000000000000000e+00 0.000000000000000e+00 0.000000000000000e+00
0.000000000000000e+00 0.000000000000000e+00 0.000000000000000e+00

0.000000000000000e+00 0.000000000000000e+00 0.000000000000000e+00
0.000000000000000e+00 0.000000000000000e+00 0.000000000000000e+00
0.000000000000000e+00 0.000000000000000e+00 0.000000000000000e+00

0.000000000000000e+00 0.000000000000000e+00 0.000000000000000e+00
0.000000000000000e+00 0.000000000000000e+00 0.000000000000000e+00
0.000000000000000e+00 0.000000000000000e+00 0.000000000000000e+00

0.000000000000000e+00 0.000000000000000e+00 0.000000000000000e+00
0.000000000000000e+00 0.000000000000000e+00 0.000000000000000e+00
0.000000000000000e+00 0.000000000000000e+00 0.000000000000000e+00

0.000000000000000e+00 0.000000000000000e+00 0.000000000000000e+00
0.000000000000000e+00 0.000000000000000e+00 0.000000000000000e+00
0.000000000000000e+00 0.000000000000000e+00 0.000000000000000e+00

0.000000000000000e+00 0.000000000000000e+00 0.000000000000000e+00
0.000000000000000e+00 0.000000000000000e+00 0.000000000000000e+00
0.000000000000000e+00 0.000000000000000e+00 0.000000000000000e+00

0.000000000000000e+00 0.000000000000000e+00 0.000000000000000e+00
0.000000000000000e+00 0.000000000000000e+00 0.000000000000000e+00
0.000000000000000e+00 0.000000000000000e+00 0.000000000000000e+00

0.000000000000000e+00 0.000000000000000e+00 0.000000000000000e+00
0.000000000000000e+00 0.000000000000000e+00 0.000000000000000e+00
0.000000000000000e+00 0.000000000000000e+00 0.000000000000000e+00

0.000000000000000e+00 0.000000000000000e+00 0.000000000000000e+00
0.000000000000000e+00 0.000000000000000e+00 0.000000000000000e+00
0.000000000000000e+00 0.000000000000000e+00 0.000000000000000e+00

0.000000000000000e+00 0.000000000000000e+00 0.000000000000000e+00
0.000000000000000e+00 0.000000000000000e+00 0.000000000000000e+00
0.000000000000000e+00 0.000000000000000e+00 0.000000000000000e+00

0.000000000000000e+00 0.000000000000000e+00 0.000000000000000e+00
0.000000000000000e+00 0.000000000000000e+00 0.000000000000000e+00
0.000000000000000e+00 0.000000000000000e+00 0.000000000000000e+00

0.000000000000000e+00 0.000000000000000e+00 0.000000000000000e+00
0.000000000000000e+00 0.000000000000000e+00 0.000000000000000e+00
0.000000000000000e+00 0.000000000000000e+00 0.000000000000000e+00

0.000000000000000e+00 0.000000000000000e+00 0.000000000000000e+00
0.000000000000000e+00 0.000000000000000e+00 0.000000000000000e+00
0.000000000000000e+00 0.000000000000000e+00 0.000000000000000e+00

0.000000000000000e+00 0.000000000000000e+00 0.000000000000000e+00
0.000000000000000e+00 0.000000000000000e+00 0.000000000000000e+00
0.000000000000000e+00 0.000000000000000e+00 0.000000000000000e+00

0.000000000000000e+00 0.000000000000000e+00 0.000000000000000e+00
0.000000000000000e+00 0.000000000000000e+00 0.000000000000000e+00
0.000000000000000e+00 0.000000000000000e+00 0.000000000000000e+00

0.000000000000000e+00 0.000000000000000e+00 0.000000000000000e+00
0.000000000000000e+00 0.000000000000000e+00 0.000000000000000e+00
0.000000000000000e+00 0.000000000000000e+00 0.000000000000000e+00

0.000000000000000e+00 0.000000000000000e+00 0.000000000000000e+00
0.000000000000000e+00 0.000000000000000e+00 0.000000000000000e+00
0.000000000000000e+00 0.000000000000000e+00 0.000000000000000e+00

0.000000000000000e+00 0.000000000000000e+00 0.000000000000000e+00
0.000000000000000e+00 0.000000000000000e+00 0.000000000000000e+00
0.000000000000000e+00 0.000000000000000e+00 0.000000000000000e+00

0.000000000000000e+00 0.000000000000000e+00 0.000000000000000e+00
0.000000000000000e+00 0.000000000000000e+00 0.000000000000000e+00
0.000000000000000e+00 0.000000000000000e+00 0.000000000000000e+00

0.000000000000000e+00 0.000000000000000e+00 0.000000000000000e+00
0.000000000000000e+00 0.000000000000000e+00 0.000000000000000e+00
0.000000000000000e+00 0.000000000000000e+00 0.000000000000000e+00

0.000000000000000e+00 0.000000000000000e+00 0.000000000000000e+00
0.000000000000000e+00 0.000000000000000e+00 0.000000000000000e+00
0.000000000000000e+00 0.000000000000000e+00 0.000000000000000e+00

0.000000000000000e+00 0.000000000000000e+00 0.000000000000000e+00
0.000000000000000e+00 0.000000000000000e+00 0.000000000000000e+00
0.000000000000000e+00 0.000000000000000e+00 0.000000000000000e+00

0.000000000000000e+00 0.000000000000000e+00 0.000000000000000e+00
0.000000000000000e+00 0.000000000000000e+00 0.000000000000000e+00
0.000000000000000e+00 0.000000000000000e+00 0.000000000000000e+00

0.000000000000000e+00 0.000000000000000e+00 0.000000000000000e+00
0.000000000000000e+00 0.000000000000000e+00 0.000000000000000e+00
0.000000000000000e+00 0.000000000000000e+00 0.000000000000000e+00

0.000000000000000e+00 0.000000000000000e+00 0.000000000000000e+00
0.000000000000000e+00 0.000000000000000e+00 0.000000000000000e+00
0.000000000000000e+00 0.000000000000000e+00 0.000000000000000e+00

0.000000000000000e+00 0.000000000000000e+00 0.000000000000000e+00
0.000000000000000e+00 0.000000000000000e+00 0.000000000000000e+00
0.000000000000000e+00 0.000000000000000e+00 0.000000000000000e+00

0.000000000000000e+00 0.000000000000000e+00 0.000000000000000e+00
0.000000000000000e+00 0.000000000000000e+00 0.000000000000000e+00
0.000000000000000e+00 0.000000000000000e+00 0.000000000000000e+00

0.000000000000000e+00 0.000000000000000e+00 0.000000000000000e+00
0.000000000000000e+00 0.000000000000000e+00 0.000000000000000e+00
0.000000000000000e+00 0.000000000000000e+00 0.000000000000000e+00

0.000000000000000e+00 0.000000000000000e+00 0.000000000000000e+00
0.000000000000000e+00 0.000000000000000e+00 0.000000000000000e+00
0.000000000000000e+00 0.000000000000000e+00 0.000000000000000e+00

0.000000000000000e+00 0.000000000000000e+00 0.000000000000000e+00
0.000000000000000e+00 0.000000000000000e+00 0.000000000000000e+00
0.000000000000000e+00 0.000000000000000e+00 0.000000000000000e+00

0.000000000000000e+00 0.000000000000000e+00 0.000000000000000e+00
0.000000000000000e+00 0.000000000000000e+00 0.000000000000000e+00
0.000000000000000e+00 0.000000000000000e+00 0.000000000000000e+00

0.000000000000000e+00 0.000000000000000e+00 0.000000000000000e+00
0.000000000000000e+00 0.000000000000000e+00 0.000000000000000e+00
0.000000000000000e+00 0.000000000000000e+00 0.000000000000000e+00

0.000000000000000e+00 0.000000000000000e+00 0.000000000000000e+00
0.000000000000000e+00 0.000000000000000e+00 0.000000000000000e+00
0.000000000000000e+00 0.000000000000000e+00 0.000000000000000e+00

0.000000000000000e+00 0.000000000000000e+00 0.000000000000000e+00
0.000000000000000e+00 0.000000000000000e+00 0.000000000000000e+00
0.000000000000000e+00 0.000000000000000e+00 0.000000000000000e+00

0.000000000000000e+00 0.000000000000000e+00 0.000000000000000e+00
0.000000000000000e+00 0.000000000000000e+00 0.000000000000000e+00
0.000000000000000e+00 0.000000000000000e+00 0.000000000000000e+00

0.000000000000000e+00 0.000000000000000e+00 0.000000000000000e+00
0.000000000000000e+00 0.000000000000000e+00 0.000000000000000e+00
0.000000000000000e+00 0.000000000000000e+00 0.000000000000000e+00

0.000000000000000e+00 0.000000000000000e+00 0.000000000000000e+00
0.000000000000000e+00 0.000000000000000e+00 0.000000000000000e+00
0.000000000000000e+00 0.000000000000000e+00 0.000000000000000e+00

0.000000000000000e+00 0.000000000000000e+00 0.000000000000000e+00
0.000000000000000e+00 0.000000000000000e+00 0.000000000000000e+00
0.000000000000000e+00 0.000000000000000e+00 0.000000000000000e+00

0.000000000000000e+00 0.000000000000000e+00 0.000000000000000e+00
0.000000000000000e+00 0.000000000000000e+00 0.000000000000000e+00
0.000000000000000e+00 0.000000000000000e+00 0.000000000000000e+00

0.000000000000000e+00 0.000000000000000e+00 0.000000000000000e+00
0.000000000000000e+00 0.000000000000000e+00 0.000000000000000e+00
0.000000000000000e+00 0.000000000000000e+00 0.000000000000000e+00

0.000000000000000e+00 0.000000000000000e+00 0.000000000000000e+00
0.000000000000000e+00 0.000000000000000e+00 0.000000000000000e+00
0.000000000000000e+00 0.000000000000000e+00 0.000000000000000e+00

0.000000000000000e+00 0.000000000000000e+00 0.000000000000000e+00
0.000000000000000e+00 0.000000000000000e+00 0.000000000000000e+00
0.000000000000000e+00 0.000000000000000e+00 0.000000000000000e+00

0.000000000000000e+00 0.000000000000000e+00 0.000000000000000e+00
0.000000000000000e+00 0.000000000000000e+00 0.000000000000000e+00
0.000000000000000e+00 0.000000000000000e+00 0.000000000000000e+00

0.000000000000000e+00 0.000000000000000e+00 0.000000000000000e+00
0.000000000000000e+00 0.000000000000000e+00 0.000000000000000e+00
0.000000000000000e+00 0.000000000000000e+00 0.000000000000000e+00

0.000000000000000e+00 0.000000000000000e+00 0.000000000000000e+00
0.000000000000000e+00 0.000000000000000e+00 0.000000000000000e+00
0.000000000000000e+00 0.000000000000000e+00 0.000000000000000e+00

0.000000000000000e+00 0.000000000000000e+00 0.000000000000000e+00
0.000000000000000e+00 0.000000000000000e+00 0.000000000000000e+00
0.000000000000000e+00 0.000000000000000e+00 0.000000000000000e+00

0.000000000000000e+00 0.000000000000000e+00 0.000000000000000e+00
0.000000000000000e+00 0.000000000000000e+00 0.000000000000000e+00
0.000000000000000e+00 0.000000000000000e+00 0.000000000000000e+00

0.000000000000000e+00 0.000000000000000e+00 0.000000000000000e+00
0.000000000000000e+00 0.000000000000000e+00 0.000000000000000e+00
0.000000000000000e+00 0.000000000000000e+00 0.000000000000000e+00

0.000000000000000e+00 0.000000000000000e+00 0.000000000000000e+00
0.000000000000000e+00 0.000000000000000e+00 0.000000000000000e+00
0.000000000000000e+00 0.000000000000000e+00 0.000000000000000e+00

0.000000000000000e+00 0.000000000000000e+00 0.000000000000000e+00
0.000000000000000e+00 0.000000000000000e+00 0.000000000000000e+00
0.000000000000000e+00 0.000000000000000e+00 0.000000000000000e+00

0.000000000000000e+00 0.000000000000000e+00 0.000000000000000e+00
0.000000000000000e+00 0.000000000000000e+00 0.000000000000000e+00
0.000000000000000e+00 0.000000000000000e+00 0.000000000000000e+00

0.000000000000000e+00 0.000000000000000e+00 0.000000000000000e+00
0.000000000000000e+00 0.000000000000000e+00 0.000000000000000e+00
0.000000000000000e+00 0.000000000000000e+00 0.000000000000000e+00

0.000000000000000e+00 0.000000000000000e+00 0.000000000000000e+00
0.000000000000000e+00 0.000000000000000e+00 0.000000000000000e+00
0.000000000000000e+00 0.000000000000000e+00 0.000000000000000e+00

0.000000000000000e+00 0.000000000000000e+00 0.000000000000000e+00
0.000000000000000e+00 0.000000000000000e+00 0.000000000000000e+00
0.000000000000000e+00 0.000000000000000e+00 0.000000000000000e+00

0.000000000000000e+00 0.000000000000000e+00 0.000000000000000e+00
0.000000000000000e+00 0.000000000000000e+00 0.000000000000000e+00
0.000000000000000e+00 0.000000000000000e+00 0.000000000000000e+00

0.000000000000000e+00 0.000000000000000e+00 0.000000000000000e+00
0.000000000000000e+00 0.000000000000000e+00 0.000000000000000e+00
0.000000000000000e+00 0.000000000000000e+00 0.000000000000000e+00

0.000000000000000e+00 0.000000000000000e+00 0.000000000000000e+00
0.000000000000000e+00 0.000000000000000e+00 0.000000000000000e+00
0.000000000000000e+00 0.000000000000000e+00 0.000000000000000e+00

0.000000000000000e+00 0.000000000000000e+00 0.000000000000000e+00
0.000000000000000e+00 0.000000000000000e+00 0.000000000000000e+00
0.000000000000000e+00 0.000000000000000e+00 0.000000000000000e+00

0.000000000000000e+00 0.000000000000000e+00 0.000000000000000e+00
0.000000000000000e+00 0.000000000000000e+00 0.000000000000000e+00
0.000000000000000e+00 0.000000000000000e+00 0.000000000000000e+00

0.000000000000000e+00 0.000000000000000e+00 0.000000000000000e+00
0.000000000000000e+00 0.000000000000000e+00 0.000000000000000e+00
0.000000000000000e+00 0.000000000000000e+00 0.000000000000000e+00

0.000000000000000e+00 0.000000000000000e+00 0.000000000000000e+00
0.000000000000000e+00 0.000000000000000e+00 0.000000000000000e+00
0.000000000000000e+00 0.000000000000000e+00 0.000000000000000e+00

0.000000000000000e+00 0.000000000000000e+00 0.000000000000000e+00
0.000000000000000e+00 0.000000000000000e+00 0.000000000000000e+00
0.000000000000000e+00 0.000000000000000e+00 0.000000000000000e+00

0.000000000000000e+00 0.000000000000000e+00 0.000000000000000e+00
0.000000000000000e+00 0.000000000000000e+00 0.000000000000000e+00
0.000000000000000e+00 0.000000000000000e+00 0.000000000000000e+00

0.000000000000000e+00 0.000000000000000e+00 0.000000000000000e+00
0.000000000000000e+00 0.000000000000000e+00 0.000000000000000e+00
0.000000000000000e+00 0.000000000000000e+00 0.000000000000000e+00

0.000000000000000e+00 0.000000000000000e+00 0.000000000000000e+00
0.000000000000000e+00 0.000000000000000e+00 0.000000000000000e+00
0.000000000000000e+00 0.000000000000000e+00 0.000000000000000e+00

0.000000000000000e+00 0.000000000000000e+00 0.000000000000000e+00
0.000000000000000e+00 0.000000000000000e+00 0.000000000000000e+00
0.000000000000000e+00 0.000000000000000e+00 0.000000000000000e+00

0.000000000000000e+00 0.000000000000000e+00 0.000000000000000e+00
0.000000000000000e+00 0.000000000000000e+00 0.000000000000000e+00
0.000000000000000e+00 0.000000000000000e+00 0.000000000000000e+00

0.000000000000000e+00 0.000000000000000e+00 0.000000000000000e+00
0.000000000000000e+00 0.000000000000000e+00 0.000000000000000e+00
0.000000000000000e+00 0.000000000000000e+00 0.000000000000000e+00

0.000000000000000e+00 0.000000000000000e+00 0.000000000000000e+00
0.000000000000000e+00 0.000000000000000e+00 0.000000000000000e+00
0.000000000000000e+00 0.000000000000000e+00 0.000000000000000e+00

0.000000000000000e+00 0.000000000000000e+00 0.000000000000000e+00
0.000000000000000e+00 0.000000000000000e+00 0.000000000000000e+00
0.000000000000000e+00 0.000000000000000e+00 0.000000000000000e+00

0.000000000000000e+00 0.000000000000000e+00 0.000000000000000e+00
0.000000000000000e+00 0.000000000000000e+00 0.000000000000000e+00
0.000000000000000e+00 0.000000000000000e+00 0.000000000000000e+00

0.000000000000000e+00 0.000000000000000e+00 0.000000000000000e+00
0.000000000000000e+00 0.000000000000000e+00 0.000000000000000e+00
0.000000000000000e+00 0.000000000000000e+00 0.000000000000000e+00

0.000000000000000e+00 0.000000000000000e+00 0.000000000000000e+00
0.000000000000000e+00 0.000000000000000e+00 0.000000000000000e+00
0.000000000000000e+00 0.000000000000000e+00 0.000000000000000e+00

0.000000000000000e+00 0.000000000000000e+00 0.000000000000000e+00
0.000000000000000e+00 0.000000000000000e+00 0.000000000000000e+00
0.000000000000000e+00 0.000000000000000e+00 0.000000000000000e+00

0.000000000000000e+00 0.000000000000000e+00 0.000000000000000e+00
0.000000000000000e+00 0.000000000000000e+00 0.000000000000000e+00
0.000000000000000e+00 0.000000000000000e+00 0.000000000000000e+00

0.000000000000000e+00 0.000000000000000e+00 0.000000000000000e+00
0.000000000000000e+00 0.000000000000000e+00 0.000000000000000e+00
0.000000000000000e+00 0.000000000000000e+00 0.000000000000000e+00

0.000000000000000e+00 0.000000000000000e+00 0.000000000000000e+00
0.000000000000000e+00 0.000000000000000e+00 0.000000000000000e+00
0.000000000000000e+00 0.000000000000000e+00 0.000000000000000e+00

0.000000000000000e+00 0.000000000000000e+00 0.000000000000000e+00
0.000000000000000e+00 0.000000000000000e+00 0.000000000000000e+00
0.000000000000000e+00 0.000000000000000e+00 0.000000000000000e+00

0.000000000000000e+00 0.000000000000000e+00 0.000000000000000e+00
0.000000000000000e+00 0.000000000000000e+00 0.000000000000000e+00
0.000000000000000e+00 0.000000000000000e+00 0.000000000000000e+00

0.000000000000000e+00 0.000000000000000e+00 0.000000000000000e+00
0.000000000000000e+00 0.000000000000000e+00 0.000000000000000e+00
0.000000000000000e+00 0.000000000000000e+00 0.000000000000000e+00

0.000000000000000e+00 0.000000000000000e+00 0.000000000000000e+00
0.000000000000000e+00 0.000000000000000e+00 0.000000000000000e+00
0.000000000000000e+00 0.000000000000000e+00 0.000000000000000e+00

0.000000000000000e+00 0.000000000000000e+00 0.000000000000000e+00
0.000000000000000e+00 0.000000000000000e+00 0.000000000000000e+00
0.000000000000000e+00 0.000000000000000e+00 0.000000000000000e+00

0.000000000000000e+00 0.000000000000000e+00 0.000000000000000e+00
0.000000000000000e+00 0.000000000000000e+00 0.000000000000000e+00
0.000000000000000e+00 0.000000000000000e+00 0.000000000000000e+00

0.000000000000000e+00 0.000000000000000e+00 0.000000000000000e+00
0.000000000000000e+00 0.000000000000000e+00 0.000000000000000e+00
0.000000000000000e+00 0.000000000000000e+00 0.000000000000000e+00

0.000000000000000e+00 0.000000000000000e+00 0.000000000000000e+00
0.000000000000000e+00 0.000000000000000e+00 0.000000000000000e+00
0.000000000000000e+00 0.000000000000000e+00 0.000000000000000e+00

0.000000000000000e+00 0.000000000000000e+00 0.000000000000000e+00
0.000000000000000e+00 0.000000000000000e+00 0.000000000000000e+00
0.000000000000000e+00 0.000000000000000e+00 0.000000000000000e+00

0.000000000000000e+00 0.000000000000000e+00 0.000000000000000e+00
0.000000000000000e+00 0.000000000000000e+00 0.000000000000000e+00
0.000000000000000e+00 0.000000000000000e+00 0.000000000000000e+00

0.000000000000000e+00 0.000000000000000e+00 0.000000000000000e+00
0.000000000000000e+00 0.000000000000000e+00 0.000000000000000e+00
0.000000000000000e+00 0.000000000000000e+00 0.000000000000000e+00

0.000000000000000e+00 0.000000000000000e+00 0.000000000000000e+00
0.000000000000000e+00 0.000000000000000e+00 0.000000000000000e+00
0.000000000000000e+00 0.000000000000000e+00 0.000000000000000e+00

0.000000000000000e+00 0.000000000000000e+00 0.000000000000000e+00
0.000000000000000e+00 0.000000000000000e+00 0.000000000000000e+00
0.000000000000000e+00 0.000000000000000e+00 0.000000000000000e+00

0.000000000000000e+00 0.000000000000000e+00 0.000000000000000e+00
0.000000000000000e+00 0.000000000000000e+00 0.000000000000000e+00
0.000000000000000e+00 0.000000000000000e+00 0.000000000000000e+00

0.000000000000000e+00 0.000000000000000e+00 0.000000000000000e+00
0.000000000000000e+00 0.000000000000000e+00 0.000000000000000e+00
0.000000000000000e+00 0.000000000000000e+00 0.000000000000000e+00

0.000000000000000e+00 0.000000000000000e+00 0.000000000000000e+00
0.000000000000000e+00 0.000000000000000e+00 0.000000000000000e+00
0.000000000000000e+00 0.000000000000000e+00 0.000000000000000e+00

0.000000000000000e+00 0.000000000000000e+00 0.000000000000000e+00
0.000000000000000e+00 0.000000000000000e+00 0.000000000000000e+00
0.000000000000000e+00 0.000000000000000e+00 0.000000000000000e+00

0.000000000000000e+00 0.000000000000000e+00 0.000000000000000e+00
0.000000000000000e+00 0.000000000000000e+00 0.000000000000000e+00
0.000000000000000e+00 0.000000000000000e+00 0.000000000000000e+00

0.000000000000000e+00 0.000000000000000e+00 0.000000000000000e+00
0.000000000000000e+00 0.000000000000000e+00 0.000000000000000e+00
0.000000000000000e+00 0.000000000000000e+00 0.000000000000000e+00

0.000000000000000e+00 0.000000000000000e+00 0.000000000000000e+00
0.000000000000000e+00 0.000000000000000e+00 0.000000000000000e+00
0.000000000000000e+00 0.000000000000000e+00 0.000000000000000e+00

0.000000000000000e+00 0.000000000000000e+00 0.000000000000000e+00
0.000000000000000e+00 0.000000000000000e+00 0.000000000000000e+00
0.000000000000000e+00 0.000000000000000e+00 0.000000000000000e+00

0.000000000000000e+00 0.000000000000000e+00 0.000000000000000e+00
0.000000000000000e+00 0.000000000000000e+00 0.000000000000000e+00
0.000000000000000e+00 0.000000000000000e+00 0.000000000000000e+00

0.000000000000000e+00 0.000000000000000e+00 0.000000000000000e+00
0.000000000000000e+00 0.000000000000000e+00 0.000000000000000e+00
0.000000000000000e+00 0.000000000000000e+00 0.000000000000000e+00

0.000000000000000e+00 0.000000000000000e+00 0.000000000000000e+00
0.000000000000000e+00 0.000000000000000e+00 0.000000000000000e+00
0.000000000000000e+00 0.000000000000000e+00 0.000000000000000e+00

0.000000000000000e+00 0.000000000000000e+00 0.000000000000000e+00
0.000000000000000e+00 0.000000000000000e+00 0.000000000000000e+00
0.000000000000000e+00 0.000000000000000e+00 0.000000000000000e+00

0.000000000000000e+00 0.000000000000000e+00 0.000000000000000e+00
0.000000000000000e+00 0.000000000000000e+00 0.000000000000000e+00
0.000000000000000e+00 0.000000000000000e+00 0.000000000000000e+00

0.000000000000000e+00 0.000000000000000e+00 0.000000000000000e+00
0.000000000000000e+00 0.000000000000000e+00 0.000000000000000e+00
0.000000000000000e+00 0.000000000000000e+00 0.000000000000000e+00

0.000000000000000e+00 0.000000000000000e+00 0.000000000000000e+00
0.000000000000000e+00 0.000000000000000e+00 0.000000000000000e+00
0.000000000000000e+00 0.000000000000000e+00 0.000000000000000e+00

0.000000000000000e+00 0.000000000000000e+00 0.000000000000000e+00
0.000000000000000e+00 0.000000000000000e+00 0.000000000000000e+00
0.000000000000000e+00 0.000000000000000e+00 0.000000000000000e+00

0.000000000000000e+00 0.000000000000000e+00 0.000000000000000e+00
0.000000000000000e+00 0.000000000000000e+00 0.000000000000000e+00
0.000000000000000e+00 0.000000000000000e+00 0.000000000000000e+00

0.000000000000000e+00 0.000000000000000e+00 0.000000000000000e+00
0.000000000000000e+00 0.000000000000000e+00 0.000000000000000e+00
0.000000000000000e+00 0.000000000000000e+00 0.000000000000000e+00

0.000000000000000e+00 0.000000000000000e+00 0.000000000000000e+00
0.000000000000000e+00 0.000000000000000e+00 0.000000000000000e+00
0.000000000000000e+00 0.000000000000000e+00 0.000000000000000e+00

0.000000000000000e+00 0.000000000000000e+00 0.000000000000000e+00
0.000000000000000e+00 0.000000000000000e+00 0.000000000000000e+00
0.000000000000000e+00 0.000000000000000e+00 0.000000000000000e+00

0.000000000000000e+00 0.000000000000000e+00 0.000000000000000e+00
0.000000000000000e+00 0.000000000000000e+00 0.000000000000000e+00
0.000000000000000e+00 0.000000000000000e+00 0.000000000000000e+00

0.000000000000000e+00 0.000000000000000e+00 0.000000000000000e+00
0.000000000000000e+00 0.000000000000000e+00 0.000000000000000e+00
0.000000000000000e+00 0.000000000000000e+00 0.000000000000000e+00

0.000000000000000e+00 0.000000000000000e+00 0.000000000000000e+00
0.000000000000000e+00 0.000000000000000e+00 0.000000000000000e+00
0.000000000000000e+00 0.000000000000000e+00 0.000000000000000e+00

0.000000000000000e+00 0.000000000000000e+00 0.000000000000000e+00
0.000000000000000e+00 0.000000000000000e+00 0.000000000000000e+00
0.000000000000000e+00 0.000000000000000e+00 0.000000000000000e+00

0.000000000000000e+00 0.000000000000000e+00 0.000000000000000e+00
0.000000000000000e+00 0.000000000000000e+00 0.000000000000000e+00
0.000000000000000e+00 0.000000000000000e+00 0.000000000000000e+00

0.000000000000000e+00 0.000000000000000e+00 0.000000000000000e+00
0.000000000000000e+00 0.000000000000000e+00 0.000000000000000e+00
0.000000000000000e+00 0.000000000000000e+00 0.000000000000000e+00

0.000000000000000e+00 0.000000000000000e+00 0.000000000000000e+00
0.000000000000000e+00 0.000000000000000e+00 0.000000000000000e+00
0.000000000000000e+00 0.000000000000000e+00 0.000000000000000e+00

0.000000000000000e+00 0.000000000000000e+00 0.000000000000000e+00
0.000000000000000e+00 0.000000000000000e+00 0.000000000000000e+00
0.000000000000000e+00 0.000000000000000e+00 0.000000000000000e+00

0.000000000000000e+00 0.000000000000000e+00 0.000000000000000e+00
0.000000000000000e+00 0.000000000000000e+00 0.000000000000000e+00
0.000000000000000e+00 0.000000000000000e+00 0.000000000000000e+00

0.000000000000000e+00 0.000000000000000e+00 0.000000000000000e+00
0.000000000000000e+00 0.000000000000000e+00 0.000000000000000e+00
0.000000000000000e+00 0.000000000000000e+00 0.000000000000000e+00

0.000000000000000e+00 0.000000000000000e+00 0.000000000000000e+00
0.000000000000000e+00 0.000000000000000e+00 0.000000000000000e+00
0.000000000000000e+00 0.000000000000000e+00 0.000000000000000e+00

0.000000000000000e+00 0.000000000000000e+00 0.000000000000000e+00
0.000000000000000e+00 0.000000000000000e+00 0.000000000000000e+00
0.000000000000000e+00 0.000000000000000e+00 0.000000000000000e+00

0.000000000000000e+00 0.000000000000000e+00 0.000000000000000e+00
0.000000000000000e+00 0.000000000000000e+00 0.000000000000000e+00
0.000000000000000e+00 0.000000000000000e+00 0.000000000000000e+00

0.000000000000000e+00 0.000000000000000e+00 0.000000000000000e+00
0.000000000000000e+00 0.000000000000000e+00 0.000000000000000e+00
0.000000000000000e+00 0.000000000000000e+00 0.000000000000000e+00

0.000000000000000e+00 0.000000000000000e+00 0.000000000000000e+00
0.000000000000000e+00 0.000000000000000e+00 0.000000000000000e+00
0.000000000000000e+00 0.000000000000000e+00 0.000000000000000e+00

0.000000000000000e+00 0.000000000000000e+00 0.000000000000000e+00
0.000000000000000e+00 0.000000000000000e+00 0.000000000000000e+00
0.000000000000000e+00 0.000000000000000e+00 0.000000000000000e+00

0.000000000000000e+00 0.000000000000000e+00 0.000000000000000e+00
0.000000000000000e+00 0.000000000000000e+00 0.000000000000000e+00
0.000000000000000e+00 0.000000000000000e+00 0.000000000000000e+00

0.000000000000000e+00 0.000000000000000e+00 0.000000000000000e+00
0.000000000000000e+00 0.000000000000000e+00 0.000000000000000e+00
0.000000000000000e+00 0.000000000000000e+00 0.000000000000000e+00

0.000000000000000e+00 0.000000000000000e+00 0.000000000000000e+00
0.000000000000000e+00 0.000000000000000e+00 0.000000000000000e+00
0.000000000000000e+00 0.000000000000000e+00 0.000000000000000e+00

0.000000000000000e+00 0.000000000000000e+00 0.000000000000000e+00
0.000000000000000e+00 0.000000000000000e+00 0.000000000000000e+00
0.000000000000000e+00 0.000000000000000e+00 0.000000000000000e+00

0.000000000000000e+00 0.000000000000000e+00 0.000000000000000e+00
0.000000000000000e+00 0.000000000000000e+00 0.000000000000000e+00
0.000000000000000e+00 0.000000000000000e+00 0.000000000000000e+00

0.000000000000000e+00 0.000000000000000e+00 0.000000000000000e+00
0.000000000000000e+00 0.000000000000000e+00 0.000000000000000e+00
0.000000000000000e+00 0.000000000000000e+00 0.000000000000000e+00

0.000000000000000e+00 0.000000000000000e+00 0.000000000000000e+00
0.000000000000000e+00 0.000000000000000e+00 0.000000000000000e+00
0.000000000000000e+00 0.000000000000000e+00 0.000000000000000e+00

0.000000000000000e+00 0.000000000000000e+00 0.000000000000000e+00
0.000000000000000e+00 0.000000000000000e+00 0.000000000000000e+00
0.000000000000000e+00 0.000000000000000e+00 0.000000000000000e+00

0.000000000000000e+00 0.000000000000000e+00 0.000000000000000e+00
0.000000000000000e+00 0.000000000000000e+00 0.000000000000000e+00
0.000000000000000e+00 0.000000000000000e+00 0.000000000000000e+00

0.000000000000000e+00 0.000000000000000e+00 0.000000000000000e+00
0.000000000000000e+00 0.000000000000000e+00 0.000000000000000e+00
0.000000000000000e+00 0.000000000000000e+00 0.000000000000000e+00

0.000000000000000e+00 0.000000000000000e+00 0.000000000000000e+00
0.000000000000000e+00 0.000000000000000e+00 0.000000000000000e+00
0.000000000000000e+00 0.000000000000000e+00 0.000000000000000e+00

0.000000000000000e+00 0.000000000000000e+00 0.000000000000000e+00
0.000000000000000e+00 0.000000000000000e+00 0.000000000000000e+00
0.000000000000000e+00 0.000000000000000e+00 0.000000000000000e+00

0.000000000000000e+00 0.000000000000000e+00 0.000000000000000e+00
0.000000000000000e+00 0.000000000000000e+00 0.000000000000000e+00
0.000000000000000e+00 0.000000000000000e+00 0.000000000000000e+00

0.000000000000000e+00 0.000000000000000e+00 0.000000000000000e+00
0.000000000000000e+00 0.000000000000000e+00 0.000000000000000e+00
0.000000000000000e+00 0.000000000000000e+00 0.000000000000000e+00

0.000000000000000e+00 0.000000000000000e+00 0.000000000000000e+00
0.000000000000000e+00 0.000000000000000e+00 0.000000000000000e+00
0.000000000000000e+00 0.000000000000000e+00 0.000000000000000e+00

0.000000000000000e+00 0.000000000000000e+00 0.000000000000000e+00
0.000000000000000e+00 0.000000000000000e+00 0.000000000000000e+00
0.000000000000000e+00 0.000000000000000e+00 0.000000000000000e+00

0.000000000000000e+00 0.000000000000000e+00 0.000000000000000e+00
0.000000000000000e+00 0.000000000000000e+00 0.000000000000000e+00
0.000000000000000e+00 0.000000000000000e+00 0.000000000000000e+00

0.000000000000000e+00 0.000000000000000e+00 0.000000000000000e+00
0.000000000000000e+00 0.000000000000000e+00 0.000000000000000e+00
0.000000000000000e+00 0.000000000000000e+00 0.000000000000000e+00

0.000000000000000e+00 0.000000000000000e+00 0.000000000000000e+00
0.000000000000000e+00 0.000000000000000e+00 0.000000000000000e+00
0.000000000000000e+00 0.000000000000000e+00 0.000000000000000e+00

0.000000000000000e+00 0.000000000000000e+00 0.000000000000000e+00
0.000000000000000e+00 0.000000000000000e+00 0.000000000000000e+00
0.000000000000000e+00 0.000000000000000e+00 0.000000000000000e+00

0.000000000000000e+00 0.000000000000000e+00 0.000000000000000e+00
0.000000000000000e+00 0.000000000000000e+00 0.000000000000000e+00
0.000000000000000e+00 0.000000000000000e+00 0.000000000000000e+00

0.000000000000000e+00 0.000000000000000e+00 0.000000000000000e+00
0.000000000000000e+00 0.000000000000000e+00 0.000000000000000e+00
0.000000000000000e+00 0.000000000000000e+00 0.000000000000000e+00

0.000000000000000e+00 0.000000000000000e+00 0.000000000000000e+00
0.000000000000000e+00 0.000000000000000e+00 0.000000000000000e+00
0.000000000000000e+00 0.000000000000000e+00 0.000000000000000e+00

0.000000000000000e+00 0.000000000000000e+00 0.000000000000000e+00
0.000000000000000e+00 0.000000000000000e+00 0.000000000000000e+00
0.000000000000000e+00 0.000000000000000e+00 0.000000000000000e+00

0.000000000000000e+00 0.000000000000000e+00 0.000000000000000e+00
0.000000000000000e+00 0.000000000000000e+00 0.000000000000000e+00
0.000000000000000e+00 0.000000000000000e+00 0.000000000000000e+00

0.000000000000000e+00 0.000000000000000e+00 0.000000000000000e+00
0.000000000000000e+00 0.000000000000000e+00 0.000000000000000e+00
0.000000000000000e+00 0.000000000000000e+00 0.000000000000000e+00

0.000000000000000e+00 0.000000000000000e+00 0.000000000000000e+00
0.000000000000000e+00 0.000000000000000e+00 0.000000000000000e+00
0.000000000000000e+00 0.000000000000000e+00 0.000000000000000e+00

0.000000000000000e+00 0.000000000000000e+00 0.000000000000000e+00
0.000000000000000e+00 0.000000000000000e+00 0.000000000000000e+00
0.000000000000000e+00 0.000000000000000e+00 0.000000000000000e+00

0.000000000000000e+00 0.000000000000000e+00 0.000000000000000e+00
0.000000000000000e+00 0.000000000000000e+00 0.000000000000000e+00
0.000000000000000e+00 0.000000000000000e+00 0.000000000000000e+00

0.000000000000000e+00 0.000000000000000e+00 0.000000000000000e+00
0.000000000000000e+00 0.000000000000000e+00 0.000000000000000e+00
0.000000000000000e+00 0.000000000000000e+00 0.000000000000000e+00

0.000000000000000e+00 0.000000000000000e+00 0.000000000000000e+00
0.000000000000000e+00 0.000000000000000e+00 0.000000000000000e+00
0.000000000000000e+00 0.000000000000000e+00 0.000000000000000e+00

0.000000000000000e+00 0.000000000000000e+00 0.000000000000000e+00
0.000000000000000e+00 0.000000000000000e+00 0.000000000000000e+00
0.000000000000000e+00 0.000000000000000e+00 0.000000000000000e+00

0.000000000000000e+00 0.000000000000000e+00 0.000000000000000e+00
0.000000000000000e+00 0.000000000000000e+00 0.000000000000000e+00
0.000000000000000e+00 0.000000000000000e+00 0.000000000000000e+00

0.000000000000000e+00 0.000000000000000e+00 0.000000000000000e+00
0.000000000000000e+00 0.000000000000000e+00 0.000000000000000e+00
0.000000000000000e+00 0.000000000000000e+00 0.000000000000000e+00

0.000000000000000e+00 0.000000000000000e+00 0.000000000000000e+00
0.000000000000000e+00 0.000000000000000e+00 0.000000000000000e+00
0.000000000000000e+00 0.000000000000000e+00 0.000000000000000e+00

0.000000000000000e+00 0.000000000000000e+00 0.000000000000000e+00
0.000000000000000e+00 0.000000000000000e+00 0.000000000000000e+00
0.000000000000000e+00 0.000000000000000e+00 0.000000000000000e+00

0.000000000000000e+00 0.000000000000000e+00 0.000000000000000e+00
0.000000000000000e+00 0.000000000000000e+00 0.000000000000000e+00
0.000000000000000e+00 0.000000000000000e+00 0.000000000000000e+00

0.000000000000000e+00 0.000000000000000e+00 0.000000000000000e+00
0.000000000000000e+00 0.000000000000000e+00 0.000000000000000e+00
0.000000000000000e+00 0.000000000000000e+00 0.000000000000000e+00

0.000000000000000e+00 0.000000000000000e+00 0.000000000000000e+00
0.000000000000000e+00 0.000000000000000e+00 0.000000000000000e+00
0.000000000000000e+00 0.000000000000000e+00 0.000000000000000e+00

0.000000000000000e+00 0.000000000000000e+00 0.000000000000000e+00
0.000000000000000e+00 0.000000000000000e+00 0.000000000000000e+00
0.000000000000000e+00 0.000000000000000e+00 0.000000000000000e+00

0.000000000000000e+00 0.000000000000000e+00 0.000000000000000e+00
0.000000000000000e+00 0.000000000000000e+00 0.000000000000000e+00
0.000000000000000e+00 0.000000000000000e+00 0.000000000000000e+00

0.000000000000000e+00 0.000000000000000e+00 0.000000000000000e+00
0.000000000000000e+00 0.000000000000000e+00 0.000000000000000e+00
0.000000000000000e+00 0.000000000000000e+00 0.000000000000000e+00

0.000000000000000e+00 0.000000000000000e+00 0.000000000000000e+00
0.000000000000000e+00 0.000000000000000e+00 0.000000000000000e+00
0.000000000000000e+00 0.000000000000000e+00 0.000000000000000e+00

0.000000000000000e+00 0.000000000000000e+00 0.000000000000000e+00
0.000000000000000e+00 0.000000000000000e+00 0.000000000000000e+00
0.000000000000000e+00 0.000000000000000e+00 0.000000000000000e+00

0.000000000000000e+00 0.000000000000000e+00 0.000000000000000e+00
0.000000000000000e+00 0.000000000000000e+00 0.000000000000000e+00
0.000000000000000e+00 0.000000000000000e+00 0.000000000000000e+00

0.000000000000000e+00 0.000000000000000e+00 0.000000000000000e+00
0.000000000000000e+00 0.000000000000000e+00 0.000000000000000e+00
0.000000000000000e+00 0.000000000000000e+00 0.000000000000000e+00

0.000000000000000e+00 0.000000000000000e+00 0.000000000000000e+00
0.000000000000000e+00 0.000000000000000e+00 0.000000000000000e+00
0.000000000000000e+00 0.000000000000000e+00 0.000000000000000e+00

0.000000000000000e+00 0.000000000000000e+00 0.000000000000000e+00
0.000000000000000e+00 0.000000000000000e+00 0.000000000000000e+00
0.000000000000000e+00 0.000000000000000e+00 0.000000000000000e+00

0.000000000000000e+00 0.000000000000000e+00 0.000000000000000e+00
0.000000000000000e+00 0.000000000000000e+00 0.000000000000000e+00
0.000000000000000e+00 0.000000000000000e+00 0.000000000000000e+00

0.000000000000000e+00 0.000000000000000e+00 0.000000000000000e+00
0.000000000000000e+00 0.000000000000000e+00 0.000000000000000e+00
0.000000000000000e+00 0.000000000000000e+00 0.000000000000000e+00

0.000000000000000e+00 0.000000000000000e+00 0.000000000000000e+00
0.000000000000000e+00 0.000000000000000e+00 0.000000000000000e+00
0.000000000000000e+00 0.000000000000000e+00 0.000000000000000e+00

0.000000000000000e+00 0.000000000000000e+00 0.000000000000000e+00
0.000000000000000e+00 0.000000000000000e+00 0.000000000000000e+00
0.000000000000000e+00 0.000000000000000e+00 0.000000000000000e+00

0.000000000000000e+00 0.000000000000000e+00 0.000000000000000e+00
0.000000000000000e+00 0.000000000000000e+00 0.000000000000000e+00
0.000000000000000e+00 0.000000000000000e+00 0.000000000000000e+00

0.000000000000000e+00 0.000000000000000e+00 0.000000000000000e+00
0.000000000000000e+00 0.000000000000000e+00 0.000000000000000e+00
0.000000000000000e+00 0.000000000000000e+00 0.000000000000000e+00

0.000000000000000e+00 0.000000000000000e+00 0.000000000000000e+00
0.000000000000000e+00 0.000000000000000e+00 0.000000000000000e+00
0.000000000000000e+00 0.000000000000000e+00 0.000000000000000e+00

0.000000000000000e+00 0.000000000000000e+00 0.000000000000000e+00
0.000000000000000e+00 0.000000000000000e+00 0.000000000000000e+00
0.000000000000000e+00 0.000000000000000e+00 0.000000000000000e+00

0.000000000000000e+00 0.000000000000000e+00 0.000000000000000e+00
0.000000000000000e+00 0.000000000000000e+00 0.000000000000000e+00
0.000000000000000e+00 0.000000000000000e+00 0.000000000000000e+00

0.000000000000000e+00 0.000000000000000e+00 0.000000000000000e+00
0.000000000000000e+00 0.000000000000000e+00 0.000000000000000e+00
0.000000000000000e+00 0.000000000000000e+00 0.000000000000000e+00

0.000000000000000e+00 0.000000000000000e+00 0.000000000000000e+00
0.000000000000000e+00 0.000000000000000e+00 0.000000000000000e+00
0.000000000000000e+00 0.000000000000000e+00 0.000000000000000e+00

0.000000000000000e+00 0.000000000000000e+00 0.000000000000000e+00
0.000000000000000e+00 0.000000000000000e+00 0.000000000000000e+00
0.000000000000000e+00 0.000000000000000e+00 0.000000000000000e+00

0.000000000000000e+00 0.000000000000000e+00 0.000000000000000e+00
0.000000000000000e+00 0.000000000000000e+00 0.000000000000000e+00
0.000000000000000e+00 0.000000000000000e+00 0.000000000000000e+00

0.000000000000000e+00 0.000000000000000e+00 0.000000000000000e+00
0.000000000000000e+00 0.000000000000000e+00 0.000000000000000e+00
0.000000000000000e+00 0.000000000000000e+00 0.000000000000000e+00

0.000000000000000e+00 0.000000000000000e+00 0.000000000000000e+00
0.000000000000000e+00 0.000000000000000e+00 0.000000000000000e+00
0.000000000000000e+00 0.000000000000000e+00 0.000000000000000e+00

0.000000000000000e+00 0.000000000000000e+00 0.000000000000000e+00
0.000000000000000e+00 0.000000000000000e+00 0.000000000000000e+00
0.000000000000000e+00 0.000000000000000e+00 0.000000000000000e+00

0.000000000000000e+00 0.000000000000000e+00 0.000000000000000e+00
0.000000000000000e+00 0.000000000000000e+00 0.000000000000000e+00
0.000000000000000e+00 0.000000000000000e+00 0.000000000000000e+00

0.000000000000000e+00 0.000000000000000e+00 0.000000000000000e+00
0.000000000000000e+00 0.000000000000000e+00 0.000000000000000e+00
0.000000000000000e+00 0.000000000000000e+00 0.000000000000000e+00

0.000000000000000e+00 0.000000000000000e+00 0.000000000000000e+00
0.000000000000000e+00 0.000000000000000e+00 0.000000000000000e+00
0.000000000000000e+00 0.000000000000000e+00 0.000000000000000e+00

0.000000000000000e+00 0.000000000000000e+00 0.000000000000000e+00
0.000000000000000e+00 0.000000000000000e+00 0.000000000000000e+00
0.000000000000000e+00 0.000000000000000e+00 0.000000000000000e+00

0.000000000000000e+00 0.000000000000000e+00 0.000000000000000e+00
0.000000000000000e+00 0.000000000000000e+00 0.000000000000000e+00
0.000000000000000e+00 0.000000000000000e+00 0.000000000000000e+00

0.000000000000000e+00 0.000000000000000e+00 0.000000000000000e+00
0.000000000000000e+00 0.000000000000000e+00 0.000000000000000e+00
0.000000000000000e+00 0.000000000000000e+00 0.000000000000000e+00

0.000000000000000e+00 0.000000000000000e+00 0.000000000000000e+00
0.000000000000000e+00 0.000000000000000e+00 0.000000000000000e+00
0.000000000000000e+00 0.000000000000000e+00 0.000000000000000e+00

0.000000000000000e+00 0.000000000000000e+00 0.000000000000000e+00
0.000000000000000e+00 0.000000000000000e+00 0.000000000000000e+00
0.000000000000000e+00 0.000000000000000e+00 0.000000000000000e+00

0.000000000000000e+00 0.000000000000000e+00 0.000000000000000e+00
0.000000000000000e+00 0.000000000000000e+00 0.000000000000000e+00
0.000000000000000e+00 0.000000000000000e+00 0.000000000000000e+00

0.000000000000000e+00 0.000000000000000e+00 0.000000000000000e+00
0.000000000000000e+00 0.000000000000000e+00 0.000000000000000e+00
0.000000000000000e+00 0.000000000000000e+00 0.000000000000000e+00

0.000000000000000e+00 0.000000000000000e+00 0.000000000000000e+00
0.000000000000000e+00 0.000000000000000e+00 0.000000000000000e+00
0.000000000000000e+00 0.000000000000000e+00 0.000000000000000e+00

0.000000000000000e+00 0.000000000000000e+00 0.000000000000000e+00
0.000000000000000e+00 0.000000000000000e+00 0.000000000000000e+00
0.000000000000000e+00 0.000000000000000e+00 0.000000000000000e+00

0.000000000000000e+00 0.000000000000000e+00 0.000000000000000e+00
0.000000000000000e+00 0.000000000000000e+00 0.000000000000000e+00
0.000000000000000e+00 0.000000000000000e+00 0.000000000000000e+00

0.000000000000000e+00 0.000000000000000e+00 0.000000000000000e+00
0.000000000000000e+00 0.000000000000000e+00 0.000000000000000e+00
0.000000000000000e+00 0.000000000000000e+00 0.000000000000000e+00

0.000000000000000e+00 0.000000000000000e+00 0.000000000000000e+00
0.000000000000000e+00 0.000000000000000e+00 0.000000000000000e+00
0.000000000000000e+00 0.000000000000000e+00 0.000000000000000e+00

0.000000000000000e+00 0.000000000000000e+00 0.000000000000000e+00
0.000000000000000e+00 0.000000000000000e+00 0.000000000000000e+00
0.000000000000000e+00 0.000000000000000e+00 0.000000000000000e+00

0.000000000000000e+00 0.000000000000000e+00 0.000000000000000e+00
0.000000000000000e+00 0.000000000000000e+00 0.000000000000000e+00
0.000000000000000e+00 0.000000000000000e+00 0.000000000000000e+00

0.000000000000000e+00 0.000000000000000e+00 0.000000000000000e+00
0.000000000000000e+00 0.000000000000000e+00 0.000000000000000e+00
0.000000000000000e+00 0.000000000000000e+00 0.000000000000000e+00

0.000000000000000e+00 0.000000000000000e+00 0.000000000000000e+00
0.000000000000000e+00 0.000000000000000e+00 0.000000000000000e+00
0.000000000000000e+00 0.000000000000000e+00 0.000000000000000e+00

0.000000000000000e+00 0.000000000000000e+00 0.000000000000000e+00
0.000000000000000e+00 0.000000000000000e+00 0.000000000000000e+00
0.000000000000000e+00 0.000000000000000e+00 0.000000000000000e+00

0.000000000000000e+00 0.000000000000000e+00 0.000000000000000e+00
0.000000000000000e+00 0.000000000000000e+00 0.000000000000000e+00
0.000000000000000e+00 0.000000000000000e+00 0.000000000000000e+00

0.000000000000000e+00 0.000000000000000e+00 0.000000000000000e+00
0.000000000000000e+00 0.000000000000000e+00 0.000000000000000e+00
0.000000000000000e+00 0.000000000000000e+00 0.000000000000000e+00

0.000000000000000e+00 0.000000000000000e+00 0.000000000000000e+00
0.000000000000000e+00 0.000000000000000e+00 0.000000000000000e+00
0.000000000000000e+00 0.000000000000000e+00 0.000000000000000e+00

0.000000000000000e+00 0.000000000000000e+00 0.000000000000000e+00
0.000000000000000e+00 0.000000000000000e+00 0.000000000000000e+00
0.000000000000000e+00 0.000000000000000e+00 0.000000000000000e+00

0.000000000000000e+00 0.000000000000000e+00 0.000000000000000e+00
0.000000000000000e+00 0.000000000000000e+00 0.000000000000000e+00
0.000000000000000e+00 0.000000000000000e+00 0.000000000000000e+00

0.000000000000000e+00 0.000000000000000e+00 0.000000000000000e+00
0.000000000000000e+00 0.000000000000000e+00 0.000000000000000e+00
0.000000000000000e+00 0.000000000000000e+00 0.000000000000000e+00

0.000000000000000e+00 0.000000000000000e+00 0.000000000000000e+00
0.000000000000000e+00 0.000000000000000e+00 0.000000000000000e+00
0.000000000000000e+00 0.000000000000000e+00 0.000000000000000e+00

0.000000000000000e+00 0.000000000000000e+00 0.000000000000000e+00
0.000000000000000e+00 0.000000000000000e+00 0.000000000000000e+00
0.000000000000000e+00 0.000000000000000e+00 0.000000000000000e+00

0.000000000000000e+00 0.000000000000000e+00 0.000000000000000e+00
0.000000000000000e+00 0.000000000000000e+00 0.000000000000000e+00
0.000000000000000e+00 0.000000000000000e+00 0.000000000000000e+00

0.000000000000000e+00 0.000000000000000e+00 0.000000000000000e+00
0.000000000000000e+00 0.000000000000000e+00 0.000000000000000e+00
0.000000000000000e+00 0.000000000000000e+00 0.000000000000000e+00

0.000000000000000e+00 0.000000000000000e+00 0.000000000000000e+00
0.000000000000000e+00 0.000000000000000e+00 0.000000000000000e+00
0.000000000000000e+00 0.000000000000000e+00 0.000000000000000e+00

0.000000000000000e+00 0.000000000000000e+00 0.000000000000000e+00
0.000000000000000e+00 0.000000000000000e+00 0.000000000000000e+00
0.000000000000000e+00 0.000000000000000e+00 0.000000000000000e+00

0.000000000000000e+00 0.000000000000000e+00 0.000000000000000e+00
0.000000000000000e+00 0.000000000000000e+00 0.000000000000000e+00
0.000000000000000e+00 0.000000000000000e+00 0.000000000000000e+00

0.000000000000000e+00 0.000000000000000e+00 0.000000000000000e+00
0.000000000000000e+00 0.000000000000000e+00 0.000000000000000e+00
0.000000000000000e+00 0.000000000000000e+00 0.000000000000000e+00

0.000000000000000e+00 0.000000000000000e+00 0.000000000000000e+00
0.000000000000000e+00 0.000000000000000e+00 0.000000000000000e+00
0.000000000000000e+00 0.000000000000000e+00 0.000000000000000e+00

0.000000000000000e+00 0.000000000000000e+00 0.000000000000000e+00
0.000000000000000e+00 0.000000000000000e+00 0.000000000000000e+00
0.000000000000000e+00 0.000000000000000e+00 0.000000000000000e+00

0.000000000000000e+00 0.000000000000000e+00 0.000000000000000e+00
0.000000000000000e+00 0.000000000000000e+00 0.000000000000000e+00
0.000000000000000e+00 0.000000000000000e+00 0.000000000000000e+00

0.000000000000000e+00 0.000000000000000e+00 0.000000000000000e+00
0.000000000000000e+00 0.000000000000000e+00 0.000000000000000e+00
0.000000000000000e+00 0.000000000000000e+00 0.000000000000000e+00

0.000000000000000e+00 0.000000000000000e+00 0.000000000000000e+00
0.000000000000000e+00 0.000000000000000e+00 0.000000000000000e+00
0.000000000000000e+00 0.000000000000000e+00 0.000000000000000e+00

0.000000000000000e+00 0.000000000000000e+00 0.000000000000000e+00
0.000000000000000e+00 0.000000000000000e+00 0.000000000000000e+00
0.000000000000000e+00 0.000000000000000e+00 0.000000000000000e+00

0.000000000000000e+00 0.000000000000000e+00 0.000000000000000e+00
0.000000000000000e+00 0.000000000000000e+00 0.000000000000000e+00
0.000000000000000e+00 0.000000000000000e+00 0.000000000000000e+00

0.000000000000000e+00 0.000000000000000e+00 0.000000000000000e+00
0.000000000000000e+00 0.000000000000000e+00 0.000000000000000e+00
0.000000000000000e+00 0.000000000000000e+00 0.000000000000000e+00

0.000000000000000e+00 0.000000000000000e+00 0.000000000000000e+00
0.000000000000000e+00 0.000000000000000e+00 0.000000000000000e+00
0.000000000000000e+00 0.000000000000000e+00 0.000000000000000e+00

0.000000000000000e+00 0.000000000000000e+00 0.000000000000000e+00
0.000000000000000e+00 0.000000000000000e+00 0.000000000000000e+00
0.000000000000000e+00 0.000000000000000e+00 0.000000000000000e+00

0.000000000000000e+00 0.000000000000000e+00 0.000000000000000e+00
0.000000000000000e+00 0.000000000000000e+00 0.000000000000000e+00
0.000000000000000e+00 0.000000000000000e+00 0.000000000000000e+00

0.000000000000000e+00 0.000000000000000e+00 0.000000000000000e+00
0.000000000000000e+00 0.000000000000000e+00 0.000000000000000e+00
0.000000000000000e+00 0.000000000000000e+00 0.000000000000000e+00

0.000000000000000e+00 0.000000000000000e+00 0.000000000000000e+00
0.000000000000000e+00 0.000000000000000e+00 0.000000000000000e+00
0.000000000000000e+00 0.000000000000000e+00 0.000000000000000e+00

0.000000000000000e+00 0.000000000000000e+00 0.000000000000000e+00
0.000000000000000e+00 0.000000000000000e+00 0.000000000000000e+00
0.000000000000000e+00 0.000000000000000e+00 0.000000000000000e+00

0.000000000000000e+00 0.000000000000000e+00 0.000000000000000e+00
0.000000000000000e+00 0.000000000000000e+00 0.000000000000000e+00
0.000000000000000e+00 0.000000000000000e+00 0.000000000000000e+00

0.000000000000000e+00 0.000000000000000e+00 0.000000000000000e+00
0.000000000000000e+00 0.000000000000000e+00 0.000000000000000e+00
0.000000000000000e+00 0.000000000000000e+00 0.000000000000000e+00

0.000000000000000e+00 0.000000000000000e+00 0.000000000000000e+00
0.000000000000000e+00 0.000000000000000e+00 0.000000000000000e+00
0.000000000000000e+00 0.000000000000000e+00 0.000000000000000e+00

0.000000000000000e+00 0.000000000000000e+00 0.000000000000000e+00
0.000000000000000e+00 0.000000000000000e+00 0.000000000000000e+00
0.000000000000000e+00 0.000000000000000e+00 0.000000000000000e+00

0.000000000000000e+00 0.000000000000000e+00 0.000000000000000e+00
0.000000000000000e+00 0.000000000000000e+00 0.000000000000000e+00
0.000000000000000e+00 0.000000000000000e+00 0.000000000000000e+00

0.000000000000000e+00 0.000000000000000e+00 0.000000000000000e+00
0.000000000000000e+00 0.000000000000000e+00 0.000000000000000e+00
0.000000000000000e+00 0.000000000000000e+00 0.000000000000000e+00

0.000000000000000e+00 0.000000000000000e+00 0.000000000000000e+00
0.000000000000000e+00 0.000000000000000e+00 0.000000000000000e+00
0.000000000000000e+00 0.000000000000000e+00 0.000000000000000e+00

0.000000000000000e+00 0.000000000000000e+00 0.000000000000000e+00
0.000000000000000e+00 0.000000000000000e+00 0.000000000000000e+00
0.000000000000000e+00 0.000000000000000e+00 0.000000000000000e+00

0.000000000000000e+00 0.000000000000000e+00 0.000000000000000e+00
0.000000000000000e+00 0.000000000000000e+00 0.000000000000000e+00
0.000000000000000e+00 0.000000000000000e+00 0.000000000000000e+00

0.000000000000000e+00 0.000000000000000e+00 0.000000000000000e+00
0.000000000000000e+00 0.000000000000000e+00 0.000000000000000e+00
0.000000000000000e+00 0.000000000000000e+00 0.000000000000000e+00

0.000000000000000e+00 0.000000000000000e+00 0.000000000000000e+00
0.000000000000000e+00 0.000000000000000e+00 0.000000000000000e+00
0.000000000000000e+00 0.000000000000000e+00 0.000000000000000e+00

0.000000000000000e+00 0.000000000000000e+00 0.000000000000000e+00
0.000000000000000e+00 0.000000000000000e+00 0.000000000000000e+00
0.000000000000000e+00 0.000000000000000e+00 0.000000000000000e+00

0.000000000000000e+00 0.000000000000000e+00 0.000000000000000e+00
0.000000000000000e+00 0.000000000000000e+00 0.000000000000000e+00
0.000000000000000e+00 0.000000000000000e+00 0.000000000000000e+00

0.000000000000000e+00 0.000000000000000e+00 0.000000000000000e+00
0.000000000000000e+00 0.000000000000000e+00 0.000000000000000e+00
0.000000000000000e+00 0.000000000000000e+00 0.000000000000000e+00

0.000000000000000e+00 0.000000000000000e+00 0.000000000000000e+00
0.000000000000000e+00 0.000000000000000e+00 0.000000000000000e+00
0.000000000000000e+00 0.000000000000000e+00 0.000000000000000e+00

0.000000000000000e+00 0.000000000000000e+00 0.000000000000000e+00
0.000000000000000e+00 0.000000000000000e+00 0.000000000000000e+00
0.000000000000000e+00 0.000000000000000e+00 0.000000000000000e+00

0.000000000000000e+00 0.000000000000000e+00 0.000000000000000e+00
0.000000000000000e+00 0.000000000000000e+00 0.000000000000000e+00
0.000000000000000e+00 0.000000000000000e+00 0.000000000000000e+00

0.000000000000000e+00 0.000000000000000e+00 0.000000000000000e+00
0.000000000000000e+00 0.000000000000000e+00 0.000000000000000e+00
0.000000000000000e+00 0.000000000000000e+00 0.000000000000000e+00

0.000000000000000e+00 0.000000000000000e+00 0.000000000000000e+00
0.000000000000000e+00 0.000000000000000e+00 0.000000000000000e+00
0.000000000000000e+00 0.000000000000000e+00 0.000000000000000e+00

0.000000000000000e+00 0.000000000000000e+00 0.000000000000000e+00
0.000000000000000e+00 0.000000000000000e+00 0.000000000000000e+00
0.000000000000000e+00 0.000000000000000e+00 0.000000000000000e+00

0.000000000000000e+00 0.000000000000000e+00 0.000000000000000e+00
0.000000000000000e+00 0.000000000000000e+00 0.000000000000000e+00
0.000000000000000e+00 0.000000000000000e+00 0.000000000000000e+00

0.000000000000000e+00 0.000000000000000e+00 0.000000000000000e+00
0.000000000000000e+00 0.000000000000000e+00 0.000000000000000e+00
0.000000000000000e+00 0.000000000000000e+00 0.000000000000000e+00

0.000000000000000e+00 0.000000000000000e+00 0.000000000000000e+00
0.000000000000000e+00 0.000000000000000e+00 0.000000000000000e+00
0.000000000000000e+00 0.000000000000000e+00 0.000000000000000e+00

0.000000000000000e+00 0.000000000000000e+00 0.000000000000000e+00
0.000000000000000e+00 0.000000000000000e+00 0.000000000000000e+00
0.000000000000000e+00 0.000000000000000e+00 0.000000000000000e+00

0.000000000000000e+00 0.000000000000000e+00 0.000000000000000e+00
0.000000000000000e+00 0.000000000000000e+00 0.000000000000000e+00
0.000000000000000e+00 0.000000000000000e+00 0.000000000000000e+00

0.000000000000000e+00 0.000000000000000e+00 0.000000000000000e+00
0.000000000000000e+00 0.000000000000000e+00 0.000000000000000e+00
0.000000000000000e+00 0.000000000000000e+00 0.000000000000000e+00

0.000000000000000e+00 0.000000000000000e+00 0.000000000000000e+00
0.000000000000000e+00 0.000000000000000e+00 0.000000000000000e+00
0.000000000000000e+00 0.000000000000000e+00 0.000000000000000e+00

0.000000000000000e+00 0.000000000000000e+00 0.000000000000000e+00
0.000000000000000e+00 0.000000000000000e+00 0.000000000000000e+00
0.000000000000000e+00 0.000000000000000e+00 0.000000000000000e+00

0.000000000000000e+00 0.000000000000000e+00 0.000000000000000e+00
0.000000000000000e+00 0.000000000000000e+00 0.000000000000000e+00
0.000000000000000e+00 0.000000000000000e+00 0.000000000000000e+00

0.000000000000000e+00 0.000000000000000e+00 0.000000000000000e+00
0.000000000000000e+00 0.000000000000000e+00 0.000000000000000e+00
0.000000000000000e+00 0.000000000000000e+00 0.000000000000000e+00

0.000000000000000e+00 0.000000000000000e+00 0.000000000000000e+00
0.000000000000000e+00 0.000000000000000e+00 0.000000000000000e+00
0.000000000000000e+00 0.000000000000000e+00 0.000000000000000e+00

0.000000000000000e+00 0.000000000000000e+00 0.000000000000000e+00
0.000000000000000e+00 0.000000000000000e+00 0.000000000000000e+00
0.000000000000000e+00 0.000000000000000e+00 0.000000000000000e+00

0.000000000000000e+00 0.000000000000000e+00 0.000000000000000e+00
0.000000000000000e+00 0.000000000000000e+00 0.000000000000000e+00
0.000000000000000e+00 0.000000000000000e+00 0.000000000000000e+00

0.000000000000000e+00 0.000000000000000e+00 0.000000000000000e+00
0.000000000000000e+00 0.000000000000000e+00 0.000000000000000e+00
0.000000000000000e+00 0.000000000000000e+00 0.000000000000000e+00

0.000000000000000e+00 0.000000000000000e+00 0.000000000000000e+00
0.000000000000000e+00 0.000000000000000e+00 0.000000000000000e+00
0.000000000000000e+00 0.000000000000000e+00 0.000000000000000e+00

0.000000000000000e+00 0.000000000000000e+00 0.000000000000000e+00
0.000000000000000e+00 0.000000000000000e+00 0.000000000000000e+00
0.000000000000000e+00 0.000000000000000e+00 0.000000000000000e+00

0.000000000000000e+00 0.000000000000000e+00 0.000000000000000e+00
0.000000000000000e+00 0.000000000000000e+00 0.000000000000000e+00
0.000000000000000e+00 0.000000000000000e+00 0.000000000000000e+00

0.000000000000000e+00 0.000000000000000e+00 0.000000000000000e+00
0.000000000000000e+00 0.000000000000000e+00 0.000000000000000e+00
0.000000000000000e+00 0.000000000000000e+00 0.000000000000000e+00

0.000000000000000e+00 0.000000000000000e+00 0.000000000000000e+00
0.000000000000000e+00 0.000000000000000e+00 0.000000000000000e+00
0.000000000000000e+00 0.000000000000000e+00 0.000000000000000e+00

0.000000000000000e+00 0.000000000000000e+00 0.000000000000000e+00
0.000000000000000e+00 0.000000000000000e+00 0.000000000000000e+00
0.000000000000000e+00 0.000000000000000e+00 0.000000000000000e+00

0.000000000000000e+00 0.000000000000000e+00 0.000000000000000e+00
0.000000000000000e+00 0.000000000000000e+00 0.000000000000000e+00
0.000000000000000e+00 0.000000000000000e+00 0.000000000000000e+00

0.000000000000000e+00 0.000000000000000e+00 0.000000000000000e+00
0.000000000000000e+00 0.000000000000000e+00 0.000000000000000e+00
0.000000000000000e+00 0.000000000000000e+00 0.000000000000000e+00

0.000000000000000e+00 0.000000000000000e+00 0.000000000000000e+00
0.000000000000000e+00 0.000000000000000e+00 0.000000000000000e+00
0.000000000000000e+00 0.000000000000000e+00 0.000000000000000e+00

0.000000000000000e+00 0.000000000000000e+00 0.000000000000000e+00
0.000000000000000e+00 0.000000000000000e+00 0.000000000000000e+00
0.000000000000000e+00 0.000000000000000e+00 0.000000000000000e+00

0.000000000000000e+00 0.000000000000000e+00 0.000000000000000e+00
0.000000000000000e+00 0.000000000000000e+00 0.000000000000000e+00
0.000000000000000e+00 0.000000000000000e+00 0.000000000000000e+00

0.000000000000000e+00 0.000000000000000e+00 0.000000000000000e+00
0.000000000000000e+00 0.000000000000000e+00 0.000000000000000e+00
0.000000000000000e+00 0.000000000000000e+00 0.000000000000000e+00

0.000000000000000e+00 0.000000000000000e+00 0.000000000000000e+00
0.000000000000000e+00 0.000000000000000e+00 0.000000000000000e+00
0.000000000000000e+00 0.000000000000000e+00 0.000000000000000e+00

0.000000000000000e+00 0.000000000000000e+00 0.000000000000000e+00
0.000000000000000e+00 0.000000000000000e+00 0.000000000000000e+00
0.000000000000000e+00 0.000000000000000e+00 0.000000000000000e+00

0.000000000000000e+00 0.000000000000000e+00 0.000000000000000e+00
0.000000000000000e+00 0.000000000000000e+00 0.000000000000000e+00
0.000000000000000e+00 0.000000000000000e+00 0.000000000000000e+00

0.000000000000000e+00 0.000000000000000e+00 0.000000000000000e+00
0.000000000000000e+00 0.000000000000000e+00 0.000000000000000e+00
0.000000000000000e+00 0.000000000000000e+00 0.000000000000000e+00

0.000000000000000e+00 0.000000000000000e+00 0.000000000000000e+00
0.000000000000000e+00 0.000000000000000e+00 0.000000000000000e+00
0.000000000000000e+00 0.000000000000000e+00 0.000000000000000e+00

0.000000000000000e+00 0.000000000000000e+00 0.000000000000000e+00
0.000000000000000e+00 0.000000000000000e+00 0.000000000000000e+00
0.000000000000000e+00 0.000000000000000e+00 0.000000000000000e+00

0.000000000000000e+00 0.000000000000000e+00 0.000000000000000e+00
0.000000000000000e+00 0.000000000000000e+00 0.000000000000000e+00
0.000000000000000e+00 0.000000000000000e+00 0.000000000000000e+00

0.000000000000000e+00 0.000000000000000e+00 0.000000000000000e+00
0.000000000000000e+00 0.000000000000000e+00 0.000000000000000e+00
0.000000000000000e+00 0.000000000000000e+00 0.000000000000000e+00

0.000000000000000e+00 0.000000000000000e+00 0.000000000000000e+00
0.000000000000000e+00 0.000000000000000e+00 0.000000000000000e+00
0.000000000000000e+00 0.000000000000000e+00 0.000000000000000e+00

0.000000000000000e+00 0.000000000000000e+00 0.000000000000000e+00
0.000000000000000e+00 0.000000000000000e+00 0.000000000000000e+00
0.000000000000000e+00 0.000000000000000e+00 0.000000000000000e+00

0.000000000000000e+00 0.000000000000000e+00 0.000000000000000e+00
0.000000000000000e+00 0.000000000000000e+00 0.000000000000000e+00
0.000000000000000e+00 0.000000000000000e+00 0.000000000000000e+00

0.000000000000000e+00 0.000000000000000e+00 0.000000000000000e+00
0.000000000000000e+00 0.000000000000000e+00 0.000000000000000e+00
0.000000000000000e+00 0.000000000000000e+00 0.000000000000000e+00

0.000000000000000e+00 0.000000000000000e+00 0.000000000000000e+00
0.000000000000000e+00 0.000000000000000e+00 0.000000000000000e+00
0.000000000000000e+00 0.000000000000000e+00 0.000000000000000e+00

0.000000000000000e+00 0.000000000000000e+00 0.000000000000000e+00
0.000000000000000e+00 0.000000000000000e+00 0.000000000000000e+00
0.000000000000000e+00 0.000000000000000e+00 0.000000000000000e+00

0.000000000000000e+00 0.000000000000000e+00 0.000000000000000e+00
0.000000000000000e+00 0.000000000000000e+00 0.000000000000000e+00
0.000000000000000e+00 0.000000000000000e+00 0.000000000000000e+00

0.000000000000000e+00 0.000000000000000e+00 0.000000000000000e+00
0.000000000000000e+00 0.000000000000000e+00 0.000000000000000e+00
0.000000000000000e+00 0.000000000000000e+00 0.000000000000000e+00

0.000000000000000e+00 0.000000000000000e+00 0.000000000000000e+00
0.000000000000000e+00 0.000000000000000e+00 0.000000000000000e+00
0.000000000000000e+00 0.000000000000000e+00 0.000000000000000e+00

0.000000000000000e+00 0.000000000000000e+00 0.000000000000000e+00
0.000000000000000e+00 0.000000000000000e+00 0.000000000000000e+00
0.000000000000000e+00 0.000000000000000e+00 0.000000000000000e+00

0.000000000000000e+00 0.000000000000000e+00 0.000000000000000e+00
0.000000000000000e+00 0.000000000000000e+00 0.000000000000000e+00
0.000000000000000e+00 0.000000000000000e+00 0.000000000000000e+00

0.000000000000000e+00 0.000000000000000e+00 0.000000000000000e+00
0.000000000000000e+00 0.000000000000000e+00 0.000000000000000e+00
0.000000000000000e+00 0.000000000000000e+00 0.000000000000000e+00

0.000000000000000e+00 0.000000000000000e+00 0.000000000000000e+00
0.000000000000000e+00 0.000000000000000e+00 0.000000000000000e+00
0.000000000000000e+00 0.000000000000000e+00 0.000000000000000e+00

0.000000000000000e+00 0.000000000000000e+00 0.000000000000000e+00
0.000000000000000e+00 0.000000000000000e+00 0.000000000000000e+00
0.000000000000000e+00 0.000000000000000e+00 0.000000000000000e+00

0.000000000000000e+00 0.000000000000000e+00 0.000000000000000e+00
0.000000000000000e+00 0.000000000000000e+00 0.000000000000000e+00
0.000000000000000e+00 0.000000000000000e+00 0.000000000000000e+00

0.000000000000000e+00 0.000000000000000e+00 0.000000000000000e+00
0.000000000000000e+00 0.000000000000000e+00 0.000000000000000e+00
0.000000000000000e+00 0.000000000000000e+00 0.000000000000000e+00

0.000000000000000e+00 0.000000000000000e+00 0.000000000000000e+00
0.000000000000000e+00 0.000000000000000e+00 0.000000000000000e+00
0.000000000000000e+00 0.000000000000000e+00 0.000000000000000e+00

0.000000000000000e+00 0.000000000000000e+00 0.000000000000000e+00
0.000000000000000e+00 0.000000000000000e+00 0.000000000000000e+00
0.000000000000000e+00 0.000000000000000e+00 0.000000000000000e+00

0.000000000000000e+00 0.000000000000000e+00 0.000000000000000e+00
0.000000000000000e+00 0.000000000000000e+00 0.000000000000000e+00
0.000000000000000e+00 0.000000000000000e+00 0.000000000000000e+00

0.000000000000000e+00 0.000000000000000e+00 0.000000000000000e+00
0.000000000000000e+00 0.000000000000000e+00 0.000000000000000e+00
0.000000000000000e+00 0.000000000000000e+00 0.000000000000000e+00

0.000000000000000e+00 0.000000000000000e+00 0.000000000000000e+00
0.000000000000000e+00 0.000000000000000e+00 0.000000000000000e+00
0.000000000000000e+00 0.000000000000000e+00 0.000000000000000e+00

0.000000000000000e+00 0.000000000000000e+00 0.000000000000000e+00
0.000000000000000e+00 0.000000000000000e+00 0.000000000000000e+00
0.000000000000000e+00 0.000000000000000e+00 0.000000000000000e+00

0.000000000000000e+00 0.000000000000000e+00 0.000000000000000e+00
0.000000000000000e+00 0.000000000000000e+00 0.000000000000000e+00
0.000000000000000e+00 0.000000000000000e+00 0.000000000000000e+00

0.000000000000000e+00 0.000000000000000e+00 0.000000000000000e+00
0.000000000000000e+00 0.000000000000000e+00 0.000000000000000e+00
0.000000000000000e+00 0.000000000000000e+00 0.000000000000000e+00

0.000000000000000e+00 0.000000000000000e+00 0.000000000000000e+00
0.000000000000000e+00 0.000000000000000e+00 0.000000000000000e+00
0.000000000000000e+00 0.000000000000000e+00 0.000000000000000e+00

0.000000000000000e+00 0.000000000000000e+00 0.000000000000000e+00
0.000000000000000e+00 0.000000000000000e+00 0.000000000000000e+00
0.000000000000000e+00 0.000000000000000e+00 0.000000000000000e+00

0.000000000000000e+00 0.000000000000000e+00 0.000000000000000e+00
0.000000000000000e+00 0.000000000000000e+00 0.000000000000000e+00
0.000000000000000e+00 0.000000000000000e+00 0.000000000000000e+00

0.000000000000000e+00 0.000000000000000e+00 0.000000000000000e+00
0.000000000000000e+00 0.000000000000000e+00 0.000000000000000e+00
0.000000000000000e+00 0.000000000000000e+00 0.000000000000000e+00

0.000000000000000e+00 0.000000000000000e+00 0.000000000000000e+00
0.000000000000000e+00 0.000000000000000e+00 0.000000000000000e+00
0.000000000000000e+00 0.000000000000000e+00 0.000000000000000e+00

0.000000000000000e+00 0.000000000000000e+00 0.000000000000000e+00
0.000000000000000e+00 0.000000000000000e+00 0.000000000000000e+00
0.000000000000000e+00 0.000000000000000e+00 0.000000000000000e+00

0.000000000000000e+00 0.000000000000000e+00 0.000000000000000e+00
0.000000000000000e+00 0.000000000000000e+00 0.000000000000000e+00
0.000000000000000e+00 0.000000000000000e+00 0.000000000000000e+00

0.000000000000000e+00 0.000000000000000e+00 0.000000000000000e+00
0.000000000000000e+00 0.000000000000000e+00 0.000000000000000e+00
0.000000000000000e+00 0.000000000000000e+00 0.000000000000000e+00

0.000000000000000e+00 0.000000000000000e+00 0.000000000000000e+00
0.000000000000000e+00 0.000000000000000e+00 0.000000000000000e+00
0.000000000000000e+00 0.000000000000000e+00 0.000000000000000e+00

0.000000000000000e+00 0.000000000000000e+00 0.000000000000000e+00
0.000000000000000e+00 0.000000000000000e+00 0.000000000000000e+00
0.000000000000000e+00 0.000000000000000e+00 0.000000000000000e+00

0.000000000000000e+00 0.000000000000000e+00 0.000000000000000e+00
0.000000000000000e+00 0.000000000000000e+00 0.000000000000000e+00
0.000000000000000e+00 0.000000000000000e+00 0.000000000000000e+00

0.000000000000000e+00 0.000000000000000e+00 0.000000000000000e+00
0.000000000000000e+00 0.000000000000000e+00 0.000000000000000e+00
0.000000000000000e+00 0.000000000000000e+00 0.000000000000000e+00

0.000000000000000e+00 0.000000000000000e+00 0.000000000000000e+00
0.000000000000000e+00 0.000000000000000e+00 0.000000000000000e+00
0.000000000000000e+00 0.000000000000000e+00 0.000000000000000e+00

0.000000000000000e+00 0.000000000000000e+00 0.000000000000000e+00
0.000000000000000e+00 0.000000000000000e+00 0.000000000000000e+00
0.000000000000000e+00 0.000000000000000e+00 0.000000000000000e+00

0.000000000000000e+00 0.000000000000000e+00 0.000000000000000e+00
0.000000000000000e+00 0.000000000000000e+00 0.000000000000000e+00
0.000000000000000e+00 0.000000000000000e+00 0.000000000000000e+00

0.000000000000000e+00 0.000000000000000e+00 0.000000000000000e+00
0.000000000000000e+00 0.000000000000000e+00 0.000000000000000e+00
0.000000000000000e+00 0.000000000000000e+00 0.000000000000000e+00

0.000000000000000e+00 0.000000000000000e+00 0.000000000000000e+00
0.000000000000000e+00 0.000000000000000e+00 0.000000000000000e+00
0.000000000000000e+00 0.000000000000000e+00 0.000000000000000e+00

0.000000000000000e+00 0.000000000000000e+00 0.000000000000000e+00
0.000000000000000e+00 0.000000000000000e+00 0.000000000000000e+00
0.000000000000000e+00 0.000000000000000e+00 0.000000000000000e+00

0.000000000000000e+00 0.000000000000000e+00 0.000000000000000e+00
0.000000000000000e+00 0.000000000000000e+00 0.000000000000000e+00
0.000000000000000e+00 0.000000000000000e+00 0.000000000000000e+00

0.000000000000000e+00 0.000000000000000e+00 0.000000000000000e+00
0.000000000000000e+00 0.000000000000000e+00 0.000000000000000e+00
0.000000000000000e+00 0.000000000000000e+00 0.000000000000000e+00

0.000000000000000e+00 0.000000000000000e+00 0.000000000000000e+00
0.000000000000000e+00 0.000000000000000e+00 0.000000000000000e+00
0.000000000000000e+00 0.000000000000000e+00 0.000000000000000e+00

0.000000000000000e+00 0.000000000000000e+00 0.000000000000000e+00
0.000000000000000e+00 0.000000000000000e+00 0.000000000000000e+00
0.000000000000000e+00 0.000000000000000e+00 0.000000000000000e+00

0.000000000000000e+00 0.000000000000000e+00 0.000000000000000e+00
0.000000000000000e+00 0.000000000000000e+00 0.000000000000000e+00
0.000000000000000e+00 0.000000000000000e+00 0.000000000000000e+00

0.000000000000000e+00 0.000000000000000e+00 0.000000000000000e+00
0.000000000000000e+00 0.000000000000000e+00 0.000000000000000e+00
0.000000000000000e+00 0.000000000000000e+00 0.000000000000000e+00

0.000000000000000e+00 0.000000000000000e+00 0.000000000000000e+00
0.000000000000000e+00 0.000000000000000e+00 0.000000000000000e+00
0.000000000000000e+00 0.000000000000000e+00 0.000000000000000e+00

0.000000000000000e+00 0.000000000000000e+00 0.000000000000000e+00
0.000000000000000e+00 0.000000000000000e+00 0.000000000000000e+00
0.000000000000000e+00 0.000000000000000e+00 0.000000000000000e+00

0.000000000000000e+00 0.000000000000000e+00 0.000000000000000e+00
0.000000000000000e+00 0.000000000000000e+00 0.000000000000000e+00
0.000000000000000e+00 0.000000000000000e+00 0.000000000000000e+00

0.000000000000000e+00 0.000000000000000e+00 0.000000000000000e+00
0.000000000000000e+00 0.000000000000000e+00 0.000000000000000e+00
0.000000000000000e+00 0.000000000000000e+00 0.000000000000000e+00

0.000000000000000e+00 0.000000000000000e+00 0.000000000000000e+00
0.000000000000000e+00 0.000000000000000e+00 0.000000000000000e+00
0.000000000000000e+00 0.000000000000000e+00 0.000000000000000e+00

0.000000000000000e+00 0.000000000000000e+00 0.000000000000000e+00
0.000000000000000e+00 0.000000000000000e+00 0.000000000000000e+00
0.000000000000000e+00 0.000000000000000e+00 0.000000000000000e+00

0.000000000000000e+00 0.000000000000000e+00 0.000000000000000e+00
0.000000000000000e+00 0.000000000000000e+00 0.000000000000000e+00
0.000000000000000e+00 0.000000000000000e+00 0.000000000000000e+00

0.000000000000000e+00 0.000000000000000e+00 0.000000000000000e+00
0.000000000000000e+00 0.000000000000000e+00 0.000000000000000e+00
0.000000000000000e+00 0.000000000000000e+00 0.000000000000000e+00

0.000000000000000e+00 0.000000000000000e+00 0.000000000000000e+00
0.000000000000000e+00 0.000000000000000e+00 0.000000000000000e+00
0.000000000000000e+00 0.000000000000000e+00 0.000000000000000e+00

0.000000000000000e+00 0.000000000000000e+00 0.000000000000000e+00
0.000000000000000e+00 0.000000000000000e+00 0.000000000000000e+00
0.000000000000000e+00 0.000000000000000e+00 0.000000000000000e+00

0.000000000000000e+00 0.000000000000000e+00 0.000000000000000e+00
0.000000000000000e+00 0.000000000000000e+00 0.000000000000000e+00
0.000000000000000e+00 0.000000000000000e+00 0.000000000000000e+00

0.000000000000000e+00 0.000000000000000e+00 0.000000000000000e+00
0.000000000000000e+00 0.000000000000000e+00 0.000000000000000e+00
0.000000000000000e+00 0.000000000000000e+00 0.000000000000000e+00

0.000000000000000e+00 0.000000000000000e+00 0.000000000000000e+00
0.000000000000000e+00 0.000000000000000e+00 0.000000000000000e+00
0.000000000000000e+00 0.000000000000000e+00 0.000000000000000e+00

0.000000000000000e+00 0.000000000000000e+00 0.000000000000000e+00
0.000000000000000e+00 0.000000000000000e+00 0.000000000000000e+00
0.000000000000000e+00 0.000000000000000e+00 0.000000000000000e+00

0.000000000000000e+00 0.000000000000000e+00 0.000000000000000e+00
0.000000000000000e+00 0.000000000000000e+00 0.000000000000000e+00
0.000000000000000e+00 0.000000000000000e+00 0.000000000000000e+00

0.000000000000000e+00 0.000000000000000e+00 0.000000000000000e+00
0.000000000000000e+00 0.000000000000000e+00 0.000000000000000e+00
0.000000000000000e+00 0.000000000000000e+00 0.000000000000000e+00

0.000000000000000e+00 0.000000000000000e+00 0.000000000000000e+00
0.000000000000000e+00 0.000000000000000e+00 0.000000000000000e+00
0.000000000000000e+00 0.000000000000000e+00 0.000000000000000e+00

0.000000000000000e+00 0.000000000000000e+00 0.000000000000000e+00
0.000000000000000e+00 0.000000000000000e+00 0.000000000000000e+00
0.000000000000000e+00 0.000000000000000e+00 0.000000000000000e+00

0.000000000000000e+00 0.000000000000000e+00 0.000000000000000e+00
0.000000000000000e+00 0.000000000000000e+00 0.000000000000000e+00
0.000000000000000e+00 0.000000000000000e+00 0.000000000000000e+00

0.000000000000000e+00 0.000000000000000e+00 0.000000000000000e+00
0.000000000000000e+00 0.000000000000000e+00 0.000000000000000e+00
0.000000000000000e+00 0.000000000000000e+00 0.000000000000000e+00

0.000000000000000e+00 0.000000000000000e+00 0.000000000000000e+00
0.000000000000000e+00 0.000000000000000e+00 0.000000000000000e+00
0.000000000000000e+00 0.000000000000000e+00 0.000000000000000e+00

0.000000000000000e+00 0.000000000000000e+00 0.000000000000000e+00
0.000000000000000e+00 0.000000000000000e+00 0.000000000000000e+00
0.000000000000000e+00 0.000000000000000e+00 0.000000000000000e+00

0.000000000000000e+00 0.000000000000000e+00 0.000000000000000e+00
0.000000000000000e+00 0.000000000000000e+00 0.000000000000000e+00
0.000000000000000e+00 0.000000000000000e+00 0.000000000000000e+00

0.000000000000000e+00 0.000000000000000e+00 0.000000000000000e+00
0.000000000000000e+00 0.000000000000000e+00 0.000000000000000e+00
0.000000000000000e+00 0.000000000000000e+00 0.000000000000000e+00

0.000000000000000e+00 0.000000000000000e+00 0.000000000000000e+00
0.000000000000000e+00 0.000000000000000e+00 0.000000000000000e+00
0.000000000000000e+00 0.000000000000000e+00 0.000000000000000e+00

0.000000000000000e+00 0.000000000000000e+00 0.000000000000000e+00
0.000000000000000e+00 0.000000000000000e+00 0.000000000000000e+00
0.000000000000000e+00 0.000000000000000e+00 0.000000000000000e+00

0.000000000000000e+00 0.000000000000000e+00 0.000000000000000e+00
0.000000000000000e+00 0.000000000000000e+00 0.000000000000000e+00
0.000000000000000e+00 0.000000000000000e+00 0.000000000000000e+00

0.000000000000000e+00 0.000000000000000e+00 0.000000000000000e+00
0.000000000000000e+00 0.000000000000000e+00 0.000000000000000e+00
0.000000000000000e+00 0.000000000000000e+00 0.000000000000000e+00

0.000000000000000e+00 0.000000000000000e+00 0.000000000000000e+00
0.000000000000000e+00 0.000000000000000e+00 0.000000000000000e+00
0.000000000000000e+00 0.000000000000000e+00 0.000000000000000e+00

0.000000000000000e+00 0.000000000000000e+00 0.000000000000000e+00
0.000000000000000e+00 0.000000000000000e+00 0.000000000000000e+00
0.000000000000000e+00 0.000000000000000e+00 0.000000000000000e+00

0.000000000000000e+00 0.000000000000000e+00 0.000000000000000e+00
0.000000000000000e+00 0.000000000000000e+00 0.000000000000000e+00
0.000000000000000e+00 0.000000000000000e+00 0.000000000000000e+00

0.000000000000000e+00 0.000000000000000e+00 0.000000000000000e+00
0.000000000000000e+00 0.000000000000000e+00 0.000000000000000e+00
0.000000000000000e+00 0.000000000000000e+00 0.000000000000000e+00

0.000000000000000e+00 0.000000000000000e+00 0.000000000000000e+00
0.000000000000000e+00 0.000000000000000e+00 0.000000000000000e+00
0.000000000000000e+00 0.000000000000000e+00 0.000000000000000e+00

0.000000000000000e+00 0.000000000000000e+00 0.000000000000000e+00
0.000000000000000e+00 0.000000000000000e+00 0.000000000000000e+00
0.000000000000000e+00 0.000000000000000e+00 0.000000000000000e+00

0.000000000000000e+00 0.000000000000000e+00 0.000000000000000e+00
0.000000000000000e+00 0.000000000000000e+00 0.000000000000000e+00
0.000000000000000e+00 0.000000000000000e+00 0.000000000000000e+00

0.000000000000000e+00 0.000000000000000e+00 0.000000000000000e+00
0.000000000000000e+00 0.000000000000000e+00 0.000000000000000e+00
0.000000000000000e+00 0.000000000000000e+00 0.000000000000000e+00

0.000000000000000e+00 0.000000000000000e+00 0.000000000000000e+00
0.000000000000000e+00 0.000000000000000e+00 0.000000000000000e+00
0.000000000000000e+00 0.000000000000000e+00 0.000000000000000e+00

0.000000000000000e+00 0.000000000000000e+00 0.000000000000000e+00
0.000000000000000e+00 0.000000000000000e+00 0.000000000000000e+00
0.000000000000000e+00 0.000000000000000e+00 0.000000000000000e+00

0.000000000000000e+00 0.000000000000000e+00 0.000000000000000e+00
0.000000000000000e+00 0.000000000000000e+00 0.000000000000000e+00
0.000000000000000e+00 0.000000000000000e+00 0.000000000000000e+00

0.000000000000000e+00 0.000000000000000e+00 0.000000000000000e+00
0.000000000000000e+00 0.000000000000000e+00 0.000000000000000e+00
0.000000000000000e+00 0.000000000000000e+00 0.000000000000000e+00

0.000000000000000e+00 0.000000000000000e+00 0.000000000000000e+00
0.000000000000000e+00 0.000000000000000e+00 0.000000000000000e+00
0.000000000000000e+00 0.000000000000000e+00 0.000000000000000e+00

0.000000000000000e+00 0.000000000000000e+00 0.000000000000000e+00
0.000000000000000e+00 0.000000000000000e+00 0.000000000000000e+00
0.000000000000000e+00 0.000000000000000e+00 0.000000000000000e+00

0.000000000000000e+00 0.000000000000000e+00 0.000000000000000e+00
0.000000000000000e+00 0.000000000000000e+00 0.000000000000000e+00
0.000000000000000e+00 0.000000000000000e+00 0.000000000000000e+00

0.000000000000000e+00 0.000000000000000e+00 0.000000000000000e+00
0.000000000000000e+00 0.000000000000000e+00 0.000000000000000e+00
0.000000000000000e+00 0.000000000000000e+00 0.000000000000000e+00

0.000000000000000e+00 0.000000000000000e+00 0.000000000000000e+00
0.000000000000000e+00 0.000000000000000e+00 0.000000000000000e+00
0.000000000000000e+00 0.000000000000000e+00 0.000000000000000e+00

0.000000000000000e+00 0.000000000000000e+00 0.000000000000000e+00
0.000000000000000e+00 0.000000000000000e+00 0.000000000000000e+00
0.000000000000000e+00 0.000000000000000e+00 0.000000000000000e+00

0.000000000000000e+00 0.000000000000000e+00 0.000000000000000e+00
0.000000000000000e+00 0.000000000000000e+00 0.000000000000000e+00
0.000000000000000e+00 0.000000000000000e+00 0.000000000000000e+00

0.000000000000000e+00 0.000000000000000e+00 0.000000000000000e+00
0.000000000000000e+00 0.000000000000000e+00 0.000000000000000e+00
0.000000000000000e+00 0.000000000000000e+00 0.000000000000000e+00

0.000000000000000e+00 0.000000000000000e+00 0.000000000000000e+00
0.000000000000000e+00 0.000000000000000e+00 0.000000000000000e+00
0.000000000000000e+00 0.000000000000000e+00 0.000000000000000e+00

0.000000000000000e+00 0.000000000000000e+00 0.000000000000000e+00
0.000000000000000e+00 0.000000000000000e+00 0.000000000000000e+00
0.000000000000000e+00 0.000000000000000e+00 0.000000000000000e+00

0.000000000000000e+00 0.000000000000000e+00 0.000000000000000e+00
0.000000000000000e+00 0.000000000000000e+00 0.000000000000000e+00
0.000000000000000e+00 0.000000000000000e+00 0.000000000000000e+00

0.000000000000000e+00 0.000000000000000e+00 0.000000000000000e+00
0.000000000000000e+00 0.000000000000000e+00 0.000000000000000e+00
0.000000000000000e+00 0.000000000000000e+00 0.000000000000000e+00

0.000000000000000e+00 0.000000000000000e+00 0.000000000000000e+00
0.000000000000000e+00 0.000000000000000e+00 0.000000000000000e+00
0.000000000000000e+00 0.000000000000000e+00 0.000000000000000e+00

0.000000000000000e+00 0.000000000000000e+00 0.000000000000000e+00
0.000000000000000e+00 0.000000000000000e+00 0.000000000000000e+00
0.000000000000000e+00 0.000000000000000e+00 0.000000000000000e+00

0.000000000000000e+00 0.000000000000000e+00 0.000000000000000e+00
0.000000000000000e+00 0.000000000000000e+00 0.000000000000000e+00
0.000000000000000e+00 0.000000000000000e+00 0.000000000000000e+00

0.000000000000000e+00 0.000000000000000e+00 0.000000000000000e+00
0.000000000000000e+00 0.000000000000000e+00 0.000000000000000e+00
0.000000000000000e+00 0.000000000000000e+00 0.000000000000000e+00

0.000000000000000e+00 0.000000000000000e+00 0.000000000000000e+00
0.000000000000000e+00 0.000000000000000e+00 0.000000000000000e+00
0.000000000000000e+00 0.000000000000000e+00 0.000000000000000e+00

0.000000000000000e+00 0.000000000000000e+00 0.000000000000000e+00
0.000000000000000e+00 0.000000000000000e+00 0.000000000000000e+00
0.000000000000000e+00 0.000000000000000e+00 0.000000000000000e+00

0.000000000000000e+00 0.000000000000000e+00 0.000000000000000e+00
0.000000000000000e+00 0.000000000000000e+00 0.000000000000000e+00
0.000000000000000e+00 0.000000000000000e+00 0.000000000000000e+00

0.000000000000000e+00 0.000000000000000e+00 0.000000000000000e+00
0.000000000000000e+00 0.000000000000000e+00 0.000000000000000e+00
0.000000000000000e+00 0.000000000000000e+00 0.000000000000000e+00

0.000000000000000e+00 0.000000000000000e+00 0.000000000000000e+00
0.000000000000000e+00 0.000000000000000e+00 0.000000000000000e+00
0.000000000000000e+00 0.000000000000000e+00 0.000000000000000e+00

0.000000000000000e+00 0.000000000000000e+00 0.000000000000000e+00
0.000000000000000e+00 0.000000000000000e+00 0.000000000000000e+00
0.000000000000000e+00 0.000000000000000e+00 0.000000000000000e+00

0.000000000000000e+00 0.000000000000000e+00 0.000000000000000e+00
0.000000000000000e+00 0.000000000000000e+00 0.000000000000000e+00
0.000000000000000e+00 0.000000000000000e+00 0.000000000000000e+00

0.000000000000000e+00 0.000000000000000e+00 0.000000000000000e+00
0.000000000000000e+00 0.000000000000000e+00 0.000000000000000e+00
0.000000000000000e+00 0.000000000000000e+00 0.000000000000000e+00

0.000000000000000e+00 0.000000000000000e+00 0.000000000000000e+00
0.000000000000000e+00 0.000000000000000e+00 0.000000000000000e+00
0.000000000000000e+00 0.000000000000000e+00 0.000000000000000e+00

0.000000000000000e+00 0.000000000000000e+00 0.000000000000000e+00
0.000000000000000e+00 0.000000000000000e+00 0.000000000000000e+00
0.000000000000000e+00 0.000000000000000e+00 0.000000000000000e+00

0.000000000000000e+00 0.000000000000000e+00 0.000000000000000e+00
0.000000000000000e+00 0.000000000000000e+00 0.000000000000000e+00
0.000000000000000e+00 0.000000000000000e+00 0.000000000000000e+00

0.000000000000000e+00 0.000000000000000e+00 0.000000000000000e+00
0.000000000000000e+00 0.000000000000000e+00 0.000000000000000e+00
0.000000000000000e+00 0.000000000000000e+00 0.000000000000000e+00

0.000000000000000e+00 0.000000000000000e+00 0.000000000000000e+00
0.000000000000000e+00 0.000000000000000e+00 0.000000000000000e+00
0.000000000000000e+00 0.000000000000000e+00 0.000000000000000e+00

0.000000000000000e+00 0.000000000000000e+00 0.000000000000000e+00
0.000000000000000e+00 0.000000000000000e+00 0.000000000000000e+00
0.000000000000000e+00 0.000000000000000e+00 0.000000000000000e+00

0.000000000000000e+00 0.000000000000000e+00 0.000000000000000e+00
0.000000000000000e+00 0.000000000000000e+00 0.000000000000000e+00
0.000000000000000e+00 0.000000000000000e+00 0.000000000000000e+00

0.000000000000000e+00 0.000000000000000e+00 0.000000000000000e+00
0.000000000000000e+00 0.000000000000000e+00 0.000000000000000e+00
0.000000000000000e+00 0.000000000000000e+00 0.000000000000000e+00

0.000000000000000e+00 0.000000000000000e+00 0.000000000000000e+00
0.000000000000000e+00 0.000000000000000e+00 0.000000000000000e+00
0.000000000000000e+00 0.000000000000000e+00 0.000000000000000e+00

0.000000000000000e+00 0.000000000000000e+00 0.000000000000000e+00
0.000000000000000e+00 0.000000000000000e+00 0.000000000000000e+00
0.000000000000000e+00 0.000000000000000e+00 0.000000000000000e+00

0.000000000000000e+00 0.000000000000000e+00 0.000000000000000e+00
0.000000000000000e+00 0.000000000000000e+00 0.000000000000000e+00
0.000000000000000e+00 0.000000000000000e+00 0.000000000000000e+00

0.000000000000000e+00 0.000000000000000e+00 0.000000000000000e+00
0.000000000000000e+00 0.000000000000000e+00 0.000000000000000e+00
0.000000000000000e+00 0.000000000000000e+00 0.000000000000000e+00

0.000000000000000e+00 0.000000000000000e+00 0.000000000000000e+00
0.000000000000000e+00 0.000000000000000e+00 0.000000000000000e+00
0.000000000000000e+00 0.000000000000000e+00 0.000000000000000e+00

0.000000000000000e+00 0.000000000000000e+00 0.000000000000000e+00
0.000000000000000e+00 0.000000000000000e+00 0.000000000000000e+00
0.000000000000000e+00 0.000000000000000e+00 0.000000000000000e+00

0.000000000000000e+00 0.000000000000000e+00 0.000000000000000e+00
0.000000000000000e+00 0.000000000000000e+00 0.000000000000000e+00
0.000000000000000e+00 0.000000000000000e+00 0.000000000000000e+00

0.000000000000000e+00 0.000000000000000e+00 0.000000000000000e+00
0.000000000000000e+00 0.000000000000000e+00 0.000000000000000e+00
0.000000000000000e+00 0.000000000000000e+00 0.000000000000000e+00

0.000000000000000e+00 0.000000000000000e+00 0.000000000000000e+00
0.000000000000000e+00 0.000000000000000e+00 0.000000000000000e+00
0.000000000000000e+00 0.000000000000000e+00 0.000000000000000e+00

0.000000000000000e+00 0.000000000000000e+00 0.000000000000000e+00
0.000000000000000e+00 0.000000000000000e+00 0.000000000000000e+00
0.000000000000000e+00 0.000000000000000e+00 0.000000000000000e+00

0.000000000000000e+00 0.000000000000000e+00 0.000000000000000e+00
0.000000000000000e+00 0.000000000000000e+00 0.000000000000000e+00
0.000000000000000e+00 0.000000000000000e+00 0.000000000000000e+00

0.000000000000000e+00 0.000000000000000e+00 0.000000000000000e+00
0.000000000000000e+00 0.000000000000000e+00 0.000000000000000e+00
0.000000000000000e+00 0.000000000000000e+00 0.000000000000000e+00

0.000000000000000e+00 0.000000000000000e+00 0.000000000000000e+00
0.000000000000000e+00 0.000000000000000e+00 0.000000000000000e+00
0.000000000000000e+00 0.000000000000000e+00 0.000000000000000e+00

0.000000000000000e+00 0.000000000000000e+00 0.000000000000000e+00
0.000000000000000e+00 0.000000000000000e+00 0.000000000000000e+00
0.000000000000000e+00 0.000000000000000e+00 0.000000000000000e+00

0.000000000000000e+00 0.000000000000000e+00 0.000000000000000e+00
0.000000000000000e+00 0.000000000000000e+00 0.000000000000000e+00
0.000000000000000e+00 0.000000000000000e+00 0.000000000000000e+00

0.000000000000000e+00 0.000000000000000e+00 0.000000000000000e+00
0.000000000000000e+00 0.000000000000000e+00 0.000000000000000e+00
0.000000000000000e+00 0.000000000000000e+00 0.000000000000000e+00

0.000000000000000e+00 0.000000000000000e+00 0.000000000000000e+00
0.000000000000000e+00 0.000000000000000e+00 0.000000000000000e+00
0.000000000000000e+00 0.000000000000000e+00 0.000000000000000e+00

0.000000000000000e+00 0.000000000000000e+00 0.000000000000000e+00
0.000000000000000e+00 0.000000000000000e+00 0.000000000000000e+00
0.000000000000000e+00 0.000000000000000e+00 0.000000000000000e+00

0.000000000000000e+00 0.000000000000000e+00 0.000000000000000e+00
0.000000000000000e+00 0.000000000000000e+00 0.000000000000000e+00
0.000000000000000e+00 0.000000000000000e+00 0.000000000000000e+00

0.000000000000000e+00 0.000000000000000e+00 0.000000000000000e+00
0.000000000000000e+00 0.000000000000000e+00 0.000000000000000e+00
0.000000000000000e+00 0.000000000000000e+00 0.000000000000000e+00

0.000000000000000e+00 0.000000000000000e+00 0.000000000000000e+00
0.000000000000000e+00 0.000000000000000e+00 0.000000000000000e+00
0.000000000000000e+00 0.000000000000000e+00 0.000000000000000e+00

0.000000000000000e+00 0.000000000000000e+00 0.000000000000000e+00
0.000000000000000e+00 0.000000000000000e+00 0.000000000000000e+00
0.000000000000000e+00 0.000000000000000e+00 0.000000000000000e+00

0.000000000000000e+00 0.000000000000000e+00 0.000000000000000e+00
0.000000000000000e+00 0.000000000000000e+00 0.000000000000000e+00
0.000000000000000e+00 0.000000000000000e+00 0.000000000000000e+00

0.000000000000000e+00 0.000000000000000e+00 0.000000000000000e+00
0.000000000000000e+00 0.000000000000000e+00 0.000000000000000e+00
0.000000000000000e+00 0.000000000000000e+00 0.000000000000000e+00

0.000000000000000e+00 0.000000000000000e+00 0.000000000000000e+00
0.000000000000000e+00 0.000000000000000e+00 0.000000000000000e+00
0.000000000000000e+00 0.000000000000000e+00 0.000000000000000e+00

0.000000000000000e+00 0.000000000000000e+00 0.000000000000000e+00
0.000000000000000e+00 0.000000000000000e+00 0.000000000000000e+00
0.000000000000000e+00 0.000000000000000e+00 0.000000000000000e+00

0.000000000000000e+00 0.000000000000000e+00 0.000000000000000e+00
0.000000000000000e+00 0.000000000000000e+00 0.000000000000000e+00
0.000000000000000e+00 0.000000000000000e+00 0.000000000000000e+00

0.000000000000000e+00 0.000000000000000e+00 0.000000000000000e+00
0.000000000000000e+00 0.000000000000000e+00 0.000000000000000e+00
0.000000000000000e+00 0.000000000000000e+00 0.000000000000000e+00

0.000000000000000e+00 0.000000000000000e+00 0.000000000000000e+00
0.000000000000000e+00 0.000000000000000e+00 0.000000000000000e+00
0.000000000000000e+00 0.000000000000000e+00 0.000000000000000e+00

0.000000000000000e+00 0.000000000000000e+00 0.000000000000000e+00
0.000000000000000e+00 0.000000000000000e+00 0.000000000000000e+00
0.000000000000000e+00 0.000000000000000e+00 0.000000000000000e+00

0.000000000000000e+00 0.000000000000000e+00 0.000000000000000e+00
0.000000000000000e+00 0.000000000000000e+00 0.000000000000000e+00
0.000000000000000e+00 0.000000000000000e+00 0.000000000000000e+00

0.000000000000000e+00 0.000000000000000e+00 0.000000000000000e+00
0.000000000000000e+00 0.000000000000000e+00 0.000000000000000e+00
0.000000000000000e+00 0.000000000000000e+00 0.000000000000000e+00

0.000000000000000e+00 0.000000000000000e+00 0.000000000000000e+00
0.000000000000000e+00 0.000000000000000e+00 0.000000000000000e+00
0.000000000000000e+00 0.000000000000000e+00 0.000000000000000e+00

0.000000000000000e+00 0.000000000000000e+00 0.000000000000000e+00
0.000000000000000e+00 0.000000000000000e+00 0.000000000000000e+00
0.000000000000000e+00 0.000000000000000e+00 0.000000000000000e+00

0.000000000000000e+00 0.000000000000000e+00 0.000000000000000e+00
0.000000000000000e+00 0.000000000000000e+00 0.000000000000000e+00
0.000000000000000e+00 0.000000000000000e+00 0.000000000000000e+00

0.000000000000000e+00 0.000000000000000e+00 0.000000000000000e+00
0.000000000000000e+00 0.000000000000000e+00 0.000000000000000e+00
0.000000000000000e+00 0.000000000000000e+00 0.000000000000000e+00

0.000000000000000e+00 0.000000000000000e+00 0.000000000000000e+00
0.000000000000000e+00 0.000000000000000e+00 0.000000000000000e+00
0.000000000000000e+00 0.000000000000000e+00 0.000000000000000e+00

0.000000000000000e+00 0.000000000000000e+00 0.000000000000000e+00
0.000000000000000e+00 0.000000000000000e+00 0.000000000000000e+00
0.000000000000000e+00 0.000000000000000e+00 0.000000000000000e+00

0.000000000000000e+00 0.000000000000000e+00 0.000000000000000e+00
0.000000000000000e+00 0.000000000000000e+00 0.000000000000000e+00
0.000000000000000e+00 0.000000000000000e+00 0.000000000000000e+00

0.000000000000000e+00 0.000000000000000e+00 0.000000000000000e+00
0.000000000000000e+00 0.000000000000000e+00 0.000000000000000e+00
0.000000000000000e+00 0.000000000000000e+00 0.000000000000000e+00

0.000000000000000e+00 0.000000000000000e+00 0.000000000000000e+00
0.000000000000000e+00 0.000000000000000e+00 0.000000000000000e+00
0.000000000000000e+00 0.000000000000000e+00 0.000000000000000e+00

0.000000000000000e+00 0.000000000000000e+00 0.000000000000000e+00
0.000000000000000e+00 0.000000000000000e+00 0.000000000000000e+00
0.000000000000000e+00 0.000000000000000e+00 0.000000000000000e+00

0.000000000000000e+00 0.000000000000000e+00 0.000000000000000e+00
0.000000000000000e+00 0.000000000000000e+00 0.000000000000000e+00
0.000000000000000e+00 0.000000000000000e+00 0.000000000000000e+00

0.000000000000000e+00 0.000000000000000e+00 0.000000000000000e+00
0.000000000000000e+00 0.000000000000000e+00 0.000000000000000e+00
0.000000000000000e+00 0.000000000000000e+00 0.000000000000000e+00

0.000000000000000e+00 0.000000000000000e+00 0.000000000000000e+00
0.000000000000000e+00 0.000000000000000e+00 0.000000000000000e+00
0.000000000000000e+00 0.000000000000000e+00 0.000000000000000e+00

 1.119475911344107e-17  1.084955249327429e-20 -1.011828848444666e+00
 1.084955249327429e-20  5.392310292446014e-17  3.971563097564546e-01
-1.011828848444666e+00  3.971563097564546e-01  8.619957748619218e-18

 1.111015066960473e-17 -2.337884289317377e-20 -1.007981349723923e+00
-2.337884289317377e-20  4.931116505432770e-17  4.175305523288839e-01
-1.007981349723923e+00  4.175305523288839e-01  8.269974270373825e-18

 1.160928288052968e-17 -2.100933754577003e-20 -1.029928653716517e+00
-2.100933754577003e-20  4.474014561175767e-17  3.984525640732391e-01
-1.029928653716517e+00  3.984525640732391e-01  9.704467894247655e-18

 1.136838676299706e-17  8.898693570098362e-20 -1.021945491279383e+00
 8.898693570098362e-20  1.101307060943563e-16  4.408093848967614e-01
-1.021945491279383e+00  4.408093848967614e-01  8.696407075057150e-18

 1.119961004382317e-17 -7.226593338079319e-20 -1.015591554151725e+00
-7.226593338079319e-20 -2.703595172174221e-17  4.348871813309056e-01
-1.015591554151725e+00  4.348871813309056e-01  8.246079194442999e-18

 1.173632013401815e-17  3.707295610649026e-20 -1.034178269183792e+00
 3.707295610649026e-20  1.100328589860430e-16  3.864131834545388e-01
-1.034178269183792e+00  3.864131834545388e-01  1.010806928181181e-17

 1.110492738670484e-17  1.673340646436679e-19 -1.008732419634435e+00
 1.673340646436679e-19  2.175913975854446e-16  4.008620481637316e-01
-1.008732419634435e+00  4.008620481637316e-01  8.315329790504366e-18

 1.117966965507751e-17  2.100730964812015e-21 -1.012525907510387e+00
 2.100730964812015e-21  5.635326971399309e-17  4.166748542998737e-01
-1.012525907510387e+00  4.166748542998737e-01  8.384842364524189e-18

 1.139560992935153e-17  1.067581937513786e-19 -1.022653530040887e+00
 1.067581937513786e-19  1.444273438820149e-16  4.257220951506109e-01
-1.022653530040887e+00  4.257220951506109e-01  8.874772309046000e-18

 1.106956361099499e-17  8.255039820830651e-20 -1.009339496127114e+00
 8.255039820830651e-20  1.031002764396990e-16  4.331140885558506e-01
-1.009339496127114e+00  4.331140885558506e-01  7.925269753406187e-18

 1.102883489889938e-17 -9.125650724273936e-20 -1.006396508451844e+00
-9.125650724273936e-20 -4.016393405291572e-17  4.123218717482940e-01
-1.006396508451844e+00  4.123218717482940e-01  8.034881566211023e-18

 1.092663297101568e-17 -5.555605240850510e-20 -1.003265383288480e+00
-5.555605240850510e-20 -4.405844128756168e-18  4.191886118143973e-01
-1.003265383288480e+00  4.191886118143973e-01  7.727939860259515e-18

 1.130109868588599e-17 -4.850238625712554e-20 -1.020143081680563e+00
-4.850238625712554e-20  2.865727897385496e-17  4.191169752934100e-01
-1.020143081680563e+00  4.191169752934100e-01  8.719056521046965e-18

 1.147861042913239e-17  6.725006906770595e-20 -1.026672852948709e+00
 6.725006906770595e-20  1.499122876449689e-16  4.170910867635239e-01
-1.026672852948709e+00  4.170910867635239e-01  9.222645583901177e-18

 1.119276979668285e-17  2.741538054777229e-20 -1.012965489814577e+00
 2.741538054777229e-20  1.039014854701518e-16  4.190881947566923e-01
-1.012965489814577e+00  4.190881947566923e-01  8.452599111996536e-18

 1.091279895333956e-17 -4.056570768857827e-20 -9.994246665590054e-01
-4.056570768857827e-20  1.879972413846227e-17  4.139693000172574e-01
-9.994246665590054e-01  4.139693000172574e-01  7.828743167913421e-18

 1.087476733950200e-17 -2.622111660010513e-20 -9.975326061270319e-01
-2.622111660010513e-20  4.024882315769830e-17  4.145929375665005e-01
-9.975326061270319e-01  4.145929375665005e-01  7.732605144173506e-18

 1.106272856881513e-17 -9.002836034510809e-20 -1.006333244973951e+00
-9.002836034510809e-20 -1.140911958334586e-16  4.158784128183210e-01
-1.006333244973951e+00  4.158784128183210e-01  8.216733794901552e-18

 1.120553227230995e-17  8.975452467817704e-21 -1.013587888748243e+00
 8.975452467817704e-21  1.029785681277465e-16  4.199597201588573e-01
-1.013587888748243e+00  4.199597201588573e-01  8.560841875200058e-18

 1.115568277541286e-17 -7.696671731994769e-20 -1.011831557172685e+00
-7.696671731994769e-20 -7.643827838919252e-17  4.139460764897477e-01
-1.011831557172685e+00  4.139460764897477e-01  8.465260569197596e-18

 1.129885731620727e-17 -2.854522963167473e-20 -1.017627191651584e+00
-2.854522963167473e-20  2.990004523645443e-17  4.011994341220009e-01
-1.017627191651584e+00  4.011994341220009e-01  8.926052966258110e-18

 1.136458786216320e-17 -5.289653277290360e-20 -1.021952156364066e+00
-5.289653277290360e-20 -5.021517248345611e-17  4.266809991646089e-01
-1.021952156364066e+00  4.266809991646089e-01  8.924138151811876e-18

 1.134331776045640e-17  5.082555007463187e-20 -1.020386660940246e+00
 5.082555007463187e-20  4.026596697729453e-17  4.297888818964215e-01
-1.020386660940246e+00  4.297888818964215e-01  8.929942965065678e-18

 1.040948815932234e-17 -1.828791443965286e-20 -9.755180846754578e-01
-1.828791443965286e-20 -4.272758979343245e-17  4.115366477913205e-01
-9.755180846754578e-01  4.115366477913205e-01  6.681024913674092e-18

 1.015786572315264e-17  2.028255112999707e-20 -9.664331558457204e-01
 2.028255112999707e-20 -3.698152566295053e-17  4.168657972644875e-01
-9.664331558457204e-01  4.168657972644875e-01  6.016306784417646e-18

 1.099202805764196e-17 -8.035271208726255e-21 -1.005618052481888e+00
-8.035271208726255e-21  5.887843137999579e-17  4.213039203664720e-01
-1.005618052481888e+00  4.213039203664720e-01  8.086006327982488e-18

 1.185584653668681e-17  5.283288590476486e-21 -1.047114071544392e+00
 5.283288590476486e-21  3.698966290051935e-17  3.905573428717229e-01
-1.047114071544392e+00  3.905573428717229e-01  1.048832280611074e-17

 1.165338267712268e-17 -3.579689958376755e-20 -1.043511350818217e+00
-3.579689958376755e-20 -7.489223669447178e-17  4.621055724299917e-01
-1.043511350818217e+00  4.621055724299917e-01  9.392776202803328e-18

 1.061898245760332e-17  2.158505429392327e-19 -1.002762431705252e+00
 2.158505429392327e-19  1.318729011620274e-16  4.755062693984846e-01
-1.002762431705252e+00  4.755062693984846e-01  6.525974983759976e-18

 1.189189886691956e-17 -2.956668062319885e-19 -1.039539010256083e+00
-2.956668062319885e-19  1.797088604795541e-16  3.339099375721155e-01
-1.039539010256083e+00  3.339099375721155e-01  1.118193286709481e-17

 1.092692167489457e-17 -1.007351688049716e-19 -1.003095367174019e+00
-1.007351688049716e-19  1.562410586368008e-16  3.860284891861891e-01
-1.003095367174019e+00  3.860284891861891e-01  8.198074283119008e-18

 1.037773369498440e-17 -5.979397154669572e-20 -9.831581858500833e-01
-5.979397154669572e-20 -1.281422857415917e-16  4.632813339973417e-01
-9.831581858500833e-01  4.632813339973417e-01  6.226991806299144e-18

 1.120020513102631e-17 -6.842690449127363e-20 -1.016228624313901e+00
-6.842690449127363e-20  2.085009868447969e-16  4.170797185746363e-01
-1.016228624313901e+00  4.170797185746363e-01  8.720665412937418e-18

 1.110935883251003e-17  9.196603710810776e-21 -1.013041352507406e+00
 9.196603710810776e-21 -1.210108821597287e-16  4.025289341933950e-01
-1.013041352507406e+00  4.025289341933950e-01  8.670887817949728e-18

 1.041535294742339e-17 -2.382232383812974e-20 -9.851800370518413e-01
-2.382232383812974e-20  1.279370238527559e-17  4.429149068603350e-01
-9.851800370518413e-01  4.429149068603350e-01  6.450580137623845e-18

 1.070159581936849e-17 -1.863908467400418e-20 -9.976510952802685e-01
-1.863908467400418e-20 -1.041517408425547e-17  4.327888790574581e-01
-9.976510952802685e-01  4.327888790574581e-01  7.331869108160488e-18

 1.101013266426623e-17 -5.936114613031796e-21 -1.010071468779683e+00
-5.936114613031796e-21 -6.983193235268806e-17  4.171859113378621e-01
-1.010071468779683e+00  4.171859113378621e-01  8.326507004210409e-18

 1.120416473708534e-17 -7.538163613359849e-20 -1.017837367433994e+00
-7.538163613359849e-20  1.457135230527234e-16  4.121294045843303e-01
-1.017837367433994e+00  4.121294045843303e-01  8.889175582468304e-18

 1.118318485744778e-17  2.093252012113838e-20 -1.016747590394268e+00
 2.093252012113838e-20 -1.098675626232542e-16  4.104925890091242e-01
-1.016747590394268e+00  4.104925890091242e-01  8.857326847483648e-18

 1.075695021243724e-17 -4.666423602042916e-20 -9.997423152724709e-01
-4.666423602042916e-20  5.703195793813177e-17  4.189208078350943e-01
-9.997423152724709e-01  4.189208078350943e-01  7.694375384267480e-18

 1.074808740254267e-17 -6.733829132618905e-20 -9.998180358546617e-01
-6.733829132618905e-20  9.136648881758960e-17  4.213740831786566e-01
-9.998180358546617e-01  4.213740831786566e-01  7.675228605030190e-18

 1.094207693388073e-17  4.593359652263714e-20 -1.007956516339810e+00
 4.593359652263714e-20 -1.626007006064363e-16  4.180089012872975e-01
-1.007956516339810e+00  4.180089012872975e-01  8.184129106362323e-18

 1.103998452517512e-17 -4.639755899284127e-20 -1.013004458788394e+00
-4.639755899284127e-20  4.829417909021335e-17  4.171929450728425e-01
-1.013004458788394e+00  4.171929450728425e-01  8.522655794888647e-18

 1.098239338396737e-17 -9.454240258910351e-20 -1.011078012937268e+00
-9.454240258910351e-20  1.630163242154392e-16  4.174530782867066e-01
-1.011078012937268e+00  4.174530782867066e-01  8.371511756140614e-18

 1.101589732584251e-17 -6.512615479846082e-20 -1.012398154061789e+00
-6.512615479846082e-20  8.286337282203293e-17  4.116292140727184e-01
-1.012398154061789e+00  4.116292140727184e-01  8.545502043203895e-18

 1.100765897754022e-17 -6.307399468682970e-21 -1.012242923117349e+00
-6.307399468682970e-21 -3.112791029430220e-17  4.143463963837745e-01
-1.012242923117349e+00  4.143463963837745e-01  8.549163425878037e-18

 1.079601230566390e-17  4.403946880054352e-20 -1.002736417277176e+00
 4.403946880054352e-20 -9.722402937112929e-17  4.198542025210605e-01
-1.002736417277176e+00  4.198542025210605e-01  7.884926912229195e-18

 1.054788620128640e-17  6.216096066471501e-20 -9.936854814248677e-01
 6.216096066471501e-20 -1.434360108372507e-16  4.265914888020684e-01
-9.936854814248677e-01  4.265914888020684e-01  7.245243397107994e-18

 1.071751370155710e-17 -1.688569328913821e-19 -1.000909472269349e+00
-1.688569328913821e-19  2.267627737414436e-16  4.191325033376689e-01
-1.000909472269349e+00  4.191325033376689e-01  7.803001569497690e-18

 1.079696948827916e-17 -3.292551997615631e-20 -1.004658412864227e+00
-3.292551997615631e-20  9.586145435842947e-18  4.195073409265637e-01
-1.004658412864227e+00  4.195073409265637e-01  8.012292779666401e-18

 1.097519603603846e-17 -8.368678558788050e-20 -1.013210866443314e+00
-8.368678558788050e-20  1.016967523801308e-16  4.141071687316717e-01
-1.013210866443314e+00  4.141071687316717e-01  8.553910698719722e-18

 1.102834084357107e-17 -1.461542618202707e-19 -1.016565508889646e+00
-1.461542618202707e-19  2.047987799888502e-16  4.157578969377566e-01
-1.016565508889646e+00  4.157578969377566e-01  8.713397455316056e-18

 1.086493734674307e-17 -8.723470028118055e-20 -1.009517738606376e+00
-8.723470028118055e-20  9.886029597320752e-17  4.186829199131616e-01
-1.009517738606376e+00  4.186829199131616e-01  8.205868936573224e-18

 1.086615535731141e-17  5.441997071405050e-20 -1.010192668242017e+00
 5.441997071405050e-20 -1.086840280331868e-16  4.132340825077261e-01
-1.010192668242017e+00  4.132340825077261e-01  8.343754288474245e-18

 1.096382297041280e-17  1.259792369489587e-19 -1.013744292180542e+00
 1.259792369489587e-19 -2.200822989047705e-16  4.126828192489870e-01
-1.013744292180542e+00  4.126828192489870e-01  8.573970555980282e-18

 1.073871254416635e-17 -3.317225957946374e-20 -1.005864444220300e+00
-3.317225957946374e-20  1.691636804546597e-17  4.271861836596872e-01
-1.005864444220300e+00  4.271861836596872e-01  7.957465209261439e-18

 1.056271183312572e-17  1.341251577870766e-19 -9.983194295920238e-01
 1.341251577870766e-19 -2.153494987586828e-16  4.309124396392960e-01
-9.983194295920238e-01  4.309124396392960e-01  7.418412288258998e-18

 1.055679481117907e-17 -1.488479004986297e-19 -9.981881447372990e-01
-1.488479004986297e-19  1.619020162927150e-16  4.040289139534353e-01
-9.981881447372990e-01  4.040289139534353e-01  7.696535793700746e-18

 1.142559605853189e-17  2.658656917978995e-20 -1.035203226569362e+00
 2.658656917978995e-20 -1.283725361948626e-17  3.754890503257891e-01
-1.035203226569362e+00  3.754890503257891e-01  1.028046672056992e-17

 1.053242993424068e-17 -2.724236336747683e-20 -1.000609302342695e+00
-2.724236336747683e-20 -7.292415485850322e-17  4.550628126719781e-01
-1.000609302342695e+00  4.550628126719781e-01  7.237556335949421e-18

 1.068570893935172e-17  5.637479729701643e-20 -1.008914946741656e+00
 5.637479729701643e-20 -1.340906752421685e-16  4.456455808452801e-01
-1.008914946741656e+00  4.456455808452801e-01  7.724382040890691e-18

 1.196127630457344e-17  4.498418280061230e-20 -1.057937079381492e+00
 4.498418280061230e-20 -1.326704332676505e-16  3.730269409375583e-01
-1.057937079381492e+00  3.730269409375583e-01  1.182720948554422e-17

 1.139707496722219e-17  1.042288134936806e-19 -1.035575316097103e+00
 1.042288134936806e-19 -1.948794160307463e-16  3.811264290847405e-01
-1.035575316097103e+00  3.811264290847405e-01  1.023161738859228e-17

 1.061003172750451e-17 -5.786143229144448e-20 -1.004618455765215e+00
-5.786143229144448e-20  3.230040563923931e-17  4.216414000877529e-01
-1.004618455765215e+00  4.216414000877529e-01  7.826820272020221e-18

 1.066772392083886e-17 -1.656698070326023e-19 -1.008184486119348e+00
-1.656698070326023e-19  1.908267193778114e-16  4.272535065797170e-01
-1.008184486119348e+00  4.272535065797170e-01  7.982360419331646e-18

 1.071862947828787e-17  2.729395338177088e-20 -1.010302046869786e+00
 2.729395338177088e-20 -8.705169936116593e-17  4.202459795366065e-01
-1.010302046869786e+00  4.202459795366065e-01  8.177811890316276e-18

 1.066592186376851e-17 -3.067159178569324e-19 -1.008610394507568e+00
-3.067159178569324e-19  3.543442034356028e-16  4.166181787283059e-01
-1.008610394507568e+00  4.166181787283059e-01  8.131653291531391e-18

 1.061979637546177e-17 -7.570328413207928e-20 -1.007522374194724e+00
-7.570328413207928e-20  5.137387251083707e-17  4.231817101393323e-01
-1.007522374194724e+00  4.231817101393323e-01  7.964808728845192e-18

 1.064100727174294e-17  8.940330739547151e-20 -1.009064637156285e+00
 8.940330739547151e-20 -1.808738307422542e-16  4.217752710949665e-01
-1.009064637156285e+00  4.217752710949665e-01  8.101597274580911e-18

 1.062164769504139e-17  8.768311565286433e-20 -1.008859485995306e+00
 8.768311565286433e-20 -1.808253834133891e-16  4.207498358701644e-01
-1.008859485995306e+00  4.207498358701644e-01  8.071894843089773e-18

 1.076825242610695e-17 -1.065454879685561e-19 -1.015467102101744e+00
-1.065454879685561e-19  8.848898856945617e-17  4.145914678533341e-01
-1.015467102101744e+00  4.145914678533341e-01  8.558487688111014e-18

 1.066125089057035e-17 -1.649149287155117e-19 -1.012270273678218e+00
-1.649149287155117e-19  1.734591477648055e-16  4.218370745547763e-01
-1.012270273678218e+00  4.218370745547763e-01  8.241119803962137e-18

 1.061137294790563e-17 -8.129752682823556e-20 -1.011148979395623e+00
-8.129752682823556e-20  5.329644222304876e-17  4.245462009489059e-01
-1.011148979395623e+00  4.245462009489059e-01  8.133561768926509e-18

 1.066972263196758e-17  1.031906934851077e-19 -1.013294123459493e+00
 1.031906934851077e-19 -2.331373590257003e-16  4.175116847156313e-01
-1.013294123459493e+00  4.175116847156313e-01  8.370278436572327e-18

 1.063185998540567e-17 -1.884940149209108e-19 -1.012541550205808e+00
-1.884940149209108e-19  2.022073394514767e-16  4.175378056420456e-01
-1.012541550205808e+00  4.175378056420456e-01  8.277146705199306e-18

 1.054663916450480e-17  1.018561772566779e-19 -1.009809497226968e+00
 1.018561772566779e-19 -2.521762277702700e-16  4.224023095087723e-01
-1.009809497226968e+00  4.224023095087723e-01  8.077370614042679e-18

 1.056369719972082e-17  2.376290361908964e-19 -1.011566219530176e+00
 2.376290361908964e-19 -5.090987638358673e-16  4.232787560529365e-01
-1.011566219530176e+00  4.232787560529365e-01  8.163710906678739e-18

 1.059861473761060e-17 -1.144853160091878e-20 -1.013190972134061e+00
-1.144853160091878e-20 -9.430573050663833e-17  4.210595461506291e-01
-1.013190972134061e+00  4.210595461506291e-01  8.278076397426010e-18

 1.053109493446411e-17  5.905682955760704e-20 -1.011166601270634e+00
 5.905682955760704e-20 -2.227334267657526e-16  4.227362088983245e-01
-1.011166601270634e+00  4.227362088983245e-01  8.156883243068514e-18

 1.056579991297892e-17  1.511942710959590e-19 -1.012509459229153e+00
 1.511942710959590e-19 -4.119478930063660e-16  4.216848614944410e-01
-1.012509459229153e+00  4.216848614944410e-01  8.244684398818514e-18

 1.051185234228894e-17 -1.740961000974085e-19 -1.011299736060555e+00
-1.740961000974085e-19  2.299438588311978e-16  4.222080758124249e-01
-1.011299736060555e+00  4.222080758124249e-01  8.185576127532896e-18

 1.054624080477057e-17 -1.932996956837843e-20 -1.012593942255425e+00
-1.932996956837843e-20 -8.726477653574895e-17  4.212372761271789e-01
-1.012593942255425e+00  4.212372761271789e-01  8.260613960600145e-18

 1.049446360589622e-17 -1.815183621380862e-19 -1.011563176844214e+00
-1.815183621380862e-19  2.662198805244589e-16  4.219876598415107e-01
-1.011563176844214e+00  4.219876598415107e-01  8.222548957142842e-18

 1.049539891592387e-17 -6.507240103182293e-20 -1.011803107526337e+00
-6.507240103182293e-20  1.509947009428788e-18  4.214978154515194e-01
-1.011803107526337e+00  4.214978154515194e-01  8.261080753744830e-18

 1.049975324599593e-17  3.414667952001111e-20 -1.012990587093963e+00
 3.414667952001111e-20 -2.423563660206165e-16  4.207768455629342e-01
-1.012990587093963e+00  4.207768455629342e-01  8.317443519386289e-18

 1.042321516560634e-17 -1.084855302152851e-19 -1.010544674804828e+00
-1.084855302152851e-19  1.306299681130791e-16  4.217635688531667e-01
-1.010544674804828e+00  4.217635688531667e-01  8.153766959783336e-18

 1.043376345862856e-17  1.329986894983256e-19 -1.010833971770477e+00
 1.329986894983256e-19 -5.209092910986358e-16  4.188544425469800e-01
-1.010833971770477e+00  4.188544425469800e-01  8.221072361547162e-18

 1.039801753124254e-17  8.884579122052957e-20 -1.010461981712480e+00
 8.884579122052957e-20 -4.147364245412223e-16  4.185337686152830e-01
-1.010461981712480e+00  4.185337686152830e-01  8.153557705042412e-18

 1.054128842763909e-17 -4.947592319229197e-20 -1.018190398999013e+00
-4.947592319229197e-20 -5.123442546343631e-17  4.209474166049750e-01
-1.018190398999013e+00  4.209474166049750e-01  8.586074033561930e-18

 1.032463914442101e-17 -1.379393476213857e-19 -1.010527686679596e+00
-1.379393476213857e-19  3.399381026375261e-16  4.307647394536614e-01
-1.010527686679596e+00  4.307647394536614e-01  7.947718279175123e-18

 1.040686188105385e-17 -2.404439463944900e-19 -1.014094878186821e+00
-2.404439463944900e-19  5.992788969409721e-16  4.105890480727657e-01
-1.014094878186821e+00  4.105890480727657e-01  8.448731916429204e-18

 1.027520269517566e-17  3.017465485787417e-20 -1.009358277639726e+00
 3.017465485787417e-20 -3.730406297857681e-16  4.168052757322459e-01
-1.009358277639726e+00  4.168052757322459e-01  8.101239631722585e-18

 1.027855097149603e-17 -2.560901606880888e-20 -1.011268180461224e+00
-2.560901606880888e-20 -2.425269766493394e-16  4.245276927509853e-01
-1.011268180461224e+00  4.245276927509853e-01  8.160982227637551e-18

 1.033607104715049e-17 -3.149611537148544e-20 -1.014178820830175e+00
-3.149611537148544e-20 -2.512584765335957e-16  4.199654715870825e-01
-1.014178820830175e+00  4.199654715870825e-01  8.367935656546991e-18

 1.032914143476086e-17 -3.873249925682339e-20 -1.014260979985675e+00
-3.873249925682339e-20 -2.601836412519558e-16  4.200294075741077e-01
-1.014260979985675e+00  4.200294075741077e-01  8.374034197057122e-18

 1.025284561951139e-17 -6.937516846887237e-20 -1.013501302832351e+00
-6.937516846887237e-20  7.002225063093312e-17  4.197733502612567e-01
-1.013501302832351e+00  4.197733502612567e-01  8.332040540543970e-18

 1.017016236931518e-17 -7.113193527166095e-20 -1.011509255419687e+00
-7.113193527166095e-20  6.507631721217792e-17  4.192651495175258e-01
-1.011509255419687e+00  4.192651495175258e-01  8.224090994623234e-18

 1.016262076718146e-17 -7.402581613290102e-20 -1.012670982957292e+00
-7.402581613290102e-20  1.651357797747096e-16  4.182220066027957e-01
-1.012670982957292e+00  4.182220066027957e-01  8.298145031419855e-18

 1.015655205214716e-17 -6.170128561620211e-20 -1.012645856799674e+00
-6.170128561620211e-20 -2.645530844602524e-16  4.205477202348651e-01
-1.012645856799674e+00  4.205477202348651e-01  8.254237855476479e-18

 1.012469357423383e-17 -7.718471438720760e-20 -1.012660555988442e+00
-7.718471438720760e-20  7.623473321545108e-16  4.205502544498410e-01
-1.012660555988442e+00  4.205502544498410e-01  8.275840978393203e-18

 1.011678341627746e-17 -7.018858970162016e-20 -1.013319508774523e+00
-7.018858970162016e-20  3.107192471683778e-17  4.181534877529560e-01
-1.013319508774523e+00  4.181534877529560e-01  8.338889027677210e-18

 1.006213850858261e-17 -7.096414498543650e-20 -1.011893373127145e+00
-7.096414498543650e-20 -3.472145087288164e-16  4.175555073688077e-01
-1.011893373127145e+00  4.175555073688077e-01  8.297176362672808e-18

 1.003004951201761e-17 -6.883969360561329e-20 -1.011310324213247e+00
-6.883969360561329e-20 -3.472531085776967e-16  4.184485709560157e-01
-1.011310324213247e+00  4.184485709560157e-01  8.256022714081398e-18

 1.009959986514152e-17 -7.146829256188941e-20 -1.015145897293323e+00
-7.146829256188941e-20 -5.238506738169757e-16  4.135605625329536e-01
-1.015145897293323e+00  4.135605625329536e-01  8.563375347743997e-18

 1.006990347716652e-17 -5.472057582775432e-20 -1.015262383348011e+00
-5.472057582775432e-20  4.634699911402581e-16  4.155288410872646e-01
-1.015262383348011e+00  4.155288410872646e-01  8.526489787415912e-18

 9.999439695937721e-18 -5.743741981909040e-20 -1.013323806500640e+00
-5.743741981909040e-20  4.949464015185983e-17  4.204889514202244e-01
-1.013323806500640e+00  4.204889514202244e-01  8.388857682907510e-18

 9.769523831420088e-18 -6.250872216620602e-20 -1.003975937872772e+00
-6.250872216620602e-20 -3.271687174230258e-17  4.250402253626014e-01
-1.003975937872772e+00  4.250402253626014e-01  7.769277257413434e-18

 9.868851408996352e-18 -5.634949028474860e-20 -1.008572427371681e+00
-5.634949028474860e-20 -1.938054401964727e-16  4.147349521189125e-01
-1.008572427371681e+00  4.147349521189125e-01  8.191557948736539e-18

 9.782673295972645e-18 -5.597351634633304e-20 -1.006463074686607e+00
-5.597351634633304e-20  1.602381310587756e-16  4.160458800945342e-01
-1.006463074686607e+00  4.160458800945342e-01  8.084505909885883e-18

 9.843986715688923e-18 -5.451603394821104e-20 -1.010583216307738e+00
-5.451603394821104e-20  2.331943866759432e-16  4.157877786293375e-01
-1.010583216307738e+00  4.157877786293375e-01  8.270369018478024e-18

 9.955951987822684e-18 -4.065748660808198e-20 -1.017112417120959e+00
-4.065748660808198e-20 -2.250850875492584e-16  4.063899135558183e-01
-1.017112417120959e+00  4.063899135558183e-01  8.787748023881633e-18

 9.959039796988701e-18 -4.110743799493806e-20 -1.018093578545503e+00
-4.110743799493806e-20  1.602263825954191e-16  4.171387323618270e-01
-1.018093578545503e+00  4.171387323618270e-01  8.696395466002053e-18

 9.519062643116439e-18 -1.688757353458264e-20 -1.002770461166900e+00
-1.688757353458264e-20 -2.352327150678715e-17  4.375926642675121e-01
-1.002770461166900e+00  4.375926642675121e-01  7.503222516223058e-18

 9.760126299576249e-18  9.591919860733813e-21 -1.011653653267848e+00
 9.591919860733813e-21 -3.545486192120758e-16  4.005214886194745e-01
-1.011653653267848e+00  4.005214886194745e-01  8.491099614048161e-18

 9.687372538466440e-18 -1.657184597902696e-19 -1.010891934032926e+00
-1.657184597902696e-19  5.676716988970100e-16  3.897614141689187e-01
-1.010891934032926e+00  3.897614141689187e-01  8.483013673321730e-18

 9.383776605304732e-18 -8.171488338247320e-20 -1.001632494431748e+00
-8.171488338247320e-20  5.102933300071624e-16  4.419810383139701e-01
-1.001632494431748e+00  4.419810383139701e-01  7.315522167596022e-18

 9.785676661347624e-18 -8.126453770327586e-20 -1.020670062379803e+00
-8.126453770327586e-20  1.019923556578152e-15  4.351137837372295e-01
-1.020670062379803e+00  4.351137837372295e-01  8.547243385754752e-18

 9.425676183830482e-18 -1.830794413254788e-20 -1.005182789616906e+00
-1.830794413254788e-20 -1.305550565090797e-16  4.083858313142333e-01
-1.005182789616906e+00  4.083858313142333e-01  7.972812883377791e-18

 9.340211060382025e-18 -2.825848138419572e-19 -1.003912642686942e+00
-2.825848138419572e-19  6.061450111110220e-16  4.091206191140052e-01
-1.003912642686942e+00  4.091206191140052e-01  7.942047272119615e-18

 9.368339545823996e-18  3.409143528468357e-19 -1.008974757029806e+00
 3.409143528468357e-19 -1.106867418571914e-15  4.337632685076228e-01
-1.008974757029806e+00  4.337632685076228e-01  7.961330296341426e-18

 9.075995497033969e-18  1.273851829800880e-19 -9.978896253417321e-01
 1.273851829800880e-19 -3.358230137597708e-16  4.285432605753186e-01
-9.978896253417321e-01  4.285432605753186e-01  7.275407749283302e-18

 9.273917685375410e-18  1.807882247678169e-19 -1.005679818316955e+00
 1.807882247678169e-19 -3.915220979280783e-16  3.875964542707366e-01
-1.005679818316955e+00  3.875964542707366e-01  8.295506425712533e-18

 9.105521974009535e-18  4.122632491647425e-19 -1.002039442171892e+00
 4.122632491647425e-19 -7.441361928178822e-16  4.064282959611997e-01
-1.002039442171892e+00  4.064282959611997e-01  7.803683401017156e-18

 9.158253810294059e-18  2.942527718197049e-20 -1.008310091223573e+00
 2.942527718197049e-20 -1.540952764514469e-16  4.301133071821192e-01
-1.008310091223573e+00  4.301133071821192e-01  7.942274739380143e-18

 9.054625209304416e-18  1.395322122601114e-20 -1.005196173867908e+00
 1.395322122601114e-20 -1.538705057210471e-16  4.191792768258397e-01
-1.005196173867908e+00  4.191792768258397e-01  7.926839568666475e-18

 8.614973241860056e-18 -5.269224913341529e-20 -9.879870780758465e-01
-5.269224913341529e-20 -5.859647719290535e-17  4.264829603315458e-01
-9.879870780758465e-01  4.264829603315458e-01  6.902823799275976e-18

 8.252810476286949e-18 -3.217617298162862e-19 -9.737301897283421e-01
-3.217617298162862e-19  2.267579492800792e-16  4.277101392736939e-01
-9.737301897283421e-01  4.277101392736939e-01  6.090528461859215e-18

 8.331009841898411e-18  3.278474468464121e-19 -9.777139489725074e-01
 3.278474468464121e-19 -4.256533810802169e-16  3.974821475418083e-01
-9.777139489725074e-01  3.974821475418083e-01  6.746361387187563e-18

 9.532263304754920e-18  3.067414538921831e-19 -1.028185577505128e+00
 3.067414538921831e-19 -3.590594775288403e-16  3.550652512038925e-01
-1.028185577505128e+00  3.550652512038925e-01  1.047375896148793e-17

 8.015275746417228e-18 -1.005146325367885e-18 -9.688542920837256e-01
-1.005146325367885e-18  9.050295306536739e-16  4.309229661027164e-01
-9.688542920837256e-01  4.309229661027164e-01  5.775764515969801e-18

 8.273762709497645e-18 -5.312539975586474e-19 -9.845584002817634e-01
-5.312539975586474e-19  4.437059100617835e-16  4.425045434313244e-01
-9.845584002817634e-01  4.425045434313244e-01  6.570268540310618e-18

 8.251684106737697e-18 -4.306389173395177e-19 -9.893618404494502e-01
-4.306389173395177e-19  3.338562261803841e-16  4.032199149578922e-01
-9.893618404494502e-01  4.032199149578922e-01  6.926897534869372e-18

 9.017320605288350e-18 -2.569570898365848e-19 -1.026442280400893e+00
-2.569570898365848e-19  2.104962097835050e-16  3.772292217570122e-01
-1.026442280400893e+00  3.772292217570122e-01  9.232778387924269e-18

 8.401704520870815e-18 -3.937029768103347e-19 -1.005645104289997e+00
-3.937029768103347e-19  3.185564460738562e-16  4.578478126369303e-01
-1.005645104289997e+00  4.578478126369303e-01  7.109687240994731e-18

 8.769257051260016e-18 -4.881225197507938e-19 -1.026732889501337e+00
-4.881225197507938e-19  8.418621520103656e-16  4.378201398109876e-01
-1.026732889501337e+00  4.378201398109876e-01  8.305586454042311e-18

 8.973831778763901e-18 -1.856058013856736e-19 -1.039739752450187e+00
-1.856058013856736e-19 -8.571529763934220e-17  4.007722058252526e-01
-1.039739752450187e+00  4.007722058252526e-01  9.338109177060630e-18

 8.045680816084570e-18 -2.850997383921332e-19 -1.004650079012955e+00
-2.850997383921332e-19  2.212999355984699e-16  4.514048569959913e-01
-1.004650079012955e+00  4.514048569959913e-01  6.542179561027879e-18

 8.711467263646239e-18 -3.387310611216453e-19 -1.034756968463073e+00
-3.387310611216453e-19  4.467891083643190e-16  4.252606589330150e-01
-1.034756968463073e+00  4.252606589330150e-01  8.785102406429240e-18

 8.455942317137065e-18 -4.250968363790451e-19 -1.026067157238336e+00
-4.250968363790451e-19  6.494082702254214e-16  4.189646253343642e-01
-1.026067157238336e+00  4.189646253343642e-01  8.351175718268443e-18

 8.342547199905839e-18 -1.565774586518468e-19 -1.022387363013840e+00
-1.565774586518468e-19 -3.416885678881004e-16  4.143753678822021e-01
-1.022387363013840e+00  4.143753678822021e-01  8.289374469452959e-18

 8.105072380971086e-18 -4.453559369508820e-19 -1.014950455178092e+00
-4.453559369508820e-19  5.825895294088264e-16  4.168207943316594e-01
-1.014950455178092e+00  4.168207943316594e-01  7.878952393041261e-18

 7.933494194222139e-18 -4.861852786702901e-19 -1.010609299618668e+00
-4.861852786702901e-19  7.332297177257706e-16  4.229978679986138e-01
-1.010609299618668e+00  4.229978679986138e-01  7.634591941624115e-18

 7.796601177328189e-18 -2.175445928989521e-19 -1.007807637120500e+00
-2.175445928989521e-19 -2.073545090568815e-16  4.227501446377142e-01
-1.007807637120500e+00  4.227501446377142e-01  7.565753225727940e-18

 7.767453409067444e-18 -1.104774511484821e-19 -1.008460778098447e+00
-1.104774511484821e-19 -5.633387780205256e-16  4.172040281574038e-01
-1.008460778098447e+00  4.172040281574038e-01  7.715384327327094e-18

 7.600461833411393e-18 -1.041339482865872e-19 -1.005045019946960e+00
-1.041339482865872e-19 -6.016938722791061e-16  4.179840132959230e-01
-1.005045019946960e+00  4.179840132959230e-01  7.468597576224792e-18

 7.520274221801685e-18 -2.380379182638995e-19 -1.005809933399175e+00
-2.380379182638995e-19 -1.859878199573068e-16  4.183468267998210e-01
-1.005809933399175e+00  4.183468267998210e-01  7.466087374743088e-18

 7.406362925989693e-18 -5.419505147454366e-19 -1.006891952733513e+00
-5.419505147454366e-19  7.764043902639391e-16  4.198615023630050e-01
-1.006891952733513e+00  4.198615023630050e-01  7.436397715872926e-18

 7.247407262487424e-18 -2.428850787590096e-19 -1.009173318282316e+00
-2.428850787590096e-19 -3.783394164800052e-16  4.194809618593978e-01
-1.009173318282316e+00  4.194809618593978e-01  7.448723686296482e-18

 7.023545495545660e-18 -2.018918573853839e-19 -1.009487198697218e+00
-2.018918573853839e-19 -7.302743771810725e-16  4.199083838272677e-01
-1.009487198697218e+00  4.199083838272677e-01  7.369287775022570e-18

 6.828405962922447e-18 -2.414213426648008e-19 -1.009502652572221e+00
-2.414213426648008e-19 -7.306078528343600e-16  4.202916561729086e-01
-1.009502652572221e+00  4.202916561729086e-01  7.287214581811824e-18

 6.557389051466320e-18 -7.897703705424517e-19 -1.009084388567955e+00
-7.897703705424517e-19  1.319305778612140e-15  4.219615602835595e-01
-1.009084388567955e+00  4.219615602835595e-01  7.169084250377900e-18

 6.300769067006097e-18 -5.581254356413413e-19 -1.007618223244837e+00
-5.581254356413413e-19  1.561519693107309e-16  4.197466021426328e-01
-1.007618223244837e+00  4.197466021426328e-01  7.027552848425102e-18

 6.172833196597851e-18 -5.907197166936002e-19 -1.010164914610734e+00
-5.907197166936002e-19  1.645551334691226e-16  4.146509841956510e-01
-1.010164914610734e+00  4.146509841956510e-01  7.163596615934074e-18

 6.063405227317022e-18 -6.303439069707679e-19 -1.017135287182295e+00
-6.303439069707679e-19  1.690419996747713e-16  4.199409877962901e-01
-1.017135287182295e+00  4.199409877962901e-01  7.464271570713950e-18

 5.647144891052347e-18 -7.430276528904098e-19 -1.017436038479316e+00
-7.430276528904098e-19  5.630721978996274e-16  4.209359780082970e-01
-1.017436038479316e+00  4.209359780082970e-01  7.412521757312201e-18

 5.094500481094384e-18 -8.927027599140761e-19 -1.008649296531305e+00
-8.927027599140761e-19  4.712819780651773e-16  3.950006541389727e-01
-1.008649296531305e+00  3.950006541389727e-01  7.075891356558759e-18

 4.789753416102892e-18 -7.417658944338530e-19 -1.007720669738266e+00
-7.417658944338530e-19 -4.169052738064282e-16  4.070565686443892e-01
-1.007720669738266e+00  4.070565686443892e-01  6.770309158352593e-18

 4.591736091492714e-18 -9.538793256950435e-19 -1.017476571430445e+00
-9.538793256950435e-19  1.543527282382132e-15  4.290274803032261e-01
-1.017476571430445e+00  4.290274803032261e-01  7.022670952267899e-18

 4.170599078756454e-18 -1.081062913647431e-18 -1.017788696402327e+00
-1.081062913647431e-18  1.193107685819354e-15  4.140643101430009e-01
-1.017788696402327e+00  4.140643101430009e-01  6.994641351924404e-18

 3.551109115945547e-18 -1.218482944814973e-18 -1.009267844114569e+00
-1.218482944814973e-18  8.420201505107223e-16  4.154136643742212e-01
-1.009267844114569e+00  4.154136643742212e-01  6.351990034043608e-18

 2.754348638008873e-18 -1.064317944107014e-18 -1.004293542881710e+00
-1.064317944107014e-18 -1.223887281553126e-15  4.158703571227938e-01
-1.004293542881710e+00  4.158703571227938e-01  5.856888356990736e-18

 2.225951787821291e-18 -1.408849688402439e-18 -1.009611499447887e+00
-1.408849688402439e-18 -2.469984761982714e-16  4.154366863704740e-01
-1.009611499447887e+00  4.154366863704740e-01  5.952627195540486e-18

 1.569350484030854e-18 -1.693303723425286e-18 -1.012322962654733e+00
-1.693303723425286e-18  2.870561860385352e-16  4.208079182165878e-01
-1.012322962654733e+00  4.208079182165878e-01  5.847743002380250e-18

 8.951269509832040e-19 -1.741045860534143e-18 -1.008350637474441e+00
-1.741045860534143e-18 -3.800815531747954e-16  4.123287224772855e-01
-1.008350637474441e+00  4.123287224772855e-01  5.522723366914940e-18

 1.035280384706745e-19 -1.783827404316357e-18 -1.002680921533672e+00
-1.783827404316357e-18 -9.343082553001126e-16  4.106151734445188e-01
-1.002680921533672e+00  4.106151734445188e-01  4.960953440307282e-18

-9.346921410225372e-19 -2.156429335949798e-18 -1.011371141031387e+00
-2.156429335949798e-18 -1.027055032801888e-15  4.158413308448010e-01
-1.011371141031387e+00  4.158413308448010e-01  5.040717543596888e-18

-2.422596717547312e-18 -2.830001385706548e-18 -1.010894576228367e+00
-2.830001385706548e-18 -2.483714927202579e-16  4.142913598895808e-01
-1.010894576228367e+00  4.142913598895808e-01  4.592517431996678e-18

-4.753841602514837e-18 -3.555165695356051e-18 -9.981799848779130e-01
-3.555165695356051e-18 -2.626637567805395e-16  4.144197210745525e-01
-9.981799848779130e-01  4.144197210745525e-01  3.279029332225994e-18

-7.112454708444411e-18 -4.025882978846070e-18 -9.935727709891742e-01
-4.025882978846070e-18 -1.035979682283650e-15  4.145628873306887e-01
-9.935727709891742e-01  4.145628873306887e-01  2.370845120056940e-18

-9.118247365215023e-18 -4.806927885499640e-18 -9.918125685610641e-01
-4.806927885499640e-18 -1.039577214204823e-15  4.207046418929642e-01
-9.918125685610641e-01  4.207046418929642e-01  1.621944533815469e-18

-1.241687487770098e-17 -6.231245715403200e-18 -9.715309853277282e-01
-6.231245715403200e-18 -5.070773036442206e-16  4.211226059830567e-01
-9.715309853277282e-01  4.211226059830567e-01 -4.871466541000796e-19

-1.346426831514692e-17 -8.014049172389812e-18 -1.003133174176102e+00
-8.014049172389812e-18  8.517066585626270e-16  3.735085295888603e-01
-1.003133174176102e+00  3.735085295888603e-01  1.442797350037604e-18

-1.661808835680257e-17 -8.033972935685882e-18 -9.793318715291700e-01
-8.033972935685882e-18 -4.826320476251310e-16  4.140829597414777e-01
-9.793318715291700e-01  4.140829597414777e-01 -1.638638769989765e-18

-2.081431961095976e-17 -1.011804091981530e-17 -1.036280775465899e+00
-1.011804091981530e-17 -9.299638355494983e-16  4.277388132311551e-01
-1.036280775465899e+00  4.277388132311551e-01 -4.176577301271507e-19

-2.539639555259137e-17 -1.227039336350544e-17 -1.006468269781735e+00
-1.227039336350544e-17  1.241599475140175e-16  4.321240944719609e-01
-1.006468269781735e+00  4.321240944719609e-01 -3.697164100855007e-18

-3.188100846457249e-17 -1.489790856929342e-17 -9.742121203044746e-01
-1.489790856929342e-17 -8.746087483247404e-16  4.139545324383293e-01
-9.742121203044746e-01  4.139545324383293e-01 -7.246948906667579e-18

-3.964505148640323e-17 -1.887678372187255e-17 -9.967444107034200e-01
-1.887678372187255e-17 -9.100914593106485e-16  4.147654371002085e-01
-9.967444107034200e-01  4.147654371002085e-01 -8.801247888137071e-18

-4.667161424920216e-17 -2.234848526476162e-17 -1.029264397487264e+00
-2.234848526476162e-17 -9.229654201322519e-16  4.260114911854521e-01
-1.029264397487264e+00  4.260114911854521e-01 -9.703116402387006e-18

-6.032034809845496e-17 -2.941896378094240e-17 -1.051701479182901e+00
-2.941896378094240e-17 -1.497063810470020e-15  4.222634591851571e-01
-1.051701479182901e+00  4.222634591851571e-01 -1.306721899259359e-17

-7.536328593739611e-17 -3.821020280701853e-17 -1.019123186394957e+00
-3.821020280701853e-17  1.102285515656926e-15  4.193466357180463e-01
-1.019123186394957e+00  4.193466357180463e-01 -1.939106376012743e-17

-8.748329355124739e-17 -4.331851451712484e-17 -1.001330373152481e+00
-4.331851451712484e-17 -3.876766654499778e-15  4.068060522698486e-01
-1.001330373152481e+00  4.068060522698486e-01 -2.383919362253624e-17

-1.101475422447664e-16 -5.589372528408193e-17 -9.979637426679762e-01
-5.589372528408193e-17 -3.906837159452952e-15  4.103921683822337e-01
-9.979637426679762e-01  4.103921683822337e-01 -3.118628974369630e-17

-1.331519016899663e-16 -6.982937519213243e-17 -1.022617826820492e+00
-6.982937519213243e-17  5.842263950314314e-16  4.290615558141445e-01
-1.022617826820492e+00  4.290615558141445e-01 -3.722912147521708e-17

-1.761324355316441e-16 -9.380526658195582e-17 -1.048640113688058e+00
-9.380526658195582e-17  2.260744276362888e-15  4.236415460781494e-01
-1.048640113688058e+00  4.236415460781494e-01 -4.880983573677772e-17

-2.794392714964340e-16 -1.524291561964804e-16 -9.970198923745739e-01
-1.524291561964804e-16 -6.728163516257140e-16  4.249336633293570e-01
-9.970198923745739e-01  4.249336633293570e-01 -8.146279220255054e-17

-4.216303634710919e-16 -2.291754617477669e-16 -9.813562540993555e-01
-2.291754617477669e-16 -5.386196034478789e-16  4.221368757180147e-01
-9.813562540993555e-01  4.221368757180147e-01 -1.229156544604031e-16

-6.024421862907293e-16 -3.161780035008038e-16 -9.979037902688146e-01
-3.161780035008038e-16 -1.349819407138532e-15  4.273784905061991e-01
-9.979037902688146e-01  4.273784905061991e-01 -1.740974747715468e-16

-8.937158876887839e-16 -4.389840970074470e-16 -1.017829844092038e+00
-4.389840970074470e-16 -2.205651380189929e-15  4.200091922043653e-01
-1.017829844092038e+00  4.200091922043653e-01 -2.572985286884866e-16

-1.334025382636029e-15 -5.892814179084671e-16 -1.031034498990644e+00
-5.892814179084671e-16  1.394056629039422e-15  4.257853915320436e-01
-1.031034498990644e+00  4.257853915320436e-01 -3.871340795690967e-16

-2.032624408710161e-15 -7.598548397554303e-16 -1.027053808384435e+00
-7.598548397554303e-16 -7.993633199140339e-16  4.273763174340959e-01
-1.027053808384435e+00  4.273763174340959e-01 -6.061115174409663e-16

-2.647921469516879e-15 -8.535494397429001e-16 -1.015822823415566e+00
-8.535494397429001e-16 -1.403165732663785e-15  4.202099361625877e-01
-1.015822823415566e+00  4.202099361625877e-01 -8.149820166534144e-16

-3.357872883650915e-15 -9.074353737623804e-16 -1.014791298718444e+00
-9.074353737623804e-16  2.828118189738658e-16  4.072136681828101e-01
-1.014791298718444e+00  4.072136681828101e-01 -1.074902023830053e-15

-4.723130731080823e-15 -8.456630932560657e-16 -1.014043892718338e+00
-8.456630932560657e-16 -4.883156657522110e-16  4.102890186490410e-01
-1.014043892718338e+00  4.102890186490410e-01 -1.641672356384169e-15

-6.972606656102599e-15 -5.683542878025517e-16 -1.009691845878575e+00
-5.683542878025517e-16 -2.041409760250694e-15  4.296734453292048e-01
-1.009691845878575e+00  4.296734453292048e-01 -2.677953460705294e-15

-9.591412035110511e-15 -2.191940429576185e-17 -1.012668232931516e+00
-2.191940429576185e-17  3.046429271388149e-16  4.279182915406099e-01
-1.012668232931516e+00  4.279182915406099e-01 -4.046320557182273e-15

-1.412664260608491e-14  1.176077147607898e-15 -1.018360568706993e+00
 1.176077147607898e-15 -2.611745963205555e-15  4.204264958354067e-01
-1.018360568706993e+00  4.204264958354067e-01 -6.576994949284041e-15

 1.375315259689152e-14  2.391021153700365e-14 -1.014782127468808e+00
 2.391021153700365e-14  3.056592148959273e-14  4.199823583640038e-01
-1.014782127468808e+00  4.199823583640038e-01 -2.385283203098783e-15

-6.428235091006758e-13 -1.551883872250011e-13 -1.013514355493937e+00
-1.551883872250011e-13 -2.826197635423496e-13  4.197650103040040e-01
-1.013514355493937e+00  4.197650103040040e-01 -2.129775270509121e-13

 1.752842249259699e-14  3.377892142232946e-15 -1.010435459096858e+00
 3.377892142232946e-15  2.315647966957294e-14  4.173804953122234e-01
-1.010435459096858e+00  4.173804953122234e-01 -4.212929948467954e-15

-8.059575167890103e-15 -1.146407488284091e-14 -1.008787114252365e+00
-1.146407488284091e-14 -8.585562036507735e-16  4.144573235727854e-01
-1.008787114252365e+00  4.144573235727854e-01 -8.216460876568700e-15

-6.459933196233145e-13 -1.500048847783096e-13 -1.012998117939546e+00
-1.500048847783096e-13 -3.248465884612053e-13  4.169377074202791e-01
-1.012998117939546e+00  4.169377074202791e-01 -1.596483811180674e-13

-4.269944148148946e-15 -8.600628703308596e-15 -1.015972597659351e+00
-8.600628703308596e-15  7.522510357355894e-16  4.112811029831329e-01
-1.015972597659351e+00  4.112811029831329e-01 -4.389617553813465e-15

-3.302166023830436e-15 -6.713346158578266e-15 -1.007777981478225e+00
-6.713346158578266e-15  1.148604584670744e-15  4.236804251437482e-01
-1.007777981478225e+00  4.236804251437482e-01 -3.178896782299250e-15

-2.696882244654357e-15 -4.363566809656005e-15 -1.014411098852774e+00
-4.363566809656005e-15  1.360481194778459e-15  4.183272232907451e-01
-1.014411098852774e+00  4.183272232907451e-01 -2.021386601650642e-15

-1.947757735703293e-15 -2.120439576174175e-15 -1.011290555115440e+00
-2.120439576174175e-15  1.517869307485835e-15  4.140338481418624e-01
-1.011290555115440e+00  4.140338481418624e-01 -1.095922089134487e-15

-1.385686007966566e-15 -1.031318411588198e-15 -1.009852727248656e+00
-1.031318411588198e-15  1.102959493787930e-15  4.155952018618600e-01
-1.009852727248656e+00  4.155952018618600e-01 -6.471921857140471e-16

-9.670920882613732e-16 -5.025904163385990e-16 -1.008719617333909e+00
-5.025904163385990e-16  4.972464294297341e-16  4.158147922938421e-01
-1.008719617333909e+00  4.158147922938421e-01 -4.014606684955151e-16

-6.738340358673786e-16 -2.471399583630591e-16 -1.006316622437880e+00
-2.471399583630591e-16  2.229385931790550e-16  4.163135855443753e-01
-1.006316622437880e+00  4.163135855443753e-01 -2.591561654549667e-16

-4.780577585329988e-16 -1.246487056691974e-16 -1.004355641711782e+00
-1.246487056691974e-16  3.164998857822714e-17  4.141813157216601e-01
-1.004355641711782e+00  4.141813157216601e-01 -1.746323774261288e-16

-3.814901518739072e-16 -7.841871971613700e-17 -1.009249871167797e+00
-7.841871971613700e-17 -5.088489120855665e-17  4.126021926158339e-01
-1.009249871167797e+00  4.126021926158339e-01 -1.353040862478578e-16

-2.824099596425005e-16 -4.044127082708075e-17 -1.015515586857010e+00
-4.044127082708075e-17  3.038416880321751e-16  4.158055335493870e-01
-1.015515586857010e+00  4.158055335493870e-01 -9.642456714738975e-17

-2.043591206948855e-16 -1.910086291498965e-17 -1.011383726635862e+00
-1.910086291498965e-17 -2.130795226760017e-16  4.095569611962289e-01
-1.011383726635862e+00  4.095569611962289e-01 -6.746745559796554e-17

-1.686510116919026e-16 -1.144035494480088e-17 -1.011931741780514e+00
-1.144035494480088e-17 -5.516000765710950e-18  4.093668348563304e-01
-1.011931741780514e+00  4.093668348563304e-01 -5.436763545409014e-17

-1.387142565382981e-16 -6.267029445337999e-18 -1.012127822182957e+00
-6.267029445337999e-18  1.737807710510833e-16  4.212465118990473e-01
-1.012127822182957e+00  4.212465118990473e-01 -4.359284600531412e-17

-1.103127344123060e-16 -2.503436080021966e-18 -1.006492786656776e+00
-2.503436080021966e-18  3.140779270245197e-17  4.135732525366362e-01
-1.006492786656776e+00  4.135732525366362e-01 -3.361918416824468e-17

-9.144279777073428e-17 -5.851304238659722e-19 -1.007762035604240e+00
-5.851304238659722e-19 -1.045534772948834e-16  4.055486556139103e-01
-1.007762035604240e+00  4.055486556139103e-01 -2.674292648713730e-17

-7.604432550575496e-17  4.887049182781420e-19 -1.011027756121023e+00
 4.887049182781420e-19  7.959983182569406e-17  4.186246446629669e-01
-1.011027756121023e+00  4.186246446629669e-01 -2.122480711259482e-17

-6.437847239603080e-17  1.182775149559447e-18 -1.007673711169908e+00
 1.182775149559447e-18 -1.894437481178215e-17  4.209977430755772e-01
-1.007673711169908e+00  4.209977430755772e-01 -1.734952484454552e-17

-5.710189487191094e-17  1.438457391235307e-18 -1.010256623447979e+00
 1.438457391235307e-18 -1.688954041893616e-16  4.043158263756139e-01
-1.010256623447979e+00  4.043158263756139e-01 -1.439558724718526e-17

-4.697881283514312e-17  1.748862900777992e-18 -1.000683286759104e+00
 1.748862900777992e-18  1.259703914492007e-16  4.132471818493910e-01
-1.000683286759104e+00  4.132471818493910e-01 -1.137628216084350e-17

-3.762849007272696e-17  1.806389773449462e-18 -9.997378700931235e-01
 1.806389773449462e-18  6.982721000429200e-17  4.127160999141355e-01
-9.997378700931235e-01  4.127160999141355e-01 -8.078231895511959e-18

-3.022997677578609e-17  1.742686459811315e-18 -9.979814787314419e-01
 1.742686459811315e-18  1.365481995549488e-17  4.129493949318789e-01
-9.979814787314419e-01  4.129493949318789e-01 -5.513157474270224e-18

-2.523860437399905e-17  1.636332066269039e-18 -9.951699334214332e-01
 1.636332066269039e-18 -7.684209487700822e-18  4.136257434435816e-01
-9.951699334214332e-01  4.136257434435816e-01 -3.864434332406405e-18

-2.208122676796518e-17  1.564357245611837e-18 -9.891197914820197e-01
 1.564357245611837e-18  1.298637262315604e-17  4.174630343992111e-01
-9.891197914820197e-01  4.174630343992111e-01 -3.080299942079472e-18

-1.896483577849996e-17  1.417493377628846e-18 -9.822359594136708e-01
 1.417493377628846e-18 -6.746762650407272e-17  4.120919207448657e-01
-9.822359594136708e-01  4.120919207448657e-01 -2.258919040533392e-18

-1.656122896947732e-17  1.363638239059197e-18 -1.002135999105985e+00
 1.363638239059197e-18 -7.544387196060004e-17  3.894748309102887e-01
-1.002135999105985e+00  3.894748309102887e-01 -4.561214248827108e-20

-1.554125524989745e-17  1.325883480130653e-18 -9.811513708688140e-01
 1.325883480130653e-18  1.605507727612154e-17  4.174505931028106e-01
-9.811513708688140e-01  4.174505931028106e-01 -1.233978091977639e-18

-1.338708902934495e-17  1.208630324544272e-18 -9.883054805702136e-01
 1.208630324544272e-18 -1.697406556766376e-17  4.159703749291583e-01
-9.883054805702136e-01  4.159703749291583e-01 -1.629741906246893e-19

-1.134796127233679e-17  1.088799820482556e-18 -9.979461751452439e-01
 1.088799820482556e-18 -1.066539569661244e-16  4.110407346258209e-01
-9.979461751452439e-01  4.110407346258209e-01  9.596314237534981e-19

-8.108818444245034e-18  9.171794800272548e-19 -1.012117189849359e+00
 9.171794800272548e-19 -5.050926719917307e-17  4.133591191586365e-01
-1.012117189849359e+00  4.133591191586365e-01  2.600083352014994e-18

-5.475585984077024e-18  7.634810299959581e-19 -1.011337680930800e+00
 7.634810299959581e-19 -3.346189450604770e-18  4.137349962735232e-01
-1.011337680930800e+00  4.137349962735232e-01  3.352654167109782e-18

-3.725980847578653e-18  6.641118483784534e-19 -1.009907029939041e+00
 6.641118483784534e-19  4.553646592976503e-17  4.146617454993130e-01
-1.009907029939041e+00  4.146617454993130e-01  3.831455593244140e-18

-2.510197429731885e-18  6.103468426596421e-19 -1.012244362542273e+00
 6.103468426596421e-19  8.092804394370447e-17  4.163927358111361e-01
-1.012244362542273e+00  4.163927358111361e-01  4.320353058821963e-18

-1.575458774822735e-18  5.481893985925201e-19 -1.012981019172623e+00
 5.481893985925201e-19  8.356275289866653e-17  4.169064463122673e-01
-1.012981019172623e+00  4.169064463122673e-01  4.650685961164396e-18

-7.343650675845643e-19  4.595404626354013e-19 -1.012049438892371e+00
 4.595404626354013e-19 -1.715535359598396e-17  4.173465451211310e-01
-1.012049438892371e+00  4.173465451211310e-01  4.871206870117534e-18

 1.005455953726761e-19  4.048829218471435e-19 -1.010441842581711e+00
 4.048829218471435e-19 -6.496296710018812e-18  4.163861611748143e-01
-1.010441842581711e+00  4.163861611748143e-01  5.078710449278512e-18

 8.739840682091425e-19  3.553064205012114e-19 -1.010651392593396e+00
 3.553064205012114e-19  3.613563255615502e-17  4.177885916327485e-01
-1.010651392593396e+00  4.177885916327485e-01  5.359402450072287e-18

 1.657584546105380e-18  3.066825570660469e-19 -1.011028076494785e+00
 3.066825570660469e-19  7.883027453486651e-17  4.173959367246764e-01
-1.011028076494785e+00  4.173959367246764e-01  5.678112948457370e-18

 2.403546777920458e-18  2.478512722333810e-19 -1.011362331234946e+00
 2.478512722333810e-19 -2.327281219175103e-17  4.168967128221344e-01
-1.011362331234946e+00  4.168967128221344e-01  5.963295525138052e-18

 2.897834301085040e-18  2.101680919937485e-19 -1.008765246975346e+00
 2.101680919937485e-19 -2.301894779367525e-17  4.194426410836208e-01
-1.008765246975346e+00  4.194426410836208e-01  6.023635597474386e-18

 3.277649664451935e-18  1.842644981551877e-19 -1.009294199390380e+00
 1.842644981551877e-19 -3.336077818657227e-17  4.152623712343491e-01
-1.009294199390380e+00  4.152623712343491e-01  6.266688014386312e-18

 3.548303551347052e-18  1.578884020526727e-19 -1.007981229129175e+00
 1.578884020526727e-19 -8.296789895463156e-17  4.142446239492936e-01
-1.007981229129175e+00  4.142446239492936e-01  6.332269771613713e-18

 4.021439083319971e-18  1.343251023598972e-19 -1.004123946989625e+00
 1.343251023598972e-19 -6.221040112125370e-17  4.156166843221178e-01
-1.004123946989625e+00  4.156166843221178e-01  6.380974831871272e-18

 4.389663477982255e-18  1.093595988300437e-19 -1.002219850283592e+00
 1.093595988300437e-19 -1.479301008619757e-16  4.160292752328422e-01
-1.002219850283592e+00  4.160292752328422e-01  6.429285797373309e-18

 4.634487075300297e-18  1.236097944669557e-19 -1.001383725461194e+00
 1.236097944669557e-19  5.591111441643557e-18  4.138839321246903e-01
-1.001383725461194e+00  4.138839321246903e-01  6.546271136252153e-18

 4.959828311578713e-18  9.937445434292988e-20 -1.001429434979091e+00
 9.937445434292988e-20  1.521246971866119e-17  4.130342830468913e-01
-1.001429434979091e+00  4.130342830468913e-01  6.675136965337578e-18

 5.264635696374326e-18  8.879096074392851e-20 -1.002574382901840e+00
 8.879096074392851e-20 -8.217984775650346e-17  4.128402415412082e-01
-1.002574382901840e+00  4.128402415412082e-01  6.805421948417215e-18

 5.373410477418887e-18  1.021455082802097e-19 -9.999705745932884e-01
 1.021455082802097e-19  8.382779522770958e-17  4.130293828892319e-01
-9.999705745932884e-01  4.130293828892319e-01  6.691919609701800e-18

 5.499880738880916e-18  8.682910997512960e-20 -1.000642730652780e+00
 8.682910997512960e-20  2.806709739223192e-18  4.124100066825824e-01
-1.000642730652780e+00  4.124100066825824e-01  6.715859900246374e-18

 5.811707349898138e-18  5.544862113582595e-20 -1.003778054406043e+00
 5.544862113582595e-20 -5.978863825027334e-17  4.095065436843449e-01
-1.003778054406043e+00  4.095065436843449e-01  7.001957008100897e-18

 5.974508270959622e-18  6.308751301616186e-20 -1.002694850987700e+00
 6.308751301616186e-20  8.798908946444767e-17  4.163586990696144e-01
-1.002694850987700e+00  4.163586990696144e-01  6.906731335290748e-18

 6.161748555120561e-18  3.895335679459235e-20 -1.005220465692853e+00
 3.895335679459235e-20 -1.206214654082713e-16  4.166306492834383e-01
-1.005220465692853e+00  4.166306492834383e-01  7.072468135800943e-18

 6.389782328210926e-18  2.595460527194115e-20 -1.004832560497176e+00
 2.595460527194115e-20  2.473408171636799e-17  4.110433942383469e-01
-1.004832560497176e+00  4.110433942383469e-01  7.199423611276772e-18

 6.538153871077512e-18  1.335298656675938e-20 -1.003676566541251e+00
 1.335298656675938e-20  3.788311220633568e-17  4.119336898242457e-01
-1.003676566541251e+00  4.119336898242457e-01  7.179360479693411e-18

 6.677700960063461e-18 -3.568645204312609e-21 -1.001571966026961e+00
-3.568645204312609e-21 -4.505657716772608e-19  4.133616221408274e-01
-1.001571966026961e+00  4.133616221408274e-01  7.147364066891430e-18

 6.866052336005117e-18 -7.960105340585987e-23 -1.000761709199965e+00
-7.960105340585987e-23  3.007408520091894e-17  4.138338999470784e-01
-1.000761709199965e+00  4.138338999470784e-01  7.201980046145947e-18

 7.009265090926242e-18 -1.499626025050811e-20 -1.000271220190992e+00
-1.499626025050811e-20  3.925181710458757e-17  4.134717526875613e-01
-1.000271220190992e+00  4.134717526875613e-01  7.244759357394906e-18

 7.122504272191181e-18 -1.050730338093966e-20 -9.990526222673767e-01
-1.050730338093966e-20  6.536699796757864e-17  4.112254122484902e-01
-9.990526222673767e-01  4.112254122484902e-01  7.322852617249318e-18

 7.218966249310771e-18 -2.428116274748073e-20 -9.967190195257190e-01
-2.428116274748073e-20  4.188585911512522e-17  4.131604761447333e-01
-9.967190195257190e-01  4.131604761447333e-01  7.252099881673917e-18

 7.351000350337214e-18 -3.468826578099079e-20 -9.945825229437593e-01
-3.468826578099079e-20  8.310974498113021e-18  4.109196216448898e-01
-9.945825229437593e-01  4.109196216448898e-01  7.316427374382203e-18

 7.519537905458480e-18 -3.119722854629196e-20 -9.933199148602877e-01
-3.119722854629196e-20  8.265243571737021e-18  4.088343913054392e-01
-9.933199148602877e-01  4.088343913054392e-01  7.456390266738392e-18

 7.545035072276563e-18 -1.689146680452534e-20 -9.878329681904732e-01
-1.689146680452534e-20  2.398815708531911e-17  4.172840802871707e-01
-9.878329681904732e-01  4.172840802871707e-01  7.096021158156032e-18

 7.482406645007806e-18 -2.506199189495261e-21 -9.821327313341566e-01
-2.506199189495261e-21  8.798248482573222e-17  4.191418566175268e-01
-9.821327313341566e-01  4.191418566175268e-01  6.810231070248069e-18

 7.734960046622587e-18 -1.782689188680209e-20 -9.880329415332827e-01
-1.782689188680209e-20 -1.270557736253122e-17  4.047937691542166e-01
-9.880329415332827e-01  4.047937691542166e-01  7.404465819579580e-18

 7.683652023486826e-18 -3.127338040120495e-20 -9.817514856313078e-01
-3.127338040120495e-20 -5.280265777478874e-17  4.150265246363626e-01
-9.817514856313078e-01  4.150265246363626e-01  6.908158713546184e-18

 7.908529920999631e-18 -9.870846347779287e-21 -9.871032715384599e-01
-9.870846347779287e-21 -1.239065384992625e-17  4.105250707920411e-01
-9.871032715384599e-01  4.105250707920411e-01  7.334035908681106e-18

 7.682023516203422e-18 -2.446857664131721e-20 -9.754213737001266e-01
-2.446857664131721e-20 -7.069530646139060e-17  4.207971529198471e-01
-9.754213737001266e-01  4.207971529198471e-01  6.450018348103121e-18

 7.890788166522461e-18  5.746559055572170e-21 -9.823049724981632e-01
 5.746559055572170e-21  5.009805947524541e-17  4.125466229988238e-01
-9.823049724981632e-01  4.125466229988238e-01  6.917843420248688e-18

 7.448341258057827e-18 -1.258636194436688e-20 -9.632101950902462e-01
-1.258636194436688e-20  4.025871267547894e-18  4.460814766782597e-01
-9.632101950902462e-01  4.460814766782597e-01  5.276709995019722e-18

 6.661050542838607e-18  1.405190935561574e-20 -9.310686566737129e-01
 1.405190935561574e-20  2.154340838271048e-17  4.785654645149420e-01
-9.310686566737129e-01  4.785654645149420e-01  2.724109265411531e-18

 7.003549367710492e-18  1.478452228099502e-19 -9.460261772192082e-01
 1.478452228099502e-19  2.284883480939914e-17  3.818076753364772e-01
-9.460261772192082e-01  3.818076753364772e-01  3.943276233185075e-18

 1.035949228565157e-17  9.165976465167678e-19 -1.102196161312729e+00
 9.165976465167678e-19  1.112822888480245e-16  2.366711017217328e-01
-1.102196161312729e+00  2.366711017217328e-01  1.297996569697229e-17

 9.757804814862949e-18  1.166819949438842e-19 -1.073735430057950e+00
 1.166819949438842e-19 -2.746364036473200e-17  3.892983553345544e-01
-1.073735430057950e+00  3.892983553345544e-01  1.042100928676480e-17

 1.186429470349746e-17 -4.043483122676972e-19 -1.168817964063065e+00
-4.043483122676972e-19  4.574678035352982e-17  5.349801471487182e-01
-1.168817964063065e+00  5.349801471487182e-01  1.532404809068832e-17

 1.065928225918596e-17  1.719278659220541e-19 -1.119536897492936e+00
 1.719278659220541e-19 -8.644001899478563e-18  4.133940517830924e-01
-1.119536897492936e+00  4.133940517830924e-01  1.215820905405717e-17

 1.295440262876625e-17 -2.380673747728421e-19 -1.189617284062181e+00
-2.380673747728421e-19 -4.416385625620963e-17  1.770960159472524e-01
-1.189617284062181e+00  1.770960159472524e-01  1.939339986673467e-17

 7.916688642176936e-18 -2.777831538191826e-19 -9.882133189553751e-01
-2.777831538191826e-19  9.018108514895344e-18  4.783905080833357e-01
-9.882133189553751e-01  4.783905080833357e-01  4.186905773516911e-18

 1.039930285327404e-17 -8.975358064100492e-20 -1.093144674873235e+00
-8.975358064100492e-20  6.051018383550678e-17  4.902806316774855e-01
-1.093144674873235e+00  4.902806316774855e-01  1.078053597131691e-17

 1.029100766132739e-17 -1.000858420897964e-19 -1.074716258863683e+00
-1.000858420897964e-19  2.236841574740067e-17  3.971805953023999e-01
-1.074716258863683e+00  3.971805953023999e-01  1.098182543084592e-17

 8.941818850505959e-18 -8.261475386677587e-20 -1.008583726709895e+00
-8.261475386677587e-20  5.213470482111339e-18  4.133947844027360e-01
-1.008583726709895e+00  4.133947844027360e-01  7.293876865666714e-18

 8.642751138011044e-18 -1.432404205459724e-20 -9.888588364387831e-01
-1.432404205459724e-20 -2.761693292397482e-17  4.403869207759217e-01
-9.888588364387831e-01  4.403869207759217e-01  6.284595796221058e-18

 8.875073518692137e-18 -7.850694318456684e-20 -9.914717232088660e-01
-7.850694318456684e-20 -2.707305710431282e-17  4.088938596021769e-01
-9.914717232088660e-01  4.088938596021769e-01  7.098500301559902e-18

 9.628308743253620e-18 -8.287460811669637e-20 -1.019489120084813e+00
-8.287460811669637e-20 -2.193378276114856e-17  3.683385838018736e-01
-1.019489120084813e+00  3.683385838018736e-01  9.398763417967736e-18

 7.683802766266775e-18 -5.266400581439405e-20 -9.398701127273169e-01
-5.266400581439405e-20 -2.025360162253695e-17  4.898473599955753e-01
-9.398701127273169e-01  4.898473599955753e-01  3.050347971558276e-18

 8.255490983054641e-18  2.078193889386684e-20 -9.624680650001851e-01
 2.078193889386684e-20  2.381541699611405e-17  4.724543320001934e-01
-9.624680650001851e-01  4.724543320001934e-01  4.705861345324951e-18

 9.103411806056629e-18 -5.511610018056397e-20 -9.907727178240077e-01
-5.511610018056397e-20  2.757694693666108e-17  3.811835096823303e-01
-9.907727178240077e-01  3.811835096823303e-01  7.590410128913745e-18

 9.717953520098483e-18  7.487846947810977e-20 -1.016371014115285e+00
 7.487846947810977e-20  6.818574735533304e-17  3.654898615920884e-01
-1.016371014115285e+00  3.654898615920884e-01  9.253071133055553e-18

 9.285936009474503e-18 -8.397721763540647e-20 -9.993238615930469e-01
-8.397721763540647e-20  1.611137912400067e-17  4.413559924864265e-01
-9.993238615930469e-01  4.413559924864265e-01  7.375443765555798e-18

 9.834497000596401e-18 -3.092311260982096e-20 -1.021346978162988e+00
-3.092311260982096e-20  2.280484178661030e-17  4.247622145511101e-01
-1.021346978162988e+00  4.247622145511101e-01  8.786028236023249e-18

 9.354051299874834e-18 -8.182154790899905e-20 -9.954252834098563e-01
-8.182154790899905e-20  1.099710784063176e-17  4.095896774416126e-01
-9.954252834098563e-01  4.095896774416126e-01  7.434160169108235e-18

 9.419973479118595e-18 -1.132238614967695e-19 -9.966435064563197e-01
-1.132238614967695e-19 -9.266223103616467e-18  4.182618220937518e-01
-9.966435064563197e-01  4.182618220937518e-01  7.494620161383375e-18

 9.526577255407915e-18 -9.431719628822353e-20 -9.985805375534357e-01
-9.431719628822353e-20  3.154290278087215e-18  4.164448204981654e-01
-9.985805375534357e-01  4.164448204981654e-01  7.626500438978692e-18

 9.659697287995592e-18 -1.134166006470182e-19 -1.001487195920029e+00
-1.134166006470182e-19 -1.089079017815322e-17  4.165124792306925e-01
-1.001487195920029e+00  4.165124792306925e-01  7.812819720635332e-18

 9.758594262970859e-18 -1.315195741841009e-19 -1.003635266087335e+00
-1.315195741841009e-19 -1.707604670637313e-17  4.161944163149014e-01
-1.003635266087335e+00  4.161944163149014e-01  7.939836570395779e-18

 9.755876253628022e-18 -1.087690004656650e-19 -1.001853937921767e+00
-1.087690004656650e-19  3.193383089954553e-18  4.170318559926589e-01
-1.001853937921767e+00  4.170318559926589e-01  7.809558093000856e-18

 9.746608272087952e-18 -1.701558180300297e-19 -1.000649689620943e+00
-1.701558180300297e-19 -2.851430114453332e-17  4.157909651897300e-01
-1.000649689620943e+00  4.157909651897300e-01  7.779884496356703e-18

 9.809565327971702e-18 -1.157924151404470e-19 -1.001502873433510e+00
-1.157924151404470e-19  8.580153695529277e-18  4.148658169346384e-01
-1.001502873433510e+00  4.148658169346384e-01  7.835213739202490e-18

 9.755667147422651e-18 -1.372797858095598e-19 -9.991625350853405e-01
-1.372797858095598e-19 -8.941812605511023e-18  4.173234382346277e-01
-9.991625350853405e-01  4.173234382346277e-01  7.664733718074908e-18

 9.915029561832591e-18 -1.201839945791839e-19 -1.004620779065606e+00
-1.201839945791839e-19 -2.145950812194198e-17  4.131388814263418e-01
-1.004620779065606e+00  4.131388814263418e-01  8.030879768314439e-18

 9.945690232718216e-18 -1.724693468005439e-19 -1.005175710706252e+00
-1.724693468005439e-19 -4.340813648738510e-17  4.185386129206284e-01
-1.005175710706252e+00  4.185386129206284e-01  8.019542175026331e-18

 9.798705800537819e-18 -9.968529917946091e-20 -9.979955252098580e-01
-9.968529917946091e-20  1.114796427377712e-17  4.243959853570243e-01
-9.979955252098580e-01  4.243959853570243e-01  7.478291293323734e-18

 1.008187030349161e-17 -9.537888490466976e-20 -1.007810242762618e+00
-9.537888490466976e-20 -3.070968112397341e-20  4.055965898526646e-01
-1.007810242762618e+00  4.055965898526646e-01  8.364446971879234e-18

 9.943958677753504e-18 -9.867969827816380e-20 -1.001894632363252e+00
-9.867969827816380e-20  2.576559132311713e-17  4.089244518643182e-01
-1.001894632363252e+00  4.089244518643182e-01  7.902289948734982e-18

 1.009580581061119e-17 -1.123680252696325e-19 -1.007534697022551e+00
-1.123680252696325e-19  1.510749017703073e-17  4.226560132523462e-01
-1.007534697022551e+00  4.226560132523462e-01  8.110449530791317e-18

 9.994194641011943e-18 -6.775608763353365e-20 -1.002455134408833e+00
-6.775608763353365e-20  2.861948122925486e-17  4.257272859253740e-01
-1.002455134408833e+00  4.257272859253740e-01  7.723622167007005e-18

 1.016753230631530e-17 -9.763754043476630e-20 -1.007896451333562e+00
-9.763754043476630e-20  9.762604261392599e-18  4.005156985307838e-01
-1.007896451333562e+00  4.005156985307838e-01  8.325432526292618e-18

 1.039916488120852e-17 -4.246332112815431e-20 -1.016903661896929e+00
-4.246332112815431e-20  5.519061393251537e-17  3.981019249325262e-01
-1.016903661896929e+00  3.981019249325262e-01  8.893029836855360e-18

 9.877270767810477e-18 -1.352793231922142e-19 -9.958570130535825e-01
-1.352793231922142e-19 -4.918961627344704e-18  4.422895503971352e-01
-9.958570130535825e-01  4.422895503971352e-01  7.094752544348072e-18

 1.006216075197834e-17 -1.207160581415815e-19 -1.002710305613498e+00
-1.207160581415815e-19  1.848099773591287e-17  4.327255738570830e-01
-1.002710305613498e+00  4.327255738570830e-01  7.586841225641427e-18

 1.044154819280381e-17 -1.208459405974220e-19 -1.016597890058917e+00
-1.208459405974220e-19  1.223253173570104e-18  3.975922210545082e-01
-1.016597890058917e+00  3.975922210545082e-01  8.869883771689090e-18

 1.010168919167133e-17 -1.472287383617511e-19 -1.002053611471488e+00
-1.472287383617511e-19 -2.056810073442168e-17  4.221154095385289e-01
-1.002053611471488e+00  4.221154095385289e-01  7.701017363680604e-18

 1.015798957019006e-17 -8.829384863435964e-20 -1.004236507477542e+00
-8.829384863435964e-20  3.693236892466926e-17  4.281361848509432e-01
-1.004236507477542e+00  4.281361848509432e-01  7.780449882700823e-18

 1.036799620433515e-17 -6.896458104139854e-20 -1.011142676234644e+00
-6.896458104139854e-20  3.566375461190257e-17  4.096529413601812e-01
-1.011142676234644e+00  4.096529413601812e-01  8.436637705535983e-18

 1.023381773606182e-17 -7.309423548891021e-20 -1.005549973057156e+00
-7.309423548891021e-20  1.790624865981495e-17  4.111279719149709e-01
-1.005549973057156e+00  4.111279719149709e-01  8.016921523449818e-18

 1.039282334616162e-17 -5.505368320204162e-20 -1.010987034631557e+00
-5.505368320204162e-20  3.935278975044677e-17  4.133400700098948e-01
-1.010987034631557e+00  4.133400700098948e-01  8.313096992300010e-18

 1.066805261547023e-17 -6.122482511054176e-20 -1.022487888025535e+00
-6.122482511054176e-20  4.139181238096610e-17  4.230929662160635e-01
-1.022487888025535e+00  4.230929662160635e-01  8.945458074761563e-18

 1.007454975642547e-17 -8.732870319163989e-20 -9.966823807911898e-01
-8.732870319163989e-20  7.773227729599714e-18  4.380762451420693e-01
-9.966823807911898e-01  4.380762451420693e-01  7.174821386785798e-18

 1.076107455561809e-17 -1.020943030165005e-19 -1.020182884650197e+00
-1.020943030165005e-19  3.141679551019633e-17  3.718717625036344e-01
-1.020182884650197e+00  3.718717625036344e-01  9.575117939184016e-18

 1.070312277954202e-17 -1.252497984163319e-19 -1.017166187685411e+00
-1.252497984163319e-19 -6.058070215134209e-18  3.794035763452344e-01
-1.017166187685411e+00  3.794035763452344e-01  9.345621361574169e-18

 9.643323969694059e-18 -1.565973417909291e-19 -9.743538361575557e-01
-1.565973417909291e-19  1.471307001290473e-18  4.522502691233886e-01
-9.743538361575557e-01  4.522502691233886e-01  5.856117100148018e-18

 1.038376939287603e-17 -8.439059755585741e-20 -1.004006111216401e+00
-8.439059755585741e-20  3.959880117179079e-17  4.262280289992750e-01
-1.004006111216401e+00  4.262280289992750e-01  7.985674456492677e-18

 1.043435822773164e-17 -1.060808067433285e-19 -1.005548580822040e+00
-1.060808067433285e-19  2.675960325743191e-17  4.126785333814785e-01
-1.005548580822040e+00  4.126785333814785e-01  8.226421712724541e-18

 1.036517982048593e-17 -1.351882716050298e-19 -1.001442446658231e+00
-1.351882716050298e-19  1.805619404238285e-17  4.166596515087982e-01
-1.001442446658231e+00  4.166596515087982e-01  7.907624243038264e-18

 1.032446744734723e-17 -1.375795332962666e-19 -9.996822815823123e-01
-1.375795332962666e-19  8.390406996562521e-18  4.199625500717559e-01
-9.996822815823123e-01  4.199625500717559e-01  7.802122621368791e-18

 1.028288982598450e-17 -9.434126835507454e-20 -9.970297893297900e-01
-9.434126835507454e-20  2.232950410617274e-17  4.215919577861789e-01
-9.970297893297900e-01  4.215919577861789e-01  7.634083832949524e-18

 1.027659275607340e-17 -1.430219818521308e-19 -9.968084271312382e-01
-1.430219818521308e-19 -7.619390592168376e-18  4.198017583585979e-01
-9.968084271312382e-01  4.198017583585979e-01  7.611171539518231e-18

 1.043664621448903e-17 -1.097539502715685e-19 -1.003118629402023e+00
-1.097539502715685e-19  1.549949103207088e-17  4.087327801870292e-01
-1.003118629402023e+00  4.087327801870292e-01  8.057237693274835e-18

 1.066732662615754e-17 -1.240162871417181e-19 -1.012106677076188e+00
-1.240162871417181e-19  9.188137229969113e-18  4.032428159933082e-01
-1.012106677076188e+00  4.032428159933082e-01  8.696838527634064e-18

 1.055068554586978e-17 -1.144023047667356e-19 -1.008198879177336e+00
-1.144023047667356e-19  2.685020386683439e-17  4.240687465872179e-01
-1.008198879177336e+00  4.240687465872179e-01  8.168481831525340e-18

 1.059130275470783e-17 -9.496802455184914e-20 -1.009225915786745e+00
-9.496802455184914e-20  4.360054857437703e-17  4.281437571617946e-01
-1.009225915786745e+00  4.281437571617946e-01  8.109514414727985e-18

 1.065219074147030e-17 -1.487335146645756e-19 -1.011222688034554e+00
-1.487335146645756e-19 -1.314314522710485e-17  4.150502629635892e-01
-1.011222688034554e+00  4.150502629635892e-01  8.432818956218732e-18

 1.029871985063224e-17 -1.398606453232272e-19 -9.955349670896046e-01
-1.398606453232272e-19  6.585861962566908e-18  4.272344288494444e-01
-9.955349670896046e-01  4.272344288494444e-01  7.336209426361021e-18

 1.044476006626035e-17 -1.396889500513996e-19 -1.000359421084939e+00
-1.396889500513996e-19  1.216159721826768e-18  4.079268093573243e-01
-1.000359421084939e+00  4.079268093573243e-01  7.895364171261309e-18

 1.049822162025355e-17 -1.076589399325279e-19 -1.002344754437464e+00
-1.076589399325279e-19  2.130126847648380e-17  4.124838299295744e-01
-1.002344754437464e+00  4.124838299295744e-01  7.963096978660935e-18

 1.061839007596641e-17 -1.828557368030739e-19 -1.006707220714050e+00
-1.828557368030739e-19  4.708306334247171e-18  4.272637243922516e-01
-1.006707220714050e+00  4.272637243922516e-01  8.108374848179616e-18

 1.059345425021249e-17 -1.525062193328075e-19 -1.005414773447716e+00
-1.525062193328075e-19 -5.065824274751162e-18  4.240322917480936e-01
-1.005414773447716e+00  4.240322917480936e-01  8.036585257569440e-18

 1.073562363792235e-17 -1.049586607183961e-19 -1.009469179613413e+00
-1.049586607183961e-19  1.760249732985176e-17  4.079974819187564e-01
-1.009469179613413e+00  4.079974819187564e-01  8.434008687303189e-18

 1.064078181751697e-17 -1.583304707705531e-19 -1.005809127143080e+00
-1.583304707705531e-19  5.801190119849204e-18  4.098041758435673e-01
-1.005809127143080e+00  4.098041758435673e-01  8.202679866583997e-18

 1.088215452446747e-17 -1.205425711960312e-19 -1.015245168557110e+00
-1.205425711960312e-19  3.205909934751074e-17  4.190722407345020e-01
-1.015245168557110e+00  4.190722407345020e-01  8.729674667274930e-18

 1.037367980036420e-17 -1.335826330230110e-19 -9.935177890545061e-01
-1.335826330230110e-19  1.064175944595866e-17  4.399022618438129e-01
-9.935177890545061e-01  4.399022618438129e-01  7.161431464253411e-18

 1.131059281858179e-17 -1.500793173324700e-19 -1.027962166379730e+00
-1.500793173324700e-19  1.917267148590163e-17  3.745667841025502e-01
-1.027962166379730e+00  3.745667841025502e-01  1.017941926656573e-17

 1.078769209306702e-17 -1.238206605768597e-19 -1.006921695523078e+00
-1.238206605768597e-19  3.054059691226688e-17  3.919673410667447e-01
-1.006921695523078e+00  3.919673410667447e-01  8.638502931154047e-18

 9.962358484991037e-18 -1.395981659704443e-19 -9.721515985044348e-01
-1.395981659704443e-19  1.439214708566042e-17  4.455020354123363e-01
-9.721515985044348e-01  4.455020354123363e-01  5.853777598205396e-18

 1.075676579087076e-17 -1.378928729172717e-19 -1.005900094237439e+00
-1.378928729172717e-19 -2.066274327144942e-17  4.218887284498581e-01
-1.005900094237439e+00  4.218887284498581e-01  8.263336742896633e-18

 1.112601926872623e-17 -1.105475985003960e-19 -1.019849681504246e+00
-1.105475985003960e-19  1.376442994636059e-17  4.068255149506871e-01
-1.019849681504246e+00  4.068255149506871e-01  9.251393521319720e-18

 1.089779638855733e-17 -1.334827425803497e-19 -1.011077484505226e+00
-1.334827425803497e-19 -8.845897483520360e-18  4.124535984368594e-01
-1.011077484505226e+00  4.124535984368594e-01  8.609662080323469e-18

 1.057047883395894e-17 -1.246785529716305e-19 -9.975593416381406e-01
-1.246785529716305e-19 -1.062157996940816e-18  4.214840806527812e-01
-9.975593416381406e-01  4.214840806527812e-01  7.631669774814130e-18

 1.072247104379249e-17 -9.558004692752648e-20 -1.003335977698367e+00
-9.558004692752648e-20  3.284111241691293e-17  4.164700439419010e-01
-1.003335977698367e+00  4.164700439419010e-01  8.077823736455022e-18

 1.096876290441698e-17 -1.097935119040657e-19 -1.012699891730368e+00
-1.097935119040657e-19  3.193942744087127e-17  4.109365333407886e-01
-1.012699891730368e+00  4.109365333407886e-01  8.708342035925476e-18

 1.099436477718157e-17 -1.187987594165423e-19 -1.013986000528527e+00
-1.187987594165423e-19  1.545479989922462e-17  4.085228775998836e-01
-1.013986000528527e+00  4.085228775998836e-01  8.802292784297911e-18

 1.069754952079942e-17 -9.630969179106886e-20 -1.001856946047546e+00
-9.630969179106886e-20  5.234125638023742e-17  4.211975890363582e-01
-1.001856946047546e+00  4.211975890363582e-01  7.870985470305936e-18

 1.094977386583937e-17 -1.086543869430562e-19 -1.011765620369095e+00
-1.086543869430562e-19  1.011384179170242e-18  4.114629138610565e-01
-1.011765620369095e+00  4.114629138610565e-01  8.611882172848200e-18

 1.080516835300596e-17 -1.045488946663653e-19 -1.004995771819031e+00
-1.045488946663653e-19  7.574580328475890e-18  4.170596730921947e-01
-1.004995771819031e+00  4.170596730921947e-01  8.139582086822394e-18

 1.079535272649373e-17 -9.348584824193755e-20 -1.004274550410658e+00
-9.348584824193755e-20  1.742831733330836e-17  4.144361470777193e-01
-1.004274550410658e+00  4.144361470777193e-01  8.077421887938349e-18

 1.103113409330806e-17 -9.383639455860419e-20 -1.014197043720398e+00
-9.383639455860419e-20 -6.513458304708731e-18  4.153572981806927e-01
-1.014197043720398e+00  4.153572981806927e-01  8.635220069993679e-18

 1.120294696879932e-17 -9.103184460320487e-20 -1.020736695898095e+00
-9.103184460320487e-20 -1.803645284268611e-17  4.180503948021184e-01
-1.020736695898095e+00  4.180503948021184e-01  9.046703198328790e-18

 1.042574116704817e-17 -7.255998900169729e-20 -9.878490727798236e-01
-7.255998900169729e-20  1.218149716615787e-17  4.455922107746670e-01
-9.878490727798236e-01  4.455922107746670e-01  6.766108622942907e-18

 1.033412251596994e-17 -9.943099479205648e-20 -9.793823789757224e-01
-9.943099479205648e-20  1.310561609423482e-17  3.998600771265752e-01
-9.793823789757224e-01  3.998600771265752e-01  6.926960778938572e-18

 1.029576840994018e-17 -4.955554724882621e-20 -9.805193113546905e-01
-4.955554724882621e-20  3.884562824240650e-17  4.034498872186373e-01
-9.805193113546905e-01  4.034498872186373e-01  6.679040051567526e-18

 1.152481120106878e-17 -1.517676915062833e-19 -1.034897656132991e+00
-1.517676915062833e-19  1.675293622350061e-18  4.428957830009508e-01
-1.034897656132991e+00  4.428957830009508e-01  9.583519460600460e-18

 1.138605059014309e-17 -7.595050480250127e-20 -1.031363563295155e+00
-7.595050480250127e-20  2.873763936491521e-17  4.309632132220477e-01
-1.031363563295155e+00  4.309632132220477e-01  9.197084828862594e-18

 1.150750190491408e-17 -1.308813989719554e-19 -1.031813734485493e+00
-1.308813989719554e-19 -2.135430937629947e-17  3.800558093699696e-01
-1.031813734485493e+00  3.800558093699696e-01  9.908720968934432e-18

 1.079324268971392e-17 -1.023379928931737e-19 -1.003521805714410e+00
-1.023379928931737e-19  1.655422045690498e-17  4.075504476164877e-01
-1.003521805714410e+00  4.075504476164877e-01  7.819047084140288e-18

 1.056915613329509e-17 -1.088674669113499e-19 -9.945737010196974e-01
-1.088674669113499e-19  2.460071621011474e-18  4.409999787507430e-01
-9.945737010196974e-01  4.409999787507430e-01  6.936778527697731e-18

 1.093201084332862e-17 -1.136126775550638e-19 -1.010011829421655e+00
-1.136126775550638e-19  2.314567930741233e-17  4.324480109267601e-01
-1.010011829421655e+00  4.324480109267601e-01  7.991038557802985e-18

 1.100375906459085e-17 -1.133528195368561e-19 -1.011731637090362e+00
-1.133528195368561e-19  5.356521742258099e-18  4.201997677624917e-01
-1.011731637090362e+00  4.201997677624917e-01  8.254547864820541e-18

 1.096104504624963e-17 -1.145758472156380e-19 -1.008516068514719e+00
-1.145758472156380e-19  8.596267353634667e-18  4.222665946052088e-01
-1.008516068514719e+00  4.222665946052088e-01  8.101806001746225e-18

 1.091071300292797e-17 -1.128383967868391e-19 -1.006042738084593e+00
-1.128383967868391e-19 -1.568119031765881e-18  4.158609167533238e-01
-1.006042738084593e+00  4.158609167533238e-01  8.008139118387144e-18

 1.130067799642529e-17 -1.246146836401716e-19 -1.022552572063817e+00
-1.246146836401716e-19  1.538828931553306e-17  4.347198327946709e-01
-1.022552572063817e+00  4.347198327946709e-01  8.916697558174327e-18

 1.044373668386776e-17 -4.375177956052485e-20 -9.882068574862344e-01
-4.375177956052485e-20  3.472652225333546e-17  4.739303349797804e-01
-9.882068574862344e-01  4.739303349797804e-01  6.329893978782583e-18

 1.048682590956190e-17 -1.649764132333432e-19 -9.820129975744984e-01
-1.649764132333432e-19  3.364271953289156e-17  3.924360195655533e-01
-9.820129975744984e-01  3.924360195655533e-01  7.149241137143900e-18

 1.020313995359249e-17 -2.181503811451415e-20 -9.742650107741329e-01
-2.181503811451415e-20  5.151531558814920e-17  3.865312681739552e-01
-9.742650107741329e-01  3.865312681739552e-01  6.302380303261892e-18

 1.186586290103115e-17 -2.468055252081830e-19 -1.046010218699041e+00
-2.468055252081830e-19  6.649939823688098e-18  4.363188259656359e-01
-1.046010218699041e+00  4.363188259656359e-01  1.032945773874682e-17

 1.198215334471702e-17 -9.048924548819838e-21 -1.054592024728555e+00
-9.048924548819838e-21  6.245220340631573e-17  4.313856394455539e-01
-1.054592024728555e+00  4.313856394455539e-01  1.058531996363798e-17

 1.111809292078603e-17 -1.848674397132121e-19 -1.008273141012770e+00
-1.848674397132121e-19  1.920670836114325e-17  3.636291478195733e-01
-1.008273141012770e+00  3.636291478195733e-01  8.918459145788010e-18

 1.093309544752958e-17 -8.905784653394545e-20 -1.001619235611765e+00
-8.905784653394545e-20 -8.867600024852422e-19  3.752846303879314e-01
-1.001619235611765e+00  3.752846303879314e-01  8.344271176653556e-18

 1.087926639412161e-17 -1.570714652623233e-19 -1.000121070175365e+00
-1.570714652623233e-19  3.429264941547817e-17  4.456333449060199e-01
-1.000121070175365e+00  4.456333449060199e-01  7.687931719955379e-18

 1.120788274131448e-17 -1.054115303096708e-19 -1.014924677752629e+00
-1.054115303096708e-19  4.241452054929661e-17  4.174997752299843e-01
-1.014924677752629e+00  4.174997752299843e-01  8.660223958371328e-18

 1.115307919705747e-17 -1.267779166080293e-19 -1.012456543081586e+00
-1.267779166080293e-19 -2.142791463705557e-17  4.181457047413104e-01
-1.012456543081586e+00  4.181457047413104e-01  8.490347790370180e-18

 1.110106960046674e-17 -8.968878132759951e-20 -1.009374033027966e+00
-8.968878132759951e-20  2.243265019006272e-17  4.167026500290648e-01
-1.009374033027966e+00  4.167026500290648e-01  8.341144535993297e-18

 1.113594286358226e-17 -1.130570577577644e-19 -1.010703405549323e+00
-1.130570577577644e-19 -1.525553554134048e-17  4.185615196372959e-01
-1.010703405549323e+00  4.185615196372959e-01  8.413318122830487e-18

 1.120326935025695e-17 -9.312613181063592e-20 -1.013171754917121e+00
-9.312613181063592e-20 -1.940085820485146e-17  4.152161643340433e-01
-1.013171754917121e+00  4.152161643340433e-01  8.600702630083483e-18

 1.122629849760701e-17 -1.005998623214523e-19 -1.014512313255495e+00
-1.005998623214523e-19 -1.994293015136874e-18  4.142156742263925e-01
-1.014512313255495e+00  4.142156742263925e-01  8.666519644450340e-18

 1.119793063892556e-17 -1.497594738921314e-19 -1.012827989468893e+00
-1.497594738921314e-19 -1.865018438801904e-17  4.178208480383123e-01
-1.012827989468893e+00  4.178208480383123e-01  8.478114665034713e-18

 1.125655602711333e-17 -1.027946685086841e-19 -1.015759231630989e+00
-1.027946685086841e-19 -1.716793411548038e-17  4.147406655184098e-01
-1.015759231630989e+00  4.147406655184098e-01  8.715654044219053e-18

 1.124679356782055e-17  2.822495593905271e-20 -1.015343548749680e+00
 2.822495593905271e-20  8.507457304607974e-17  4.185249047900565e-01
-1.015343548749680e+00  4.185249047900565e-01  8.646797933287845e-18

 1.121091607532142e-17 -5.481019124840871e-20 -1.013508468039674e+00
-5.481019124840871e-20  4.904475957995025e-17  4.161669668513703e-01
-1.013508468039674e+00  4.161669668513703e-01  8.569200688765174e-18

 1.112221710107215e-17 -9.513734584769973e-20 -1.008758580577565e+00
-9.513734584769973e-20 -5.145533393004866e-18  4.148787891515598e-01
-1.008758580577565e+00  4.148787891515598e-01  8.329936297800749e-18

 1.115479298877031e-17 -7.294398344733786e-20 -1.010141811459075e+00
-7.294398344733786e-20 -4.134405160360901e-18  4.154832838135848e-01
-1.010141811459075e+00  4.154832838135848e-01  8.407630615705290e-18

 1.123947703159153e-17 -9.979271150118506e-20 -1.014155169318520e+00
-9.979271150118506e-20 -3.047447886225446e-17  4.159617748315503e-01
-1.014155169318520e+00  4.159617748315503e-01  8.619849198904772e-18

 1.118492062274837e-17 -6.212394515406105e-20 -1.011121498111247e+00
-6.212394515406105e-20  2.328901497281938e-17  4.220384665061829e-01
-1.011121498111247e+00  4.220384665061829e-01  8.345687321453493e-18

 1.124309711841796e-17  3.026351447955016e-20 -1.024217898708659e+00
 3.026351447955016e-20  1.239242425769536e-17  4.525379612771870e-01
-1.024217898708659e+00  4.525379612771870e-01  8.400408709030007e-18

 1.125418391899076e-17  3.867079326292906e-20 -1.022900419388924e+00
 3.867079326292906e-20  1.310847795482194e-17  4.227946621103066e-01
-1.022900419388924e+00  4.227946621103066e-01  8.728848543498647e-18

 1.144009184947107e-17  2.646350631274230e-20 -1.031377647342687e+00
 2.646350631274230e-20  1.250081664888386e-17  4.383293054898947e-01
-1.031377647342687e+00  4.383293054898947e-01  9.108354570503983e-18

 1.139224467506711e-17  5.556837959676840e-20 -1.027023643843836e+00
 5.556837959676840e-20  1.333692745213770e-17  4.114459440939470e-01
-1.027023643843836e+00  4.114459440939470e-01  9.136567599188687e-18

 1.093282124851394e-17  4.740420494779414e-20 -1.007124067373783e+00
 4.740420494779414e-20  1.319566117831974e-17  4.223907760633479e-01
-1.007124067373783e+00  4.223907760633479e-01  7.927115463273161e-18

 1.094158157321858e-17  3.296864262464563e-20 -1.006497465035434e+00
 3.296864262464563e-20  1.317237289378891e-17  4.299238161526901e-01
-1.006497465035434e+00  4.299238161526901e-01  7.928492304571245e-18

 1.105836444479238e-17  2.544280704789109e-20 -1.011244996361828e+00
 2.544280704789109e-20  1.275848720038488e-17  4.314103659227767e-01
-1.011244996361828e+00  4.314103659227767e-01  8.181707529887783e-18

 1.108033149532592e-17  1.849459259468251e-20 -1.013049356333625e+00
 1.849459259468251e-20  1.390246077836780e-17  4.323899164463327e-01
-1.013049356333625e+00  4.323899164463327e-01  8.291373608084030e-18

 1.112987076074456e-17  1.939672326014841e-20 -1.015548067483237e+00
 1.939672326014841e-20  1.444630427480841e-17  4.305580474464996e-01
-1.015548067483237e+00  4.305580474464996e-01  8.430497360926299e-18

 1.110735570688076e-17  2.448960392124722e-20 -1.014510904939305e+00
 2.448960392124722e-20  1.334104171629166e-17  4.292068354511853e-01
-1.014510904939305e+00  4.292068354511853e-01  8.383742711454460e-18

 1.104210814286494e-17  2.995838491424108e-20 -1.011472243010041e+00
 2.995838491424108e-20  1.375277201403463e-17  4.299287534168786e-01
-1.011472243010041e+00  4.299287534168786e-01  8.222099652717202e-18

 1.101123888254121e-17  2.270964270515719e-20 -1.009967385611585e+00
 2.270964270515719e-20  1.406412768814216e-17  4.288086775355759e-01
-1.009967385611585e+00  4.288086775355759e-01  8.156501375092200e-18

 1.102764331786411e-17  1.478640343311789e-20 -1.011629898221142e+00
 1.478640343311789e-20  1.271378701520873e-17  4.311437238486208e-01
-1.011629898221142e+00  4.311437238486208e-01  8.200135203353567e-18

 1.105251947922820e-17  1.172304214632879e-20 -1.013729523899130e+00
 1.172304214632879e-20  1.334393331615864e-17  4.330391121902760e-01
-1.013729523899130e+00  4.330391121902760e-01  8.249366271371444e-18

 1.101976721558419e-17  1.061181889007104e-20 -1.013223505288235e+00
 1.061181889007104e-20  1.289484337413510e-17  4.325262377889624e-01
-1.013223505288235e+00  4.325262377889624e-01  8.150422614947246e-18

 1.104905520667842e-17  2.091285199292486e-20 -1.014843305008709e+00
 2.091285199292486e-20  1.351821571577553e-17  4.280095693624764e-01
-1.014843305008709e+00  4.280095693624764e-01  8.257270113773036e-18

 1.124521278170273e-17  2.147731738203942e-20 -1.022469918440124e+00
 2.147731738203942e-20  1.412023169177281e-17  4.221331517236415e-01
-1.022469918440124e+00  4.221331517236415e-01  8.831149563928955e-18

 1.100058485115204e-17  2.013982929241244e-20 -1.013114021963120e+00
 2.013982929241244e-20  1.369917727633302e-17  4.367926835404144e-01
-1.013114021963120e+00  4.367926835404144e-01  8.048654853881031e-18

 1.102038138678468e-17  3.099845692989594e-20 -1.013760963865488e+00
 3.099845692989594e-20  1.378183488846936e-17  4.368929203583930e-01
-1.013760963865488e+00  4.368929203583930e-01  8.093793870727982e-18

 1.096887419011977e-17  3.753413017052664e-20 -1.010536117650771e+00
 3.753413017052664e-20  1.361576781706764e-17  4.300185017481053e-01
-1.010536117650771e+00  4.300185017481053e-01  8.047394092729444e-18

 1.085239513198209e-17  4.092159462155239e-20 -1.004946113762508e+00
 4.092159462155239e-20  1.319639457241469e-17  4.278761619591034e-01
-1.004946113762508e+00  4.278761619591034e-01  7.760805621645670e-18

 1.095097014743879e-17  4.211842784561761e-20 -1.009818653018044e+00
 4.211842784561761e-20  1.307153395478036e-17  4.265301984168000e-01
-1.009818653018044e+00  4.265301984168000e-01  8.033561224080834e-18

 1.107136817124862e-17  4.288570613572582e-20 -1.015756431032260e+00
 4.288570613572582e-20  1.254146375372049e-17  4.297994410004312e-01
-1.015756431032260e+00  4.297994410004312e-01  8.326650737104888e-18

 1.119738649997356e-17  3.932827724532163e-20 -1.022321034418197e+00
 3.932827724532163e-20  1.189979758804764e-17  4.369891082815944e-01
-1.022321034418197e+00  4.369891082815944e-01  8.603884589349774e-18

 1.114914283735891e-17  4.427331936143461e-20 -1.019849546065387e+00
 4.427331936143461e-20  1.366078190201344e-17  4.288974241529380e-01
-1.019849546065387e+00  4.288974241529380e-01  8.541579405911904e-18

 1.116151232879787e-17  5.089305012026406e-20 -1.020235003364157e+00
 5.089305012026406e-20  1.433112378620994e-17  4.179768772360138e-01
-1.020235003364157e+00  4.179768772360138e-01  8.686731646843300e-18

 1.095358858849060e-17  4.800357642234311e-20 -1.011506610975714e+00
 4.800357642234311e-20  1.330660820133886e-17  4.297740236353698e-01
-1.011506610975714e+00  4.297740236353698e-01  8.067110592187416e-18

 1.106734454945754e-17  4.784796653644651e-20 -1.016531517984975e+00
 4.784796653644651e-20  1.246571889618506e-17  4.301449182583964e-01
-1.016531517984975e+00  4.301449182583964e-01  8.393566797558944e-18

 1.103229154104383e-17  4.629113031075563e-20 -1.015566081687284e+00
 4.629113031075563e-20  1.361620479554017e-17  4.260406976262576e-01
-1.015566081687284e+00  4.260406976262576e-01  8.357590852245031e-18

 1.095468614497777e-17  4.826370194813650e-20 -1.012657453506631e+00
 4.826370194813650e-20  1.434764309033824e-17  4.299198585980630e-01
-1.012657453506631e+00  4.299198585980630e-01  8.143671994685101e-18

 1.095480614064061e-17  4.845114032997384e-20 -1.013073508248324e+00
 4.845114032997384e-20  1.364207565742910e-17  4.312155579908837e-01
-1.013073508248324e+00  4.312155579908837e-01  8.149021108785479e-18

 1.086572614586699e-17  4.661602078887328e-20 -1.009526443996575e+00
 4.661602078887328e-20  1.352115769087396e-17  4.289316151264808e-01
-1.009526443996575e+00  4.289316151264808e-01  7.932003572008334e-18

 1.129357244119655e-17  4.520660492656055e-20 -1.027209331857804e+00
 4.520660492656055e-20  1.276547168262360e-17  4.125128087972498e-01
-1.027209331857804e+00  4.125128087972498e-01  9.216497622460463e-18

 1.156782659460038e-17  4.511123940456906e-20 -1.038435594957131e+00
 4.511123940456906e-20  1.354927083254958e-17  4.114485439743337e-01
-1.038435594957131e+00  4.114485439743337e-01  1.000757750583773e-17

 1.033017659849801e-17  5.177426153294754e-20 -9.889810916301572e-01
 5.177426153294754e-20  1.090464065899502e-17  4.698881940559070e-01
-9.889810916301572e-01  4.698881940559070e-01  6.141976359719239e-18

 1.064095114547461e-17  3.207158336364113e-20 -1.001526344490967e+00
 3.207158336364113e-20  1.190416130575504e-17  4.582558279036605e-01
-1.001526344490967e+00  4.582558279036605e-01  7.140011870086436e-18

 1.112413700669043e-17  6.892754989812009e-20 -1.020296907665748e+00
 6.892754989812009e-20  1.392929668061980e-17  3.961412633987697e-01
-1.020296907665748e+00  3.961412633987697e-01  8.949478520612472e-18

 1.093009370938219e-17  5.144559044855035e-20 -1.012810539803652e+00
 5.144559044855035e-20  1.356858781121185e-17  4.153661834756414e-01
-1.012810539803652e+00  4.153661834756414e-01  8.281532392565778e-18

 1.104041639245648e-17  7.134772676506228e-20 -1.019872255137962e+00
 7.134772676506228e-20  1.237493746395990e-17  4.438540200434008e-01
-1.019872255137962e+00  4.438540200434008e-01  8.364428688788661e-18

 1.112471542135548e-17  5.839570977031628e-20 -1.022790557208173e+00
 5.839570977031628e-20  1.312343832051331e-17  4.249580963601037e-01
-1.022790557208173e+00  4.249580963601037e-01  8.721216655626746e-18

 1.091425644313573e-17  5.985674177642887e-20 -1.014433967367759e+00
 5.985674177642887e-20  1.349382144465342e-17  4.278658364006621e-01
-1.014433967367759e+00  4.278658364006621e-01  8.202034742999381e-18

 1.093645989018490e-17  5.889220904100207e-20 -1.016102637079403e+00
 5.889220904100207e-20  1.291983000217617e-17  4.257066008055781e-01
-1.016102637079403e+00  4.257066008055781e-01  8.322244910169504e-18

 1.089664367106309e-17  5.881250513553931e-20 -1.015254436859167e+00
 5.881250513553931e-20  1.292259248736013e-17  4.314294920060681e-01
-1.015254436859167e+00  4.314294920060681e-01  8.180554178413793e-18

 1.093228548487541e-17  5.743478959824892e-20 -1.017226916491734e+00
 5.743478959824892e-20  1.348383635412043e-17  4.286397994211777e-01
-1.017226916491734e+00  4.286397994211777e-01  8.311085043123105e-18

 1.144819492926347e-17  5.691928138782618e-20 -1.037826326554012e+00
 5.691928138782618e-20  1.386151470481758e-17  4.106239382540515e-01
-1.037826326554012e+00  4.106239382540515e-01  9.807572513310953e-18

 1.100130496463017e-17  5.788839729167766e-20 -1.020303633915655e+00
 5.788839729167766e-20  1.305645777726794e-17  4.279911695673819e-01
-1.020303633915655e+00  4.279911695673819e-01  8.515042292806278e-18

 1.057922883938956e-17  6.127687919762939e-20 -1.003735473063943e+00
 6.127687919762939e-20  1.238377176670626e-17  4.476832360339433e-01
-1.003735473063943e+00  4.476832360339433e-01  7.154818614340983e-18

 1.102011544990943e-17  5.688732897850914e-20 -1.021870345967093e+00
 5.688732897850914e-20  1.317909974207984e-17  4.307184807528211e-01
-1.021870345967093e+00  4.307184807528211e-01  8.519872525481743e-18

 1.107455076321325e-17  5.567500278788610e-20 -1.024777173501121e+00
 5.567500278788610e-20  1.340308300370048e-17  4.231778679442900e-01
-1.024777173501121e+00  4.231778679442900e-01  8.792939878426146e-18

 1.094705990824757e-17  5.430135270153397e-20 -1.019898733932203e+00
 5.430135270153397e-20  1.257236594693800e-17  4.295804601046262e-01
-1.019898733932203e+00  4.295804601046262e-01  8.395680574231549e-18

 1.094907798374815e-17  5.373378373469750e-20 -1.020203284557415e+00
 5.373378373469750e-20  1.367936110237386e-17  4.284903220137437e-01
-1.020203284557415e+00  4.284903220137437e-01  8.468579831543906e-18

 1.092195859628691e-17  5.119813596734049e-20 -1.019422568619433e+00
 5.119813596734049e-20  1.336941556904519e-17  4.281059631064582e-01
-1.019422568619433e+00  4.281059631064582e-01  8.415598162056834e-18

 1.089775978404497e-17  5.006923869821960e-20 -1.019638143373797e+00
 5.006923869821960e-20  1.343670407575631e-17  4.280156029096145e-01
-1.019638143373797e+00  4.280156029096145e-01  8.401796301232764e-18

 1.093649338640337e-17  4.628114064706475e-20 -1.022610001129140e+00
 4.628114064706475e-20  1.333993995382058e-17  4.291399132657305e-01
-1.022610001129140e+00  4.291399132657305e-01  8.508967875528923e-18

 1.097423709311725e-17  4.621517411656834e-20 -1.024880708996835e+00
 4.621517411656834e-20  1.323388602240968e-17  4.279889198739688e-01
-1.024880708996835e+00  4.279889198739688e-01  8.657774942127030e-18

 1.099751254195126e-17  4.476674296012566e-20 -1.026156799183991e+00
 4.476674296012566e-20  1.207692573768155e-17  4.292902645302464e-01
-1.026156799183991e+00  4.292902645302464e-01  8.658993069210465e-18

 1.115919859784790e-17  4.136556383314500e-20 -1.033723215118931e+00
 4.136556383314500e-20  1.305890063015531e-17  4.246008256916586e-01
-1.033723215118931e+00  4.246008256916586e-01  9.209994932148193e-18

 1.103633473145188e-17  4.107839687027023e-20 -1.028476874187198e+00
 4.107839687027023e-20  1.282144069401866e-17  4.302799249344327e-01
-1.028476874187198e+00  4.302799249344327e-01  8.861697201346734e-18

 1.081662117064149e-17  4.047482383344612e-20 -1.020174928238544e+00
 4.047482383344612e-20  1.262784824246061e-17  4.406569114163209e-01
-1.020174928238544e+00  4.406569114163209e-01  8.177957411797882e-18

 1.071456241078278e-17  3.596170171862630e-20 -1.015527634567209e+00
 3.596170171862630e-20  1.233876211767433e-17  4.406078386095428e-01
-1.015527634567209e+00  4.406078386095428e-01  7.945609724809617e-18

 1.088739462753190e-17  4.372156034345470e-20 -1.022846567929292e+00
 4.372156034345470e-20  1.305967284762942e-17  4.260427318621404e-01
-1.022846567929292e+00  4.260427318621404e-01  8.536997350432161e-18

 1.082652544728836e-17  3.803192130726415e-20 -1.020413423182344e+00
 3.803192130726415e-20  1.380464693797451e-17  4.201511545390793e-01
-1.020413423182344e+00  4.201511545390793e-01  8.489738707576960e-18

 1.067144073599308e-17  3.848683124051261e-20 -1.014784834394838e+00
 3.848683124051261e-20  1.259353463686981e-17  4.358727563379833e-01
-1.014784834394838e+00  4.358727563379833e-01  7.959102430672599e-18

 1.072019181752741e-17  3.586493298250992e-20 -1.017867863057625e+00
 3.586493298250992e-20  1.376360420248834e-17  4.396829435991186e-01
-1.017867863057625e+00  4.396829435991186e-01  8.096750326433107e-18

 1.084634397206435e-17  3.372720750330717e-20 -1.023413175668104e+00
 3.372720750330717e-20  1.443349303632105e-17  4.291073533437671e-01
-1.023413175668104e+00  4.291073533437671e-01  8.531177588499355e-18

 1.075319071825292e-17  3.772215470592506e-20 -1.020473371263237e+00
 3.772215470592506e-20  1.354619379667082e-17  4.291298761866646e-01
-1.020473371263237e+00  4.291298761866646e-01  8.345115853756191e-18

 1.073959011180826e-17  4.153613541027345e-20 -1.019893996903362e+00
 4.153613541027345e-20  1.302150672583896e-17  4.290604809951515e-01
-1.019893996903362e+00  4.290604809951515e-01  8.330667945474207e-18

 1.072728498687516e-17  4.709913515629721e-20 -1.020116619087772e+00
 4.709913515629721e-20  1.192639452191211e-17  4.290476978274952e-01
-1.020116619087772e+00  4.290476978274952e-01  8.369551739303811e-18

 1.068770807040008e-17  4.801560406759321e-20 -1.018572525782723e+00
 4.801560406759321e-20  1.225234386085031e-17  4.289661838375026e-01
-1.018572525782723e+00  4.289661838375026e-01  8.327516709235322e-18

 1.065573242013751e-17  4.869231806603509e-20 -1.017067276929187e+00
 4.869231806603509e-20  1.235500843871261e-17  4.257729471115789e-01
-1.017067276929187e+00  4.257729471115789e-01  8.295766106335892e-18

 1.064789132474657e-17  5.068668287242702e-20 -1.017505919131998e+00
 5.068668287242702e-20  1.315330614544412e-17  4.277385344928616e-01
-1.017505919131998e+00  4.277385344928616e-01  8.329093257694419e-18

 1.061061201284984e-17  5.328375317752690e-20 -1.016182585199363e+00
 5.328375317752690e-20  1.224360503658363e-17  4.292385859115743e-01
-1.016182585199363e+00  4.292385859115743e-01  8.270929784773548e-18

 1.056713468730280e-17  5.547107754946962e-20 -1.013909785327052e+00
 5.547107754946962e-20  1.320012313406087e-17  4.249252182087516e-01
-1.013909785327052e+00  4.249252182087516e-01  8.269895137200579e-18

 1.047901395766028e-17  5.249811645984851e-20 -1.009809439972751e+00
 5.249811645984851e-20  1.303792988647271e-17  4.252050988052976e-01
-1.009809439972751e+00  4.252050988052976e-01  8.081966765776774e-18

 1.044139814199040e-17  4.810052576926860e-20 -1.009392332170769e+00
 4.810052576926860e-20  1.212550986498636e-17  4.252374182704632e-01
-1.009392332170769e+00  4.252374182704632e-01  8.079433067793653e-18

 1.047978185844666e-17  4.286169483212643e-20 -1.012440418940729e+00
 4.286169483212643e-20  1.195397085015497e-17  4.264488241900828e-01
-1.012440418940729e+00  4.264488241900828e-01  8.214917395262958e-18

 1.049657738093742e-17  3.997096066246246e-20 -1.014366786021582e+00
 3.997096066246246e-20  1.245921087631413e-17  4.255558764225717e-01
-1.014366786021582e+00  4.255558764225717e-01  8.337523822801415e-18

 1.044075946665555e-17  3.811436415452259e-20 -1.013772743469508e+00
 3.811436415452259e-20  1.189260318065367e-17  4.249973646728452e-01
-1.013772743469508e+00  4.249973646728452e-01  8.263399471920651e-18

 1.041620899750850e-17  3.691059642009861e-20 -1.013691309789398e+00
 3.691059642009861e-20  1.288729633516253e-17  4.242631118948754e-01
-1.013691309789398e+00  4.242631118948754e-01  8.256058914321480e-18

 1.041058527541545e-17  3.617081437317500e-20 -1.014398365897685e+00
 3.617081437317500e-20  1.240172563543674e-17  4.252277674651588e-01
-1.014398365897685e+00  4.252277674651588e-01  8.286825101505215e-18

 1.039059610851070e-17  3.422006472751780e-20 -1.014498450793406e+00
 3.422006472751780e-20  1.257003292335462e-17  4.271323772944360e-01
-1.014498450793406e+00  4.271323772944360e-01  8.259815224976208e-18

 1.034074228917420e-17  3.684815476910711e-20 -1.013033185070709e+00
 3.684815476910711e-20  1.234958479167089e-17  4.262273286115469e-01
-1.013033185070709e+00  4.262273286115469e-01  8.217174124451339e-18

 1.024610847015400e-17  3.556272762751162e-20 -1.009450577807214e+00
 3.556272762751162e-20  1.222453503603765e-17  4.247230275714104e-01
-1.009450577807214e+00  4.247230275714104e-01  8.020219712635245e-18

 1.019044220075726e-17  3.402359022746848e-20 -1.009221704295846e+00
 3.402359022746848e-20  1.193599078479113e-17  4.238022019995351e-01
-1.009221704295846e+00  4.238022019995351e-01  7.983101017383447e-18

 1.035422847172956e-17  3.276659255846787e-20 -1.018626909652571e+00
 3.276659255846787e-20  1.186803740338563e-17  4.288912174852385e-01
-1.018626909652571e+00  4.288912174852385e-01  8.454797472646656e-18

 1.022737991943360e-17  3.139059402434087e-20 -1.014755469833552e+00
 3.139059402434087e-20  1.210382617921178e-17  4.366001576240376e-01
-1.014755469833552e+00  4.366001576240376e-01  8.108327162118120e-18

 1.026140262587328e-17  3.252546470019226e-20 -1.016279078536979e+00
 3.252546470019226e-20  1.269040906872665e-17  4.155083067341909e-01
-1.016279078536979e+00  4.155083067341909e-01  8.431692919255082e-18

 1.048873039684652e-17  2.724729273624900e-20 -1.025829868942528e+00
 2.724729273624900e-20  1.378348084192205e-17  4.048635620413111e-01
-1.025829868942528e+00  4.048635620413111e-01  9.174147929412670e-18

 1.003349219452008e-17  3.149060389525054e-20 -1.007956850246697e+00
 3.149060389525054e-20  1.101454922833444e-17  4.289887911907471e-01
-1.007956850246697e+00  4.289887911907471e-01  7.784683202068211e-18

 9.985134881528557e-18  3.305508103929852e-20 -1.007692303303824e+00
 3.305508103929852e-20  1.200998508836116e-17  4.402985450615320e-01
-1.007692303303824e+00  4.402985450615320e-01  7.604707575882410e-18

 1.021294953262470e-17  3.064699700160929e-20 -1.017577069364130e+00
 3.064699700160929e-20  1.199094505925272e-17  4.274871344877767e-01
-1.017577069364130e+00  4.274871344877767e-01  8.387940080142757e-18

 1.019404288550383e-17  2.824108584373931e-20 -1.017386345818099e+00
 2.824108584373931e-20  1.215895542132014e-17  4.198607099819137e-01
-1.017386345818099e+00  4.198607099819137e-01  8.457364384814596e-18

 1.003576303965606e-17  2.548905662396982e-20 -1.011978158288273e+00
 2.548905662396982e-20  1.203174679628014e-17  4.243285435620864e-01
-1.011978158288273e+00  4.243285435620864e-01  8.097877789857413e-18

 1.005047748193937e-17  2.269553180320019e-20 -1.013780311274738e+00
 2.269553180320019e-20  1.167438549550770e-17  4.253393920700483e-01
-1.013780311274738e+00  4.253393920700483e-01  8.185488966264389e-18

 1.002588412686454e-17  2.092513921794149e-20 -1.015309190902458e+00
 2.092513921794149e-20  1.180757841843209e-17  4.251121025099984e-01
-1.015309190902458e+00  4.251121025099984e-01  8.260131076325644e-18

 9.969701453058358e-18  1.969429375176592e-20 -1.015216742018854e+00
 1.969429375176592e-20  1.173432420500253e-17  4.249776372588661e-01
-1.015216742018854e+00  4.249776372588661e-01  8.223990358928953e-18

 9.955466266338999e-18  1.807139682782138e-20 -1.015624412924043e+00
 1.807139682782138e-20  1.174996240128978e-17  4.247249597518680e-01
-1.015624412924043e+00  4.247249597518680e-01  8.226399022395877e-18

 9.870667037083647e-18  1.611752640434486e-20 -1.013908493156259e+00
 1.611752640434486e-20  1.162936815596457e-17  4.251704170418795e-01
-1.013908493156259e+00  4.251704170418795e-01  8.146527035044763e-18

 9.851007773125516e-18  1.748826381884843e-20 -1.015703107026793e+00
 1.748826381884843e-20  1.190876625692332e-17  4.234890410068952e-01
-1.015703107026793e+00  4.234890410068952e-01  8.241416111585196e-18

 9.815258576684226e-18  1.670100418765978e-20 -1.015674651074111e+00
 1.670100418765978e-20  1.223942619642161e-17  4.260431166072270e-01
-1.015674651074111e+00  4.260431166072270e-01  8.203160850048038e-18

 9.774141159977212e-18  1.131930468710526e-20 -1.015244981708444e+00
 1.131930468710526e-20  1.164753271049687e-17  4.281637015666375e-01
-1.015244981708444e+00  4.281637015666375e-01  8.130693404035871e-18

 9.717726644702374e-18  1.287810163739549e-20 -1.014194840812209e+00
 1.287810163739549e-20  1.134812078035112e-17  4.253529492181452e-01
-1.014194840812209e+00  4.253529492181452e-01  8.141738721350966e-18

 9.606314361489121e-18  1.055426208875483e-20 -1.010701160755522e+00
 1.055426208875483e-20  1.133619540532916e-17  4.241991799224356e-01
-1.010701160755522e+00  4.241991799224356e-01  7.938279619780163e-18

 9.551137939228126e-18  1.008296522750678e-20 -1.011897728651633e+00
 1.008296522750678e-20  1.190752985577070e-17  4.251361524695770e-01
-1.011897728651633e+00  4.251361524695770e-01  7.971032980849591e-18

 9.585115121042758e-18  9.485008005266191e-21 -1.017842551852806e+00
 9.485008005266191e-21  1.136169999467294e-17  4.236415017627529e-01
-1.017842551852806e+00  4.236415017627529e-01  8.281391061255639e-18

 9.501675113847470e-18  1.008686443401898e-20 -1.018093640574478e+00
 1.008686443401898e-20  1.075919177996103e-17  4.233865468027259e-01
-1.018093640574478e+00  4.233865468027259e-01  8.314527947221335e-18

 9.277766727309820e-18  1.041163709378673e-20 -1.010902586407418e+00
 1.041163709378673e-20  1.053386702858916e-17  4.244654214347863e-01
-1.010902586407418e+00  4.244654214347863e-01  7.915426652493335e-18

 9.195037159676725e-18  9.936631737676002e-21 -1.008459708240034e+00
 9.936631737676002e-21  1.024305950284552e-17  4.194721094114310e-01
-1.008459708240034e+00  4.194721094114310e-01  7.869309686293658e-18

 9.069564463898554e-18  7.896682129452998e-21 -1.005269751293600e+00
 7.896682129452998e-21  1.060723575663988e-17  4.226384847970860e-01
-1.005269751293600e+00  4.226384847970860e-01  7.689782424161153e-18

 9.095595966893351e-18  2.137652042736800e-21 -1.008866954631235e+00
 2.137652042736800e-21  1.060625030820218e-17  4.245949587334266e-01
-1.008866954631235e+00  4.245949587334266e-01  7.870382270691867e-18

 9.049384887625299e-18 -1.163343909739486e-22 -1.011031122621979e+00
-1.163343909739486e-22  1.059417039203863e-17  4.246637705614618e-01
-1.011031122621979e+00  4.246637705614618e-01  7.938962298039789e-18

 8.987986908094471e-18 -3.987639418338887e-21 -1.011501858165026e+00
-3.987639418338887e-21  1.046885790194488e-17  4.226816166284607e-01
-1.011501858165026e+00  4.226816166284607e-01  7.929793578431542e-18

 8.888545855569960e-18 -1.203997364492964e-21 -1.010531773398444e+00
-1.203997364492964e-21  1.101935603573057e-17  4.221707529940584e-01
-1.010531773398444e+00  4.221707529940584e-01  7.861693693416976e-18

 8.834428461945971e-18  3.458137589258223e-21 -1.010908144463536e+00
 3.458137589258223e-21  1.093581342754658e-17  4.215764666068049e-01
-1.010908144463536e+00  4.215764666068049e-01  7.880365493278669e-18

 8.752523961899862e-18  1.037445152827577e-20 -1.010540944712129e+00
 1.037445152827577e-20  1.039016812190495e-17  4.214372700619037e-01
-1.010540944712129e+00  4.214372700619037e-01  7.865120020298338e-18

 8.615422728904866e-18  1.368111504631562e-20 -1.007364861298266e+00
 1.368111504631562e-20  1.042090249101743e-17  4.198981547703139e-01
-1.007364861298266e+00  4.198981547703139e-01  7.788049340445074e-18

 8.476576811579449e-18  1.404817687363563e-20 -1.004351874273766e+00
 1.404817687363563e-20  1.021177458751507e-17  4.178840764988611e-01
-1.004351874273766e+00  4.178840764988611e-01  7.703232288180369e-18

 8.320834354111106e-18  1.001767563922036e-20 -1.000284532802225e+00
 1.001767563922036e-20  1.024032908737905e-17  4.195391592974867e-01
-1.000284532802225e+00  4.195391592974867e-01  7.545971293799605e-18

 8.243045496615106e-18 -3.400246937655547e-21 -1.000490479044407e+00
-3.400246937655547e-21  9.449029300418086e-18  4.193952556411864e-01
-1.000490479044407e+00  4.193952556411864e-01  7.570266636752408e-18

 8.141414780255528e-18 -1.565721067816164e-20 -1.000718202987821e+00
-1.565721067816164e-20  9.810904342389538e-18  4.210511177853289e-01
-1.000718202987821e+00  4.210511177853289e-01  7.544715217070282e-18

 8.041535021925597e-18 -3.371926597903959e-20 -1.003310619785894e+00
-3.371926597903959e-20  9.618634259895092e-18  4.225134923187708e-01
-1.003310619785894e+00  4.225134923187708e-01  7.539635603368324e-18

 7.962387997986536e-18 -4.149056594059581e-20 -1.007175096034677e+00
-4.149056594059581e-20  9.730835272468229e-18  4.228718200340298e-01
-1.007175096034677e+00  4.228718200340298e-01  7.585162630308546e-18

 7.840334350354515e-18 -4.023096916210646e-20 -1.010993983677329e+00
-4.023096916210646e-20  9.735819460816044e-18  4.235103656584927e-01
-1.010993983677329e+00  4.235103656584927e-01  7.612940051192032e-18

 7.683891661299277e-18 -3.363274205555919e-20 -1.013728023799257e+00
-3.363274205555919e-20  8.869532452906023e-18  4.228753536279579e-01
-1.013728023799257e+00  4.228753536279579e-01  7.648114013461105e-18

 7.579154084142784e-18 -3.392015016768770e-20 -1.014117724279646e+00
-3.392015016768770e-20  8.435427636928583e-18  4.270954102612495e-01
-1.014117724279646e+00  4.270954102612495e-01  7.538221163800478e-18

 7.436476997714950e-18 -2.997131684141348e-20 -1.014020878200750e+00
-2.997131684141348e-20  8.754334500883844e-18  4.240941261789326e-01
-1.014020878200750e+00  4.240941261789326e-01  7.583181646711834e-18

 7.204333379242327e-18 -3.082817323889713e-20 -1.010393005276775e+00
-3.082817323889713e-20  8.708746818416195e-18  4.225167813342834e-01
-1.010393005276775e+00  4.225167813342834e-01  7.331409412392621e-18

 6.932413475464672e-18 -3.152137952965621e-20 -1.010449193888515e+00
-3.152137952965621e-20  8.942861600727039e-18  4.236314535733574e-01
-1.010449193888515e+00  4.236314535733574e-01  7.241493852444775e-18

 6.811980987342873e-18 -3.481670531761662e-20 -1.017161904453180e+00
-3.481670531761662e-20  8.654466231661802e-18  4.232601340352616e-01
-1.017161904453180e+00  4.232601340352616e-01  7.513413313531516e-18

 6.519345917307222e-18 -3.673043580011432e-20 -1.018617433089694e+00
-3.673043580011432e-20  8.412469057344587e-18  4.234949075001122e-01
-1.018617433089694e+00  4.234949075001122e-01  7.487374971302595e-18

 6.228129500838321e-18 -3.990207743788858e-20 -1.016476207136759e+00
-3.990207743788858e-20  8.210594566384368e-18  4.229365840146608e-01
-1.016476207136759e+00  4.229365840146608e-01  7.280683898431240e-18

 5.853171485925994e-18 -4.138003078095872e-20 -1.014763079020538e+00
-4.138003078095872e-20  7.388773665448903e-18  4.228637385135739e-01
-1.014763079020538e+00  4.228637385135739e-01  7.083755960191984e-18

 5.667680258962811e-18 -4.293994117751672e-20 -1.017263692347477e+00
-4.293994117751672e-20  7.333069746640120e-18  4.225872344309420e-01
-1.017263692347477e+00  4.225872344309420e-01  7.139971386089052e-18

 5.415257864887523e-18 -4.590607196162580e-20 -1.017371946681311e+00
-4.590607196162580e-20  6.884010746661952e-18  4.251551622232486e-01
-1.017371946681311e+00  4.251551622232486e-01  7.072707275002784e-18

 5.085056969893864e-18 -4.642203316948371e-20 -1.012761849973847e+00
-4.642203316948371e-20  6.981977132731136e-18  4.287321914010980e-01
-1.012761849973847e+00  4.287321914010980e-01  6.690702014602567e-18

 4.882474641745174e-18 -4.755281589912878e-20 -1.013887263023862e+00
-4.755281589912878e-20  6.328210037680688e-18  4.226042649539005e-01
-1.013887263023862e+00  4.226042649539005e-01  6.757979215230209e-18

 4.431893151491595e-18 -4.764478111613571e-20 -1.011885863144206e+00
-4.764478111613571e-20  6.505765719152492e-18  4.231820745740816e-01
-1.011885863144206e+00  4.231820745740816e-01  6.511233146324318e-18

 4.040426192996078e-18 -4.844705254670203e-20 -1.014850732557519e+00
-4.844705254670203e-20  6.173923616042779e-18  4.244507539755870e-01
-1.014850732557519e+00  4.244507539755870e-01  6.534292095445145e-18

 3.649851057865093e-18 -5.066945678032661e-20 -1.016513198111637e+00
-5.066945678032661e-20  5.882305814745367e-18  4.236936325254924e-01
-1.016513198111637e+00  4.236936325254924e-01  6.479308317612799e-18

 3.021900399887697e-18 -5.020189126259839e-20 -1.015976491902205e+00
-5.020189126259839e-20  4.350077019963128e-18  4.244406473008404e-01
-1.015976491902205e+00  4.244406473008404e-01  6.250009071816679e-18

 2.361136982158561e-18 -4.695747900549600e-20 -1.013405425236939e+00
-4.695747900549600e-20  4.524681672434966e-18  4.209855427104305e-01
-1.013405425236939e+00  4.209855427104305e-01  5.929729514021219e-18

 1.842868610499727e-18 -4.888337832332365e-20 -1.013483180874550e+00
-4.888337832332365e-20  3.651674267849625e-18  4.226103008185361e-01
-1.013483180874550e+00  4.226103008185361e-01  5.746700282669772e-18

 1.268656977643244e-18 -4.853152332612479e-20 -1.016374932851772e+00
-4.853152332612479e-20  3.726388959559526e-18  4.249512482743216e-01
-1.016374932851772e+00  4.249512482743216e-01  5.676417311741879e-18

 6.475266917892598e-19 -4.979620670926758e-20 -1.017795428427992e+00
-4.979620670926758e-20  3.228180592222811e-18  4.233466439759097e-01
-1.017795428427992e+00  4.233466439759097e-01  5.543753486677088e-18

-3.372516671540636e-19 -4.791995531744626e-20 -1.017387978372326e+00
-4.791995531744626e-20  2.726971393811689e-18  4.232695224385872e-01
-1.017387978372326e+00  4.232695224385872e-01  5.204693455460992e-18

-1.147281300995894e-18 -4.742301177396699e-20 -1.013531889462144e+00
-4.742301177396699e-20  1.601645778675669e-18  4.268904101452322e-01
-1.013531889462144e+00  4.268904101452322e-01  4.693493145843110e-18

-2.011891052745104e-18 -4.214222147109771e-20 -1.012872186281997e+00
-4.214222147109771e-20  1.095892483406335e-18  4.247546200500070e-01
-1.012872186281997e+00  4.247546200500070e-01  4.388852027641779e-18

-2.961874854314464e-18 -3.686751610560844e-20 -1.016551409519185e+00
-3.686751610560844e-20  1.502795502607377e-19  4.199095496192115e-01
-1.016551409519185e+00  4.199095496192115e-01  4.254817591094310e-18

-3.878948004997971e-18 -3.790617894972896e-20 -1.016932294345128e+00
-3.790617894972896e-20 -7.431238730031179e-19  4.239605531166942e-01
-1.016932294345128e+00  4.239605531166942e-01  3.942097932608625e-18

-5.049554774830556e-18 -4.212788228488694e-20 -1.021211487370826e+00
-4.212788228488694e-20 -1.756953653210330e-18  4.304711046630724e-01
-1.021211487370826e+00  4.304711046630724e-01  3.676964313428349e-18

-6.424111700469951e-18 -2.729302883566380e-20 -1.016415601384302e+00
-2.729302883566380e-20 -1.279046563592349e-18  4.261399294014460e-01
-1.016415601384302e+00  4.261399294014460e-01  2.982776812633025e-18

-7.863682850666939e-18 -1.129727808855463e-20 -1.016128785373572e+00
-1.129727808855463e-20 -2.269487338421052e-18  4.133433779473659e-01
-1.016128785373572e+00  4.133433779473659e-01  2.620904823923865e-18

-9.499559891841402e-18 -2.343947854646728e-20 -1.007176698734295e+00
-2.343947854646728e-20 -4.392607629426521e-18  4.400370864403513e-01
-1.007176698734295e+00  4.400370864403513e-01  1.271598732138570e-18

-1.049003325365640e-17 -1.932617367008431e-20 -1.011187150889031e+00
-1.932617367008431e-20 -5.045067345104846e-18  4.371024268898569e-01
-1.011187150889031e+00  4.371024268898569e-01  1.174353528068231e-18

-1.242411876145339e-17 -7.405994174910628e-21 -1.015676850043741e+00
-7.405994174910628e-21 -5.902792638406806e-18  4.235092921597274e-01
-1.015676850043741e+00  4.235092921597274e-01  9.329994338986820e-19

-1.451259014160523e-17 -2.450173732475605e-21 -1.017213855500740e+00
-2.450173732475605e-21 -6.471196929179323e-18  4.221127140906534e-01
-1.017213855500740e+00  4.221127140906534e-01  2.852173030485986e-19

-1.676944750155554e-17 -1.515226850020581e-20 -1.014762557264340e+00
-1.515226850020581e-20 -7.952276771378301e-18  4.267335178714096e-01
-1.014762557264340e+00  4.267335178714096e-01 -6.220719336372447e-19

-1.975619957984776e-17 -2.096310805844864e-20 -1.011460175243781e+00
-2.096310805844864e-20 -9.036135517510435e-18  4.258116630763595e-01
-1.011460175243781e+00  4.258116630763595e-01 -1.823131998641402e-18

-2.350064845610109e-17 -5.567433926651272e-20 -1.007153995758232e+00
-5.567433926651272e-20 -1.120795374034057e-17  4.263144171122360e-01
-1.007153995758232e+00  4.263144171122360e-01 -3.379496469235638e-18

-2.590162232766746e-17 -9.027080045701946e-20 -1.016601462340304e+00
-9.027080045701946e-20 -1.215871634818606e-17  4.222154264609221e-01
-1.016601462340304e+00  4.222154264609221e-01 -3.651154524048216e-18

-2.873615971545472e-17 -1.581277905365597e-19 -1.022389322014756e+00
-1.581277905365597e-19 -1.347523602729369e-17  4.238924150261885e-01
-1.022389322014756e+00  4.238924150261885e-01 -4.370091421173582e-18

-3.481978411657842e-17 -2.782000621765173e-19 -1.015843918308543e+00
-2.782000621765173e-19 -1.560839889942157e-17  4.237801642239167e-01
-1.015843918308543e+00  4.237801642239167e-01 -6.876327749382292e-18

-4.238556608235830e-17 -5.189118407980216e-19 -1.017645726124548e+00
-5.189118407980216e-19 -1.867764564163960e-17  4.234441174888394e-01
-1.017645726124548e+00  4.234441174888394e-01 -9.424483629153641e-18

-5.271884693014294e-17 -9.588887254748312e-19 -1.023491229347141e+00
-9.588887254748312e-19 -2.092012640433391e-17  4.208299670157620e-01
-1.023491229347141e+00  4.208299670157620e-01 -1.267974557161449e-17

-6.080835331535420e-17 -1.335262672752458e-18 -1.003732447853990e+00
-1.335262672752458e-18 -2.398897998705361e-17  4.367025373944952e-01
-1.003732447853990e+00  4.367025373944952e-01 -1.670222932123667e-17

-6.839193913725263e-17 -1.783761954377505e-18 -1.001367035985995e+00
-1.783761954377505e-18 -2.519760432819365e-17  4.295867381955321e-01
-1.001367035985995e+00  4.295867381955321e-01 -1.938027434008690e-17

-8.269457253182284e-17 -2.857399782917351e-18 -1.002139445635607e+00
-2.857399782917351e-18 -2.791270988344697e-17  4.252028957212459e-01
-1.002139445635607e+00  4.252028957212459e-01 -2.421287407513879e-17

-9.852545651268094e-17 -4.335329530498724e-18 -9.999356000845904e-01
-4.335329530498724e-18 -3.079760424161340e-17  4.204538462033451e-01
-9.999356000845904e-01  4.204538462033451e-01 -2.978844076273938e-17

-1.085308712120856e-16 -8.376740455479591e-18 -1.012192200492736e+00
-8.376740455479591e-18 -1.466823118758222e-17  4.096136094599242e-01
-1.012192200492736e+00  4.096136094599242e-01 -4.120604238908055e-17

-1.613331538421341e-16 -1.041035206116791e-17 -1.042096848820622e+00
-1.041035206116791e-17 -1.752303680780595e-17  4.436138154073421e-01
-1.042096848820622e+00  4.436138154073421e-01 -5.427270341044725e-17

-2.086138180338868e-16 -2.255696427211536e-17 -9.873176047640980e-01
-2.255696427211536e-17 -2.994723223878190e-17  4.067689487386529e-01
-9.873176047640980e-01  4.067689487386529e-01 -6.943734347366944e-17

-2.686903722491516e-16 -3.776882872778352e-17 -9.392550834774445e-01
-3.776882872778352e-17 -2.057314056378308e-17  4.144101418542718e-01
-9.392550834774445e-01  4.144101418542718e-01 -9.417163650723134e-17

-3.642475113418507e-16 -6.229616713038792e-17 -1.002242561424130e+00
-6.229616713038792e-17  2.382436925513335e-17  4.687463312312211e-01
-1.002242561424130e+00  4.687463312312211e-01 -1.352032317036823e-16

-4.382543682045140e-16 -9.488625451457133e-17 -9.813917632353145e-01
-9.488625451457133e-17  1.874667068670914e-17  4.778878400187783e-01
-9.813917632353145e-01  4.778878400187783e-01 -1.566806710501552e-16

-4.973131798797651e-16 -1.255493974141718e-16 -1.045976831759044e+00
-1.255493974141718e-16  4.233829550162922e-17  3.790779757938547e-01
-1.045976831759044e+00  3.790779757938547e-01 -1.764408610773004e-16

-6.490137095777720e-16 -2.038188618486177e-16 -9.979633053534471e-01
-2.038188618486177e-16  9.672477868018387e-17  4.194650547601503e-01
-9.979633053534471e-01  4.194650547601503e-01 -2.412324579130336e-16

-9.007313653594049e-16 -3.725351259009534e-16 -1.008481184880320e+00
-3.725351259009534e-16  2.095933947311979e-16  4.250467337183392e-01
-1.008481184880320e+00  4.250467337183392e-01 -3.506034933541143e-16

-1.168449506765783e-15 -6.290043738338477e-16 -1.012422246001288e+00
-6.290043738338477e-16  4.218120472749914e-16  4.256231226501070e-01
-1.012422246001288e+00  4.256231226501070e-01 -5.031773120840654e-16

-1.632453832516593e-15 -1.129454403792856e-15 -1.011599066767547e+00
-1.129454403792856e-15  5.905413511357328e-16  4.219055778481982e-01
-1.011599066767547e+00  4.219055778481982e-01 -7.344919524624769e-16

-2.030535290780630e-15 -1.716811091670201e-15 -1.012640685438399e+00
-1.716811091670201e-15  7.963390892572369e-16  4.194292454262890e-01
-1.012640685438399e+00  4.194292454262890e-01 -9.949268220670007e-16

-2.672732413416259e-15 -2.913704064822404e-15 -1.011465985115094e+00
-2.913704064822404e-15  1.062029079191002e-15  4.228565890307647e-01
-1.011465985115094e+00  4.228565890307647e-01 -1.506442021642813e-15

-4.328916289258000e-15 -6.689882551960875e-15 -1.012878729304133e+00
-6.689882551960875e-15  9.612937498596269e-16  4.229474175243461e-01
-1.012878729304133e+00  4.229474175243461e-01 -3.280944818393665e-15

-8.497282826719842e-15 -1.183464878702978e-14 -1.012671855139216e+00
-1.183464878702978e-14 -6.639435387523130e-16  4.225185756561816e-01
-1.012671855139216e+00  4.225185756561816e-01 -7.311578112735762e-15

-9.932477335729676e-15 -8.122472629907944e-15 -1.012502872732618e+00
-8.122472629907944e-15  9.144446802313594e-15  4.235191171084315e-01
-1.012502872732618e+00  4.235191171084315e-01 -1.272519708717539e-14

 1.207900595373473e-13  3.215262075041385e-14 -1.012681463320514e+00
 3.215262075041385e-14  7.532235092980804e-14  4.224443916902599e-01
-1.012681463320514e+00  4.224443916902599e-01  2.819286521223032e-14

-6.170929686191028e-13 -1.394575965044634e-13 -1.012433953586123e+00
-1.394575965044634e-13 -3.042972150322546e-13  4.224822976697001e-01
-1.012433953586123e+00  4.224822976697001e-01 -1.524173934849869e-13

-1.102525159905469e-14  1.711834871365251e-14 -1.014084574950113e+00
 1.711834871365251e-14  1.901834891781009e-14  4.263344884230739e-01
-1.014084574950113e+00  4.263344884230739e-01 -1.025861125785928e-14

-6.503172755554016e-13 -1.385869270889840e-13 -1.013345012765847e+00
-1.385869270889840e-13 -3.093184977963702e-13  4.264069766809933e-01
-1.013345012765847e+00  4.264069766809933e-01 -1.664127465909569e-13

-1.562969591729978e-14  1.939680587053630e-16 -1.014783597078104e+00
 1.939680587053630e-16 -3.923614154510832e-15  4.266731445073272e-01
-1.014783597078104e+00  4.266731445073272e-01 -6.797510308505155e-15

-9.459368811957890e-15 -8.594767468843280e-16 -1.012483303926338e+00
-8.594767468843280e-16 -3.122147262290995e-15  4.291385675734171e-01
-1.012483303926338e+00  4.291385675734171e-01 -3.681576149266113e-15

-6.992409581672367e-15 -1.166499414026569e-15 -1.013321523332607e+00
-1.166499414026569e-15 -2.775078578683732e-15  4.257871978594168e-01
-1.013321523332607e+00  4.257871978594168e-01 -2.505972734975910e-15

-4.303241068790120e-15 -1.210059143294137e-15 -1.013050347062594e+00
-1.210059143294137e-15 -1.922564778168348e-15  4.248446131361855e-01
-1.013050347062594e+00  4.248446131361855e-01 -1.395734710551646e-15

-2.952300039375690e-15 -1.053451328542710e-15 -1.015443834878696e+00
-1.053451328542710e-15 -1.846230201063185e-15  4.270413057634156e-01
-1.015443834878696e+00  4.270413057634156e-01 -9.110232226486285e-16

-2.289483938999518e-15 -9.242796800637780e-16 -1.016006821453076e+00
-9.242796800637780e-16 -1.441134636145472e-15  4.300151994868628e-01
-1.016006821453076e+00  4.300151994868628e-01 -6.907757262163333e-16

-1.360216460640610e-15 -6.478405301343918e-16 -1.012808992131909e+00
-6.478405301343918e-16 -1.126899275205796e-15  4.259717563513565e-01
-1.012808992131909e+00  4.259717563513565e-01 -4.024840359537384e-16

-8.385672874394363e-16 -4.323302530414242e-16 -1.013158880490473e+00
-4.323302530414242e-16 -8.835343399151307e-16  4.254793947743918e-01
-1.013158880490473e+00  4.254793947743918e-01 -2.478115158876704e-16

-5.852064704362726e-16 -3.115648842867615e-16 -1.016748727577148e+00
-3.115648842867615e-16 -7.654850022985397e-16  4.270708019326728e-01
-1.016748727577148e+00  4.270708019326728e-01 -1.740919189593930e-16

-4.041408838690014e-16 -2.178126594233755e-16 -1.018807655275349e+00
-2.178126594233755e-16 -5.045276665426431e-16  4.286907557548275e-01
-1.018807655275349e+00  4.286907557548275e-01 -1.208698361775980e-16

-3.088964607339592e-16 -1.662468642162181e-16 -1.019248385828431e+00
-1.662468642162181e-16 -3.660291123776308e-16  4.243456278353608e-01
-1.019248385828431e+00  4.243456278353608e-01 -9.241898726642299e-17

-2.607753507640125e-16 -1.378581452961469e-16 -1.016465639382388e+00
-1.378581452961469e-16 -4.604228587153946e-16  4.245842349102905e-01
-1.016465639382388e+00  4.245842349102905e-01 -7.811265148026199e-17

-2.245357895822923e-16 -1.190330646445877e-16 -1.014377371419863e+00
-1.190330646445877e-16 -2.679689664753629e-16  4.262165013603971e-01
-1.014377371419863e+00  4.262165013603971e-01 -6.722464621024284e-17

-1.873044179552842e-16 -9.650693826741083e-17 -1.017848126361496e+00
-9.650693826741083e-17 -3.417702299591057e-16  4.284576185640971e-01
-1.017848126361496e+00  4.284576185640971e-01 -5.564173887213687e-17

-1.551382340897062e-16 -7.842552432548399e-17 -1.019612213664768e+00
-7.842552432548399e-17 -2.917580265117509e-16  4.303904948412894e-01
-1.019612213664768e+00  4.303904948412894e-01 -4.560626913920589e-17

-1.317037319609173e-16 -6.517005309014773e-17 -1.017625524200331e+00
-6.517005309014773e-17 -2.782989254543070e-16  4.299484156037167e-01
-1.017625524200331e+00  4.299484156037167e-01 -3.837739958358329e-17

-1.119707838060135e-16 -5.482457021554581e-17 -1.017371184999541e+00
-5.482457021554581e-17 -2.132825124108605e-16  4.227090150933362e-01
-1.017371184999541e+00  4.227090150933362e-01 -3.203499433870559e-17

-9.457366965516921e-17 -4.646818107404792e-17 -1.025324819161915e+00
-4.646818107404792e-17 -8.804736756523128e-17  4.244025643930492e-01
-1.025324819161915e+00  4.244025643930492e-01 -2.609915352055926e-17

-8.182092777380146e-17 -3.967359675466038e-17 -1.018180461530707e+00
-3.967359675466038e-17 -3.352793245691662e-17  4.472039109533174e-01
-1.018180461530707e+00  4.472039109533174e-01 -2.264853088103147e-17

-7.124103619251321e-17 -3.422045857797007e-17 -1.022384886964199e+00
-3.422045857797007e-17 -4.202193303175530e-17  4.234879932923938e-01
-1.022384886964199e+00  4.234879932923938e-01 -1.873949772154500e-17

-6.290075380165161e-17 -2.951354247007836e-17 -1.029530822677788e+00
-2.951354247007836e-17 -9.218248585159549e-17  4.031032433384410e-01
-1.029530822677788e+00  4.031032433384410e-01 -1.537465674450184e-17

-5.439441600312830e-17 -2.513448488028899e-17 -1.025704159489956e+00
-2.513448488028899e-17 -3.614061891969552e-17  4.455226115253912e-01
-1.025704159489956e+00  4.455226115253912e-01 -1.337150633875417e-17

-4.767668533410008e-17 -2.055861879567885e-17 -1.030376650183367e+00
-2.055861879567885e-17 -1.394282786594161e-16  4.500177661044755e-01
-1.030376650183367e+00  4.500177661044755e-01 -1.092942712821935e-17

-3.948821989148123e-17 -1.757654253471911e-17 -1.019159696928951e+00
-1.757654253471911e-17 -7.225706481879479e-17  4.246645400340676e-01
-1.019159696928951e+00  4.246645400340676e-01 -8.461888756265126e-18

-3.054047050302301e-17 -1.397251415771258e-17 -1.024594212260799e+00
-1.397251415771258e-17 -1.682247743206585e-17  4.302858711302776e-01
-1.024594212260799e+00  4.302858711302776e-01 -5.212001153378326e-18

-2.396745991254681e-17 -9.840597676170092e-18 -1.049509158272089e+00
-9.840597676170092e-18 -1.371898883608923e-16  4.150630585498426e-01
-1.049509158272089e+00  4.150630585498426e-01 -1.539165899927902e-18

-2.209487215142351e-17 -8.540051830836444e-18 -1.023807627802069e+00
-8.540051830836444e-18 -1.453804989011732e-16  4.527591516760254e-01
-1.023807627802069e+00  4.527591516760254e-01 -2.817688207153446e-18

-1.976119933379844e-17 -8.916755593422039e-18 -1.034554898540250e+00
-8.916755593422039e-18 -3.652983957858738e-17  4.448762408047320e-01
-1.034554898540250e+00  4.448762408047320e-01 -1.306826319153214e-18

-1.614067930675616e-17 -6.895910451268057e-18 -1.032419644793273e+00
-6.895910451268057e-18 -9.414850605574984e-17  4.321569091316467e-01
-1.032419644793273e+00  4.321569091316467e-01  5.091728927484984e-20

-1.362218143378072e-17 -6.160349270763578e-18 -1.022232166673254e+00
-6.160349270763578e-18 -6.851430940701917e-17  4.265481815979276e-01
-1.022232166673254e+00  4.265481815979276e-01  4.733655772837093e-19

-1.158237986190629e-17 -5.609703256193177e-18 -1.018409607192919e+00
-5.609703256193177e-18 -4.699597620076812e-17  4.283302766152445e-01
-1.018409607192919e+00  4.283302766152445e-01  9.229650214575857e-19

-1.008954246772400e-17 -4.828406677917614e-18 -1.026071309914586e+00
-4.828406677917614e-18 -6.651266565931224e-17  4.385624646881603e-01
-1.026071309914586e+00  4.385624646881603e-01  1.694180144762947e-18

-8.307791765638582e-18 -5.159680857613785e-18 -1.046297540670693e+00
-5.159680857613785e-18  8.220577616389275e-18  4.373340057677999e-01
-1.046297540670693e+00  4.373340057677999e-01  3.370149001206084e-18

-6.675398314073179e-18 -4.825580496157899e-18 -1.034997663075851e+00
-4.825580496157899e-18  3.536187557179619e-17  4.303415238190942e-01
-1.034997663075851e+00  4.303415238190942e-01  3.293549200934741e-18

-4.581589959515129e-18 -3.783582097204751e-18 -1.062492036202291e+00
-3.783582097204751e-18 -1.652658938880110e-17  3.939689442799753e-01
-1.062492036202291e+00  3.939689442799753e-01  5.923488318315389e-18

-5.548697964518551e-18 -2.168533448068292e-18 -1.002307555212943e+00
-2.168533448068292e-18 -1.329925664115708e-16  4.769668920103923e-01
-1.002307555212943e+00  4.769668920103923e-01  1.210450332832521e-18

-4.331164881740982e-18 -3.703964317170880e-18 -1.027198338641912e+00
-3.703964317170880e-18  1.822513728024405e-17  4.722299570617098e-01
-1.027198338641912e+00  4.722299570617098e-01  3.120435157699304e-18

-2.788573279706170e-18 -3.614559240511453e-18 -1.047094686994581e+00
-3.614559240511453e-18  3.621266024577458e-17  4.249656527977975e-01
-1.047094686994581e+00  4.249656527977975e-01  5.284242068695744e-18

-2.256040549198211e-18 -2.865370760435917e-18 -1.035487309324010e+00
-2.865370760435917e-18 -8.778657944929941e-18  4.234432834001057e-01
-1.035487309324010e+00  4.234432834001057e-01  4.918000056658670e-18

-1.688729802607993e-18 -2.717647382764586e-18 -1.025647573800223e+00
-2.717647382764586e-18 -1.513566392196377e-18  4.330724667130028e-01
-1.025647573800223e+00  4.330724667130028e-01  4.601304167892185e-18

-7.650141046389541e-19 -2.460071630690665e-18 -1.026538236117341e+00
-2.460071630690665e-18 -2.199621185177519e-20  4.325538861167343e-01
-1.026538236117341e+00  4.325538861167343e-01  5.073370365164078e-18

-2.480240898033969e-19 -1.852595523198143e-18 -1.026542796334001e+00
-1.852595523198143e-18 -3.876565240492870e-17  4.324023681228284e-01
-1.026542796334001e+00  4.324023681228284e-01  5.280296018776000e-18

 3.145784966917211e-19 -2.100357248249467e-18 -1.026771346286623e+00
-2.100357248249467e-18 -3.681602796120204e-18  4.330943057563130e-01
-1.026771346286623e+00  4.330943057563130e-01  5.505564379230904e-18

 1.017010592265454e-18 -1.712209545570987e-18 -1.025849467198232e+00
-1.712209545570987e-18 -1.829997739836040e-17  4.326599763543246e-01
-1.025849467198232e+00  4.326599763543246e-01  5.725281031208628e-18

 1.532263561924413e-18 -1.531500890913093e-18 -1.024472819609044e+00
-1.531500890913093e-18 -2.086623410696419e-17  4.311119455772109e-01
-1.024472819609044e+00  4.311119455772109e-01  5.892918446682508e-18

 2.013923425840173e-18 -1.594506190290231e-18 -1.022524604638890e+00
-1.594506190290231e-18 -3.880403088980781e-18  4.328346724173225e-01
-1.022524604638890e+00  4.328346724173225e-01  5.959532499223117e-18

 2.411733410652794e-18 -1.636194102485767e-18 -1.020997053390598e+00
-1.636194102485767e-18  8.055230916423158e-18  4.322449304432272e-01
-1.020997053390598e+00  4.322449304432272e-01  6.060973613029736e-18

 2.868747959628882e-18 -1.146517109552563e-18 -1.018878708906548e+00
-1.146517109552563e-18 -2.065879788966062e-17  4.318434468906526e-01
-1.018878708906548e+00  4.318434468906526e-01  6.142459160699059e-18

 3.361565627405102e-18 -1.020539403762073e-18 -1.018548824808888e+00
-1.020539403762073e-18 -1.981196581977107e-17  4.318958869994379e-01
-1.018548824808888e+00  4.318958869994379e-01  6.299466689498366e-18

 3.877928133116166e-18 -1.434855020658300e-18 -1.020552234016578e+00
-1.434855020658300e-18  2.426805193513029e-17  4.325021024950776e-01
-1.020552234016578e+00  4.325021024950776e-01  6.531805037075948e-18

 4.281622555543995e-18 -1.107586349180438e-18 -1.021100020755853e+00
-1.107586349180438e-18  5.903048352992426e-18  4.338083405741045e-01
-1.021100020755853e+00  4.338083405741045e-01  6.674147550202680e-18

 4.589274975204038e-18 -1.024657833829410e-18 -1.020741709343534e+00
-1.024657833829410e-18  4.940774264053332e-18  4.321543662441138e-01
-1.020741709343534e+00  4.321543662441138e-01  6.763023097018138e-18

 4.956947926826000e-18 -1.383208374814985e-18 -1.018180545749638e+00
-1.383208374814985e-18  4.242329412709373e-17  4.319706903713335e-01
-1.018180545749638e+00  4.319706903713335e-01  6.783095317470964e-18

 5.376592722797174e-18 -7.133750834427738e-19 -1.018336689733642e+00
-7.133750834427738e-19 -2.779964175835413e-18  4.323448253051285e-01
-1.018336689733642e+00  4.323448253051285e-01  6.935535032770289e-18

 5.772326237512821e-18 -3.432653766056203e-19 -1.018575493565530e+00
-3.432653766056203e-19 -2.535428634420733e-17  4.327260394428150e-01
-1.018575493565530e+00  4.327260394428150e-01  7.085567062925434e-18

 6.098394999630288e-18 -5.713827953217367e-19 -1.016220355118721e+00
-5.713827953217367e-19 -8.605059821181150e-19  4.344879096556721e-01
-1.016220355118721e+00  4.344879096556721e-01  7.036503733646307e-18

 6.265509109349144e-18 -5.187775220915531e-19 -1.013920311499380e+00
-5.187775220915531e-19 -3.894651426108548e-19  4.309519515990202e-01
-1.013920311499380e+00  4.309519515990202e-01  6.995096930341276e-18

 6.494592420566968e-18 -3.040877847369353e-19 -1.015998878774241e+00
-3.040877847369353e-19 -1.186304564025567e-17  4.317064754809277e-01
-1.015998878774241e+00  4.317064754809277e-01  7.110215451511232e-18

 6.734803299239813e-18 -5.527340427101994e-19 -1.018314546267493e+00
-5.527340427101994e-19  1.024088649598024e-17  4.317011524404768e-01
-1.018314546267493e+00  4.317011524404768e-01  7.280940389611133e-18

 7.390825486076044e-18 -1.261306604351275e-19 -1.034727950269427e+00
-1.261306604351275e-19 -1.718472053730352e-17  4.357361886625832e-01
-1.034727950269427e+00  4.357361886625832e-01  8.293065031374583e-18

 7.219197424461856e-18 -4.883899942138523e-19 -1.019123563581457e+00
-4.883899942138523e-19  1.282235424664544e-17  4.426756895837442e-01
-1.019123563581457e+00  4.426756895837442e-01  7.330064367710478e-18

 7.493656266319625e-18 -3.002063892122850e-19 -1.025098026160632e+00
-3.002063892122850e-19  3.302240678066738e-18  4.151462135717578e-01
-1.025098026160632e+00  4.151462135717578e-01  8.058195928290134e-18

 7.179053791799872e-18 -2.858390258241238e-19 -1.005094842208397e+00
-2.858390258241238e-19  2.726747362028257e-18  4.343301046053550e-01
-1.005094842208397e+00  4.343301046053550e-01  6.752666203090269e-18

 7.745744858066918e-18 -3.658031641187360e-19 -1.021814978699506e+00
-3.658031641187360e-19  1.057126738662259e-17  4.182830840062171e-01
-1.021814978699506e+00  4.182830840062171e-01  8.008819632074945e-18

 7.434621540854618e-18 -2.623565642874450e-19 -1.005962984799613e+00
-2.623565642874450e-19  3.194125717411239e-18  4.575591078863630e-01
-1.005962984799613e+00  4.575591078863630e-01  6.498598080166396e-18

 7.640275491920394e-18 -4.069810669131032e-19 -1.011806509706838e+00
-4.069810669131032e-19  1.645104333467578e-17  4.527345744450724e-01
-1.011806509706838e+00  4.527345744450724e-01  6.972883081327621e-18

 8.141595119612294e-18 -5.041874217648844e-19 -1.027633328382970e+00
-5.041874217648844e-19  2.612547797402105e-17  4.160759013038177e-01
-1.027633328382970e+00  4.160759013038177e-01  8.372950499676732e-18

 8.071665919003085e-18 -2.635346842178980e-19 -1.021289692310847e+00
-2.635346842178980e-19  1.040608415879392e-17  4.237418728665845e-01
-1.021289692310847e+00  4.237418728665845e-01  7.920095857361869e-18

 8.021742908436092e-18  1.064630476548567e-20 -1.016811094554102e+00
 1.064630476548567e-20 -8.164201812318838e-18  4.371477491428968e-01
-1.016811094554102e+00  4.371477491428968e-01  7.528692757826891e-18

 8.073856249991814e-18 -1.077536380788976e-19 -1.015769415519005e+00
-1.077536380788976e-19 -1.064369020010462e-19  4.395004168604290e-01
-1.015769415519005e+00  4.395004168604290e-01  7.470509709501035e-18

 8.275043796211249e-18 -2.338245175334826e-19 -1.017703972365205e+00
-2.338245175334826e-19  1.214754546824141e-17  4.276057416049128e-01
-1.017703972365205e+00  4.276057416049128e-01  7.772824378148386e-18

 8.346532250414535e-18 -2.290533614079414e-19 -1.017224326751857e+00
-2.290533614079414e-19  1.300262370721435e-17  4.315733572548897e-01
-1.017224326751857e+00  4.315733572548897e-01  7.720908681557169e-18

 8.497993638471747e-18 -2.231099888143898e-19 -1.020092933823350e+00
-2.231099888143898e-19  1.407916398955961e-17  4.301393750480221e-01
-1.020092933823350e+00  4.301393750480221e-01  7.912440880566559e-18

 8.656020218520472e-18 -3.844292610488312e-20 -1.022667085501842e+00
-3.844292610488312e-20  1.915704532336847e-18  4.308379796061572e-01
-1.022667085501842e+00  4.308379796061572e-01  8.033040017854227e-18

 8.753044611205106e-18  9.204393401729609e-21 -1.023100981723369e+00
 9.204393401729609e-21  8.573134867209172e-19  4.308980447061175e-01
-1.023100981723369e+00  4.308980447061175e-01  8.080888940886467e-18

 8.833163094524373e-18 -2.280714713962530e-19 -1.021747711509770e+00
-2.280714713962530e-19  1.886882424940637e-17  4.238678596968801e-01
-1.021747711509770e+00  4.238678596968801e-01  8.055188437592915e-18

 9.585122995560936e-18 -1.355293732690287e-19 -1.049192629150272e+00
-1.355293732690287e-19  1.360224309180944e-17  4.056098664388410e-01
-1.049192629150272e+00  4.056098664388410e-01  1.000235563336276e-17

 9.316144450613032e-18 -2.649424475582365e-19 -1.037332340022143e+00
-2.649424475582365e-19  2.239764888220909e-17  4.408359837480115e-01
-1.037332340022143e+00  4.408359837480115e-01  8.883687311668085e-18

 9.138256542565014e-18 -1.824068496494903e-19 -1.023682886710991e+00
-1.824068496494903e-19  7.675383879830591e-18  4.743703145883609e-01
-1.023682886710991e+00  4.743703145883609e-01  8.217438329220437e-18

 8.596319986881664e-18  4.295714762843818e-20 -9.953079237721562e-01
 4.295714762843818e-20  1.117544178594497e-17  3.673248167076978e-01
-9.953079237721562e-01  3.673248167076978e-01  7.330452992570527e-18

 8.811052158787320e-18 -1.548488891481155e-19 -9.971508752934176e-01
-1.548488891481155e-19  1.247787965733229e-17  3.770498720671349e-01
-9.971508752934176e-01  3.770498720671349e-01  7.755416595657431e-18

 9.052104497211435e-18  8.059873695791232e-20 -1.016050788970193e+00
 8.059873695791232e-20  1.047752810994299e-17  4.700364985785802e-01
-1.016050788970193e+00  4.700364985785802e-01  7.460832402665604e-18

 9.798805793672040e-18 -9.377065384888856e-20 -1.040814841491629e+00
-9.377065384888856e-20  1.182934543907086e-17  4.462147030267350e-01
-1.040814841491629e+00  4.462147030267350e-01  9.506874236111129e-18

 8.541047664401070e-18 -8.606486319224206e-20 -9.820786044065045e-01
-8.606486319224206e-20  1.658342227404865e-17  4.111908465757269e-01
-9.820786044065045e-01  4.111908465757269e-01  6.231668267194005e-18

 9.094794431020495e-18 -9.638331227476748e-20 -1.001150565092648e+00
-9.638331227476748e-20  1.244971493331876e-17  3.983301700567884e-01
-1.001150565092648e+00  3.983301700567884e-01  7.723896528848510e-18

 9.554534969983615e-18  1.784696625075918e-19 -1.030370043751422e+00
 1.784696625075918e-19  5.292810330966191e-18  4.633981021326699e-01
-1.030370043751422e+00  4.633981021326699e-01  8.403418290204427e-18

 9.883743285648130e-18  7.837320433693966e-20 -1.040863459232383e+00
 7.837320433693966e-20  7.938010857974567e-18  4.259102925654080e-01
-1.040863459232383e+00  4.259102925654080e-01  9.392379143423079e-18

 9.798213426599035e-18  1.968290886558679e-19 -1.074517705442341e+00
 1.968290886558679e-19  1.824580621612867e-17  3.726688753807080e-01
-1.074517705442341e+00  3.726688753807080e-01  1.214921332854623e-17

 9.349357689629163e-18  1.158181156073393e-19 -1.034482573816591e+00
 1.158181156073393e-19  1.469064384058043e-17  4.139334258596915e-01
-1.034482573816591e+00  4.139334258596915e-01  9.188801481290510e-18

 5.768674885711907e-18  9.913518881456141e-19 -1.001300283220037e+00
 9.913518881456141e-19  1.968427591167252e-18  4.551143130172351e-01
-1.001300283220037e+00  4.551143130172351e-01  6.590907285581000e-18

 9.140432091794031e-18  3.646511086133597e-19 -1.030575848598997e+00
 3.646511086133597e-19  3.888656295592493e-21  4.251036921965300e-01
-1.030575848598997e+00  4.251036921965300e-01  8.956495472046483e-18

 3.079663512080217e-17 -5.351759759054180e-18 -1.030518001722963e+00
-5.351759759054180e-18  5.871971803359744e-18  4.173420892890390e-01
-1.030518001722963e+00  4.173420892890390e-01  9.058084507515082e-18

-9.039527387333721e-17  2.634577729112761e-17 -1.023525477797378e+00
 2.634577729112761e-17  3.245624162995862e-18  4.167510445274824e-01
-1.023525477797378e+00  4.167510445274824e-01  8.705039352759956e-18

-1.635345156239339e-17  6.955307271817474e-18 -1.024915771072077e+00
 6.955307271817474e-18  7.263666269977979e-18  4.151877318984494e-01
-1.024915771072077e+00  4.151877318984494e-01  8.906993756525958e-18

 1.119676137229106e-17 -5.610950731544406e-19 -1.014530479084521e+00
-5.610950731544406e-19  2.298775951847641e-17  4.314933538349310e-01
-1.014530479084521e+00  4.314933538349310e-01  8.112373399638535e-18

 1.124450101675700e-17 -5.648599252880811e-19 -1.014902313784121e+00
-5.648599252880811e-19  2.306449798560600e-17  4.269554197904982e-01
-1.014902313784121e+00  4.269554197904982e-01  8.215313739993626e-18

 9.705018084766168e-18 -3.229727430681699e-20 -1.010987189864292e+00
-3.229727430681699e-20  1.346651353119387e-17  4.266985101338489e-01
-1.010987189864292e+00  4.266985101338489e-01  7.967206116172506e-18

 9.893324308107207e-18  2.484703862642235e-20 -1.016655125860860e+00
 2.484703862642235e-20  1.137489138858169e-17  4.242893583619963e-01
-1.016655125860860e+00  4.242893583619963e-01  8.328215253164794e-18

 1.000042595394317e-17  2.468280778153333e-20 -1.020424740516042e+00
 2.468280778153333e-20  1.106376818481645e-17  4.340002390512078e-01
-1.020424740516042e+00  4.340002390512078e-01  8.473189580474015e-18

 9.902313611667851e-18  6.705966440501950e-20 -1.014792046111371e+00
 6.705966440501950e-20  8.404221939004875e-18  4.337952081797865e-01
-1.014792046111371e+00  4.337952081797865e-01  8.159673892060187e-18

 9.734145206170975e-18  3.197812649672760e-20 -1.004877822564390e+00
 3.197812649672760e-20  1.248642166377303e-17  4.205480950416625e-01
-1.004877822564390e+00  4.205480950416625e-01  7.757817499687074e-18

 9.844839097903804e-18  5.184172268861662e-20 -1.006877739279960e+00
 5.184172268861662e-20  1.167264257595713e-17  4.262458736129471e-01
-1.006877739279960e+00  4.262458736129471e-01  7.935820130713828e-18

 9.758401252677015e-18  5.771241225826896e-20 -1.001532710766845e+00
 5.771241225826896e-20  9.575074558577543e-18  4.448771560228286e-01
-1.001532710766845e+00  4.448771560228286e-01  7.446458975902820e-18

 9.884402365658760e-18  4.984171132399654e-20 -1.003951507084155e+00
 4.984171132399654e-20  1.110180168248918e-17  4.330753174547174e-01
-1.003951507084155e+00  4.330753174547174e-01  7.872744089347492e-18

 9.453820310866003e-18  6.256215827064750e-20 -9.835208065808552e-01
 6.256215827064750e-20  1.116509652551565e-17  4.279234665574955e-01
-9.835208065808552e-01  4.279234665574955e-01  6.741503157232948e-18

 9.496761024076382e-18  1.113450597130148e-20 -9.827512707186279e-01
 1.113450597130148e-20  1.231840178049522e-17  4.133626002040475e-01
-9.827512707186279e-01  4.133626002040475e-01  6.798127006612052e-18

 1.015096582652715e-17  1.450090236458029e-19 -1.015565713200758e+00
 1.450090236458029e-19  1.007024055781469e-17  4.545383508720794e-01
-1.015565713200758e+00  4.545383508720794e-01  8.046421556747980e-18

 1.036116843458103e-17  4.981453078241171e-20 -1.023447518348476e+00
 4.981453078241171e-20  1.251450937198934e-17  4.574580728334538e-01
-1.023447518348476e+00  4.574580728334538e-01  8.507829563120054e-18

 1.115628446996080e-17  1.700515643257253e-19 -1.053292370153773e+00
 1.700515643257253e-19  9.456688237337457e-18  3.688632475828602e-01
-1.053292370153773e+00  3.688632475828602e-01  1.124134312623092e-17

 1.008066479451085e-17  1.065984332247820e-19 -1.008103814064374e+00
 1.065984332247820e-19  9.098774163808351e-18  4.162776522287978e-01
-1.008103814064374e+00  4.162776522287978e-01  7.967601502762484e-18

 1.019055922259592e-17  5.233518087762228e-20 -1.009563736792496e+00
 5.233518087762228e-20  1.212212252165233e-17  4.345415844979244e-01
-1.009563736792496e+00  4.345415844979244e-01  8.033354982417922e-18

 9.975372717613136e-18  5.132019925571435e-20 -9.989652093273027e-01
 5.132019925571435e-20  1.313830025389283e-17  4.352490723590833e-01
-9.989652093273027e-01  4.352490723590833e-01  7.463104878680245e-18

 9.510780580824218e-18  4.382344228998362e-20 -9.787736251870871e-01
 4.382344228998362e-20  1.420391554959691e-17  4.353917355707609e-01
-9.787736251870871e-01  4.353917355707609e-01  6.200211388579080e-18

 9.882565496606451e-18  4.048274538234314e-20 -9.959726650561583e-01
 4.048274538234314e-20  1.454628597812969e-17  4.345966642834909e-01
-9.959726650561583e-01  4.345966642834909e-01  6.949064184160018e-18

 1.087877730461454e-17  1.277318913506957e-19 -1.045292110794116e+00
 1.277318913506957e-19  1.016299195112038e-17  4.363632745563488e-01
-1.045292110794116e+00  4.363632745563488e-01  9.297207664660251e-18

 1.135881066681359e-17  1.012520744887026e-19 -1.071262435076522e+00
 1.012520744887026e-19  1.177235914722117e-17  4.275184694421216e-01
-1.071262435076522e+00  4.275184694421216e-01  1.033356900639944e-17

 1.190836631648533e-17  9.900590567392649e-20 -1.097643686197286e+00
 9.900590567392649e-20  1.087676948893231e-17  4.238805562876274e-01
-1.097643686197286e+00  4.238805562876274e-01  1.166897559415107e-17

 1.179729524570585e-17  1.527686846621173e-19 -1.094780047249277e+00
 1.527686846621173e-19  8.017905464914266e-18  4.533431645571311e-01
-1.094780047249277e+00  4.533431645571311e-01  1.102235929490920e-17

 1.041757341625462e-17 -5.389378740955800e-21 -1.039118510723388e+00
-5.389378740955800e-21  1.518883822191056e-17  5.059695524686033e-01
-1.039118510723388e+00  5.059695524686033e-01  6.839235503145193e-18

 1.120069821004141e-17  7.462409494397360e-20 -1.070094827768659e+00
 7.462409494397360e-20  9.754132607081836e-18  4.759812869273634e-01
-1.070094827768659e+00  4.759812869273634e-01  9.218156666944419e-18

 1.178071342197968e-17  7.693379984435565e-20 -1.091212198931399e+00
 7.693379984435565e-20  1.442834501541851e-17  4.252614099785338e-01
-1.091212198931399e+00  4.252614099785338e-01  1.124503095652079e-17

 1.123351749586261e-17  7.109035843457552e-20 -1.065601105657889e+00
 7.109035843457552e-20  1.375509655416868e-17  4.320829979907048e-01
-1.065601105657889e+00  4.320829979907048e-01  9.739871111495194e-18

 1.094862919290365e-17  8.342860154676319e-20 -1.050284141169857e+00
 8.342860154676319e-20  1.344979367671475e-17  4.399975841577149e-01
-1.050284141169857e+00  4.399975841577149e-01  8.948314127391899e-18

 1.078628853014017e-17  7.820470144244262e-20 -1.041037159240927e+00
 7.820470144244262e-20  1.326378137784979e-17  4.440680860451496e-01
-1.041037159240927e+00  4.440680860451496e-01  8.531272805285797e-18

 1.067991801236141e-17  7.747648709330067e-20 -1.034226180195225e+00
 7.747648709330067e-20  1.055484448508021e-17  4.468102191451171e-01
-1.034226180195225e+00  4.468102191451171e-01  8.195307525458050e-18

 1.083085944760950e-17  8.270292715837411e-20 -1.039696812054130e+00
 8.270292715837411e-20  1.199258078132447e-17  4.387880607630638e-01
-1.039696812054130e+00  4.387880607630638e-01  8.606716515844097e-18

 1.082584726589486e-17  6.254598046134581e-20 -1.039968707997134e+00
 6.254598046134581e-20  1.147888769137321e-17  4.522975408514925e-01
-1.039968707997134e+00  4.522975408514925e-01  8.413599711508698e-18

 1.102627132059663e-17  3.259121973581600e-20 -1.048201076884934e+00
 3.259121973581600e-20  1.556003461266711e-17  4.432748117398277e-01
-1.048201076884934e+00  4.432748117398277e-01  8.883868854566402e-18

 1.173352887246492e-17  7.210072240402001e-20 -1.077285445708428e+00
 7.210072240402001e-20  1.369042714995007e-17  4.134304118718425e-01
-1.077285445708428e+00  4.134304118718425e-01  1.105375726288934e-17

 1.124580140769509e-17  8.119804877415001e-20 -1.057694687928958e+00
 8.119804877415001e-20  1.302600407381190e-17  4.413996334515123e-01
-1.057694687928958e+00  4.413996334515123e-01  9.466615662345295e-18

 1.032761630540749e-17  9.622472576160585e-20 -1.021625335389831e+00
 9.622472576160585e-20  9.442724422890419e-18  4.844162480563686e-01
-1.021625335389831e+00  4.844162480563686e-01  6.554485981670453e-18

 9.804318658538316e-18  6.978807044869153e-20 -9.996817872305025e-01
 6.978807044869153e-20  1.043306754955940e-17  4.994354509719013e-01
-9.996817872305025e-01  4.994354509719013e-01  4.962240022570364e-18

 1.143341672261466e-17  6.059556006312313e-20 -1.065665686700813e+00
 6.059556006312313e-20  1.322654577437063e-17  4.281840484393291e-01
-1.065665686700813e+00  4.281840484393291e-01  9.966531626553357e-18

 1.195627591482963e-17  3.463805344611040e-20 -1.085851045105144e+00
 3.463805344611040e-20  1.590148760106633e-17  4.018174202556955e-01
-1.085851045105144e+00  4.018174202556955e-01  1.154302668176347e-17

 1.128496675415585e-17  7.152617194986706e-20 -1.059111855974006e+00
 7.152617194986706e-20  1.119675773917368e-17  4.803718747403964e-01
-1.059111855974006e+00  4.803718747403964e-01  9.102347733037518e-18

 1.125361742155581e-17 -4.273460311413283e-20 -1.049430378882494e+00
-4.273460311413283e-20  1.139329984517099e-17  4.791162379304247e-01
-1.049430378882494e+00  4.791162379304247e-01  9.184220690069024e-18

 9.862518085804201e-18  2.293261720434135e-19 -9.858142431466952e-01
 2.293261720434135e-19  1.268147774026116e-17  4.149629741233604e-01
-9.858142431466952e-01  4.149629741233604e-01  5.965227858833890e-18

 9.552853039307303e-18  1.060135839510390e-19 -9.651602972261860e-01
 1.060135839510390e-19  1.066399757153311e-17  4.410881056221659e-01
-9.651602972261860e-01  4.410881056221659e-01  5.015529885686564e-18

 1.011814550829105e-17  1.998928981683190e-19 -9.962999590724273e-01
 1.998928981683190e-19  1.178709561674976e-17  5.103921756203507e-01
-9.962999590724273e-01  5.103921756203507e-01  5.860287892596609e-18

 1.014101921155764e-17  1.231258634025148e-19 -9.932349265627952e-01
 1.231258634025148e-19  1.169014274404545e-17  4.610720301433987e-01
-9.932349265627952e-01  4.610720301433987e-01  6.195772616683028e-18

 1.078636970048580e-17 -1.642707415976412e-19 -1.011702907644480e+00
-1.642707415976412e-19  1.666613553885627e-17  3.584307085825508e-01
-1.011702907644480e+00  3.584307085825508e-01  8.480234605967864e-18

 1.173439558406578e-17  3.209111401914704e-19 -1.071463226866514e+00
 3.209111401914704e-19  1.289914511221406e-17  4.401579574914850e-01
-1.071463226866514e+00  4.401579574914850e-01  1.028686962784833e-17

 1.350043224815223e-17  8.458641845806491e-20 -1.143284286323802e+00
 8.458641845806491e-20  1.476153835563152e-17  4.569948626020397e-01
-1.143284286323802e+00  4.569948626020397e-01  1.488885203020664e-17

 1.144877072939730e-17  2.901695352687205e-19 -1.049706087597583e+00
 2.901695352687205e-19  1.425622292728358e-17  3.841457213394520e-01
-1.049706087597583e+00  3.841457213394520e-01  9.883048663283603e-18

 1.003062917831505e-17  2.391658398065667e-19 -9.816936173380446e-01
 2.391658398065667e-19  1.423167862983533e-17  3.907287806670871e-01
-9.816936173380446e-01  3.907287806670871e-01  6.212983121909037e-18

 1.041675177351729e-17  1.603526413282485e-19 -9.955336079019471e-01
 1.603526413282485e-19  1.278980345698987e-17  4.379125021559879e-01
-9.955336079019471e-01  4.379125021559879e-01  7.017722432909663e-18

 1.097763682574963e-17  2.208325619729969e-19 -1.018956060165293e+00
 2.208325619729969e-19  1.109053896631099e-17  4.363185910810672e-01
-1.018956060165293e+00  4.363185910810672e-01  8.446360703308846e-18

 1.114555614092902e-17  1.889585644558366e-19 -1.022715631607945e+00
 1.889585644558366e-19  1.161154978460401e-17  4.259377543661195e-01
-1.022715631607945e+00  4.259377543661195e-01  8.887829010200365e-18

 1.088972698878153e-17  1.882320053719152e-19 -1.009245830755307e+00
 1.882320053719152e-19  1.185168958589357e-17  4.230433906339078e-01
-1.009245830755307e+00  4.230433906339078e-01  8.278689959589373e-18

 1.054911465482573e-17  1.888626846312637e-19 -9.923301013202543e-01
 1.888626846312637e-19  1.179353611869454e-17  4.273234827264937e-01
-9.923301013202543e-01  4.273234827264937e-01  7.415853222482083e-18

 1.024779533227395e-17  1.694138078142351e-19 -9.775806939273464e-01
 1.694138078142351e-19  1.233227283162590e-17  4.185876923581286e-01
-9.775806939273464e-01  4.185876923581286e-01  6.705204258138684e-18

 1.074597141930262e-17  1.677875128235952e-19 -9.996439275571821e-01
 1.677875128235952e-19  1.269427492450264e-17  4.222830206274839e-01
-9.996439275571821e-01  4.222830206274839e-01  7.881866908649028e-18

 1.128321845010185e-17  2.082142880131523e-19 -1.024963331436173e+00
 2.082142880131523e-19  1.217992372593834e-17  4.282092164713878e-01
-1.024963331436173e+00  4.282092164713878e-01  9.152066582228923e-18

 1.124347383696707e-17  1.749384818933591e-19 -1.023053276371364e+00
 1.749384818933591e-19  1.256133469853011e-17  4.164238398484944e-01
-1.023053276371364e+00  4.164238398484944e-01  9.104445774094360e-18

 1.109526417644705e-17  1.470786920648159e-19 -1.016671161341189e+00
 1.470786920648159e-19  1.344273428066445e-17  4.201459182007254e-01
-1.016671161341189e+00  4.201459182007254e-01  8.644838222490151e-18

 1.106741735336496e-17  1.234979243893705e-19 -1.016669656489139e+00
 1.234979243893705e-19  1.412020766871707e-17  4.233852971208268e-01
-1.016669656489139e+00  4.233852971208268e-01  8.549723601154190e-18

 1.114495594547398e-17  1.042362233065940e-19 -1.021285735161687e+00
 1.042362233065940e-19  1.467681070035564e-17  4.259223378151341e-01
-1.021285735161687e+00  4.259223378151341e-01  8.667407573120791e-18

 1.129022971452935e-17  8.741253054735410e-20 -1.031455155030090e+00
 8.741253054735410e-20  1.495624914650977e-17  4.298247360158766e-01
-1.031455155030090e+00  4.298247360158766e-01  8.969774571112009e-18

 1.139029029102248e-17  6.140003025822909e-20 -1.039594036650538e+00
 6.140003025822909e-20  1.569749406258246e-17  4.318771923918538e-01
-1.039594036650538e+00  4.318771923918538e-01  9.118813965781555e-18

 1.149975704319278e-17  9.350042505003932e-20 -1.046215002252955e+00
 9.350042505003932e-20  1.413799227592674e-17  4.299750956220918e-01
-1.046215002252955e+00  4.299750956220918e-01  9.323838786723192e-18

 1.149733631111802e-17  9.697705403949961e-20 -1.047170255982261e+00
 9.697705403949961e-20  1.497700264444975e-17  4.360520354432813e-01
-1.047170255982261e+00  4.360520354432813e-01  9.214187199589396e-18

 1.141853937811965e-17  1.160662175757096e-19 -1.041955218809540e+00
 1.160662175757096e-19  1.560404133450806e-17  4.312148956260790e-01
-1.041955218809540e+00  4.312148956260790e-01  9.002771556097195e-18

 1.154410860210587e-17  1.510957798615943e-19 -1.045519027361996e+00
 1.510957798615943e-19  1.341694456364626e-17  4.161578153192825e-01
-1.045519027361996e+00  4.161578153192825e-01  9.471555592331484e-18

 1.153770486779831e-17  1.722390080887782e-19 -1.043439440743878e+00
 1.722390080887782e-19  1.190504400812735e-17  4.244143341857646e-01
-1.043439440743878e+00  4.244143341857646e-01  9.392504379431840e-18

 1.169045709045699e-17  1.564151448247206e-19 -1.048597474004307e+00
 1.564151448247206e-19  1.287728814841279e-17  4.354758194834789e-01
-1.048597474004307e+00  4.354758194834789e-01  9.758911541455810e-18

 1.107399563435070e-17  1.459050465600952e-19 -1.021472248725098e+00
 1.459050465600952e-19  1.116203794101203e-17  4.498980327525607e-01
-1.021472248725098e+00  4.498980327525607e-01  7.993422964371537e-18

 1.170778851694263e-17  1.256358745926077e-19 -1.045784189164222e+00
 1.256358745926077e-19  1.523199001096466e-17  3.926266984159321e-01
-1.045784189164222e+00  3.926266984159321e-01  1.021388817096264e-17

 1.160336237808701e-17  1.199872343440602e-19 -1.040247628700995e+00
 1.199872343440602e-19  1.572138801036252e-17  3.982776647462045e-01
-1.040247628700995e+00  3.982776647462045e-01  9.904573031891065e-18

 1.124432533566322e-17  9.134012920139178e-20 -1.027149705473286e+00
 9.134012920139178e-20  1.421118407846260e-17  4.353421762886679e-01
-1.027149705473286e+00  4.353421762886679e-01  8.620558376136723e-18

 1.117161810307704e-17  8.798396328863528e-20 -1.024728320626275e+00
 8.798396328863528e-20  1.426924636914059e-17  4.495302571866517e-01
-1.024728320626275e+00  4.495302571866517e-01  8.281684314219099e-18

 1.108323327184098e-17  8.903648627174199e-20 -1.019867668987856e+00
 8.903648627174199e-20  1.360839922073724e-17  4.475588257107330e-01
-1.019867668987856e+00  4.475588257107330e-01  8.045141625397401e-18

 1.160134407043488e-17  1.291247329457524e-19 -1.040746802593130e+00
 1.291247329457524e-19  1.319251745200029e-17  4.145647464456286e-01
-1.040746802593130e+00  4.145647464456286e-01  9.753433260508233e-18

 1.114564578655388e-17  9.573696215059819e-20 -1.020591786360222e+00
 9.573696215059819e-20  1.332849747020824e-17  4.222806626026077e-01
-1.020591786360222e+00  4.222806626026077e-01  8.457535075103723e-18

 1.121244454876391e-17  9.208709409060848e-20 -1.023161660540417e+00
 9.208709409060848e-20  1.449993776008258e-17  4.287078082246944e-01
-1.023161660540417e+00  4.287078082246944e-01  8.594062072519439e-18

 1.131223938675697e-17  9.790406425914083e-20 -1.027066897971121e+00
 9.790406425914083e-20  1.301027591397550e-17  4.295140825917798e-01
-1.027066897971121e+00  4.295140825917798e-01  8.841122163987528e-18

 1.141789948846395e-17  9.270599941937370e-20 -1.030521470998309e+00
 9.270599941937370e-20  1.362643839444817e-17  4.208383809709704e-01
-1.030521470998309e+00  4.208383809709704e-01  9.163770050478483e-18

 1.153900093856351e-17  7.329836734140979e-20 -1.035411020473345e+00
 7.329836734140979e-20  1.353591418585723e-17  4.316755558764376e-01
-1.035411020473345e+00  4.316755558764376e-01  9.434888196120590e-18

 1.128593132722326e-17  4.930430851117736e-20 -1.023259945158519e+00
 4.930430851117736e-20  1.351455495244805e-17  4.413499370910999e-01
-1.023259945158519e+00  4.413499370910999e-01  8.750767560315978e-18

 1.039687908656490e-17  8.849603114354525e-20 -9.830612691285759e-01
 8.849603114354525e-20  1.344859440910979e-17  4.295608017748959e-01
-9.830612691285759e-01  4.295608017748959e-01  6.528242281399577e-18

 1.067090865028854e-17  3.633356258000234e-20 -9.947685690890420e-01
 3.633356258000234e-20  1.514573427172094e-17  4.254251006976673e-01
-9.947685690890420e-01  4.254251006976673e-01  7.245914459212009e-18

 1.204239444463174e-17  9.468221191490100e-20 -1.057571778556508e+00
 9.468221191490100e-20  1.078660886234654e-17  4.314253883673335e-01
-1.057571778556508e+00  4.314253883673335e-01  1.072785857823870e-17

 1.152461047692839e-17  3.305438174695646e-20 -1.033402194163366e+00
 3.305438174695646e-20  1.120309903017618e-17  4.429986871965131e-01
-1.033402194163366e+00  4.429986871965131e-01  9.297698554210166e-18

 1.052146153292658e-17  1.148725708559575e-19 -9.893279342018648e-01
 1.148725708559575e-19  1.269214489428958e-17  4.076377731012865e-01
-9.893279342018648e-01  4.076377731012865e-01  6.913923570249454e-18

 1.113956579325222e-17 -5.173507238977582e-20 -1.012015688841408e+00
-5.173507238977582e-20  1.527480665312652e-17  3.893151276939293e-01
-1.012015688841408e+00  3.893151276939293e-01  8.743664668780674e-18

 1.065043074720619e-17  1.326439438487393e-19 -1.002268680502308e+00
 1.326439438487393e-19  1.333959874587459e-17  4.884793591048682e-01
-1.002268680502308e+00  4.884793591048682e-01  6.526934539243092e-18

 1.142466306207274e-17  3.996179068151380e-20 -1.033311512449354e+00
 3.996179068151380e-20  1.434094180937667e-17  4.773373667068341e-01
-1.033311512449354e+00  4.773373667068341e-01  8.714113155008489e-18

 1.124939352595097e-17  8.089988556586379e-20 -1.023102935546339e+00
 8.089988556586379e-20  1.435703637661736e-17  4.177424419897645e-01
-1.023102935546339e+00  4.177424419897645e-01  8.706580999696840e-18

 1.101798094526425e-17  4.061422747774642e-20 -1.012165690667754e+00
 4.061422747774642e-20  1.587751492706003e-17  4.198202629208929e-01
-1.012165690667754e+00  4.198202629208929e-01  8.135423682372552e-18

-2.459082997406589e-17 -8.302237012472810e-20  9.976583904454844e-01
-8.302237012472810e-20 -1.931595409420951e-17  4.206098960425222e-01
 9.976583904454844e-01  4.206098960425222e-01 -3.393858756054604e-17

-2.490201735048256e-17 -1.401335220954108e-19  1.015959818084637e+00
-1.401335220954108e-19 -5.324871324844634e-17  4.200958167923125e-01
 1.015959818084637e+00  4.200958167923125e-01 -3.461576966334722e-17

-2.454553779740515e-17 -3.671710539333838e-20  9.953911845057347e-01
-3.671710539333838e-20  1.231229984769287e-17  4.196356628300574e-01
 9.953911845057347e-01  4.196356628300574e-01 -3.386195474155762e-17

-2.475677985691779e-17  4.218433484727746e-21  1.008107017872661e+00
 4.218433484727746e-21  4.169716240655221e-17  4.194510695605702e-01
 1.008107017872661e+00  4.194510695605702e-01 -3.434245704831054e-17

-2.501408110125049e-17 -1.590566057703344e-19  1.022576832395611e+00
-1.590566057703344e-19 -5.866304868256591e-17  4.225520376933637e-01
 1.022576832395611e+00  4.225520376933637e-01 -3.485658254009012e-17

-2.469451963465976e-17 -1.299537687730303e-19  9.978990973664081e-01
-1.299537687730303e-19 -3.519015970915397e-17  4.450446641399181e-01
 9.978990973664081e-01  4.450446641399181e-01 -3.395541217252061e-17

-2.449750250884654e-17 -2.768586649229097e-19  9.892390053577370e-01
-2.768586649229097e-19 -1.553273758686544e-16  4.307697965926290e-01
 9.892390053577370e-01  4.307697965926290e-01 -3.361758499950070e-17

-2.426097413147629e-17 -7.137824842185603e-20  9.808428141154354e-01
-7.137824842185603e-20  8.816437262207292e-18  4.004140668490310e-01
 9.808428141154354e-01  4.004140668490310e-01 -3.323538903710884e-17

-2.499091462113329e-17 -9.184573964454270e-20  1.022678303368084e+00
-9.184573964454270e-20  1.795471292671845e-17  4.080325297200159e-01
 1.022678303368084e+00  4.080325297200159e-01 -3.480549543145674e-17

-2.543372083961303e-17 -1.956095001135081e-19  1.031435781102649e+00
-1.956095001135081e-19 -5.353710861342488e-17  4.653233633325355e-01
 1.031435781102649e+00  4.653233633325355e-01 -3.539730820025440e-17

-2.590619952460541e-17 -1.131183958619947e-19  1.073398399033630e+00
-1.131183958619947e-19  4.110185675395174e-18  4.184593199722045e-01
 1.073398399033630e+00  4.184593199722045e-01 -3.678689834527208e-17

-2.523725886992816e-17 -6.660949028522855e-20  1.027784320745333e+00
-6.660949028522855e-20  1.009619368271053e-17  4.423156371756178e-01
 1.027784320745333e+00  4.423156371756178e-01 -3.506480045002241e-17

-2.488497704967173e-17 -1.582583255774080e-19  1.016253892676271e+00
-1.582583255774080e-19 -4.115149733445180e-17  4.066771696226149e-01
 1.016253892676271e+00  4.066771696226149e-01 -3.463692842359029e-17

-2.420499450520621e-17 -1.352169147350544e-19  9.737357290299167e-01
-1.352169147350544e-19 -1.562731072206427e-17  4.162291606085923e-01
 9.737357290299167e-01  4.162291606085923e-01 -3.304190071287257e-17

-2.464451752133687e-17 -1.284146037805070e-19  1.000754847515114e+00
-1.284146037805070e-19 -1.168157453226509e-17  4.283466659277604e-01
 1.000754847515114e+00  4.283466659277604e-01 -3.404334328395867e-17

-2.486754685454882e-17 -1.330392235314595e-19  1.013376375497357e+00
-1.330392235314595e-19 -2.327656094852707e-17  4.271153478513361e-01
 1.013376375497357e+00  4.271153478513361e-01 -3.452441597976101e-17

-2.481829104911519e-17 -1.378168899735436e-19  1.010550540314272e+00
-1.378168899735436e-19 -3.971791825690013e-17  4.226967112188454e-01
 1.010550540314272e+00  4.226967112188454e-01 -3.441703942863093e-17

-2.479776484460155e-17 -1.361173631185348e-19  1.011237160565210e+00
-1.361173631185348e-19 -3.831464202347147e-17  4.124428831269436e-01
 1.011237160565210e+00  4.124428831269436e-01 -3.442509412092756e-17

-2.487235341628029e-17 -8.521017391573073e-20  1.015739973266016e+00
-8.521017391573073e-20  4.922194172848979e-17  4.107350003376774e-01
 1.015739973266016e+00  4.107350003376774e-01 -3.458950702631447e-17

-2.493901450225133e-17 -1.217730053905886e-19  1.014176766967253e+00
-1.217730053905886e-19  1.349790596553136e-17  4.261521005745088e-01
 1.014176766967253e+00  4.261521005745088e-01 -3.456536778158720e-17

-2.498579412970965e-17 -1.415966971234912e-19  1.018095029427209e+00
-1.415966971234912e-19 -1.042293947300413e-16  4.348939447660341e-01
 1.018095029427209e+00  4.348939447660341e-01 -3.470264320723457e-17

-2.491260738361459e-17 -1.905428224265861e-19  1.024574789132617e+00
-1.905428224265861e-19 -6.906468551495691e-17  3.806367805148419e-01
 1.024574789132617e+00  3.806367805148419e-01 -3.486774498954006e-17

-2.469246380247652e-17 -1.285585494093117e-19  1.010511216981801e+00
-1.285585494093117e-19 -1.142555973773111e-17  3.907851786912323e-01
 1.010511216981801e+00  3.907851786912323e-01 -3.434175810383323e-17

-2.478644200949060e-17 -1.573721860871224e-19  1.000197826139883e+00
-1.573721860871224e-19 -4.535507170913753e-17  4.552530706842817e-01
 1.000197826139883e+00  4.552530706842817e-01 -3.409644745547686e-17

-2.474107095055362e-17 -1.441928660104157e-19  9.983166698173773e-01
-1.441928660104157e-19 -4.120226003286307e-17  4.459579405750246e-01
 9.983166698173773e-01  4.459579405750246e-01 -3.400473226327624e-17

-2.481998473428075e-17 -1.353664904321340e-19  1.012613726066377e+00
-1.353664904321340e-19 -2.734217600863701e-17  4.118897668951814e-01
 1.012613726066377e+00  4.118897668951814e-01 -3.447649463191680e-17

-2.469977955140326e-17 -1.012997549074330e-19  1.002104480500627e+00
-1.012997549074330e-19  8.523190186996677e-17  4.182365500869599e-01
 1.002104480500627e+00  4.182365500869599e-01 -3.411215833170631e-17

-2.486714881834562e-17 -1.178892727741688e-19  1.010644688634035e+00
-1.178892727741688e-19 -8.962306489415029e-18  4.225074991470981e-01
 1.010644688634035e+00  4.225074991470981e-01 -3.445765862208925e-17

-2.503161957797944e-17 -1.084991874156518e-19  1.022403709538039e+00
-1.084991874156518e-19 -1.808408054829156e-17  4.176484228660732e-01
 1.022403709538039e+00  4.176484228660732e-01 -3.488577792990039e-17

-2.497652252367524e-17 -8.872592707919618e-20  1.016569403092661e+00
-8.872592707919618e-20  2.535116474678032e-18  4.169868338736543e-01
 1.016569403092661e+00  4.169868338736543e-01 -3.468629298018692e-17

-2.497739052295600e-17 -8.761755827060161e-20  1.012737296910341e+00
-8.761755827060161e-20 -1.445761029051184e-17  4.212832163887025e-01
 1.012737296910341e+00  4.212832163887025e-01 -3.454139884205469e-17

-2.493473206226123e-17 -9.578265107660248e-20  1.011053182094624e+00
-9.578265107660248e-20  3.257215901570601e-17  4.229011064360411e-01
 1.011053182094624e+00  4.229011064360411e-01 -3.447132012783357e-17

-2.493629910185345e-17 -1.126260519490777e-19  1.011248470824971e+00
-1.126260519490777e-19 -5.334643676347111e-17  4.220092150336425e-01
 1.011248470824971e+00  4.220092150336425e-01 -3.445719487107494e-17

-2.501817336115720e-17 -1.486368511514565e-19  1.012631001602893e+00
-1.486368511514565e-19  3.272023290688951e-17  4.270319624254513e-01
 1.012631001602893e+00  4.270319624254513e-01 -3.451225221851712e-17

-2.506776065851070e-17 -1.300642954607439e-19  1.020241400732578e+00
-1.300642954607439e-19 -1.451426287720591e-17  4.212073249262346e-01
 1.020241400732578e+00  4.212073249262346e-01 -3.477438372132835e-17

-2.508274635417063e-17 -1.267079442857306e-19  1.020634285264605e+00
-1.267079442857306e-19 -3.443332789375308e-17  4.217035088177598e-01
 1.020634285264605e+00  4.217035088177598e-01 -3.478610111104294e-17

-2.504862013026562e-17 -1.505200136905969e-19  1.019007201705357e+00
-1.505200136905969e-19  6.091806220855326e-17  4.191003735520697e-01
 1.019007201705357e+00  4.191003735520697e-01 -3.473143651435091e-17

-2.494385630220374e-17 -1.220091200289515e-19  1.010795377474782e+00
-1.220091200289515e-19 -4.005925448867095e-17  4.249094298398093e-01
 1.010795377474782e+00  4.249094298398093e-01 -3.443412019057144e-17

-2.494576475734951e-17 -1.369335595532197e-19  1.011891847370745e+00
-1.369335595532197e-19 -2.696884724488161e-18  4.211902309646609e-01
 1.011891847370745e+00  4.211902309646609e-01 -3.447818403601003e-17

-2.498064259332823e-17 -1.290086628000618e-19  1.013216140904225e+00
-1.290086628000618e-19 -2.319968824866930e-17  4.218336474041443e-01
 1.013216140904225e+00  4.218336474041443e-01 -3.453667361994489e-17

-2.501640728849944e-17 -1.188547546133428e-19  1.015911935417125e+00
-1.188547546133428e-19 -3.416992437458980e-17  4.206423271725042e-01
 1.015911935417125e+00  4.206423271725042e-01 -3.462972836365978e-17

-2.501177584419837e-17 -1.318780475110394e-19  1.013437850273470e+00
-1.318780475110394e-19  4.555066799999812e-18  4.233072597688620e-01
 1.013437850273470e+00  4.233072597688620e-01 -3.454538475397038e-17

-2.500146781469503e-17 -1.247125697880065e-19  1.014102624182277e+00
-1.247125697880065e-19 -6.157106144304773e-18  4.203198693838188e-01
 1.014102624182277e+00  4.203198693838188e-01 -3.457379317876806e-17

-2.508684102374212e-17 -1.161981282699493e-19  1.015072561324956e+00
-1.161981282699493e-19 -1.507038845675513e-17  4.204981183801089e-01
 1.015072561324956e+00  4.204981183801089e-01 -3.461095585164722e-17

-2.502321643786017e-17 -1.128368735841666e-19  1.014838064251663e+00
-1.128368735841666e-19 -4.958706632644100e-17  4.190191118580726e-01
 1.014838064251663e+00  4.190191118580726e-01 -3.460794022629274e-17

-2.501131465375535e-17 -1.366471831175324e-19  1.013395591104949e+00
-1.366471831175324e-19  2.782748483516969e-17  4.214372660340343e-01
 1.013395591104949e+00  4.214372660340343e-01 -3.455417747963856e-17

-2.501667702372975e-17 -1.333186816779755e-19  1.013422600804307e+00
-1.333186816779755e-19  3.780331464065960e-17  4.207490473439546e-01
 1.013422600804307e+00  4.207490473439546e-01 -3.455897690240373e-17

-2.501872164957656e-17 -1.075650839528126e-19  1.013020268073841e+00
-1.075650839528126e-19 -3.729066585550744e-17  4.196794002867293e-01
 1.013020268073841e+00  4.196794002867293e-01 -3.455046663759570e-17

-2.501095406134187e-17 -9.666245398820281e-20  1.012641681123986e+00
-9.666245398820281e-20 -6.351322491517683e-17  4.204926406730530e-01
 1.012641681123986e+00  4.204926406730530e-01 -3.453346880582058e-17

-2.504633025328157e-17 -1.278767393121882e-19  1.013574803082591e+00
-1.278767393121882e-19  1.647133569991426e-17  4.196859808161136e-01
 1.013574803082591e+00  4.196859808161136e-01 -3.456488122495532e-17

-2.503919332780504e-17 -1.219494971105856e-19  1.011322748820287e+00
-1.219494971105856e-19  8.716334304787026e-18  4.217949559802377e-01
 1.011322748820287e+00  4.217949559802377e-01 -3.448711709107168e-17

-2.501927113106335e-17 -1.220873257296395e-19  1.011324711294515e+00
-1.220873257296395e-19  1.001766430165557e-17  4.203895847486522e-01
 1.011324711294515e+00  4.203895847486522e-01 -3.448652102517608e-17

-2.500621294001918e-17 -1.297104026520563e-19  1.010397556762740e+00
-1.297104026520563e-19  4.257186910106704e-17  4.203658145379729e-01
 1.010397556762740e+00  4.203658145379729e-01 -3.445903023054657e-17

-2.506242739701148e-17 -1.105367505335443e-19  1.013825102914276e+00
-1.105367505335443e-19 -2.019415165352610e-18  4.171735503796177e-01
 1.013825102914276e+00  4.171735503796177e-01 -3.458921920356365e-17

-2.507586499327632e-17 -8.375066572667385e-20  1.014175433162719e+00
-8.375066572667385e-20 -6.657744855276276e-17  4.193560113205467e-01
 1.014175433162719e+00  4.193560113205467e-01 -3.460049672199153e-17

-2.505871230689807e-17 -1.298521623735881e-19  1.011839619805829e+00
-1.298521623735881e-19  4.192008444556908e-17  4.193242249591811e-01
 1.011839619805829e+00  4.193242249591811e-01 -3.452526890109876e-17

-2.510494463470626e-17 -9.472840535783803e-20  1.011417829618273e+00
-9.472840535783803e-20 -1.323523677274841e-17  4.210630404944164e-01
 1.011417829618273e+00  4.210630404944164e-01 -3.450871744886149e-17

-2.505617777086956e-17 -6.984995567407429e-20  1.010092905959822e+00
-6.984995567407429e-20 -5.701598516852353e-17  4.209265171202554e-01
 1.010092905959822e+00  4.209265171202554e-01 -3.446576462968876e-17

-2.506884113578585e-17 -9.689310072102766e-20  1.009947496625449e+00
-9.689310072102766e-20 -1.725354345605102e-17  4.198578844714109e-01
 1.009947496625449e+00  4.198578844714109e-01 -3.446050688230871e-17

-2.510706829699394e-17 -9.315620467898770e-20  1.010931166113605e+00
-9.315620467898770e-20 -1.933850854241438e-17  4.209805681987442e-01
 1.010931166113605e+00  4.209805681987442e-01 -3.450624010707382e-17

-2.515650777638922e-17 -1.331243059448940e-19  1.014418851423603e+00
-1.331243059448940e-19  3.636023397031539e-17  4.201581651047946e-01
 1.014418851423603e+00  4.201581651047946e-01 -3.463087978481011e-17

-2.518079143666293e-17 -9.802004562674779e-20  1.015053006800741e+00
-9.802004562674779e-20 -1.247036764648148e-17  4.193922523776798e-01
 1.015053006800741e+00  4.193922523776798e-01 -3.465647678445127e-17

-2.517659713565833e-17 -1.156104953163903e-19  1.012293997814947e+00
-1.156104953163903e-19  8.968693178010248e-18  4.213388705715372e-01
 1.012293997814947e+00  4.213388705715372e-01 -3.456065914960995e-17

-2.514663905780539e-17 -1.145958288781498e-19  1.010154752665121e+00
-1.145958288781498e-19  2.353261049549636e-17  4.219504690970808e-01
 1.010154752665121e+00  4.219504690970808e-01 -3.449369898294981e-17

-2.519182376359651e-17 -8.991841283379418e-20  1.014032036937757e+00
-8.991841283379418e-20 -1.856891558351926e-17  4.182297917584067e-01
 1.014032036937757e+00  4.182297917584067e-01 -3.463053830339851e-17

-2.525458479375887e-17 -7.126044672514857e-20  1.016048993127182e+00
-7.126044672514857e-20 -2.721737949270016e-17  4.178590064485573e-01
 1.016048993127182e+00  4.178590064485573e-01 -3.470563719007113e-17

-2.526057395029510e-17 -7.950706185056706e-20  1.015610512785130e+00
-7.950706185056706e-20 -2.443778493449581e-17  4.210970541650086e-01
 1.015610512785130e+00  4.210970541650086e-01 -3.470068744582612e-17

-2.525257521770107e-17 -9.142278010876602e-20  1.012719871449308e+00
-9.142278010876602e-20 -1.104569937726960e-17  4.243337134669356e-01
 1.012719871449308e+00  4.243337134669356e-01 -3.460702557923609e-17

-2.530111004268178e-17 -1.123672360108979e-19  1.016805660778645e+00
-1.123672360108979e-19  2.639325937018198e-17  4.180110442451859e-01
 1.016805660778645e+00  4.180110442451859e-01 -3.474662586255217e-17

-2.527796419640413e-17 -1.083162481660658e-19  1.014602278596524e+00
-1.083162481660658e-19  2.753849247131199e-17  4.189617415976301e-01
 1.014602278596524e+00  4.189617415976301e-01 -3.467080024323425e-17

-2.526479547923719e-17 -5.865041156068030e-20  1.011920329305924e+00
-5.865041156068030e-20 -4.566621703243724e-17  4.229877154926742e-01
 1.011920329305924e+00  4.229877154926742e-01 -3.457863526989631e-17

-2.532102621995738e-17 -8.311806874439764e-20  1.016233345821749e+00
-8.311806874439764e-20 -3.864294353912293e-18  4.140049168381723e-01
 1.016233345821749e+00  4.140049168381723e-01 -3.473478345090792e-17

-2.537610599027687e-17 -5.127853062847518e-20  1.019760134520714e+00
-5.127853062847518e-20 -4.768522567001748e-17  4.123444153994545e-01
 1.019760134520714e+00  4.123444153994545e-01 -3.486408303615675e-17

-2.542129551262375e-17 -6.508953995938204e-20  1.016259389103340e+00
-6.508953995938204e-20 -1.874698762713248e-17  4.312254090667657e-01
 1.016259389103340e+00  4.312254090667657e-01 -3.477034162302911e-17

-2.537724039113310e-17 -7.979842915056898e-20  1.006274148247237e+00
-7.979842915056898e-20 -2.330503787536317e-18  4.370062413276243e-01
 1.006274148247237e+00  4.370062413276243e-01 -3.441518465423235e-17

-2.547340153966240e-17 -3.941594854261347e-20  1.024733208649066e+00
-3.941594854261347e-20 -3.939759127295301e-17  4.044725180609958e-01
 1.024733208649066e+00  4.044725180609958e-01 -3.505101940662869e-17

-2.536835638890468e-17 -3.156802202743327e-20  1.014275675369270e+00
-3.156802202743327e-20 -5.274894407811659e-17  4.168855080912330e-01
 1.014275675369270e+00  4.168855080912330e-01 -3.469118937475331e-17

-2.549801528350453e-17 -6.659186894934789e-20  1.021173007277650e+00
-6.659186894934789e-20  1.024655810583540e-17  4.182344749930866e-01
 1.021173007277650e+00  4.182344749930866e-01 -3.495055539104669e-17

-2.538056301260568e-17 -4.904325309988650e-20  1.010416420462989e+00
-4.904325309988650e-20 -2.700722236809994e-17  4.216779009824814e-01
 1.010416420462989e+00  4.216779009824814e-01 -3.457289673709264e-17

-2.540999949158733e-17 -5.521347732866851e-20  1.012747049606546e+00
-5.521347732866851e-20  2.478160903965170e-18  4.184073609806454e-01
 1.012747049606546e+00  4.184073609806454e-01 -3.465576899654213e-17

-2.545926638953246e-17 -6.103569649563615e-20  1.015941784130821e+00
-6.103569649563615e-20  9.040070650353057e-18  4.196491893888796e-01
 1.015941784130821e+00  4.196491893888796e-01 -3.476893414570341e-17

-2.554056004726446e-17 -2.244015887362706e-20  1.016521759852370e+00
-2.244015887362706e-20 -5.326122830795452e-17  4.178253530430437e-01
 1.016521759852370e+00  4.178253530430437e-01 -3.479183386908405e-17

-2.552140995228506e-17 -2.200052035875269e-20  1.019397623201306e+00
-2.200052035875269e-20 -5.282908518377768e-17  4.152335894330558e-01
 1.019397623201306e+00  4.152335894330558e-01 -3.489960143803600e-17

-2.559631880062504e-17 -7.000317874814638e-20  1.024821178110348e+00
-7.000317874814638e-20  3.983454322095209e-17  4.095070882384343e-01
 1.024821178110348e+00  4.095070882384343e-01 -3.509273410199949e-17

-2.556165336235149e-17 -3.059652471418464e-21  1.015120585469230e+00
-3.059652471418464e-21 -5.739065346370522e-17  4.209389870175790e-01
 1.015120585469230e+00  4.209389870175790e-01 -3.475076400054385e-17

-2.537132405412065e-17 -4.201956282959817e-20  1.005364347802795e+00
-4.201956282959817e-20  4.265637287902527e-18  4.253168236823635e-01
 1.005364347802795e+00  4.253168236823635e-01 -3.439484366687060e-17

-2.531837451012951e-17 -5.841666740805731e-20  1.004330229618340e+00
-5.841666740805731e-20  3.507864919003382e-17  4.099183685316191e-01
 1.004330229618340e+00  4.099183685316191e-01 -3.433885943798323e-17

-2.540045429045448e-17 -5.369430638586955e-21  1.010078491685353e+00
-5.369430638586955e-21 -8.153467319887364e-17  4.071372332671538e-01
 1.010078491685353e+00  4.071372332671538e-01 -3.454854312574920e-17

-2.551937354982765e-17 -5.313089374141506e-20  1.014769156176007e+00
-5.313089374141506e-20  1.594223013628803e-17  4.184998881390938e-01
 1.014769156176007e+00  4.184998881390938e-01 -3.473395121057048e-17

-2.544351993245167e-17 -5.566301609240576e-20  1.007748797394300e+00
-5.566301609240576e-20  6.273899917060443e-17  4.187710220401699e-01
 1.007748797394300e+00  4.187710220401699e-01 -3.448094757373494e-17

-2.545252814734303e-17 -2.199687157305344e-20  1.005534478194014e+00
-2.199687157305344e-20 -3.878494318463937e-17  4.220529111512125e-01
 1.005534478194014e+00  4.220529111512125e-01 -3.440436165795064e-17

-2.561722099457710e-17 -2.382777445555890e-20  1.013585397108537e+00
-2.382777445555890e-20 -7.031319200297328e-17  4.163225276559214e-01
 1.013585397108537e+00  4.163225276559214e-01 -3.469170204619868e-17

-2.555795675460510e-17 -4.374882375579708e-20  1.010613610255179e+00
-4.374882375579708e-20 -1.001077784069258e-17  4.126205044222543e-01
 1.010613610255179e+00  4.126205044222543e-01 -3.458307158364968e-17

-2.587233215907687e-17 -4.268740200986065e-20  1.035218339613659e+00
-4.268740200986065e-20  4.359033055928475e-18  3.919466421208106e-01
 1.035218339613659e+00  3.919466421208106e-01 -3.545312633543061e-17

-2.582195627594963e-17 -3.690878734824150e-20  1.023882204969514e+00
-3.690878734824150e-20 -1.010089800913166e-17  4.159605946896083e-01
 1.023882204969514e+00  4.159605946896083e-01 -3.508662054815850e-17

-2.563646788629570e-17 -3.185600164777991e-20  1.003896101237539e+00
-3.185600164777991e-20  1.131586156314141e-17  4.463692629342079e-01
 1.003896101237539e+00  4.463692629342079e-01 -3.437991066596468e-17

-2.568059319690300e-17 -4.946392255109808e-20  1.015984652472247e+00
-4.946392255109808e-20  1.833886151072094e-17  3.976616999429492e-01
 1.015984652472247e+00  3.976616999429492e-01 -3.476943966847616e-17

-2.560739455932000e-17 -3.759150666159795e-20  1.015580386315485e+00
-3.759150666159795e-20  6.583588130722906e-17  3.860752745599577e-01
 1.015580386315485e+00  3.860752745599577e-01 -3.472372708491979e-17

-2.558221660831922e-17 -5.063631203607295e-20  1.001973027405188e+00
-5.063631203607295e-20  5.252216527945710e-17  4.272716795131690e-01
 1.001973027405188e+00  4.272716795131690e-01 -3.428557684033446e-17

-2.573844625197494e-17 -3.359346018618469e-20  1.011963713576601e+00
-3.359346018618469e-20 -3.658742617355161e-17  4.266880721640809e-01
 1.011963713576601e+00  4.266880721640809e-01 -3.465330981646751e-17

-2.562090274793932e-17 -3.657478490988584e-20  1.006602584092509e+00
-3.657478490988584e-20 -2.265477706245732e-17  4.092975505032377e-01
 1.006602584092509e+00  4.092975505032377e-01 -3.443083835852406e-17

-2.567965152049176e-17 -6.763729954659177e-20  1.004060916522415e+00
-6.763729954659177e-20  2.183436992134356e-17  4.175270766518762e-01
 1.004060916522415e+00  4.175270766518762e-01 -3.434587213556103e-17

-2.573242049776074e-17 -3.467637162809028e-20  1.008327558546872e+00
-3.467637162809028e-20 -2.710380380393915e-17  4.185747971597247e-01
 1.008327558546872e+00  4.185747971597247e-01 -3.450866955262412e-17

-2.579289220348528e-17 -4.438299415030094e-20  1.008560302246656e+00
-4.438299415030094e-20  1.247708179192181e-18  4.177331632484074e-01
 1.008560302246656e+00  4.177331632484074e-01 -3.451743612059593e-17

-2.577546635786316e-17 -4.676134304908608e-20  1.006521775596987e+00
-4.676134304908608e-20  1.029312895926824e-18  4.175963944673364e-01
 1.006521775596987e+00  4.175963944673364e-01 -3.444299683506428e-17

-2.579118519637672e-17 -5.375310254893231e-20  1.005410222158957e+00
-5.375310254893231e-20 -4.787108088481126e-18  4.179712656382368e-01
 1.005410222158957e+00  4.179712656382368e-01 -3.439547131935416e-17

-2.580719877025865e-17 -4.546319606613088e-20  1.005436478341089e+00
-4.546319606613088e-20  6.742221896553422e-17  4.177764031345686e-01
 1.005436478341089e+00  4.177764031345686e-01 -3.439402302526668e-17

-2.581667405835631e-17 -7.026408580073288e-20  1.004216388735031e+00
-7.026408580073288e-20 -8.165981917956594e-17  4.186878941459118e-01
 1.004216388735031e+00  4.186878941459118e-01 -3.435531584054869e-17

-2.582934699920827e-17 -6.536697075219273e-20  1.004253616963023e+00
-6.536697075219273e-20 -4.568835157794567e-17  4.190624490405460e-01
 1.004253616963023e+00  4.190624490405460e-01 -3.435171894751714e-17

-2.585276957223993e-17 -5.198285667237202e-20  1.003886172411150e+00
-5.198285667237202e-20  8.143662302497936e-18  4.185350098601072e-01
 1.003886172411150e+00  4.185350098601072e-01 -3.433545971637511e-17

-2.588069009665529e-17 -5.236031969070397e-20  1.002888940113232e+00
-5.236031969070397e-20  1.441290345833822e-16  4.192883419608217e-01
 1.002888940113232e+00  4.192883419608217e-01 -3.430076975548517e-17

-2.588999747015702e-17 -7.465328611975120e-20  1.001039164661053e+00
-7.465328611975120e-20 -2.771159922176034e-17  4.216798874830294e-01
 1.001039164661053e+00  4.216798874830294e-01 -3.423188904405951e-17

-2.588252471391749e-17 -7.577249069467865e-20  9.973629598922014e-01
-7.577249069467865e-20 -5.258936684138520e-17  4.222118928522617e-01
 9.973629598922014e-01  4.222118928522617e-01 -3.409487654030007e-17

-2.589641541191127e-17 -8.002150672438328e-20  1.000039570660226e+00
-8.002150672438328e-20 -3.729553474048628e-18  4.140951372572614e-01
 1.000039570660226e+00  4.140951372572614e-01 -3.418281321364148e-17

-2.599325873879246e-17 -8.203296297958974e-20  1.005488280193592e+00
-8.203296297958974e-20 -3.694689038448585e-17  4.118830706262742e-01
 1.005488280193592e+00  4.118830706262742e-01 -3.438512625191689e-17

-2.597035950229702e-17 -8.994976261281461e-20  9.982489816516220e-01
-8.994976261281461e-20 -1.084976571970613e-16  4.312057642399520e-01
 9.982489816516220e-01  4.312057642399520e-01 -3.414333592067235e-17

-2.583997970653974e-17 -9.675472832386430e-20  9.853057374575344e-01
-9.675472832386430e-20 -1.309412417442466e-16  4.376334865199225e-01
 9.853057374575344e-01  4.376334865199225e-01 -3.366851172796766e-17

-2.598321255232717e-17 -1.149046906877560e-19  1.000345484177763e+00
-1.149046906877560e-19 -1.423926102369378e-16  4.016537695308523e-01
 1.000345484177763e+00  4.016537695308523e-01 -3.417002408319332e-17

-2.598754350583704e-17 -6.492481403266985e-20  1.001696902422957e+00
-6.492481403266985e-20  1.414010639571652e-16  3.932214023307818e-01
 1.001696902422957e+00  3.932214023307818e-01 -3.418677497705365e-17

-2.643001422162963e-17 -9.981968260413303e-20  1.016767240921774e+00
-9.981968260413303e-20 -1.326040628569412e-16  4.274473506280430e-01
 1.016767240921774e+00  4.274473506280430e-01 -3.485984854315830e-17

-2.684248309948696e-17 -8.988487437305332e-20  1.038017549948162e+00
-8.988487437305332e-20 -1.152009978342019e-16  4.271378591054744e-01
 1.038017549948162e+00  4.271378591054744e-01 -3.564941193345160e-17

-2.624669908459329e-17 -8.455489991248863e-20  9.976166577546732e-01
-8.455489991248863e-20 -1.148230308826457e-16  4.363272350964030e-01
 9.976166577546732e-01  4.363272350964030e-01 -3.414864739047793e-17

-2.621651772467629e-17 -1.315000960593231e-19  1.006579116561873e+00
-1.315000960593231e-19 -1.329307336358794e-16  3.924798067367319e-01
 1.006579116561873e+00  3.924798067367319e-01 -3.443890434916550e-17

-2.589242648277895e-17 -1.191139805573445e-19  9.800374521679855e-01
-1.191139805573445e-19 -1.619461764060303e-17  4.045468112804976e-01
 9.800374521679855e-01  4.045468112804976e-01 -3.345587772909487e-17

-2.639527220943067e-17 -1.205868722667540e-19  9.996720310517356e-01
-1.205868722667540e-19 -5.743306768819148e-17  4.296276751590005e-01
 9.996720310517356e-01  4.296276751590005e-01 -3.426994536799236e-17

-2.667647743916118e-17 -9.343176670872989e-20  1.012336545972199e+00
-9.343176670872989e-20 -7.735124802487274e-17  4.294664197300608e-01
 1.012336545972199e+00  4.294664197300608e-01 -3.477360495685075e-17

-2.701939578079616e-17 -1.068894213934585e-19  1.034317332763956e+00
-1.068894213934585e-19 -4.868748050488789e-17  4.186386932311205e-01
 1.034317332763956e+00  4.186386932311205e-01 -3.558104399048991e-17

-2.682394561351347e-17 -2.624923291626773e-20  1.003930553346964e+00
-2.624923291626773e-20 -1.229511677960997e-16  4.603237608819082e-01
 1.003930553346964e+00  4.603237608819082e-01 -3.455149156546267e-17

-2.751342087562758e-17 -8.561288606145057e-20  1.071470067173691e+00
-8.561288606145057e-20 -4.414020865049122e-17  3.705899571772776e-01
 1.071470067173691e+00  3.705899571772776e-01 -3.693233676453635e-17

-2.767278936501809e-17 -6.675374315635056e-20  1.087760595315155e+00
-6.675374315635056e-20 -7.576891953623794e-17  3.445669410753751e-01
 1.087760595315155e+00  3.445669410753751e-01 -3.749342812242279e-17

-2.710292582822741e-17 -5.688487167088465e-20  1.023210479694667e+00
-5.688487167088465e-20 -3.520173174608899e-17  4.254934281685183e-01
 1.023210479694667e+00  4.254934281685183e-01 -3.529562123561736e-17

-2.712210634177692e-17 -8.745693838773738e-20  1.020259125546046e+00
-8.745693838773738e-20  4.657900867161398e-17  4.147385294546070e-01
 1.020259125546046e+00  4.147385294546070e-01 -3.522892691672939e-17

-2.710860140829576e-17 -2.238569440554790e-20  1.012520977062285e+00
-2.238569440554790e-20  2.393204748093293e-17  4.144571203527927e-01
 1.012520977062285e+00  4.144571203527927e-01 -3.500893926802423e-17

-2.718444081389408e-17  4.169042855202749e-20  1.009584144012627e+00
 4.169042855202749e-20  1.249730197470354e-18  4.141454441554596e-01
 1.009584144012627e+00  4.141454441554596e-01 -3.495782645105939e-17

-2.732388344518714e-17  9.349259727959903e-20  1.010171324432623e+00
 9.349259727959903e-20 -2.148758013578875e-17  4.131592878157556e-01
 1.010171324432623e+00  4.131592878157556e-01 -3.501768733702663e-17

-2.754724012128834e-17  1.418317335844087e-19  1.015852443241155e+00
 1.418317335844087e-19 -7.100997758543826e-17  4.117056542192509e-01
 1.015852443241155e+00  4.117056542192509e-01 -3.524561272165712e-17

-2.790947756562382e-17  4.107377339565274e-20  1.030448675890334e+00
 4.107377339565274e-20  1.212363174888063e-16  4.110899015341005e-01
 1.030448675890334e+00  4.110899015341005e-01 -3.578701997292248e-17

-2.763144338633510e-17  2.080715577191781e-19  9.969799437015399e-01
 2.080715577191781e-19 -8.513695044592786e-17  4.600013926958253e-01
 9.969799437015399e-01  4.600013926958253e-01 -3.453738991607346e-17

-2.803415925082293e-17  8.934174255433475e-20  1.052929762252504e+00
 8.934174255433475e-20 -7.512162946510381e-17  3.178926482103172e-01
 1.052929762252504e+00  3.178926482103172e-01 -3.647080777573066e-17

-2.810531768878753e-17  1.342393342793606e-19  1.052822329665813e+00
 1.342393342793606e-19 -9.751587512010238e-17  3.252396440392490e-01
 1.052822329665813e+00  3.252396440392490e-01 -3.640280786353177e-17

-2.859799022105526e-17  8.466268177149713e-20  1.042911732649504e+00
 8.466268177149713e-20  5.548358938391446e-18  4.734308671764495e-01
 1.042911732649504e+00  4.734308671764495e-01 -3.639270463920063e-17

-2.757213843935649e-17  1.142617332914826e-19  9.841127118949856e-01
 1.142617332914826e-19  9.506740514430150e-17  4.215113087805137e-01
 9.841127118949856e-01  4.215113087805137e-01 -3.414439506076993e-17

-2.649182034828162e-17  2.692338604635990e-19  9.124934589841008e-01
 2.692338604635990e-19 -4.150355747288544e-18  3.946753096503398e-01
 9.124934589841008e-01  3.946753096503398e-01 -3.124298263561745e-17

-2.752496211128033e-17  2.059236199587845e-20  8.680232860805643e-01
 2.059236199587845e-20  5.802600803590148e-18  6.965563719535713e-01
 8.680232860805643e-01  6.965563719535713e-01 -3.131503601521504e-17

-2.809597812899710e-17  1.802813511711588e-19  9.317369394720241e-01
 1.802813511711588e-19  2.579862269350209e-17  5.813553343348141e-01
 9.317369394720241e-01  5.813553343348141e-01 -3.292372016343696e-17

-3.021731976783466e-17 -2.069219726311494e-19  1.153640393601395e+00
-2.069219726311494e-19  5.633626668648898e-17  2.481345109447153e-01
 1.153640393601395e+00  2.481345109447153e-01 -4.031935983700428e-17

-2.851547717655052e-17  1.369741816593055e-19  9.857405852425483e-01
 1.369741816593055e-19  4.857006301854710e-18  4.361177831452147e-01
 9.857405852425483e-01  4.361177831452147e-01 -3.455489075766177e-17

-2.879919836666333e-17  1.923566192486077e-19  9.927266786278749e-01
 1.923566192486077e-19  3.330392755888485e-17  4.522338806441644e-01
 9.927266786278749e-01  4.522338806441644e-01 -3.477710675038667e-17

-2.936776022171591e-17  2.662463056470513e-19  1.034558989740626e+00
 2.662463056470513e-19 -4.230882817758255e-17  4.125564721741424e-01
 1.034558989740626e+00  4.125564721741424e-01 -3.626926153538023e-17

-2.929584468783258e-17  2.603578087324722e-19  1.022156440982385e+00
 2.603578087324722e-19 -5.513081211842056e-17  4.132909188514182e-01
 1.022156440982385e+00  4.132909188514182e-01 -3.584484192355366e-17

-2.907620369074581e-17  3.293151580553036e-19  1.000984398307736e+00
 3.293151580553036e-19 -1.535194774175028e-16  4.106790921294648e-01
 1.000984398307736e+00  4.106790921294648e-01 -3.510189623736283e-17

-2.963623402704771e-17  2.952656638896522e-19  1.036538019665998e+00
 2.952656638896522e-19  3.351299066220290e-17  3.850268705703992e-01
 1.036538019665998e+00  3.850268705703992e-01 -3.641269925755469e-17

-2.975188124680722e-17  3.424634637745277e-19  1.017159584684391e+00
 3.424634637745277e-19 -2.676258328900805e-18  4.213278602484417e-01
 1.017159584684391e+00  4.213278602484417e-01 -3.584667899033199e-17

-2.987676666270664e-17  4.103991095270361e-19  1.004959258044234e+00
 4.103991095270361e-19  1.117688741080786e-18  4.206739892888046e-01
 1.004959258044234e+00  4.206739892888046e-01 -3.548486557174487e-17

-3.008160234926570e-17  4.743077731390184e-19  1.000141994869362e+00
 4.743077731390184e-19 -7.779551844877933e-17  4.261890820105759e-01
 1.000141994869362e+00  4.261890820105759e-01 -3.538892352188850e-17

-3.034527646370614e-17  5.534389711542382e-19  9.897002244340198e-01
 5.534389711542382e-19 -3.929832934092380e-17  4.221546659837438e-01
 9.897002244340198e-01  4.221546659837438e-01 -3.513470880352154e-17

-3.099364773887513e-17  6.550067177195980e-19  1.008199801430317e+00
 6.550067177195980e-19  2.441997105993009e-17  4.106513779781363e-01
 1.008199801430317e+00  4.106513779781363e-01 -3.591457329787551e-17

-3.128184064059915e-17  6.416563651962062e-19  1.011621306876660e+00
 6.416563651962062e-19  6.278302171091063e-17  4.109391401555889e-01
 1.011621306876660e+00  4.109391401555889e-01 -3.612283680881759e-17

-3.180786183055099e-17  7.711720536800513e-19  1.006692387392703e+00
 7.711720536800513e-19 -7.985978859152423e-17  4.196685252470644e-01
 1.006692387392703e+00  4.196685252470644e-01 -3.613396136467309e-17

-3.227437011640933e-17  8.643738956358023e-19  1.003178627875134e+00
 8.643738956358023e-19  3.319684775175639e-17  4.137867428505687e-01
 1.003178627875134e+00  4.137867428505687e-01 -3.616049998627831e-17

-3.294500944631042e-17  9.791083693888515e-19  1.007509926884675e+00
 9.791083693888515e-19 -7.307021617359113e-17  4.224260485643113e-01
 1.007509926884675e+00  4.224260485643113e-01 -3.652055078358718e-17

-3.368489028201103e-17  1.153844542806170e-18  1.008305752416971e+00
 1.153844542806170e-18 -7.440841253922808e-17  4.195790376124959e-01
 1.008305752416971e+00  4.195790376124959e-01 -3.680687020797514e-17

-3.409254197274324e-17  1.264077627170367e-18  9.998942028969864e-01
 1.264077627170367e-18  9.663435962589637e-17  4.253947315054706e-01
 9.998942028969864e-01  4.253947315054706e-01 -3.666396607363709e-17

-3.453211269128846e-17  1.407041177338974e-18  1.003898846887499e+00
 1.407041177338974e-18 -1.066381198447466e-16  4.135837575461968e-01
 1.003898846887499e+00  4.135837575461968e-01 -3.693330474153490e-17

-3.524316400311397e-17  1.522792687091916e-18  1.012815580974621e+00
 1.522792687091916e-18  4.717261405937703e-17  4.077582196270238e-01
 1.012815580974621e+00  4.077582196270238e-01 -3.744675178610014e-17

-3.606901337591620e-17  1.681925041345967e-18  1.016637736989239e+00
 1.681925041345967e-18 -5.925316043241875e-17  4.290715790096833e-01
 1.016637736989239e+00  4.290715790096833e-01 -3.786811121193803e-17

-3.677582382155135e-17  1.874755931705084e-18  1.013387526336490e+00
 1.874755931705084e-18  1.098687696713070e-17  4.241053982663978e-01
 1.013387526336490e+00  4.241053982663978e-01 -3.799428184154988e-17

-3.756790207950676e-17  2.198535894121158e-18  9.993774815141309e-01
 2.198535894121158e-18  1.264739518155460e-16  4.154099403163304e-01
 9.993774815141309e-01  4.154099403163304e-01 -3.781401467288941e-17

-3.876599110224484e-17  2.618189980699704e-18  9.890925141528711e-01
 2.618189980699704e-18  1.242772015722080e-16  4.201833021763851e-01
 9.890925141528711e-01  4.201833021763851e-01 -3.791466176859261e-17

-4.045923284382876e-17  3.081688222604903e-18  1.007685315697086e+00
 3.081688222604903e-18 -1.305569297023168e-16  3.992654387753569e-01
 1.007685315697086e+00  3.992654387753569e-01 -3.905812781834226e-17

-4.170440326139902e-17  3.277508398149178e-18  9.945935091900848e-01
 3.277508398149178e-18 -5.229810180964992e-17  4.619195182422648e-01
 9.945935091900848e-01  4.619195182422648e-01 -3.912613768963139e-17

-4.232925469237036e-17  3.646281405622112e-18  9.755633085563280e-01
 3.646281405622112e-18 -1.391423920807072e-16  4.809860679491209e-01
 9.755633085563280e-01  4.809860679491209e-01 -3.871330795776506e-17

-4.374090009471179e-17  4.122081398918152e-18  1.016550340724921e+00
 4.122081398918152e-18 -6.065076075951513e-17  3.846910264943937e-01
 1.016550340724921e+00  3.846910264943937e-01 -4.053182441848285e-17

-4.481482298500314e-17  4.638854139998872e-18  9.858610508569710e-01
 4.638854139998872e-18  1.137971103320644e-17  4.042605382575025e-01
 9.858610508569710e-01  4.042605382575025e-01 -3.991212207452096e-17

-4.591970065276216e-17  4.961922934899935e-18  9.774729387986569e-01
 4.961922934899935e-18  4.546341371788860e-17  4.316917969605664e-01
 9.774729387986569e-01  4.316917969605664e-01 -4.004766714844637e-17

-4.739959145843027e-17  5.424494235934886e-18  9.900466264636263e-01
 5.424494235934886e-18 -6.593439577605754e-17  4.291041336449517e-01
 9.900466264636263e-01  4.291041336449517e-01 -4.095354057043086e-17

-4.894981424211919e-17  5.941933996675613e-18  1.004007372570813e+00
 5.941933996675613e-18 -2.040922664780338e-17  4.110148224010142e-01
 1.004007372570813e+00  4.110148224010142e-01 -4.192414660927186e-17

-5.061814388059960e-17  6.518494248449098e-18  1.006614091398049e+00
 6.518494248449098e-18 -1.161347706019066e-17  4.107364567578665e-01
 1.006614091398049e+00  4.107364567578665e-01 -4.257452183291452e-17

-5.259057900920724e-17  7.224451178802280e-18  1.005030027911366e+00
 7.224451178802280e-18 -5.885679628924256e-17  4.209503051312775e-01
 1.005030027911366e+00  4.209503051312775e-01 -4.318188463169171e-17

-5.439440265318034e-17  7.869330626441587e-18  1.013784505583434e+00
 7.869330626441587e-18  2.773446664377644e-17  4.141914927701627e-01
 1.013784505583434e+00  4.141914927701627e-01 -4.407498283325596e-17

-5.829939597307058e-17  9.508986923617884e-18  1.004137734161954e+00
 9.508986923617884e-18  4.462265731017019e-17  4.113488643606980e-01
 1.004137734161954e+00  4.113488643606980e-01 -4.507350356669808e-17

-6.210332770234624e-17  1.104817530743765e-17  1.015817291134586e+00
 1.104817530743765e-17 -1.727443829984922e-16  4.040553625071156e-01
 1.015817291134586e+00  4.040553625071156e-01 -4.671680831728418e-17

-6.399306242486774e-17  1.177336654599420e-17  9.959835781111153e-01
 1.177336654599420e-17 -1.485795505125042e-16  4.388183060718536e-01
 9.959835781111153e-01  4.388183060718536e-01 -4.673506796171241e-17

-6.820380618455724e-17  1.340750306239805e-17  1.020801064315320e+00
 1.340750306239805e-17 -1.378344383394148e-16  4.230481571470195e-01
 1.020801064315320e+00  4.230481571470195e-01 -4.892383184140314e-17

-7.516738976744476e-17  1.662617140282071e-17  1.016363474257840e+00
 1.662617140282071e-17 -7.648627332685352e-17  4.138087399766761e-01
 1.016363474257840e+00  4.138087399766761e-01 -5.106562368119297e-17

-8.238032519168063e-17  1.997480148164267e-17  1.013453989756289e+00
 1.997480148164267e-17 -1.156014472820906e-16  4.183221539102384e-01
 1.013453989756289e+00  4.183221539102384e-01 -5.332509632222538e-17

-8.796918283448967e-17  2.255025481519187e-17  1.012101316357740e+00
 2.255025481519187e-17 -6.706910557183100e-17  4.252410648812721e-01
 1.012101316357740e+00  4.252410648812721e-01 -5.509376710064497e-17

-9.636372872969647e-17  2.660512444170514e-17  1.021090762880395e+00
 2.660512444170514e-17 -1.704553175712113e-16  4.141631689238922e-01
 1.021090762880395e+00  4.141631689238922e-01 -5.808191664976869e-17

-1.091976384759717e-16  3.279705584085253e-17  1.029857488070836e+00
 3.279705584085253e-17 -1.905773769551471e-16  4.162283507198189e-01
 1.029857488070836e+00  4.162283507198189e-01 -6.249268956146532e-17

-1.167966367280693e-16  3.649854425049849e-17  1.018339833934025e+00
 3.649854425049849e-17 -1.060798291691711e-16  4.333432118290079e-01
 1.018339833934025e+00  4.333432118290079e-01 -6.454679594689013e-17

-1.262984390353381e-16  4.134557253026453e-17  1.027606824395568e+00
 4.134557253026453e-17 -8.442635333508448e-17  4.256342994018370e-01
 1.027606824395568e+00  4.256342994018370e-01 -6.782143609137379e-17

-1.489296124909456e-16  5.372844915885351e-17  1.023173199243545e+00
 5.372844915885351e-17 -1.164107478401012e-16  4.168138732644883e-01
 1.023173199243545e+00  4.168138732644883e-01 -7.470606361987981e-17

-1.940376100150484e-16  7.871625595502038e-17  1.014690753504286e+00
 7.871625595502038e-17 -1.863129066450046e-16  4.199938222615270e-01
 1.014690753504286e+00  4.199938222615270e-01 -8.812101299165703e-17

-2.495713371787001e-16  1.093807615810723e-16  1.012336826632953e+00
 1.093807615810723e-16 -2.210852235035448e-16  4.210296207625517e-01
 1.012336826632953e+00  4.210296207625517e-01 -1.045193028439311e-16

-3.186104071555158e-16  1.473024566789922e-16  1.008826820449106e+00
 1.473024566789922e-16 -6.562163148859157e-16  4.192931796945470e-01
 1.008826820449106e+00  4.192931796945470e-01 -1.245459759186690e-16

-4.071908481016822e-16  1.939420420326873e-16  1.004504556243023e+00
 1.939420420326873e-16 -3.799707390703454e-16  4.231665703840255e-01
 1.004504556243023e+00  4.231665703840255e-01 -1.498645172540880e-16

-4.801757986985437e-16  2.307637909425151e-16  1.005164871662027e+00
 2.307637909425151e-16 -5.135755677488595e-16  4.219222768627495e-01
 1.005164871662027e+00  4.219222768627495e-01 -1.706325269729173e-16

-6.393888921293227e-16  3.075885251998881e-16  1.005838254791458e+00
 3.075885251998881e-16 -3.587865590550913e-16  4.178115860805531e-01
 1.005838254791458e+00  4.178115860805531e-01 -2.157691314539307e-16

-1.045998753284265e-15  4.738598187416149e-16  1.005215838993391e+00
 4.738598187416149e-16 -1.183975024632061e-15  4.168995258644125e-01
 1.005215838993391e+00  4.168995258644125e-01 -3.319438862950825e-16

-1.677252074412544e-15  6.550196641953236e-16  1.006834271987639e+00
 6.550196641953236e-16 -1.059896718362006e-15  4.272726071523592e-01
 1.006834271987639e+00  4.272726071523592e-01 -5.208133329349563e-16

-2.243424183678503e-15  7.706086092355744e-16  1.006753111199945e+00
 7.706086092355744e-16 -1.367811907102673e-15  4.269665877779892e-01
 1.006753111199945e+00  4.269665877779892e-01 -7.015623292317815e-16

-3.443743440354580e-15  8.582308758645021e-16  1.005735308717237e+00
 8.582308758645021e-16 -1.465562485603388e-15  4.146967358849941e-01
 1.005735308717237e+00  4.146967358849941e-01 -1.130660224807879e-15

-5.006113061758384e-15  7.390956304018026e-16  1.008755354646229e+00
 7.390956304018026e-16 -1.741552536953645e-15  4.160479907258898e-01
 1.008755354646229e+00  4.160479907258898e-01 -1.788493876881474e-15

-7.101981344147579e-15  3.445408431188210e-16  1.004982740584669e+00
 3.445408431188210e-16 -1.854177274281305e-15  4.271877355051639e-01
 1.004982740584669e+00  4.271877355051639e-01 -2.810268722253235e-15

-9.964487239993149e-15 -4.099281684561309e-16  1.005842576762432e+00
-4.099281684561309e-16 -2.076670066435787e-15  4.237768961780892e-01
 1.005842576762432e+00  4.237768961780892e-01 -4.403278955369013e-15

-1.440888512729622e-14 -1.855071982462220e-15  1.011561594881349e+00
-1.855071982462220e-15 -2.279620105315082e-15  4.142210212160408e-01
 1.011561594881349e+00  4.142210212160408e-01 -7.055100505153015e-15

 2.267514134653712e-14 -2.634974148440277e-14  1.008868945432618e+00
-2.634974148440277e-14  3.437752325158988e-14  4.205715719427998e-01
 1.008868945432618e+00  4.205715719427998e-01  7.294888410396269e-17

-6.171498581718260e-13  1.474103184034016e-13  1.008169500350095e+00
 1.474103184034016e-13 -2.501321092050280e-13  4.221380620303462e-01
 1.008169500350095e+00  4.221380620303462e-01 -2.190936115414522e-13

 8.820002420129268e-14 -2.274973336856454e-14  1.007772918464262e+00
-2.274973336856454e-14  5.536667657150198e-14  4.166998910240385e-01
 1.007772918464262e+00  4.166998910240385e-01  1.798061348893767e-14

-6.537636984276651e-13  1.530946696682431e-13  1.008814776129733e+00
 1.530946696682431e-13 -3.312206938816851e-13  4.174557188712009e-01
 1.008814776129733e+00  4.174557188712009e-01 -1.632341052119622e-13

-8.644104621542808e-15  1.142506367715824e-14  1.005518578382318e+00
 1.142506367715824e-14  9.607941078476790e-16  4.148168169585596e-01
 1.005518578382318e+00  4.148168169585596e-01 -1.013365603662959e-14

-4.182954203842539e-15  9.333017813625042e-15  1.004207312116014e+00
 9.333017813625042e-15  9.087320416694114e-16  4.268600105259369e-01
 1.004207312116014e+00  4.268600105259369e-01 -4.852235103917041e-15

-3.201336004802790e-15  7.458194009288071e-15  1.002334193720891e+00
 7.458194009288071e-15  1.500764622044457e-15  4.300810470197647e-01
 1.002334193720891e+00  4.300810470197647e-01 -3.517421317866472e-15

-2.564383102926089e-15  4.445305650518567e-15  1.007383476783325e+00
 4.445305650518567e-15  1.666516032230490e-15  4.142527798296666e-01
 1.007383476783325e+00  4.142527798296666e-01 -2.062919124463475e-15

-1.744346377429505e-15  1.659638456272486e-15  1.005425497481106e+00
 1.659638456272486e-15  1.075371289580676e-15  4.174810533878758e-01
 1.005425497481106e+00  4.174810533878758e-01 -9.505629810556944e-16

-1.144381165927351e-15  6.485978219719791e-16  1.008260200060303e+00
 6.485978219719791e-16  5.650094592217735e-16  4.172341185282596e-01
 1.008260200060303e+00  4.172341185282596e-01 -5.224907324461980e-16

-8.237785893618775e-16  3.210337701449346e-16  1.008371007086180e+00
 3.210337701449346e-16  3.112155033940998e-16  4.166066378219523e-01
 1.008371007086180e+00  4.166066378219523e-01 -3.542109622570593e-16

-5.545348045572011e-16  1.340973454190861e-16  1.008673580811970e+00
 1.340973454190861e-16  1.303485362238796e-16  4.167722845903776e-01
 1.008673580811970e+00  4.167722845903776e-01 -2.333514322020689e-16

-3.647072236356931e-16  4.813358823643147e-17  1.005710617332073e+00
 4.813358823643147e-17  3.565090097798617e-17  4.169809679229495e-01
 1.005710617332073e+00  4.169809679229495e-01 -1.568177038120513e-16

-2.893176964038833e-16  2.485467369181068e-17  1.015167370755367e+00
 2.485467369181068e-17 -1.896242145103095e-17  4.056925605241349e-01
 1.015167370755367e+00  4.056925605241349e-01 -1.284435101815902e-16

-2.526617126956452e-16  1.582356086056894e-17  1.014402178558505e+00
 1.582356086056894e-17 -4.122078998512277e-17  4.177190771580551e-01
 1.014402178558505e+00  4.177190771580551e-01 -1.147899948404748e-16

-2.031017143354397e-16  5.918688615949831e-18  1.019312074823448e+00
 5.918688615949831e-18 -2.940531077685204e-17  4.176533171636512e-01
 1.019312074823448e+00  4.176533171636512e-01 -9.680339316297502e-17

-1.609989427896307e-16  3.785469392088462e-19  1.006297433381614e+00
 3.785469392088462e-19 -3.713148458483519e-17  4.151192771252066e-01
 1.006297433381614e+00  4.151192771252066e-01 -8.126721258954593e-17

-1.148547510823025e-16 -7.331212691667448e-19  1.001763707984803e+00
-7.331212691667448e-19 -2.255160139954480e-17  4.169753676821560e-01
 1.001763707984803e+00  4.169753676821560e-01 -7.235221528797247e-17

-1.067341997572790e-16 -3.281473877137250e-18  1.004747733183328e+00
-3.281473877137250e-18 -2.780359033256851e-17  4.164271165119111e-01
 1.004747733183328e+00  4.164271165119111e-01 -6.204716244206731e-17

-9.315777751696495e-17 -3.489643941502795e-18  1.005696762235525e+00
-3.489643941502795e-18 -2.716381391967952e-17  4.153932380107439e-01
 1.005696762235525e+00  4.153932380107439e-01 -5.730414802493483e-17

-8.262742881892374e-17 -3.415297040938674e-18  1.005656024624160e+00
-3.415297040938674e-18 -4.781728063196744e-17  4.151063377209095e-01
 1.005656024624160e+00  4.151063377209095e-01 -5.364660073388951e-17

-7.381264564861547e-17 -3.255261724471503e-18  1.002919105181193e+00
-3.255261724471503e-18 -3.793407870660399e-17  4.147375076567070e-01
 1.002919105181193e+00  4.147375076567070e-01 -5.050787855693913e-17

-6.701142342581208e-17 -3.022621992690524e-18  9.987388047004422e-01
-3.022621992690524e-18 -3.739651680921722e-17  4.145945160942137e-01
 9.987388047004422e-01  4.145945160942137e-01 -4.800885545616438e-17

-6.143048994052052e-17 -2.767017495905590e-18  9.954040836398503e-01
-2.767017495905590e-18 -3.689010834496168e-17  4.128257892673922e-01
 9.954040836398503e-01  4.128257892673922e-01 -4.596609929740781e-17

-5.800222671982682e-17 -2.569369489812132e-18  9.988490512188419e-01
-2.569369489812132e-18 -2.601421900543708e-17  4.115256947276456e-01
 9.988490512188419e-01  4.115256947276456e-01 -4.489983510888523e-17

-5.445547585913135e-17 -2.332669132171245e-18  9.951627318188688e-01
-2.332669132171245e-18 -3.762348076947624e-17  4.240488015293190e-01
 9.951627318188688e-01  4.240488015293190e-01 -4.357837840232736e-17

-5.118759797660118e-17 -2.135159597771338e-18  9.949600538494178e-01
-2.135159597771338e-18 -3.971137980619822e-17  3.911584866784328e-01
 9.949600538494178e-01  3.911584866784328e-01 -4.244050340059971e-17

-4.929603327252299e-17 -1.995365782600891e-18  9.950315163191620e-01
-1.995365782600891e-18 -2.744643399884960e-17  3.863066358900497e-01
 9.950315163191620e-01  3.863066358900497e-01 -4.177606519107458e-17

-4.731416942049164e-17 -1.767229313434163e-18  1.015996489377019e+00
-1.767229313434163e-18 -3.456015800303892e-17  4.226898171254355e-01
 1.015996489377019e+00  4.226898171254355e-01 -4.180212229472455e-17

-4.518697866334744e-17 -1.565907611686370e-18  1.025388301072107e+00
-1.565907611686370e-18 -3.381480723466307e-17  4.154102411542713e-01
 1.025388301072107e+00  4.154102411542713e-01 -4.134642618064281e-17

-4.300160372066169e-17 -1.436147549481617e-18  1.008466567697861e+00
-1.436147549481617e-18 -3.291870363029108e-17  4.070347470231455e-01
 1.008466567697861e+00  4.070347470231455e-01 -4.003425120117851e-17

-4.130707930575989e-17 -1.322810603880057e-18  1.002434072614260e+00
-1.322810603880057e-18 -3.516148504294185e-17  4.101150455421073e-01
 1.002434072614260e+00  4.101150455421073e-01 -3.925734364755645e-17

-3.993575683853777e-17 -1.196729764333961e-18  1.004068971041957e+00
-1.196729764333961e-18 -2.845970956672314e-17  4.167161030309098e-01
 1.004068971041957e+00  4.167161030309098e-01 -3.883612607472079e-17

-3.862740037861532e-17 -1.078950995804540e-18  1.008376114341555e+00
-1.078950995804540e-18 -2.000568407446039e-17  4.146386569563323e-01
 1.008376114341555e+00  4.146386569563323e-01 -3.852844055199337e-17

-3.768241166543415e-17 -9.758526669750272e-19  1.020972415861691e+00
-9.758526669750272e-19 -1.958878806831979e-17  4.068036056275059e-01
 1.020972415861691e+00  4.068036056275059e-01 -3.858604774390799e-17

-3.703018624186867e-17 -9.191053085095402e-19  1.012113716821138e+00
-9.191053085095402e-19 -1.522344880399934e-17  4.248025101687422e-01
 1.012113716821138e+00  4.248025101687422e-01 -3.809689816490448e-17

-3.663557775236931e-17 -8.792377323608695e-19  1.018653102377096e+00
-8.792377323608695e-19 -2.590925808534205e-17  4.235860717260815e-01
 1.018653102377096e+00  4.235860717260815e-01 -3.817677965716260e-17

-3.567789200701731e-17 -8.057394578213770e-19  1.017042853315870e+00
-8.057394578213770e-19 -2.554031913573959e-17  4.114124055186490e-01
 1.017042853315870e+00  4.114124055186490e-01 -3.778408969073918e-17

-3.473906583926163e-17 -7.374588100960715e-19  1.010320755092046e+00
-7.374588100960715e-19 -1.827941289227643e-17  4.143247459308809e-01
 1.010320755092046e+00  4.143247459308809e-01 -3.726005574307402e-17

-3.426159833604291e-17 -6.912321512108934e-19  1.011729371408804e+00
-6.912321512108934e-19 -8.138765555841640e-18  4.126466138108255e-01
 1.011729371408804e+00  4.126466138108255e-01 -3.712946988299534e-17

-3.371113708770450e-17 -6.481245376304840e-19  1.010177442034317e+00
-6.481245376304840e-19 -3.683981726736455e-18  4.146469687995410e-01
 1.010177442034317e+00  4.146469687995410e-01 -3.691268651842345e-17

-3.320758904765281e-17 -6.068068683223873e-19  1.012114079792605e+00
-6.068068683223873e-19 -2.034560306606258e-17  4.113773322326068e-01
 1.012114079792605e+00  4.113773322326068e-01 -3.680215023645927e-17

-3.277725325259544e-17 -5.686249670502365e-19  1.013536534256432e+00
-5.686249670502365e-19 -9.403648008971896e-18  4.104930481946020e-01
 1.013536534256432e+00  4.104930481946020e-01 -3.671081918557241e-17

-3.247257819354550e-17 -5.287712974636317e-19  1.020572886657871e+00
-5.287712974636317e-19 -1.656602562286937e-17  4.108751747106325e-01
 1.020572886657871e+00  4.108751747106325e-01 -3.682939297881757e-17

-3.198608502738527e-17 -4.861426638040494e-19  1.009638432356238e+00
-4.861426638040494e-19 -1.875630186685833e-17  4.323344532165150e-01
 1.009638432356238e+00  4.323344532165150e-01 -3.630977535960725e-17

-3.087772148929005e-17 -4.860373794359135e-19  9.716247199148171e-01
-4.860373794359135e-19 -2.460779426744920e-17  4.176983991803805e-01
 9.716247199148171e-01  4.176983991803805e-01 -3.476888035684245e-17

-3.001529524154259e-17 -4.299227250284928e-19  9.523584155037652e-01
-4.299227250284928e-19 -2.376230554607130e-17  4.129593289466758e-01
 9.523584155037652e-01  4.129593289466758e-01 -3.384136194748285e-17

-3.061683809579065e-17 -4.101060151890483e-19  1.008685539966290e+00
-4.101060151890483e-19 -1.562497694607516e-17  4.163511773329944e-01
 1.008685539966290e+00  4.163511773329944e-01 -3.586720655422762e-17

-3.065835463363868e-17 -4.039969783853192e-19  1.013020743420007e+00
-4.039969783853192e-19 -1.673806152427370e-17  4.511145341580028e-01
 1.013020743420007e+00  4.511145341580028e-01 -3.604785222044748e-17

-3.030667108304467e-17 -3.579459739638992e-19  1.013655245559250e+00
-3.579459739638992e-19 -1.886644487314282e-17  4.145951229155569e-01
 1.013655245559250e+00  4.145951229155569e-01 -3.590341438010284e-17

-2.979921655766841e-17 -3.571233586507073e-19  1.002772641758925e+00
-3.571233586507073e-19 -2.797553473950684e-17  3.826513674000961e-01
 1.002772641758925e+00  3.826513674000961e-01 -3.539235559345683e-17

-2.982742050202651e-17 -3.370233636271809e-19  1.012352656692978e+00
-3.370233636271809e-19 -2.453140476534441e-17  3.956322859691200e-01
 1.012352656692978e+00  3.956322859691200e-01 -3.570133159304959e-17

-2.978276733660355e-17 -3.379603844260341e-19  1.010459030307522e+00
-3.379603844260341e-19 -1.240010928257117e-17  4.229665466769296e-01
 1.010459030307522e+00  4.229665466769296e-01 -3.564476250772208e-17

-2.948415750717343e-17 -3.087488836872055e-19  1.012453012950254e+00
-3.087488836872055e-19 -6.111934128126265e-18  4.079707253212134e-01
 1.012453012950254e+00  4.079707253212134e-01 -3.560632222153793e-17

-2.907277076440767e-17 -3.034995148150675e-19  9.988494748473363e-01
-3.034995148150675e-19 -2.346912108640433e-17  4.170016361518135e-01
 9.988494748473363e-01  4.170016361518135e-01 -3.503507195519072e-17

-2.887681636610473e-17 -2.755200548833642e-19  9.997040289181885e-01
-2.755200548833642e-19 -1.271990053175852e-17  4.145414660254247e-01
 9.997040289181885e-01  4.145414660254247e-01 -3.501054728917691e-17

-2.857468683687821e-17 -2.725380013818828e-19  9.905894445093606e-01
-2.725380013818828e-19 -2.417700139325781e-17  4.194373673487572e-01
 9.905894445093606e-01  4.194373673487572e-01 -3.462800483194382e-17

-2.850775099459201e-17 -2.630118553202314e-19  9.925861474703171e-01
-2.630118553202314e-19 -4.676121299380833e-18  4.227873415606432e-01
 9.925861474703171e-01  4.227873415606432e-01 -3.467993163774724e-17

-2.845433325330151e-17 -2.512190498734858e-19  1.000992222376718e+00
-2.512190498734858e-19 -2.765377349028430e-17  4.152878019634452e-01
 1.000992222376718e+00  4.152878019634452e-01 -3.493067828633005e-17

-2.847781527550809e-17 -2.494520058683698e-19  1.013388692223047e+00
-2.494520058683698e-19 -2.366636913277826e-17  3.953944539996552e-01
 1.013388692223047e+00  3.953944539996552e-01 -3.532381149803103e-17

-2.822128455865941e-17 -2.471192301987063e-19  1.005904086110213e+00
-2.471192301987063e-19 -2.060436386149185e-17  4.010890948427080e-01
 1.005904086110213e+00  4.010890948427080e-01 -3.502726081381678e-17

-2.782214647673232e-17 -2.318583547458079e-19  9.759984791691191e-01
-2.318583547458079e-19 -1.281419976803669e-17  4.373771855420950e-01
 9.759984791691191e-01  4.373771855420950e-01 -3.393371008072855e-17

-2.748028808387018e-17 -2.095778298138310e-19  9.697104095992587e-01
-2.095778298138310e-19 -1.086742402810214e-17  4.335612995957642e-01
 9.697104095992587e-01  4.335612995957642e-01 -3.363803240175263e-17

-2.753881009518825e-17 -2.455964581299446e-19  1.001921056844425e+00
-2.455964581299446e-19 -2.357384298056860e-17  3.589917725933146e-01
 1.001921056844425e+00  3.589917725933146e-01 -3.474310789473087e-17

-2.815176818000539e-17 -2.483521454022623e-19  1.069514949228480e+00
-2.483521454022623e-19 -1.907382726574797e-17  2.839075517994852e-01
 1.069514949228480e+00  2.839075517994852e-01 -3.709882222015032e-17

-2.667837382517366e-17 -2.100049643203019e-19  9.362615436505873e-01
-2.100049643203019e-19 -1.569707038196878e-17  4.293074906577687e-01
 9.362615436505873e-01  4.293074906577687e-01 -3.237863524419319e-17

-2.703747693341193e-17 -1.911351259403380e-19  9.620875745473084e-01
-1.911351259403380e-19 -1.422449372492926e-17  4.330895251656390e-01
 9.620875745473084e-01  4.330895251656390e-01 -3.330842686348017e-17

-2.734397538165406e-17 -1.530171148224528e-19  9.951602279381845e-01
-1.530171148224528e-19 -2.142109237577717e-17  3.984085809634403e-01
 9.951602279381845e-01  3.984085809634403e-01 -3.445420619166179e-17

-2.746760038802134e-17 -1.488376003831701e-19  9.995219920884683e-01
-1.488376003831701e-19 -2.010362849149732e-17  4.165782615967046e-01
 9.995219920884683e-01  4.165782615967046e-01 -3.466697793894524e-17

-2.732488654204637e-17 -1.139171355307579e-19  9.825804350788476e-01
-1.139171355307579e-19 -9.043708790553679e-18  4.524228317007046e-01
 9.825804350788476e-01  4.524228317007046e-01 -3.410591765464110e-17

-2.781389705770086e-17 -7.119933946000115e-20  1.040859579517819e+00
-7.119933946000115e-20 -1.210127344274653e-17  3.537855446593969e-01
 1.040859579517819e+00  3.537855446593969e-01 -3.608097519223728e-17

-2.784721616134114e-17 -2.864575534404074e-20  1.042760287690994e+00
-2.864575534404074e-20 -1.334389044909425e-17  3.542529527244911e-01
 1.042760287690994e+00  3.542529527244911e-01 -3.610863740816541e-17

-2.844210170858665e-17 -5.165801393794877e-20  1.059300377638924e+00
-5.165801393794877e-20 -4.269957950876184e-18  4.354781382753801e-01
 1.059300377638924e+00  4.354781382753801e-01 -3.697127706536928e-17

-2.813895892715344e-17 -7.629738206998377e-21  1.038962386949646e+00
-7.629738206998377e-21 -6.337288725290868e-18  4.492716913883793e-01
 1.038962386949646e+00  4.492716913883793e-01 -3.610657240411177e-17

-2.753205512626189e-17 -1.167790924713279e-19  1.018266353393025e+00
-1.167790924713279e-19 -2.032472891745854e-17  4.013488556364423e-01
 1.018266353393025e+00  4.013488556364423e-01 -3.522413799613295e-17

-2.755945250946271e-17 -1.304472521095972e-19  1.031689663921808e+00
-1.304472521095972e-19 -7.153041469789343e-18  3.954346103907170e-01
 1.031689663921808e+00  3.954346103907170e-01 -3.549316029962765e-17

-2.758900542044720e-17 -2.124417149076949e-19  1.017735997404281e+00
-2.124417149076949e-19 -9.695160035666963e-19  4.617379378241289e-01
 1.017735997404281e+00  4.617379378241289e-01 -3.513291760850967e-17

-2.793100009162378e-17 -2.687358274491372e-19  1.043336365794143e+00
-2.687358274491372e-19 -6.415108815257172e-18  4.706418574422773e-01
 1.043336365794143e+00  4.706418574422773e-01 -3.603861576834627e-17

-2.809121579494717e-17 -2.960104537776501e-19  1.073578947788118e+00
-2.960104537776501e-19 -9.184925848063307e-18  4.182591103738384e-01
 1.073578947788118e+00  4.182591103738384e-01 -3.696250256617223e-17

-2.787895329107807e-17 -3.250694317484057e-19  1.063557080764917e+00
-3.250694317484057e-19 -2.109729930702928e-17  4.215384746987639e-01
 1.063557080764917e+00  4.215384746987639e-01 -3.657153004122464e-17

-2.743030081234510e-17 -3.467897717742802e-19  1.028123194040334e+00
-3.467897717742802e-19 -1.590306163109655e-17  4.596044334985569e-01
 1.028123194040334e+00  4.596044334985569e-01 -3.529455539127694e-17

-2.711999066239350e-17 -3.366802733416990e-19  1.023931468882301e+00
-3.366802733416990e-19 -1.952333161258463e-18  4.317093566815254e-01
 1.023931468882301e+00  4.317093566815254e-01 -3.505983366033286e-17

-2.751851606128949e-17 -3.192494538507617e-19  1.066943207514195e+00
-3.192494538507617e-19 -3.007677913769391e-17  3.780194712658333e-01
 1.066943207514195e+00  3.780194712658333e-01 -3.649551100434450e-17

-2.736748446823833e-17 -3.563542180289928e-19  1.044927281463171e+00
-3.563542180289928e-19 -2.724531983173972e-17  4.344228483625056e-01
 1.044927281463171e+00  4.344228483625056e-01 -3.589232542127132e-17

-2.769660057221796e-17 -3.126767340929282e-19  1.065672413284819e+00
-3.126767340929282e-19 -1.027242739833420e-17  4.616828319930731e-01
 1.065672413284819e+00  4.616828319930731e-01 -3.674600925242042e-17

-2.698231328806391e-17 -2.876968108908537e-19  1.033316369020590e+00
-2.876968108908537e-19 -1.652109098795976e-17  4.177018318424575e-01
 1.033316369020590e+00  4.177018318424575e-01 -3.549219562600209e-17

-2.644885117981391e-17 -2.436092043888235e-19  1.012495370419027e+00
-2.436092043888235e-19 -3.469424647930824e-19  3.833565161918088e-01
 1.012495370419027e+00  3.833565161918088e-01 -3.467733700089803e-17

-2.650539772286460e-17 -2.518686046967755e-19  1.003491957953257e+00
-2.518686046967755e-19 -2.417464034393306e-17  4.520291036923801e-01
 1.003491957953257e+00  4.520291036923801e-01 -3.448968074457712e-17

-2.653015008738750e-17 -2.011720070385455e-19  1.004256866793052e+00
-2.011720070385455e-19 -4.944676919173734e-18  4.568462652845504e-01
 1.004256866793052e+00  4.568462652845504e-01 -3.453104380272104e-17

-2.667866521185701e-17 -2.300668689798402e-19  1.029117193034714e+00
-2.300668689798402e-19 -4.889907146318407e-17  4.093020232147613e-01
 1.029117193034714e+00  4.093020232147613e-01 -3.536180715597360e-17

-2.649143544564398e-17 -1.801910492985610e-19  1.017854732864758e+00
-1.801910492985610e-19 -2.325180720630557e-17  4.151521296309305e-01
 1.017854732864758e+00  4.151521296309305e-01 -3.494510208889332e-17

-2.644118393973585e-17 -2.372865892600034e-19  1.010462281627127e+00
-2.372865892600034e-19 -3.923702116616839e-17  4.264466572885122e-01
 1.010462281627127e+00  4.264466572885122e-01 -3.469398650097849e-17

-2.644819165089417e-17 -1.778869018169949e-19  1.015049078308342e+00
-1.778869018169949e-19 -2.013341016018036e-17  4.232179683522344e-01
 1.015049078308342e+00  4.232179683522344e-01 -3.484975215201620e-17

-2.642001646427672e-17 -1.704538376998590e-19  1.017543137856184e+00
-1.704538376998590e-19 -3.225188264961055e-17  4.212116902030304e-01
 1.017543137856184e+00  4.212116902030304e-01 -3.493981867406578e-17

-2.641357128797325e-17 -1.507399362827067e-19  1.017039631013404e+00
-1.507399362827067e-19 -1.022172780629548e-17  4.194541047324487e-01
 1.017039631013404e+00  4.194541047324487e-01 -3.491445043694246e-17

-2.632839821746106e-17 -1.391819492242637e-19  1.017800542681649e+00
-1.391819492242637e-19 -1.355288273852393e-17  4.139812768089488e-01
 1.017800542681649e+00  4.139812768089488e-01 -3.493467797905030e-17

-2.621450363932310e-17 -1.378306933747043e-19  1.012504283178713e+00
-1.378306933747043e-19 -2.075584707090473e-17  4.181577792196134e-01
 1.012504283178713e+00  4.181577792196134e-01 -3.474649580780382e-17

-2.614688753294313e-17 -1.067213747644689e-19  1.012348991208367e+00
-1.067213747644689e-19 -7.221607888158386e-18  4.148278267438489e-01
 1.012348991208367e+00  4.148278267438489e-01 -3.473714171117401e-17

-2.615054578353914e-17 -9.585891792840779e-20  1.013215279691285e+00
-9.585891792840779e-20 -7.344232257370549e-18  4.210431394549721e-01
 1.013215279691285e+00  4.210431394549721e-01 -3.477260435847782e-17

-2.606309457006257e-17 -8.431947405487121e-20  1.010045179494111e+00
-8.431947405487121e-20 -1.653732778760006e-18  4.217348438955034e-01
 1.010045179494111e+00  4.217348438955034e-01 -3.465211634740541e-17

-2.586484627946363e-17 -7.503225490194164e-20  9.991148182233109e-01
-7.503225490194164e-20 -5.184047922387280e-18  4.249091815507410e-01
 9.991148182233109e-01  4.249091815507410e-01 -3.423904961056713e-17

-2.585862736618996e-17 -7.531543261864304e-20  1.008207810385984e+00
-7.531543261864304e-20 -1.211973999627434e-17  3.888974303615651e-01
 1.008207810385984e+00  3.888974303615651e-01 -3.451233258946789e-17

-2.615417862135285e-17 -7.888223094313358e-20  1.034583913583013e+00
-7.888223094313358e-20 -3.009068635025583e-17  3.678912697683125e-01
 1.034583913583013e+00  3.678912697683125e-01 -3.542009478641222e-17

-2.605331107694978e-17 -8.110576655604169e-20  1.006815143815976e+00
-8.110576655604169e-20 -4.438761193079891e-18  4.465767393118424e-01
 1.006815143815976e+00  4.465767393118424e-01 -3.460020108241371e-17

-2.608999697760034e-17 -5.209595637117046e-20  1.011101146338932e+00
-5.209595637117046e-20 -1.758652681716751e-17  4.557216261758743e-01
 1.011101146338932e+00  4.557216261758743e-01 -3.470814023295538e-17

-2.629160663836071e-17 -1.205339196636209e-19  1.050830105935269e+00
-1.205339196636209e-19 -2.266852853957213e-17  3.572065974683681e-01
 1.050830105935269e+00  3.572065974683681e-01 -3.609189857534561e-17

-2.605719859255934e-17 -8.075670703002034e-20  1.037893517051910e+00
-8.075670703002034e-20 -4.324851759046075e-18  3.522341484808572e-01
 1.037893517051910e+00  3.522341484808572e-01 -3.557553042348985e-17

-2.580158662331734e-17 -6.378273489364604e-20  1.005826917258769e+00
-6.378273489364604e-20 -8.577761915901555e-18  4.245541828277255e-01
 1.005826917258769e+00  4.245541828277255e-01 -3.448775664185745e-17

-2.588137673560505e-17 -7.389266281586370e-20  1.008445748074970e+00
-7.389266281586370e-20 -2.033637986107089e-17  4.237123164324140e-01
 1.008445748074970e+00  4.237123164324140e-01 -3.456992591192390e-17

-2.574433559069485e-17 -5.278968958815865e-20  1.008423060041273e+00
-5.278968958815865e-20 -1.199644954099970e-17  4.114270511043605e-01
 1.008423060041273e+00  4.114270511043605e-01 -3.454985936768796e-17

-2.568192747884528e-17 -4.147099955953255e-20  1.005479976094521e+00
-4.147099955953255e-20 -8.837595732539060e-18  4.145542008802240e-01
 1.005479976094521e+00  4.145542008802240e-01 -3.443704240935094e-17

-2.574199037901996e-17 -8.181169219752301e-20  1.005463372077410e+00
-8.181169219752301e-20 -3.088308934645283e-17  4.200852444066456e-01
 1.005463372077410e+00  4.200852444066456e-01 -3.444223821742247e-17

-2.571698316291068e-17 -5.553427119804453e-20  1.010028704334873e+00
-5.553427119804453e-20 -1.526809926383156e-17  4.153603501332016e-01
 1.010028704334873e+00  4.153603501332016e-01 -3.460029051043055e-17

-2.571400100880965e-17 -7.751304525493324e-20  1.010540549758765e+00
-7.751304525493324e-20 -2.801806951250177e-17  4.149589388810389e-01
 1.010540549758765e+00  4.149589388810389e-01 -3.461123129595184e-17

-2.570270344161923e-17 -2.818232682148915e-20  1.009857159707966e+00
-2.818232682148915e-20  1.642029131593520e-17  4.148692270439763e-01
 1.009857159707966e+00  4.148692270439763e-01 -3.458334992083490e-17

-2.565694501997615e-17 -6.077528494963948e-20  1.008434892297229e+00
-6.077528494963948e-20 -2.092712232939365e-17  4.158434383119679e-01
 1.008434892297229e+00  4.158434383119679e-01 -3.452768863910212e-17

-2.562699645374275e-17 -7.316349984949092e-20  1.009015334394512e+00
-7.316349984949092e-20 -3.161031949887720e-17  4.155133859850121e-01
 1.009015334394512e+00  4.155133859850121e-01 -3.454665580705901e-17

-2.560551858220174e-17 -5.743249309523794e-20  1.007905144357368e+00
-5.743249309523794e-20 -9.634209335653221e-18  4.168058338395462e-01
 1.007905144357368e+00  4.168058338395462e-01 -3.450800814265487e-17

-2.562255245430689e-17 -5.287909567086165e-20  1.010873801797338e+00
-5.287909567086165e-20 -1.549959611293634e-17  4.140806698891862e-01
 1.010873801797338e+00  4.140806698891862e-01 -3.460182835743308e-17

-2.554967049157846e-17 -5.515515596487237e-20  1.007991143532941e+00
-5.515515596487237e-20 -1.560881202130253e-17  4.150999957288225e-01
 1.007991143532941e+00  4.150999957288225e-01 -3.449586267358882e-17

-2.561445687415650e-17 -5.823671375951409e-20  1.012487887052681e+00
-5.823671375951409e-20 -9.328205810961887e-18  4.115641108482030e-01
 1.012487887052681e+00  4.115641108482030e-01 -3.464657706047206e-17

-2.557478197311217e-17 -6.245955350365607e-20  1.012538791179425e+00
-6.245955350365607e-20 -2.251296896371445e-17  4.173337118037362e-01
 1.012538791179425e+00  4.173337118037362e-01 -3.465941866391738e-17

-2.544142078399826e-17 -2.099157465418654e-20  1.004265443809428e+00
-2.099157465418654e-20  9.821749358673807e-18  4.232453675708454e-01
 1.004265443809428e+00  4.232453675708454e-01 -3.435611753237408e-17

-2.544486655497114e-17 -5.399732706147953e-20  1.010291903803424e+00
-5.399732706147953e-20 -7.306355673127968e-18  4.037022487711761e-01
 1.010291903803424e+00  4.037022487711761e-01 -3.456267626094186e-17

-2.534797612828442e-17 -7.769732898917278e-20  1.005179264879861e+00
-7.769732898917278e-20 -3.538952355604822e-17  4.049635831485862e-01
 1.005179264879861e+00  4.049635831485862e-01 -3.437197668733768e-17

-2.532948867670888e-17 -5.044876816968288e-20  9.985214974833765e-01
-5.044876816968288e-20 -1.097702821395105e-17  4.277574892295896e-01
 9.985214974833765e-01  4.277574892295896e-01 -3.416578511616679e-17

-2.539501373667006e-17 -3.197064336342596e-20  1.005029775087447e+00
-3.197064336342596e-20 -8.053370043323797e-18  4.211553918478969e-01
 1.005029775087447e+00  4.211553918478969e-01 -3.440726746810256e-17

-2.549374460052931e-17 -3.782282354506780e-20  1.016072353276093e+00
-3.782282354506780e-20 -1.645805230821695e-17  4.075109065959129e-01
 1.016072353276093e+00  4.075109065959129e-01 -3.478973762787630e-17

-2.535962350130478e-17 -3.399202369008043e-20  1.007497906271699e+00
-3.399202369008043e-20 -1.666605122350179e-17  4.114973917397445e-01
 1.007497906271699e+00  4.114973917397445e-01 -3.448578318874862e-17

-2.524648056504274e-17 -2.944132826454063e-20  9.982226731705195e-01
-2.944132826454063e-20 -2.184225345347362e-17  4.193906286719335e-01
 9.982226731705195e-01  4.193906286719335e-01 -3.416031561479422e-17

-2.526032712649207e-17 -2.789317951969277e-20  1.001083078697571e+00
-2.789317951969277e-20 -2.543629535611796e-17  4.148896602858431e-01
 1.001083078697571e+00  4.148896602858431e-01 -3.425230293489547e-17

-2.529139480047849e-17 -2.020484284495752e-20  1.004634675042001e+00
-2.020484284495752e-20 -1.348747017044950e-17  4.142459313462838e-01
 1.004634675042001e+00  4.142459313462838e-01 -3.438858480671410e-17

-2.540685033686559e-17 -5.481889183165388e-21  1.012621622025004e+00
-5.481889183165388e-21 -1.776928718348762e-17  4.056359837090493e-01
 1.012621622025004e+00  4.056359837090493e-01 -3.466750420210905e-17

-2.541470247734875e-17  5.732254648734588e-21  1.014769242409214e+00
 5.732254648734588e-21 -1.275676062751170e-20  4.092817937506008e-01
 1.014769242409214e+00  4.092817937506008e-01 -3.475711485221173e-17

-2.545359374760596e-17 -2.125033918751743e-21  1.018730806914006e+00
-2.125033918751743e-21 -1.382598951553136e-17  4.115728850760719e-01
 1.018730806914006e+00  4.115728850760719e-01 -3.490136620729935e-17

-2.525620267638772e-17  1.285290371672511e-20  1.005275695975113e+00
 1.285290371672511e-20  8.374199247617057e-19  4.130962421582995e-01
 1.005275695975113e+00  4.130962421582995e-01 -3.441237970860200e-17

-2.517497742514709e-17 -1.952869494415026e-21  1.003783759020622e+00
-1.952869494415026e-21 -8.830085586084207e-18  4.050510903552819e-01
 1.003783759020622e+00  4.050510903552819e-01 -3.433968590490291e-17

-2.509196433929386e-17 -5.553688450393835e-21  9.948550219521775e-01
-5.553688450393835e-21 -2.369886132637216e-17  4.180244122982933e-01
 9.948550219521775e-01  4.180244122982933e-01 -3.402353915209191e-17

-2.520704973589344e-17  6.961078598367871e-21  1.005754550330543e+00
 6.961078598367871e-21 -1.852763851130220e-17  4.115489607809714e-01
 1.005754550330543e+00  4.115489607809714e-01 -3.441417575352110e-17

-2.530604010855348e-17  7.346528172262021e-21  1.013203542299590e+00
 7.346528172262021e-21 -6.515344470573624e-18  4.090999228534597e-01
 1.013203542299590e+00  4.090999228534597e-01 -3.468270313938298e-17

-2.521863934608504e-17  1.537021612138744e-20  1.009628433016291e+00
 1.537021612138744e-20 -1.633550410461043e-17  4.115266748475804e-01
 1.009628433016291e+00  4.115266748475804e-01 -3.455129397306664e-17

-2.501590277990764e-17 -1.265475142747241e-20  9.889939173355916e-01
-1.265475142747241e-20 -1.586916700655520e-17  4.249651618872637e-01
 9.889939173355916e-01  4.249651618872637e-01 -3.380551030784312e-17

-2.482621333686994e-17  5.441952421452055e-21  9.806845106128657e-01
 5.441952421452055e-21 -1.803057085200591e-17  4.257053515839730e-01
 9.806845106128657e-01  4.257053515839730e-01 -3.349174354126145e-17

-2.497039591728767e-17 -1.001217297565832e-21  9.974429053471923e-01
-1.001217297565832e-21 -1.337631500481617e-17  4.080403456194451e-01
 9.974429053471923e-01  4.080403456194451e-01 -3.408536191411416e-17

-2.520081880217464e-17 -1.502019584683229e-20  1.007468681020657e+00
-1.502019584683229e-20  5.830485008059178e-18  4.192997340318410e-01
 1.007468681020657e+00  4.192997340318410e-01 -3.445553955780618e-17

-2.494112138836955e-17  2.320677219689914e-20  9.943750513566956e-01
 2.320677219689914e-20 -2.358908487614663e-17  4.312419547863681e-01
 9.943750513566956e-01  4.312419547863681e-01 -3.395775397604799e-17

-2.504514567396515e-17 -9.973756543445134e-21  1.022072818176317e+00
-9.973756543445134e-21 -1.028938627296980e-17  3.527810906808190e-01
 1.022072818176317e+00  3.527810906808190e-01 -3.489979776369499e-17

-2.515756422214197e-17  2.404014224878079e-20  1.030527314067651e+00
 2.404014224878079e-20 -1.435272578267821e-17  3.447436106755762e-01
 1.030527314067651e+00  3.447436106755762e-01 -3.517111480030034e-17

-2.465143849115184e-17 -2.251200360522356e-20  9.716902853379447e-01
-2.251200360522356e-20 -2.272840628645283e-17  4.495530734545506e-01
 9.716902853379447e-01  4.495530734545506e-01 -3.321146439017486e-17

-2.501479356233422e-17 -6.076930096340750e-21  1.001886643325622e+00
-6.076930096340750e-21 -3.099169374958035e-17  4.225592820989220e-01
 1.001886643325622e+00  4.225592820989220e-01 -3.424546288292350e-17

-2.504032791713342e-17 -6.786031176254384e-21  1.008373046976743e+00
-6.786031176254384e-21 -1.234450533968173e-17  4.058935624620436e-01
 1.008373046976743e+00  4.058935624620436e-01 -3.445656830540282e-17

-2.495318418419482e-17 -3.909385886446684e-22  1.002204888273512e+00
-3.909385886446684e-22 -2.661103360537252e-17  4.103409855603721e-01
 1.002204888273512e+00  4.103409855603721e-01 -3.422956803677841e-17

-2.488541009092608e-17 -3.064893376536445e-21  9.997250286694190e-01
-3.064893376536445e-21 -2.411831066102899e-17  4.089806826110173e-01
 9.997250286694190e-01  4.089806826110173e-01 -3.413338448766799e-17

-2.485489279320486e-17 -1.428755409158138e-20  9.979219613797755e-01
-1.428755409158138e-20 -1.829947643479356e-17  4.087523397335184e-01
 9.979219613797755e-01  4.087523397335184e-01 -3.406663892771683e-17

-2.479889687201671e-17 -1.254190111718771e-20  9.931360402919568e-01
-1.254190111718771e-20 -3.544695672260793e-18  4.164691210216175e-01
 9.931360402919568e-01  4.164691210216175e-01 -3.389246731595660e-17

-2.491109302165323e-17 -1.191206166185813e-20  1.001367541463285e+00
-1.191206166185813e-20 -2.284690443029237e-17  4.116489901578784e-01
 1.001367541463285e+00  4.116489901578784e-01 -3.418435575856079e-17

-2.487639569204876e-17 -1.123512780516851e-20  9.977773809589352e-01
-1.123512780516851e-20 -7.252744691973730e-18  4.198909026939474e-01
 9.977773809589352e-01  4.198909026939474e-01 -3.406410207885677e-17

-2.497384960988060e-17 -2.282482631385728e-20  1.006036484733833e+00
-2.282482631385728e-20 -2.175097117288160e-17  4.147703852794827e-01
 1.006036484733833e+00  4.147703852794827e-01 -3.436225394564190e-17

-2.500966046544948e-17 -2.782758858085425e-20  1.010516154588183e+00
-2.782758858085425e-20 -1.163283162126365e-17  4.025755184811481e-01
 1.010516154588183e+00  4.025755184811481e-01 -3.450088409324189e-17

-2.501556431789201e-17 -2.684630952030012e-20  1.014169543176362e+00
-2.684630952030012e-20 -2.140121507864942e-17  4.010506832305984e-01
 1.014169543176362e+00  4.010506832305984e-01 -3.462887246331694e-17

-2.462650645119341e-17 -3.781236689522956e-20  9.716512790049836e-01
-3.781236689522956e-20 -3.507849098109332e-18  4.607868064532523e-01
 9.716512790049836e-01  4.607868064532523e-01 -3.314233249731925e-17

-2.461407423204582e-17 -1.525945013051932e-20  9.761721352018016e-01
-1.525945013051932e-20 -2.508802580561195e-17  4.451359334675297e-01
 9.761721352018016e-01  4.451359334675297e-01 -3.329058260531643e-17

-2.503951563024022e-17 -3.621405858478130e-20  1.020716465227044e+00
-3.621405858478130e-20 -1.311598645871320e-17  3.866305208024033e-01
 1.020716465227044e+00  3.866305208024033e-01 -3.485218166588048e-17

-2.478174718743803e-17 -3.911718637091160e-20  9.982743914460199e-01
-3.911718637091160e-20 -8.910009234543606e-18  4.081741455325409e-01
 9.982743914460199e-01  4.081741455325409e-01 -3.405651818141105e-17

-2.509821163431046e-17 -2.320197241557060e-20  1.016596064063999e+00
-2.320197241557060e-20 -1.839959077860887e-17  4.167742387406877e-01
 1.016596064063999e+00  4.167742387406877e-01 -3.476637569319488e-17

-2.494022368405271e-17 -6.523580107247924e-21  1.006818004198906e+00
-6.523580107247924e-21 -2.510930236285452e-17  4.176700680556845e-01
 1.006818004198906e+00  4.176700680556845e-01 -3.441351962128729e-17

-2.462349438979253e-17 -6.899981389577534e-21  9.872309731925599e-01
-6.899981389577534e-21 -2.431533299371144e-17  4.112514052470796e-01
 9.872309731925599e-01  4.112514052470796e-01 -3.367904562356554e-17

-2.497505442721597e-17  1.783983080045002e-20  1.015807352386954e+00
 1.783983080045002e-20 -1.632645977850816e-17  3.846355770418127e-01
 1.015807352386954e+00  3.846355770418127e-01 -3.464772713489780e-17

-2.574236907390101e-17 -2.687515152407444e-20  1.049490636822363e+00
-2.687515152407444e-20 -2.521495272350151e-17  4.405015186389073e-01
 1.049490636822363e+00  4.405015186389073e-01 -3.606945284752126e-17

-2.543208322246224e-17  1.770985562081042e-20  1.033749533651357e+00
 1.770985562081042e-20 -8.689751934431328e-18  4.301765913308917e-01
 1.033749533651357e+00  4.301765913308917e-01 -3.540246503042005e-17

-2.443767626237892e-17 -2.325082045305947e-20  9.791054125726235e-01
-2.325082045305947e-20 -2.480610879752231e-17  3.963084131145094e-01
 9.791054125726235e-01  3.963084131145094e-01 -3.335557719737698e-17

-2.488384782801265e-17 -2.550779567271897e-20  9.982002599919185e-01
-2.550779567271897e-20 -7.802186032086745e-18  4.390623427077615e-01
 9.982002599919185e-01  4.390623427077615e-01 -3.414921220086948e-17

-2.513529811993345e-17 -1.769851146549519e-20  1.010774784219115e+00
-1.769851146549519e-20 -2.165404407689666e-17  4.575391358358364e-01
 1.010774784219115e+00  4.575391358358364e-01 -3.464046540494653e-17

-2.499172588855436e-17 -1.786376111785334e-20  1.015227357822951e+00
-1.786376111785334e-20 -3.029878763875925e-17  3.997851138937989e-01
 1.015227357822951e+00  3.997851138937989e-01 -3.472311879122151e-17

-2.487153517314206e-17 -6.831625164666588e-21  1.008023311020548e+00
-6.831625164666588e-21 -1.436217924059222e-17  4.057100236563417e-01
 1.008023311020548e+00  4.057100236563417e-01 -3.444959321675155e-17

-2.501992293681642e-17  5.929394475622376e-21  1.015059390524207e+00
 5.929394475622376e-21  4.460327883506577e-18  4.210988331198944e-01
 1.015059390524207e+00  4.210988331198944e-01 -3.473714048562032e-17

-2.477471840021141e-17  1.615746993574260e-20  1.001724956458373e+00
 1.615746993574260e-20 -5.792192587030101e-18  4.139232352653259e-01
 1.001724956458373e+00  4.139232352653259e-01 -3.424265435890526e-17

-2.481864315664528e-17  1.444809775219228e-20  1.009989446434352e+00
 1.444809775219228e-20 -3.454801142479078e-17  3.899786023938864e-01
 1.009989446434352e+00  3.899786023938864e-01 -3.451641668882193e-17

-2.476320671186632e-17  3.607628754421345e-20  1.000123980180725e+00
 3.607628754421345e-20  1.176580400823362e-17  4.155644956485274e-01
 1.000123980180725e+00  4.155644956485274e-01 -3.419515928233795e-17

-2.494004525580026e-17  3.748557936324363e-20  1.009328216597584e+00
 3.748557936324363e-20 -1.913024186046394e-17  4.200707780538106e-01
 1.009328216597584e+00  4.200707780538106e-01 -3.454532519824229e-17

-2.505137997128153e-17  2.571132569009683e-20  1.018482650468523e+00
 2.571132569009683e-20 -2.736231866265381e-17  4.170810230377491e-01
 1.018482650468523e+00  4.170810230377491e-01 -3.486614460810615e-17

-2.494672574137389e-17  1.848159903875424e-20  1.018085348756490e+00
 1.848159903875424e-20 -1.998585961035699e-17  3.982808045194437e-01
 1.018085348756490e+00  3.982808045194437e-01 -3.481170203966880e-17

-2.487974396126807e-17  2.905798565928136e-20  1.016224553679962e+00
 2.905798565928136e-20  1.319493840825457e-17  3.932759307004513e-01
 1.016224553679962e+00  3.932759307004513e-01 -3.472883686325133e-17

-2.455956192128484e-17  9.060697990357760e-21  9.891226379234944e-01
 9.060697990357760e-21 -1.412804482507220e-17  4.243615694344014e-01
 9.891226379234944e-01  4.243615694344014e-01 -3.374971608514877e-17

-2.457605855954858e-17  1.094522833033381e-20  9.943238372779811e-01
 1.094522833033381e-20 -1.045275511359993e-17  4.119548967255566e-01
 9.943238372779811e-01  4.119548967255566e-01 -3.392530708615229e-17

-2.469074822950313e-17 -9.824182115585911e-22  1.001087721789304e+00
-9.824182115585911e-22 -2.790004396257672e-17  4.143947950999419e-01
 1.001087721789304e+00  4.143947950999419e-01 -3.417982775988401e-17

-2.470114686255158e-17 -1.044992679628023e-22  1.002019103960014e+00
-1.044992679628023e-22 -1.927903570042512e-17  4.127402147221024e-01
 1.002019103960014e+00  4.127402147221024e-01 -3.420308133944734e-17

-2.471156663178841e-17  6.896707431229583e-20  1.001136334096989e+00
 6.896707431229583e-20  3.024395222977142e-17  4.155451821673070e-01
 1.001136334096989e+00  4.155451821673070e-01 -3.415508492557991e-17

-2.462007348069840e-17 -7.243311965110268e-21  9.981681981790851e-01
-7.243311965110268e-21 -1.981089295404240e-17  4.150861223105024e-01
 9.981681981790851e-01  4.150861223105024e-01 -3.404073174918062e-17

-2.451429068229368e-17 -4.568631318421772e-20  9.923896833270276e-01
-4.568631318421772e-20 -3.823744472157779e-17  4.142409438226864e-01
 9.923896833270276e-01  4.142409438226864e-01 -3.381278390727467e-17

-2.451483217238531e-17 -3.493821653315990e-20  9.932019055938986e-01
-3.493821653315990e-20 -2.398857856451947e-17  4.140387988992454e-01
 9.932019055938986e-01  4.140387988992454e-01 -3.382906268623533e-17

-2.461670663519282e-17  2.763548822897915e-20  9.989530194006225e-01
 2.763548822897915e-20  2.296940049241408e-17  4.172904909500159e-01
 9.989530194006225e-01  4.172904909500159e-01 -3.403726651987077e-17

-2.461520140732115e-17  1.032435016911828e-19  9.978256768146594e-01
 1.032435016911828e-19  8.347676975507457e-17  4.231523766705708e-01
 9.978256768146594e-01  4.231523766705708e-01 -3.398849390588977e-17

-2.464781115730104e-17 -1.065519367808765e-19  1.002263704109224e+00
-1.065519367808765e-19 -5.568914272562908e-17  4.114298502517366e-01
 1.002263704109224e+00  4.114298502517366e-01 -3.412814543373086e-17

-2.474749428085816e-17 -1.586083030803140e-19  1.009798915685888e+00
-1.586083030803140e-19 -8.002206742530692e-17  4.034784474302379e-01
 1.009798915685888e+00  4.034784474302379e-01 -3.438773921227054e-17

-2.455989707615369e-17  1.937978120914977e-20  9.926377234010040e-01
 1.937978120914977e-20  3.635710695291624e-17  4.284724078314948e-01
 9.926377234010040e-01  4.284724078314948e-01 -3.379230613680533e-17

-2.464002399267857e-17 -7.972922232292450e-20  9.997599037428040e-01
-7.972922232292450e-20 -3.452813877468327e-17  4.209693699976255e-01
 9.997599037428040e-01  4.209693699976255e-01 -3.404037752576400e-17

-2.467078581816507e-17 -3.151146183452760e-21  1.004389810521314e+00
-3.151146183452760e-21  2.523569251193486e-17  4.108413982768652e-01
 1.004389810521314e+00  4.108413982768652e-01 -3.419916199620536e-17

-2.474872546394554e-17  1.564068016556471e-20  1.006930753161325e+00
 1.564068016556471e-20  4.607752719086539e-17  4.202948085820162e-01
 1.006930753161325e+00  4.202948085820162e-01 -3.430649572094847e-17

-2.496553768742165e-17  2.141060662684116e-19  1.006118054340725e+00
 2.141060662684116e-19 -1.215820841470803e-17  4.362599421820801e-01
 1.006118054340725e+00  4.362599421820801e-01 -3.442482288746619e-17

-2.475496529101667e-17  1.034506125865000e-19  1.011806784516107e+00
 1.034506125865000e-19 -1.408628290519965e-17  3.628038027586890e-01
 1.011806784516107e+00  3.628038027586890e-01 -3.460714006241161e-17

-2.558539614742948e-17  2.477582383233666e-19  1.041319137702893e+00
 2.477582383233666e-19 -1.337973034060851e-17  4.599235371943356e-01
 1.041319137702893e+00  4.599235371943356e-01 -3.574211813524742e-17

-2.523020822792410e-17  1.904816693275034e-19  1.028226823740457e+00
 1.904816693275034e-19 -1.069901498190358e-17  4.182790151901024e-01
 1.028226823740457e+00  4.182790151901024e-01 -3.525812817029448e-17

-2.440905954213307e-17  1.954132262658816e-19  9.819847322182741e-01
 1.954132262658816e-19 -9.301207815027276e-18  4.100297917989163e-01
 9.819847322182741e-01  4.100297917989163e-01 -3.348830776748646e-17

-2.426625048511611e-17  1.726858439261249e-19  9.723580051916321e-01
 1.726858439261249e-19 -9.832288490928950e-18  4.152000799978685e-01
 9.723580051916321e-01  4.152000799978685e-01 -3.316745334224699e-17

-2.478114845294861e-17  1.855053795206624e-19  1.002168400120036e+00
 1.855053795206624e-19 -1.244150984683259e-17  4.210136901480357e-01
 1.002168400120036e+00  4.210136901480357e-01 -3.428019612903336e-17

-2.529999697889316e-17  1.989311135280226e-19  1.032110222584392e+00
 1.989311135280226e-19 -1.509717687184770e-17  4.249493475196597e-01
 1.032110222584392e+00  4.249493475196597e-01 -3.540137568313157e-17

-2.521349636305448e-17  1.845849836101748e-19  1.025608772099823e+00
 1.845849836101748e-19 -1.519638061359919e-17  4.283765842103939e-01
 1.025608772099823e+00  4.283765842103939e-01 -3.518713886214826e-17

-2.462730852598936e-17  1.932978997439848e-19  9.945048945666422e-01
 1.932978997439848e-19 -1.302438360554194e-17  4.128129719154562e-01
 9.945048945666422e-01  4.128129719154562e-01 -3.397751001161742e-17

-2.433999198265586e-17  1.840865481968214e-19  9.750339893327165e-01
 1.840865481968214e-19 -1.234373394617844e-17  4.221139757409542e-01
 9.750339893327165e-01  4.221139757409542e-01 -3.327351666657005e-17

-2.474518079821085e-17  1.560143558829170e-19  1.002285897047184e+00
 1.560143558829170e-19 -1.420577620540957e-17  4.049256323917509e-01
 1.002285897047184e+00  4.049256323917509e-01 -3.429745487840765e-17

-2.504082728032138e-17  1.724999622572984e-19  1.014272403758887e+00
 1.724999622572984e-19 -1.351006861387406e-17  4.222134505893150e-01
 1.014272403758887e+00  4.222134505893150e-01 -3.474863723154714e-17

-2.550723761983244e-17  1.935895154037964e-19  1.041383385585612e+00
 1.935895154037964e-19 -1.349605309609442e-17  4.276647068748561e-01
 1.041383385585612e+00  4.276647068748561e-01 -3.575019434552624e-17

-2.546808508898548e-17  1.659945030091599e-19  1.038448525829688e+00
 1.659945030091599e-19 -1.506967260915450e-17  4.185110487168915e-01
 1.038448525829688e+00  4.185110487168915e-01 -3.565802227688881e-17

-2.518025661078317e-17  1.553929143913715e-19  1.022262654374980e+00
 1.553929143913715e-19 -1.367114719543030e-17  4.166155784597094e-01
 1.022262654374980e+00  4.166155784597094e-01 -3.503398541182032e-17

-2.496424030190813e-17  1.421429415984254e-19  1.009513251349114e+00
 1.421429415984254e-19 -1.526263493914335e-17  4.210442630800829e-01
 1.009513251349114e+00  4.210442630800829e-01 -3.454451219533497e-17

-2.499146094334654e-17  1.405181431723824e-19  1.010943145936596e+00
 1.405181431723824e-19 -1.324862191028452e-17  4.224398780761878e-01
 1.010943145936596e+00  4.224398780761878e-01 -3.458951456918794e-17

-2.510646602497324e-17  1.398415049494022e-19  1.017319552215509e+00
 1.398415049494022e-19 -1.257508929928767e-17  4.263702459412259e-01
 1.017319552215509e+00  4.263702459412259e-01 -3.482415602745089e-17

-2.506486031580355e-17  1.364894720672316e-19  1.014810399061228e+00
 1.364894720672316e-19 -1.449427084939921e-17  4.230720289356810e-01
 1.014810399061228e+00  4.230720289356810e-01 -3.472388615631578e-17

-2.509923874948153e-17  1.360358083115107e-19  1.016398772013116e+00
 1.360358083115107e-19 -1.320174262150502e-17  4.206267438301324e-01
 1.016398772013116e+00  4.206267438301324e-01 -3.478313624447093e-17

-2.534279118923090e-17  1.283412484357288e-19  1.031023275592178e+00
 1.283412484357288e-19 -1.308976170382998e-17  4.257111266969208e-01
 1.031023275592178e+00  4.257111266969208e-01 -3.532987485396310e-17

-2.502664531584225e-17  1.140901587252271e-19  1.000945889253921e+00
 1.140901587252271e-19 -1.549277722403479e-17  4.619282757999897e-01
 1.000945889253921e+00  4.619282757999897e-01 -3.429779924285779e-17

-2.495096307004468e-17  1.299611781756012e-19  1.012606845636242e+00
 1.299611781756012e-19 -1.388307572399059e-17  4.009325554415034e-01
 1.012606845636242e+00  4.009325554415034e-01 -3.457970189062931e-17

-2.484365829784129e-17  1.248245034399763e-19  1.002831518311705e+00
 1.248245034399763e-19 -1.467633712878788e-17  4.104832028998889e-01
 1.002831518311705e+00  4.104832028998889e-01 -3.425527058523020e-17

-2.524695881123895e-17  1.259720354934126e-19  1.021698056330877e+00
 1.259720354934126e-19 -1.351315776406804e-17  4.375442040493870e-01
 1.021698056330877e+00  4.375442040493870e-01 -3.497733373318830e-17

-2.525235777025571e-17  1.098436021048321e-19  1.022312783240280e+00
 1.098436021048321e-19 -1.256319162771742e-17  4.281548800165834e-01
 1.022312783240280e+00  4.281548800165834e-01 -3.500066513722426e-17

-2.528358826884242e-17  1.128336978684130e-19  1.024601892265521e+00
 1.128336978684130e-19 -1.448816702243329e-17  4.197450988656450e-01
 1.024601892265521e+00  4.197450988656450e-01 -3.506602262592670e-17

-2.525746708005818e-17  1.185474568363170e-19  1.025040594576559e+00
 1.185474568363170e-19 -1.390737415943944e-17  4.166909407035411e-01
 1.025040594576559e+00  4.166909407035411e-01 -3.507508194421360e-17

-2.522125717952485e-17  9.481378925223512e-20  1.020189717792261e+00
 9.481378925223512e-20 -1.105488773749560e-17  4.260837586995027e-01
 1.020189717792261e+00  4.260837586995027e-01 -3.490714316964371e-17

-2.531720079059519e-17  9.800562094032179e-20  1.024521801201686e+00
 9.800562094032179e-20 -1.502691705669221e-17  4.233421716292477e-01
 1.024521801201686e+00  4.233421716292477e-01 -3.505815180189892e-17

-2.523074089241600e-17  1.059502099694681e-19  1.019977741304546e+00
 1.059502099694681e-19 -1.415932076438429e-17  4.272302313424188e-01
 1.019977741304546e+00  4.272302313424188e-01 -3.489346341711685e-17

-2.521619084988648e-17  8.488961834403037e-20  1.019072018209744e+00
 8.488961834403037e-20 -1.175324874182319e-17  4.249034494838307e-01
 1.019072018209744e+00  4.249034494838307e-01 -3.484568954087635e-17

-2.526764518637499e-17  8.015154850809474e-20  1.018471867827012e+00
 8.015154850809474e-20 -1.187604119607865e-17  4.280720922251686e-01
 1.018471867827012e+00  4.280720922251686e-01 -3.482543577498315e-17

-2.525490437703473e-17  8.619886239479244e-20  1.020652810291702e+00
 8.619886239479244e-20 -1.352574519432711e-17  4.263597218133639e-01
 1.020652810291702e+00  4.263597218133639e-01 -3.490541575158776e-17

-2.525601120574762e-17  9.200771623064006e-20  1.019592482595142e+00
 9.200771623064006e-20 -1.397723543091626e-17  4.267865944476988e-01
 1.019592482595142e+00  4.267865944476988e-01 -3.486567907063831e-17

-2.524675045163169e-17  8.251672247759266e-20  1.018215090374155e+00
 8.251672247759266e-20 -1.448583271566507e-17  4.277326912667261e-01
 1.018215090374155e+00  4.277326912667261e-01 -3.481062545983346e-17

-2.529997486018484e-17  7.383470118333775e-20  1.019141373789534e+00
 7.383470118333775e-20 -1.490090521762350e-17  4.279165545634884e-01
 1.019141373789534e+00  4.279165545634884e-01 -3.483944409798496e-17

-2.527285349660550e-17  6.411877092687569e-20  1.018662735933847e+00
 6.411877092687569e-20 -1.064583501759040e-17  4.274211038531169e-01
 1.018662735933847e+00  4.274211038531169e-01 -3.482431555853243e-17

-2.531542031783091e-17  6.504838606823458e-20  1.019654011717988e+00
 6.504838606823458e-20 -1.216382752786735e-17  4.279057390789746e-01
 1.019654011717988e+00  4.279057390789746e-01 -3.485651979007154e-17

-2.530764482567316e-17  8.781881411862523e-20  1.019149659449213e+00
 8.781881411862523e-20 -1.442885980513729e-17  4.281093708972581e-01
 1.019149659449213e+00  4.281093708972581e-01 -3.484424327508502e-17

-2.532007579842906e-17  8.098458110921746e-20  1.019522857574704e+00
 8.098458110921746e-20 -1.590619841688233e-17  4.267728044602344e-01
 1.019522857574704e+00  4.267728044602344e-01 -3.485381977653809e-17

-2.532464758635480e-17  8.806518442389439e-20  1.018785664150419e+00
 8.806518442389439e-20 -1.432677376571560e-17  4.279866300769050e-01
 1.018785664150419e+00  4.279866300769050e-01 -3.482819069727188e-17

-2.531785224867517e-17  8.827362227547023e-20  1.017516103027004e+00
 8.827362227547023e-20 -1.403852552372846e-17  4.285483295840825e-01
 1.017516103027004e+00  4.285483295840825e-01 -3.478708483350289e-17

-2.533684895242197e-17  9.230990244307593e-20  1.017407625626415e+00
 9.230990244307593e-20 -1.432962333003956e-17  4.285861259650900e-01
 1.017407625626415e+00  4.285861259650900e-01 -3.478747560573054e-17

-2.537765848160387e-17  9.931229982700076e-20  1.018822115557569e+00
 9.931229982700076e-20 -1.472409841110441e-17  4.280326660577414e-01
 1.018822115557569e+00  4.280326660577414e-01 -3.484551789078664e-17

-2.541376437929568e-17  9.117124734130101e-20  1.021149833100346e+00
 9.117124734130101e-20 -1.187584422499741e-17  4.270184665283956e-01
 1.021149833100346e+00  4.270184665283956e-01 -3.493019754884726e-17

-2.540120600435321e-17  1.072976700524901e-19  1.018335342456498e+00
 1.072976700524901e-19 -1.498057657383539e-17  4.301403595774597e-01
 1.018335342456498e+00  4.301403595774597e-01 -3.483821734550979e-17

-2.538621258908679e-17  8.603090471104660e-20  1.018964821540278e+00
 8.603090471104660e-20 -1.446788415892508e-17  4.184858369735464e-01
 1.018964821540278e+00  4.184858369735464e-01 -3.484646387994817e-17

-2.553364949292608e-17  7.956530541564423e-20  1.024831297085905e+00
 7.956530541564423e-20 -1.460615514937320e-17  4.152917178608498e-01
 1.024831297085905e+00  4.152917178608498e-01 -3.506820138763052e-17

-2.552293947336227e-17  1.018687892079299e-19  1.022236863231874e+00
 1.018687892079299e-19 -1.441722647976282e-17  4.353265634925029e-01
 1.022236863231874e+00  4.353265634925029e-01 -3.500683571912522e-17

-2.542801441632669e-17  9.361265084106521e-20  1.015281662556340e+00
 9.361265084106521e-20 -1.512033692079142e-17  4.335925053426044e-01
 1.015281662556340e+00  4.335925053426044e-01 -3.474902303835090e-17

-2.535964383475428e-17  1.053807102557511e-19  1.015154516206413e+00
 1.053807102557511e-19 -1.510454050865131e-17  4.130556379578027e-01
 1.015154516206413e+00  4.130556379578027e-01 -3.471138020422045e-17

-2.539942789542187e-17  1.049191847665320e-19  1.013507695381021e+00
 1.049191847665320e-19 -1.442900726277515e-17  4.189173401424516e-01
 1.013507695381021e+00  4.189173401424516e-01 -3.468488366263801e-17

-2.599442753767733e-17  1.081147825854727e-19  1.045995489153435e+00
 1.081147825854727e-19 -1.477358396376653e-17  4.314586562139566e-01
 1.045995489153435e+00  4.314586562139566e-01 -3.590845139152313e-17

-2.595408043540274e-17  8.433343314065648e-20  1.042688651817196e+00
 8.433343314065648e-20 -1.386975178646303e-17  4.284624619828243e-01
 1.042688651817196e+00  4.284624619828243e-01 -3.579900442624158e-17

-2.531670416099684e-17  7.115458153931349e-20  1.004101003327404e+00
 7.115458153931349e-20 -1.244108165780246e-17  4.217977271241435e-01
 1.004101003327404e+00  4.217977271241435e-01 -3.432605280905266e-17

-2.554855404228702e-17  4.266288987398770e-20  1.026019604131573e+00
 4.266288987398770e-20 -1.352971302963438e-17  3.936008180038274e-01
 1.026019604131573e+00  3.936008180038274e-01 -3.512828251051783e-17

-2.563936989467878e-17  8.266726200966699e-20  1.021620740887775e+00
 8.266726200966699e-20 -1.516482072861940e-17  4.264218214026929e-01
 1.021620740887775e+00  4.264218214026929e-01 -3.500185538386462e-17

-2.603349418672424e-17  8.057366758189299e-20  1.043937961810653e+00
 8.057366758189299e-20 -1.579246151317104e-17  4.350351184520965e-01
 1.043937961810653e+00  4.350351184520965e-01 -3.583671157633498e-17

-2.558081200045047e-17  1.138680889366987e-19  1.016870730985338e+00
 1.138680889366987e-19 -1.675257960721937e-17  4.244720793099380e-01
 1.016870730985338e+00  4.244720793099380e-01 -3.481530997937781e-17

-2.530443017513721e-17  1.066179006156285e-19  1.000235098265532e+00
 1.066179006156285e-19 -1.624467875784948e-17  4.250298730919685e-01
 1.000235098265532e+00  4.250298730919685e-01 -3.418673699538484e-17

-2.541836161256065e-17  8.047675986693394e-20  1.005307680437538e+00
 8.047675986693394e-20 -1.530108595692103e-17  4.289786974457538e-01
 1.005307680437538e+00  4.289786974457538e-01 -3.438258419397895e-17

-2.553324423893430e-17  5.659439764868559e-20  1.010725555751437e+00
 5.659439764868559e-20 -1.448952101091504e-17  4.267751938464283e-01
 1.010725555751437e+00  4.267751938464283e-01 -3.458529461746396e-17

-2.562494991099970e-17  3.387785426035475e-20  1.014181158834253e+00
 3.387785426035475e-20 -1.364634987109500e-17  4.261425521885714e-01
 1.014181158834253e+00  4.261425521885714e-01 -3.471834127418709e-17

-2.566717181379611e-17  4.351199271272530e-20  1.015807342327092e+00
 4.351199271272530e-20 -1.417851807239154e-17  4.249237469596988e-01
 1.015807342327092e+00  4.249237469596988e-01 -3.477620123254407e-17

-2.572132721518010e-17  3.319951143541728e-20  1.016749124431216e+00
 3.319951143541728e-20 -1.386340829982086e-17  4.256400310729309e-01
 1.016749124431216e+00  4.256400310729309e-01 -3.481878658617672e-17

-2.575139502631874e-17  4.827674154757505e-20  1.017585580462130e+00
 4.827674154757505e-20 -1.447447491570593e-17  4.231306076391178e-01
 1.017585580462130e+00  4.231306076391178e-01 -3.484597208615906e-17

-2.575052255030871e-17  1.053375397980621e-19  1.015428619089176e+00
 1.053375397980621e-19 -1.805867084541347e-17  4.260581562109980e-01
 1.015428619089176e+00  4.260581562109980e-01 -3.477167979161444e-17

-2.574493163187761e-17  9.963197022902771e-20  1.013759035767757e+00
 9.963197022902771e-20 -1.860897315017166e-17  4.262288709315581e-01
 1.013759035767757e+00  4.262288709315581e-01 -3.471355732220026e-17

-2.581395544251958e-17  5.354220952033364e-20  1.016052137005494e+00
 5.354220952033364e-20 -1.514873916381267e-17  4.255691278592913e-01
 1.016052137005494e+00  4.255691278592913e-01 -3.480196403250493e-17

-2.585261092958283e-17  1.650981881312329e-20  1.016723286000524e+00
 1.650981881312329e-20 -1.340022409580360e-17  4.234761561319932e-01
 1.016723286000524e+00  4.234761561319932e-01 -3.482613945102876e-17

-2.581027882127329e-17  5.086902184564157e-20  1.009937750257796e+00
 5.086902184564157e-20 -1.577334381006881e-17  4.283725849660699e-01
 1.009937750257796e+00  4.283725849660699e-01 -3.458441977109822e-17

-2.588231732401718e-17 -1.652604541730366e-20  1.015331148317129e+00
-1.652604541730366e-20 -1.056050081675658e-17  4.250272314173410e-01
 1.015331148317129e+00  4.250272314173410e-01 -3.478691053540390e-17

-2.594356036857757e-17  7.388840647793637e-20  1.018479201932471e+00
 7.388840647793637e-20 -1.947149667426050e-17  4.251199229529165e-01
 1.018479201932471e+00  4.251199229529165e-01 -3.489868101609906e-17

-2.592564268001701e-17  5.305967020564141e-20  1.016529348418671e+00
 5.305967020564141e-20 -1.409159700153659e-17  4.245256278365812e-01
 1.016529348418671e+00  4.245256278365812e-01 -3.483170692809527e-17

-2.591257090433798e-17  4.748634322966895e-20  1.013451983860401e+00
 4.748634322966895e-20 -1.470977457387685e-17  4.260230087329537e-01
 1.013451983860401e+00  4.260230087329537e-01 -3.472960470113774e-17

-2.588137580042542e-17  3.789609758120199e-20  1.010344896508730e+00
 3.789609758120199e-20 -1.579928791868261e-17  4.267279826911721e-01
 1.010344896508730e+00  4.267279826911721e-01 -3.461526751479968e-17

-2.592472693604254e-17  3.316039622997402e-20  1.010816702795908e+00
 3.316039622997402e-20 -1.575518455956172e-17  4.282457996468345e-01
 1.010816702795908e+00  4.282457996468345e-01 -3.463987264086386e-17

-2.598169366747341e-17  6.198840269416017e-20  1.012762503428105e+00
 6.198840269416017e-20 -1.819040882631250e-17  4.262812704445917e-01
 1.012762503428105e+00  4.262812704445917e-01 -3.471425725132175e-17

-2.607189767664292e-17  4.010541520342893e-20  1.017700409322377e+00
 4.010541520342893e-20 -1.565440193570497e-17  4.227059734152075e-01
 1.017700409322377e+00  4.227059734152075e-01 -3.490095163901313e-17

-2.608415517018361e-17  1.154939231474729e-20  1.014321352341817e+00
 1.154939231474729e-20 -1.289506936961344e-17  4.257782892597939e-01
 1.014321352341817e+00  4.257782892597939e-01 -3.479273356399309e-17

-2.614113151005769e-17  1.153151925724356e-19  1.014543861496201e+00
 1.153151925724356e-19 -2.200545414388359e-17  4.255338561071755e-01
 1.014543861496201e+00  4.255338561071755e-01 -3.481055371471418e-17

-2.621138127513876e-17  3.384513060360260e-20  1.015537315077216e+00
 3.384513060360260e-20 -1.754839884210446e-17  4.251644128640460e-01
 1.015537315077216e+00  4.251644128640460e-01 -3.485950693486038e-17

-2.623908132809951e-17 -2.240342380818184e-20  1.013829225376446e+00
-2.240342380818184e-20 -1.166304543739090e-17  4.265907695189158e-01
 1.013829225376446e+00  4.265907695189158e-01 -3.480656847070000e-17

-2.630310504106948e-17  3.993973686122003e-20  1.014863588132910e+00
 3.993973686122003e-20 -1.663084204697145e-17  4.275108974220586e-01
 1.014863588132910e+00  4.275108974220586e-01 -3.485470765634315e-17

-2.636906657167922e-17  7.934477622988303e-20  1.016150702935947e+00
 7.934477622988303e-20 -2.174045927447274e-17  4.238508610861815e-01
 1.016150702935947e+00  4.238508610861815e-01 -3.491319855791625e-17

-2.644498521320924e-17  3.526698579565260e-20  1.016654412743021e+00
 3.526698579565260e-20 -1.712484575583699e-17  4.261500447669768e-01
 1.016654412743021e+00  4.261500447669768e-01 -3.494654268038653e-17

-2.645654734572558e-17  2.785803990502050e-20  1.012995456839121e+00
 2.785803990502050e-20 -1.858152081879699e-17  4.249442394322767e-01
 1.012995456839121e+00  4.249442394322767e-01 -3.482192769002940e-17

-2.660157296250918e-17 -6.535233960017767e-20  1.016919872484752e+00
-6.535233960017767e-20 -1.174447594792047e-17  4.252395217803612e-01
 1.016919872484752e+00  4.252395217803612e-01 -3.498515291575868e-17

-2.672635106940973e-17  6.319586066590661e-20  1.018061437194351e+00
 6.319586066590661e-20 -2.120168908297256e-17  4.232310094066404e-01
 1.018061437194351e+00  4.232310094066404e-01 -3.505004478185975e-17

-2.682956814325494e-17 -2.304488451899478e-20  1.022051492395290e+00
-2.304488451899478e-20 -1.606072623972310e-17  4.217986501890111e-01
 1.022051492395290e+00  4.217986501890111e-01 -3.521419392828778e-17

-2.691769949530675e-17 -1.131442911722342e-19  1.024357920089547e+00
-1.131442911722342e-19 -1.075972836249996e-17  4.279690021852663e-01
 1.024357920089547e+00  4.279690021852663e-01 -3.532538796193007e-17

-2.676603372182624e-17 -7.308589618033196e-20  1.011632316627309e+00
-7.308589618033196e-20 -1.223518908277869e-17  4.253140580161530e-01
 1.011632316627309e+00  4.253140580161530e-01 -3.485167721745768e-17

-2.658832567475535e-17 -8.364316124588367e-20  9.948601921863384e-01
-8.364316124588367e-20 -1.294511040275819e-17  4.261265743403745e-01
 9.948601921863384e-01  4.261265743403745e-01 -3.424414047825989e-17

-2.667512772444630e-17 -7.680680817183040e-20  9.953268910698718e-01
-7.680680817183040e-20 -1.552836757320066e-17  4.239164630360315e-01
 9.953268910698718e-01  4.239164630360315e-01 -3.428679471043307e-17

-2.729958666091422e-17 -1.256797916612101e-19  1.025947672252705e+00
-1.256797916612101e-19 -1.376932157090213e-17  4.212965462830837e-01
 1.025947672252705e+00  4.212965462830837e-01 -3.544835468426761e-17

-2.772638848948229e-17 -2.813262075189198e-19  1.042687806882373e+00
-2.813262075189198e-19 -3.757540260544246e-18  4.344380186325035e-01
 1.042687806882373e+00  4.344380186325035e-01 -3.613605947398642e-17

-2.735426063074822e-17 -1.051857991117464e-19  1.016956090985345e+00
-1.051857991117464e-19 -1.453124554235538e-17  4.226401685195257e-01
 1.016956090985345e+00  4.226401685195257e-01 -3.516595339736281e-17

-2.737983232092174e-17 -1.894666643524813e-19  1.026680833553511e+00
-1.894666643524813e-19 -1.077430452368516e-17  3.855282972049754e-01
 1.026680833553511e+00  3.855282972049754e-01 -3.543035477942919e-17

-2.737568573734511e-17 -2.215055783612033e-19  1.014146784014918e+00
-2.215055783612033e-19 -9.629749524725884e-18  4.099848282186449e-01
 1.014146784014918e+00  4.099848282186449e-01 -3.507496799199772e-17

-2.798744891628870e-17 -1.864535973350332e-20  1.039172865657181e+00
-1.864535973350332e-20 -2.700829026540698e-17  4.502517048187420e-01
 1.039172865657181e+00  4.502517048187420e-01 -3.610939649173904e-17

-2.757781791257605e-17 -2.246406615131341e-19  9.963513044500297e-01
-2.246406615131341e-19 -1.810263131425170e-17  4.992468926392773e-01
 9.963513044500297e-01  4.992468926392773e-01 -3.478488580224319e-17

-2.659651885598315e-17 -1.041164404782898e-19  9.603877799587274e-01
-1.041164404782898e-19 -1.575190771925963e-17  4.102705758511422e-01
 9.603877799587274e-01  4.102705758511422e-01 -3.300134468055548e-17

-2.610199873065535e-17 -1.216207591462088e-19  9.191653751159552e-01
-1.216207591462088e-19 -2.086138967854019e-17  4.107792429365386e-01
 9.191653751159552e-01  4.107792429365386e-01 -3.164710666636077e-17

-2.760956230636648e-17 -8.466992041956089e-20  9.993288594815889e-01
-8.466992041956089e-20 -2.118105225441266e-17  4.372094138417122e-01
 9.993288594815889e-01  4.372094138417122e-01 -3.463574427842797e-17

-2.827381789587982e-17 -1.141500208212192e-19  1.021361652277226e+00
-1.141500208212192e-19 -1.889502646646791e-17  4.550359612043410e-01
 1.021361652277226e+00  4.550359612043410e-01 -3.551616209571123e-17

-2.856066115697088e-17 -5.187498205678562e-20  1.038899604712571e+00
-5.187498205678562e-20 -3.066459652553695e-17  4.156389109628903e-01
 1.038899604712571e+00  4.156389109628903e-01 -3.620635696119782e-17

-2.845695101711593e-17 -2.478957919511914e-19  1.018094911446321e+00
-2.478957919511914e-19 -1.626759548420624e-17  4.198390969916015e-01
 1.018094911446321e+00  4.198390969916015e-01 -3.548944318830610e-17

-2.861959736084817e-17 -4.193621408416142e-19  1.015283281890277e+00
-4.193621408416142e-19 -6.960138626854210e-18  4.235797880912879e-01
 1.015283281890277e+00  4.235797880912879e-01 -3.544102646658384e-17

-2.878055682331682e-17 -4.448564949359671e-19  1.015136325885007e+00
-4.448564949359671e-19 -7.117935364281535e-18  4.250102554753128e-01
 1.015136325885007e+00  4.250102554753128e-01 -3.549292198540757e-17

-2.898442013238579e-17 -9.619502281522243e-20  1.014759361784407e+00
-9.619502281522243e-20 -3.559041159895481e-17  4.254327037700088e-01
 1.014759361784407e+00  4.254327037700088e-01 -3.553088654809341e-17

-2.917459202038239e-17 -2.416472804720216e-19  1.015395048386185e+00
-2.416472804720216e-19 -2.684707098200505e-17  4.248767466230348e-01
 1.015395048386185e+00  4.248767466230348e-01 -3.560286814538654e-17

-2.944116540310381e-17 -3.745019902505179e-19  1.016281500982816e+00
-3.745019902505179e-19 -1.691478859947697e-17  4.264464753622334e-01
 1.016281500982816e+00  4.264464753622334e-01 -3.571626618995649e-17

-2.962978789846455e-17 -2.539902599743285e-19  1.015175912949715e+00
-2.539902599743285e-19 -2.917073426240787e-17  4.265725173404074e-01
 1.015175912949715e+00  4.265725173404074e-01 -3.573824287993676e-17

-2.978194963672578e-17 -3.998554138985018e-19  1.015990291891914e+00
-3.998554138985018e-19 -2.092983433894686e-17  4.236771605732883e-01
 1.015990291891914e+00  4.236771605732883e-01 -3.580642500718922e-17

-2.997544533830362e-17 -4.307792019367940e-19  1.014228120298251e+00
-4.307792019367940e-19 -2.104797231144874e-17  4.258769845559872e-01
 1.014228120298251e+00  4.258769845559872e-01 -3.582237270940981e-17

-3.026249310064418e-17 -5.874155362361816e-19  1.014477277889458e+00
-5.874155362361816e-19 -1.077082446810721e-17  4.257541373361167e-01
 1.014477277889458e+00  4.257541373361167e-01 -3.591710890233806e-17

-3.062118682181806e-17 -4.507437256923379e-19  1.014181347840787e+00
-4.507437256923379e-19 -2.551995316666237e-17  4.256929709400758e-01
 1.014181347840787e+00  4.256929709400758e-01 -3.602348421042209e-17

-3.087507922058615e-17 -6.331530003428315e-19  1.014394708444927e+00
-6.331530003428315e-19 -1.575150116477318e-17  4.247580061801743e-01
 1.014394708444927e+00  4.247580061801743e-01 -3.611356193294865e-17

-3.107500800053687e-17 -6.192050205759164e-19  1.014789836630545e+00
-6.192050205759164e-19 -1.632171410585358e-17  4.251479663965160e-01
 1.014789836630545e+00  4.251479663965160e-01 -3.618809953918695e-17

-3.146745519478204e-17 -5.079605524099408e-19  1.013996667247007e+00
-5.079605524099408e-19 -3.229735684075219e-17  4.254578120582277e-01
 1.013996667247007e+00  4.254578120582277e-01 -3.629174176881653e-17

-3.187623791933392e-17 -8.454371385100770e-19  1.013317536897524e+00
-8.454371385100770e-19 -1.276861675415584e-17  4.249292994881649e-01
 1.013317536897524e+00  4.249292994881649e-01 -3.640216369862280e-17

-3.212055771103302e-17 -6.958180407205763e-19  1.013316020903717e+00
-6.958180407205763e-19 -2.505727914062762e-17  4.242131627386262e-01
 1.013316020903717e+00  4.242131627386262e-01 -3.648252190060478e-17

-3.251595470296827e-17 -6.102526585028125e-19  1.013438596854981e+00
-6.102526585028125e-19 -3.844023064357945e-17  4.248302051538512e-01
 1.013438596854981e+00  4.248302051538512e-01 -3.661558196076150e-17

-3.315817227363436e-17 -8.558526248227663e-19  1.014710841857722e+00
-8.558526248227663e-19 -2.388604540768388e-17  4.248358528168758e-01
 1.014710841857722e+00  4.248358528168758e-01 -3.686887572885577e-17

-3.380965207842539e-17 -8.280700785004040e-19  1.014238259456520e+00
-8.280700785004040e-19 -3.556861039074113e-17  4.246556994714796e-01
 1.014238259456520e+00  4.246556994714796e-01 -3.706372481324443e-17

-3.444439697067181e-17 -9.328019203951911e-19  1.012375207120810e+00
-9.328019203951911e-19 -3.597021352808712e-17  4.248476507063355e-01
 1.012375207120810e+00  4.248476507063355e-01 -3.723109650891760e-17

-3.532392756252271e-17 -1.222562248263362e-18  1.008613121666160e+00
-1.222562248263362e-18 -2.296333921747443e-17  4.243618957597121e-01
 1.008613121666160e+00  4.243618957597121e-01 -3.740040189552679e-17

-3.622938068130546e-17 -1.220146419731385e-18  1.012665795889153e+00
-1.220146419731385e-18 -3.398812840224085e-17  4.230436147451871e-01
 1.012665795889153e+00  4.230436147451871e-01 -3.782745695091363e-17

-3.661516557262741e-17 -1.239009206825675e-18  1.002690162686525e+00
-1.239009206825675e-18 -3.859480254662055e-17  4.363799784418582e-01
 1.002690162686525e+00  4.363799784418582e-01 -3.763073382395009e-17

-3.683571636560409e-17 -1.569543158046279e-18  1.006255089271268e+00
-1.569543158046279e-18 -1.532493146419721e-17  4.313617591877401e-01
 1.006255089271268e+00  4.313617591877401e-01 -3.784273089833639e-17

-3.725802983618602e-17 -1.508327559614533e-18  1.016281012228357e+00
-1.508327559614533e-18 -2.214219004834678e-17  4.223683321551288e-01
 1.016281012228357e+00  4.223683321551288e-01 -3.827759555465328e-17

-3.778382077277853e-17 -1.783849882678864e-18  1.007701295860269e+00
-1.783849882678864e-18 -1.007540260247026e-17  4.247067808797715e-01
 1.007701295860269e+00  4.247067808797715e-01 -3.820461856828037e-17

-3.877393547825794e-17 -1.934701925803728e-18  1.009870959326866e+00
-1.934701925803728e-18 -1.073178324223682e-17  4.179412607628432e-01
 1.009870959326866e+00  4.179412607628432e-01 -3.862461863720458e-17

-3.947880196749360e-17 -1.378084239324838e-18  1.011248004157079e+00
-1.378084239324838e-18 -6.226139325093969e-17  4.221438194214816e-01
 1.011248004157079e+00  4.221438194214816e-01 -3.890026423819771e-17

-4.070401423065227e-17 -1.923902433587845e-18  1.014765365387460e+00
-1.923902433587845e-18 -3.344558726452358e-17  4.260680504989405e-01
 1.014765365387460e+00  4.260680504989405e-01 -3.943452918582476e-17

-4.235501044703869e-17 -2.498226355831399e-18  1.014233162593817e+00
-2.498226355831399e-18 -7.716773699285968e-18  4.207352054163359e-01
 1.014233162593817e+00  4.207352054163359e-01 -3.998463751837728e-17

-4.328576709668642e-17 -2.471327990314318e-18  1.017787616303770e+00
-2.471327990314318e-18 -2.003182169312327e-17  4.167257359578030e-01
 1.017787616303770e+00  4.167257359578030e-01 -4.042005644267221e-17

-4.383297623494052e-17 -2.562326195946304e-18  1.008044119905291e+00
-2.562326195946304e-18 -2.102726990248867e-17  4.290677786220721e-01
 1.008044119905291e+00  4.290677786220721e-01 -4.028031995417892e-17

-4.436135086213383e-17 -2.276844309506429e-18  1.007837610513178e+00
-2.276844309506429e-18 -4.846576838850447e-17  4.283806708980121e-01
 1.007837610513178e+00  4.283806708980121e-01 -4.047527466370584e-17

-4.535908432918294e-17 -2.993177832416875e-18  1.015041951751103e+00
-2.993177832416875e-18 -2.478913144096837e-18  4.213300658429758e-01
 1.015041951751103e+00  4.213300658429758e-01 -4.104679750813394e-17

-4.661351447107131e-17 -2.959750636889985e-18  1.013671846970099e+00
-2.959750636889985e-18 -1.940529912233312e-17  4.230227425568593e-01
 1.013671846970099e+00  4.230227425568593e-01 -4.142314758405329e-17

-4.865449886780040e-17 -2.767328675395788e-18  1.013044018957848e+00
-2.767328675395788e-18 -5.895844105163849e-17  4.230115318120246e-01
 1.013044018957848e+00  4.230115318120246e-01 -4.212256215986010e-17

-5.254115934901180e-17 -3.794178831434008e-18  1.013319923553462e+00
-3.794178831434008e-18 -1.774121897441899e-17  4.226630004636942e-01
 1.013319923553462e+00  4.226630004636942e-01 -4.347625793729279e-17

-5.674912604569688e-17 -4.577500374893945e-18  1.013806215329285e+00
-4.577500374893945e-18  1.522541378009022e-18  4.226791418209448e-01
 1.013806215329285e+00  4.226791418209448e-01 -4.493835956531689e-17

-6.050242381670229e-17 -5.023391160253947e-18  1.014222703070699e+00
-5.023391160253947e-18  3.612267215287886e-19  4.228292543095192e-01
 1.014222703070699e+00  4.228292543095192e-01 -4.626412121330721e-17

-6.497913487256103e-17 -4.660429236925895e-18  1.014556531583272e+00
-4.660429236925895e-18 -6.925498911238643e-17  4.229896758146340e-01
 1.014556531583272e+00  4.229896758146340e-01 -4.781108986434861e-17

-7.117806104267278e-17 -5.634900618418657e-18  1.014344449855196e+00
-5.634900618418657e-18 -4.320313093330201e-17  4.224216445804199e-01
 1.014344449855196e+00  4.224216445804199e-01 -4.995623113364770e-17

-7.605366274070619e-17 -5.966740558766978e-18  1.014367933826225e+00
-5.966740558766978e-18 -5.534955926736977e-17  4.231194197953214e-01
 1.014367933826225e+00  4.231194197953214e-01 -5.165012766477390e-17

-8.142495282050863e-17 -6.449063211410343e-18  1.013581715985051e+00
-6.449063211410343e-18 -5.372845950972874e-17  4.255824466731457e-01
 1.013581715985051e+00  4.255824466731457e-01 -5.349348042740276e-17

-9.327916696758833e-17 -7.283829300421391e-18  1.001584006199169e+00
-7.283829300421391e-18 -5.339813051046286e-17  4.238241644439791e-01
 1.001584006199169e+00  4.238241644439791e-01 -5.724164509374273e-17

-1.042708409345513e-16 -8.046140065611615e-18  1.022147963768994e+00
-8.046140065611615e-18 -4.613060670224296e-17  3.914887431172846e-01
 1.022147963768994e+00  3.914887431172846e-01 -6.172566316381290e-17

-1.136969524793485e-16 -7.833407440544562e-18  1.040951234059933e+00
-7.833407440544562e-18 -9.134945614307580e-17  4.004667308730084e-01
 1.040951234059933e+00  4.004667308730084e-01 -6.560360122525782e-17

-1.289810866090937e-16 -8.154770582918358e-18  1.084980508842503e+00
-8.154770582918358e-18 -9.168092676161311e-17  4.381049334056110e-01
 1.084980508842503e+00  4.381049334056110e-01 -7.233794981685282e-17

-1.495596717988392e-16 -8.381777515012743e-18  1.061809091750487e+00
-8.381777515012743e-18 -6.438605857707469e-17  4.359296758009674e-01
 1.061809091750487e+00  4.359296758009674e-01 -7.898910047116118e-17

-1.824990201126655e-16 -6.002319029910663e-18  9.148227529914335e-01
-6.002319029910663e-18 -8.307147651799361e-17  4.266158283024707e-01
 9.148227529914335e-01  4.266158283024707e-01 -8.599970546626855e-17

-2.302759183736060e-16 -1.699608413573609e-18  9.182397941401541e-01
-1.699608413573609e-18  1.035753383840818e-17  4.082389863506479e-01
 9.182397941401541e-01  4.082389863506479e-01 -1.036408955255126e-16

-2.779648870464964e-16  4.199172958707535e-18  9.960925774043088e-01
 4.199172958707535e-18 -1.042910111166174e-17  4.456336057346405e-01
 9.960925774043088e-01  4.456336057346405e-01 -1.229676835333859e-16

-3.429690246157303e-16  1.476139027758667e-17  1.046974241265634e+00
 1.476139027758667e-17  1.203672776309490e-16  4.299368872158192e-01
 1.046974241265634e+00  4.299368872158192e-01 -1.484201283074771e-16

-4.395314471994666e-16  4.333549929368755e-17  1.032030012486585e+00
 4.333549929368755e-17 -4.155053226535628e-17  4.138841099766503e-01
 1.032030012486585e+00  4.138841099766503e-01 -1.845509022463095e-16

-6.001360432669081e-16  1.094902771435684e-16  1.002807388194110e+00
 1.094902771435684e-16  8.280662302875082e-17  4.137720786896255e-01
 1.002807388194110e+00  4.137720786896255e-01 -2.480599557022803e-16

-7.826047856902048e-16  2.127490540389863e-16  1.021697673577863e+00
 2.127490540389863e-16  2.077855757724864e-16  4.060329524997091e-01
 1.021697673577863e+00  4.060329524997091e-01 -3.267140531101846e-16

-9.299505647216137e-16  3.061537141132418e-16  9.982290175121823e-01
 3.061537141132418e-16  3.479434511446973e-16  4.567157637844648e-01
 9.982290175121823e-01  4.567157637844648e-01 -3.906400943489365e-16

-1.056166510847160e-15  4.086521753174162e-16  1.009248701653139e+00
 4.086521753174162e-16  5.514069010944487e-16  4.459293766847968e-01
 1.009248701653139e+00  4.459293766847968e-01 -4.516947043238394e-16

-1.254880894681100e-15  6.121269238131440e-16  1.031111188719754e+00
 6.121269238131440e-16  7.038699142293796e-16  4.104616622770547e-01
 1.031111188719754e+00  4.104616622770547e-01 -5.573006943220314e-16

-1.624621008322177e-15  1.104682185522213e-15  1.017499836191841e+00
 1.104682185522213e-15  1.034886197437406e-15  4.230237468582363e-01
 1.017499836191841e+00  4.230237468582363e-01 -7.817239069545333e-16

-2.230648378298447e-15  2.440873072707509e-15  1.018056933678525e+00
 2.440873072707509e-15  1.814410029150831e-15  4.240980778200308e-01
 1.018056933678525e+00  4.240980778200308e-01 -1.308598019231420e-15

-2.774912148097986e-15  5.039751371430066e-15  1.019124594594055e+00
 5.039751371430066e-15  2.751148734092952e-15  4.253104020789224e-01
 1.019124594594055e+00  4.253104020789224e-01 -2.281773751590419e-15

-3.157856523538975e-15  9.093073462374868e-15  1.018911173076892e+00
 9.093073462374868e-15  2.681734947055225e-15  4.251437718992326e-01
 1.018911173076892e+00  4.251437718992326e-01 -4.052158347725410e-15

-5.779506754905777e-15  1.483950392753873e-14  1.018971801996063e+00
 1.483950392753873e-14  9.060459207427373e-16  4.252589841606275e-01
 1.018971801996063e+00  4.252589841606275e-01 -9.381694133570917e-15

 1.662932944170674e-14  9.155886073623732e-16  1.019300036922274e+00
 9.155886073623732e-16  2.151468012609494e-14  4.266786630690067e-01
 1.019300036922274e+00  4.266786630690067e-01 -7.898332057645296e-15

 1.681045512817547e-13 -4.041173271211761e-14  1.018499201641857e+00
-4.041173271211761e-14  8.551422581197551e-14  4.267556019216206e-01
 1.018499201641857e+00  4.267556019216206e-01  4.043701971401582e-14

-6.330321289391048e-13  1.476104348475668e-13  1.019624313588655e+00
 1.476104348475668e-13 -3.149954816042484e-13  4.258161209226961e-01
 1.019624313588655e+00  4.258161209226961e-01 -1.586685710447606e-13

 1.697039873357317e-13 -6.281814312699184e-14  1.019830476077006e+00
-6.281814312699184e-14  9.233931672817725e-14  4.319065379915101e-01
 1.019830476077006e+00  4.319065379915101e-01  4.502913067697255e-14

-6.653405921784432e-13  1.473181517399046e-13  1.021475269915990e+00
 1.473181517399046e-13 -3.105205763278155e-13  4.292519423284572e-01
 1.021475269915990e+00  4.292519423284572e-01 -1.787351955807184e-13

-1.754224290061833e-14 -1.224944229213421e-14  1.019291779644695e+00
-1.224944229213421e-14  7.057130337614787e-15  4.310863223415257e-01
 1.019291779644695e+00  4.310863223415257e-01 -1.259278496426603e-14

-1.740364837552791e-14 -4.068697056349537e-15  1.020614424394842e+00
-4.068697056349537e-15 -1.817084279073334e-15  4.275665041273456e-01
 1.020614424394842e+00  4.275665041273456e-01 -9.389437473815022e-15

-1.242674427476874e-14 -1.417485325151401e-15  1.018742086180272e+00
-1.417485325151401e-15 -2.452097877399091e-15  4.300000979468022e-01
 1.018742086180272e+00  4.300000979468022e-01 -5.845616869966658e-15

-7.264171344728381e-15  3.881239004694512e-16  1.020183389522444e+00
 3.881239004694512e-16 -1.873495099710638e-15  4.314596294805615e-01
 1.020183389522444e+00  4.314596294805615e-01 -2.773526150667194e-15

-4.085491061890152e-15  9.348372155102620e-16  1.017938046106132e+00
 9.348372155102620e-16 -1.577143337048246e-15  4.350431202134187e-01
 1.017938046106132e+00  4.350431202134187e-01 -1.322832642574127e-15

-2.700196995155581e-15  8.797732788207817e-16  1.026982127519604e+00
 8.797732788207817e-16 -1.373401621903609e-15  4.139547889695633e-01
 1.026982127519604e+00  4.139547889695633e-01 -8.297277973825301e-16

-2.130083481774939e-15  7.833413620431897e-16  1.029527560498499e+00
 7.833413620431897e-16 -1.261254626319257e-15  4.140406028036528e-01
 1.029527560498499e+00  4.140406028036528e-01 -6.469589464413743e-16

-1.386896357091326e-15  5.991917406940280e-16  1.038841889948640e+00
 5.991917406940280e-16 -1.091752526916120e-15  4.391449844256133e-01
 1.038841889948640e+00  4.391449844256133e-01 -4.246101756396356e-16

-9.794094434895735e-16  4.533212699716617e-16  1.005438238171842e+00
 4.533212699716617e-16 -9.025727837966894e-16  4.624850842475959e-01
 1.005438238171842e+00  4.624850842475959e-01 -3.080758928022197e-16

-8.086638489524449e-16  3.853570640447890e-16  1.021811193722719e+00
 3.853570640447890e-16 -7.736224826450673e-16  4.030850461781061e-01
 1.021811193722719e+00  4.030850461781061e-01 -2.603986092943070e-16

-5.825357839170945e-16  2.823684765029244e-16  1.002504726360716e+00
 2.823684765029244e-16 -6.337229654480659e-16  4.235304214084923e-01
 1.002504726360716e+00  4.235304214084923e-01 -2.087005003873653e-16

-4.289762866801919e-16  2.028373645953870e-16  1.024985273810263e+00
 2.028373645953870e-16 -5.194288587088177e-16  4.370110607456582e-01
 1.024985273810263e+00  4.370110607456582e-01 -1.553463713355267e-16

-3.312248933316586e-16  1.508290038899314e-16  1.025615180860482e+00
 1.508290038899314e-16 -4.279347157381484e-16  4.394531455358751e-01
 1.025615180860482e+00  4.394531455358751e-01 -1.277568729839488e-16

-2.790669368838511e-16  1.230387980134656e-16  1.022424728747957e+00
 1.230387980134656e-16 -3.742667234911229e-16  4.339636304608803e-01
 1.022424728747957e+00  4.339636304608803e-01 -1.126391758943570e-16

-2.265218771651402e-16  9.488747834147785e-17  1.015656468442580e+00
 9.488747834147785e-17 -3.080073914366112e-16  4.291159062308768e-01
 1.015656468442580e+00  4.291159062308768e-01 -9.706192840812694e-17

-1.928024535851329e-16  7.626777444113021e-17  1.024075530054471e+00
 7.626777444113021e-17 -2.681776305667644e-16  4.280348017355962e-01
 1.024075530054471e+00  4.280348017355962e-01 -8.739886640388990e-17

-1.735018401821086e-16  6.553923399977491e-17  1.022526500511560e+00
 6.553923399977491e-17 -2.472159496242468e-16  4.395560616277694e-01
 1.022526500511560e+00  4.395560616277694e-01 -8.162905878091329e-17

-1.478339287521224e-16  5.170356726676190e-17  1.028604242132459e+00
 5.170356726676190e-17 -2.043654211699831e-16  4.365488646548330e-01
 1.028604242132459e+00  4.365488646548330e-01 -7.407743274061214e-17

-1.246470449877242e-16  3.978611142462327e-17  1.023827982636637e+00
 3.978611142462327e-17 -1.710311605850174e-16  4.338383897747445e-01
 1.023827982636637e+00  4.338383897747445e-01 -6.673876786859433e-17

-1.088411045814495e-16  3.186611330268462e-17  1.022303201587565e+00
 3.186611330268462e-17 -1.532286723686261e-16  4.340348074843381e-01
 1.022303201587565e+00  4.340348074843381e-01 -6.174297154573233e-17

-9.951424803466389e-17  2.719003187054973e-17  1.023737473668520e+00
 2.719003187054973e-17 -1.364301992308947e-16  4.357400889898485e-01
 1.023737473668520e+00  4.357400889898485e-01 -5.883992873180385e-17

-9.183829636003127e-17  2.345998413635529e-17  1.025137086817125e+00
 2.345998413635529e-17 -1.246159290967925e-16  4.357347061570602e-01
 1.025137086817125e+00  4.357347061570602e-01 -5.645188678760097e-17

-8.263044388619953e-17  1.909348565007339e-17  1.028942589965233e+00
 1.909348565007339e-17 -1.104840338709156e-16  4.337590481336406e-01
 1.028942589965233e+00  4.337590481336406e-01 -5.366382830963473e-17

-7.508828097391059e-17  1.556448959451162e-17  1.035877632626618e+00
 1.556448959451162e-17 -9.822143140622336e-17  4.336165411613646e-01
 1.035877632626618e+00  4.336165411613646e-01 -5.140813567012367e-17

-6.860224256839696e-17  1.276969825834008e-17  1.015414136470875e+00
 1.276969825834008e-17 -8.740964367230094e-17  4.614711982607819e-01
 1.015414136470875e+00  4.614711982607819e-01 -4.862604161525990e-17

-6.579355093018540e-17  1.181381819302581e-17  1.024499788881376e+00
 1.181381819302581e-17 -8.434295851924124e-17  4.319552827091594e-01
 1.024499788881376e+00  4.319552827091594e-01 -4.798472007685729e-17

-6.357082994052412e-17  1.110118503052294e-17  1.028343576390173e+00
 1.110118503052294e-17 -7.887642912181740e-17  4.091027823151919e-01
 1.028343576390173e+00  4.091027823151919e-01 -4.734495672604124e-17

-5.906866613703958e-17  9.245781781727628e-18  1.010504573247868e+00
 9.245781781727628e-18 -7.120130649676836e-17  4.382040886460362e-01
 1.010504573247868e+00  4.382040886460362e-01 -4.531370031407404e-17

-5.604441413821533e-17  7.935051983807350e-18  1.018746949566221e+00
 7.935051983807350e-18 -6.709576663894668e-17  4.391400045015486e-01
 1.018746949566221e+00  4.391400045015486e-01 -4.458644804606644e-17

-5.359667579124567e-17  6.992432693128630e-18  1.022849875208087e+00
 6.992432693128630e-18 -6.237558760777237e-17  4.360734652666955e-01
 1.022849875208087e+00  4.360734652666955e-01 -4.392985826451329e-17

-5.061758145481060e-17  5.880467894816195e-18  1.023941415841935e+00
 5.880467894816195e-18 -5.730031792016473e-17  4.351989908747997e-01
 1.023941415841935e+00  4.351989908747997e-01 -4.296090848447838e-17

-4.786454372818051e-17  4.940237136325481e-18  1.020435546892446e+00
 4.940237136325481e-18 -5.282510240598906e-17  4.363410933430791e-01
 1.020435546892446e+00  4.363410933430791e-01 -4.193781127537628e-17

-4.533403907188009e-17  4.166645749308434e-18  1.011717247379929e+00
 4.166645749308434e-18 -4.922190030282045e-17  4.355667523555388e-01
 1.011717247379929e+00  4.355667523555388e-01 -4.081196577861987e-17

-4.316873691789802e-17  3.483672145309922e-18  1.010182972357959e+00
 3.483672145309922e-18 -4.308276092612868e-17  4.315013826641074e-01
 1.010182972357959e+00  4.315013826641074e-01 -4.004352754992991e-17

-4.175781007629440e-17  2.926145887471611e-18  1.025769079528586e+00
 2.926145887471611e-18 -4.118922148815667e-17  4.303858700102808e-01
 1.025769079528586e+00  4.303858700102808e-01 -4.007911548348293e-17

-4.059686092955122e-17  2.444702488115320e-18  1.046596828328320e+00
 2.444702488115320e-18 -3.976319233589331e-17  4.317770243616654e-01
 1.046596828328320e+00  4.317770243616654e-01 -4.037009457780548e-17

-3.901976967973057e-17  2.063563272415754e-18  1.041011209461735e+00
 2.063563272415754e-18 -3.615843694288823e-17  4.287741627603585e-01
 1.041011209461735e+00  4.287741627603585e-01 -3.969217044347669e-17

-3.712482184661714e-17  1.756845508672578e-18  1.011317171067810e+00
 1.756845508672578e-18 -3.339037838423284e-17  4.286300713549067e-01
 1.011317171067810e+00  4.286300713549067e-01 -3.809059415247597e-17

-3.594895258883667e-17  1.507929543125871e-18  1.007696122666660e+00
 1.507929543125871e-18 -3.152913054790585e-17  4.242748836337146e-01
 1.007696122666660e+00  4.242748836337146e-01 -3.759964630530903e-17

-3.540549878751171e-17  1.331940810303078e-18  1.017915344656269e+00
 1.331940810303078e-18 -3.067837863610200e-17  4.278211262510722e-01
 1.017915344656269e+00  4.278211262510722e-01 -3.776249006503195e-17

-3.485605762206207e-17  1.155982180847442e-18  1.025481475277535e+00
 1.155982180847442e-18 -2.933853043462293e-17  4.392299523068955e-01
 1.025481475277535e+00  4.392299523068955e-01 -3.782014338369288e-17

-3.420644824581952e-17  1.059092108035221e-18  1.016040523748796e+00
 1.059092108035221e-18 -3.013779090357769e-17  4.349951575394597e-01
 1.016040523748796e+00  4.349951575394597e-01 -3.729199319022898e-17

-3.338629881818726e-17  9.875484687016878e-19  1.001464223464602e+00
 9.875484687016878e-19 -2.930535141509764e-17  4.222634542123372e-01
 1.001464223464602e+00  4.222634542123372e-01 -3.657468997098345e-17

-3.271477527421539e-17  8.494210273188323e-19  1.000505265549257e+00
 8.494210273188323e-19 -2.833459251252224e-17  4.143454630359695e-01
 1.000505265549257e+00  4.143454630359695e-01 -3.632666018260453e-17

-3.254795701765824e-17  7.760556853628597e-19  1.009939931362277e+00
 7.760556853628597e-19 -2.775588994144334e-17  4.249848582119025e-01
 1.009939931362277e+00  4.249848582119025e-01 -3.657669046914931e-17

-3.241554540392443e-17  7.234421449153180e-19  1.017133171267260e+00
 7.234421449153180e-19 -2.453784146348218e-17  4.388481201245499e-01
 1.017133171267260e+00  4.388481201245499e-01 -3.676410736670435e-17

-3.194435598373492e-17  6.205868459191288e-19  1.022173461163268e+00
 6.205868459191288e-19 -2.400062671555343e-17  4.219171494467133e-01
 1.022173461163268e+00  4.219171494467133e-01 -3.676609956231157e-17

-3.147740606060407e-17  5.470840754033220e-19  1.020127164853945e+00
 5.470840754033220e-19 -2.285082534556523e-17  4.248976840265844e-01
 1.020127164853945e+00  4.248976840265844e-01 -3.655643245956671e-17

-3.106486300964497e-17  4.968296532476443e-19  1.016852262018854e+00
 4.968296532476443e-19 -2.267696703105925e-17  4.267750937714602e-01
 1.016852262018854e+00  4.267750937714602e-01 -3.632258120244299e-17

-3.059010568467007e-17  4.487736140300555e-19  1.009596743462272e+00
 4.487736140300555e-19 -2.580443493565327e-17  4.246012243776235e-01
 1.009596743462272e+00  4.246012243776235e-01 -3.593643500034426e-17

-3.018125586912237e-17  3.964299324099258e-19  1.006004871542713e+00
 3.964299324099258e-19 -2.262430515815498e-17  4.261360348530024e-01
 1.006004871542713e+00  4.261360348530024e-01 -3.569447786556719e-17

-3.006740725807815e-17  3.412376939227952e-19  1.021573730917842e+00
 3.412376939227952e-19 -1.992921076467294e-17  4.267933889088395e-01
 1.021573730917842e+00  4.267933889088395e-01 -3.615531000600786e-17

-2.980696837999126e-17  2.931804671721042e-19  1.025730414716114e+00
 2.931804671721042e-19 -2.324696157854033e-17  4.242616495671860e-01
 1.025730414716114e+00  4.242616495671860e-01 -3.620456096662424e-17

-2.949115866170404e-17  2.679604145451592e-19  1.018337397025088e+00
 2.679604145451592e-19 -2.349984583106277e-17  4.269346479814078e-01
 1.018337397025088e+00  4.269346479814078e-01 -3.586579857670391e-17

-2.926721343007785e-17  2.530417826911128e-19  1.014954385272838e+00
 2.530417826911128e-19 -2.061712839476972e-17  4.263549845035292e-01
 1.014954385272838e+00  4.263549845035292e-01 -3.568644448615222e-17

-2.911861701550433e-17  2.325360877372906e-19  1.020250750606820e+00
 2.325360877372906e-19 -2.104640015527436e-17  4.293597867428337e-01
 1.020250750606820e+00  4.293597867428337e-01 -3.581671815467487e-17

-2.904149265667148e-17  2.151989236414723e-19  1.027396711956344e+00
 2.151989236414723e-19 -1.989111192583023e-17  4.241182813039177e-01
 1.027396711956344e+00  4.241182813039177e-01 -3.602620117159078e-17

-2.874907235359429e-17  2.076761672334955e-19  1.012685413697072e+00
 2.076761672334955e-19 -2.078482111845825e-17  4.360016789765436e-01
 1.012685413697072e+00  4.360016789765436e-01 -3.546624067351928e-17

-2.883231077572539e-17  1.842379547796864e-19  1.034042482676807e+00
 1.842379547796864e-19 -2.172312324970092e-17  4.044350603469600e-01
 1.034042482676807e+00  4.044350603469600e-01 -3.617167483433337e-17

-2.889312655062577e-17  1.760454576029164e-19  1.044805654594053e+00
 1.760454576029164e-19 -2.045213389595634e-17  3.964657847510535e-01
 1.044805654594053e+00  3.964657847510535e-01 -3.653749847324645e-17

-2.851971835278276e-17  1.753836245311156e-19  1.012160550523266e+00
 1.753836245311156e-19 -1.578285519151236e-17  4.464081955848627e-01
 1.012160550523266e+00  4.464081955848627e-01 -3.536728677329165e-17

-2.849116893746184e-17  1.552311047949054e-19  1.018716861567729e+00
 1.552311047949054e-19 -2.041550931588419e-17  4.394461960540479e-01
 1.018716861567729e+00  4.394461960540479e-01 -3.557475130733172e-17

-2.877105456505282e-17  1.489177920168873e-19  1.052864033282793e+00
 1.489177920168873e-19 -2.178764664363862e-17  3.992635723642781e-01
 1.052864033282793e+00  3.992635723642781e-01 -3.675478693771007e-17

-2.842619707780744e-17  1.458475620937069e-19  1.026793365563544e+00
 1.458475620937069e-19 -1.601308598918949e-17  4.307488460436445e-01
 1.026793365563544e+00  4.307488460436445e-01 -3.581134229109089e-17

-2.808574122173023e-17  1.336325882171086e-19  1.003205461461211e+00
 1.336325882171086e-19 -2.238260533979630e-17  4.517650684586058e-01
 1.003205461461211e+00  4.517650684586058e-01 -3.495606598127819e-17

-2.811102851568032e-17  1.312543391753121e-19  1.021977319286817e+00
 1.312543391753121e-19 -2.290824465990303e-17  4.146761399376339e-01
 1.021977319286817e+00  4.146761399376339e-01 -3.554373698582704e-17

-2.806881466306786e-17  1.061230558661215e-19  1.024140343427215e+00
 1.061230558661215e-19 -1.547064408169991e-17  4.185695694590275e-01
 1.024140343427215e+00  4.185695694590275e-01 -3.560298494775512e-17

-2.802911403926076e-17  1.149673021066702e-19  1.021934884296736e+00
 1.149673021066702e-19 -1.933407693671714e-17  4.399592450951686e-01
 1.021934884296736e+00  4.399592450951686e-01 -3.552625288373610e-17

-2.796912639018957e-17  9.917819216100993e-20  1.024920102067537e+00
 9.917819216100993e-20 -1.836524655735031e-17  4.332262214765931e-01
 1.024920102067537e+00  4.332262214765931e-01 -3.560303385651997e-17

-2.782263581807607e-17  9.990559483725572e-20  1.024206803659393e+00
 9.990559483725572e-20 -2.138755118317771e-17  4.230519653497083e-01
 1.024206803659393e+00  4.230519653497083e-01 -3.553147492359230e-17

-2.771133665108263e-17  9.277151456169753e-20  1.023548066820665e+00
 9.277151456169753e-20 -1.718078805742975e-17  4.276382167624524e-01
 1.023548066820665e+00  4.276382167624524e-01 -3.548084380284656e-17

-2.756345133680339e-17  9.126132912397220e-20  1.016685526488980e+00
 9.126132912397220e-20 -1.452770117117738e-17  4.300658860955164e-01
 1.016685526488980e+00  4.300658860955164e-01 -3.521803782343347e-17

-2.748254800038724e-17  8.813001638073080e-20  1.016818959212252e+00
 8.813001638073080e-20 -2.061483949963054e-17  4.230737309268985e-01
 1.016818959212252e+00  4.230737309268985e-01 -3.520252483830843e-17

-2.772818544884857e-17  9.257415728323865e-20  1.037294216403119e+00
 9.257415728323865e-20 -1.570305737428187e-17  4.246247064463416e-01
 1.037294216403119e+00  4.246247064463416e-01 -3.594599953698769e-17

-2.756354128885659e-17  8.122632346048842e-20  1.019741438181095e+00
 8.122632346048842e-20 -1.864581353124908e-17  4.694931774023830e-01
 1.019741438181095e+00  4.694931774023830e-01 -3.537832164477559e-17

-2.743327402832148e-17  9.828339516265069e-20  1.028072223224582e+00
 9.828339516265069e-20 -1.756655233132188e-17  4.171959935746752e-01
 1.028072223224582e+00  4.171959935746752e-01 -3.555321919519347e-17

-2.744622288327730e-17  1.092513577632029e-19  1.045084717062021e+00
 1.092513577632029e-19 -2.230568278086470e-17  3.718387544532329e-01
 1.045084717062021e+00  3.718387544532329e-01 -3.607106762127769e-17

-2.703695599174877e-17  8.182499617677328e-20  1.009226347945026e+00
 8.182499617677328e-20 -1.412695457986537e-17  4.295976741741444e-01
 1.009226347945026e+00  4.295976741741444e-01 -3.485066656499837e-17

-2.725049809672807e-17  6.177954682592911e-20  1.029794138033301e+00
 6.177954682592911e-20 -2.094104353664005e-17  4.297369905335100e-01
 1.029794138033301e+00  4.297369905335100e-01 -3.558035346216058e-17

-2.701264251009768e-17  4.824313292724013e-20  1.022359398498640e+00
 4.824313292724013e-20 -1.845162865276162e-17  4.273795262989942e-01
 1.022359398498640e+00  4.273795262989942e-01 -3.526524425427091e-17

-2.682829404093154e-17  3.883792130717352e-20  1.014242725963268e+00
 3.883792130717352e-20 -1.772725425145661e-17  4.299924167210261e-01
 1.014242725963268e+00  4.299924167210261e-01 -3.493044919628430e-17

-2.668063692289064e-17  3.229820272222193e-20  1.008732633359005e+00
 3.229820272222193e-20 -1.712807750206660e-17  4.267610107785305e-01
 1.008732633359005e+00  4.267610107785305e-01 -3.468913646104296e-17

-2.675269560263713e-17  2.498377126577130e-20  1.018170766429846e+00
 2.498377126577130e-20 -2.058991400215754e-17  4.197119058773772e-01
 1.018170766429846e+00  4.197119058773772e-01 -3.500678508758982e-17

-2.673054378643674e-17  7.671570017348689e-21  1.026238215578393e+00
 7.671570017348689e-21 -1.989617049999502e-17  4.248605152428562e-01
 1.026238215578393e+00  4.248605152428562e-01 -3.531653352808195e-17

-2.708703922250872e-17  9.859311888798947e-21  1.048660649500181e+00
 9.859311888798947e-21 -1.724778318088705e-17  4.386968567584205e-01
 1.048660649500181e+00  4.386968567584205e-01 -3.619453818350957e-17

-3.202810349193788e-17  1.622087931384090e-18  9.922830883519814e-01
 1.622087931384090e-18 -1.795041120878163e-17  4.268371517243965e-01
 9.922830883519814e-01  4.268371517243965e-01 -3.401629454785056e-17

-9.865487605433197e-17  1.931667386790054e-17  9.579832338683559e-01
 1.931667386790054e-17 -2.282451125416636e-17  4.130615068337786e-01
 9.579832338683559e-01  4.130615068337786e-01 -3.275262384606898e-17

-9.952907860117965e-17  1.934852290852789e-17  1.009762651497637e+00
 1.934852290852789e-17 -2.268528669784001e-17  4.357645090645221e-01
 1.009762651497637e+00  4.357645090645221e-01 -3.468626465991619e-17

-2.581182811921886e-17 -1.215560466612505e-19  1.028439903024280e+00
-1.215560466612505e-19 -1.515372134385306e-17  4.409988517967936e-01
 1.028439903024280e+00  4.409988517967936e-01 -3.542905645200086e-17

-2.643391587968112e-17  1.290145728555265e-19  1.017709445357292e+00
 1.290145728555265e-19 -1.769724597352415e-17  4.145018306571300e-01
 1.017709445357292e+00  4.145018306571300e-01 -3.497426559495689e-17

-2.611504694922399e-17  1.022008092086756e-19  1.013407823591895e+00
 1.022008092086756e-19 -1.198338766101001e-17  3.928471837963280e-01
 1.013407823591895e+00  3.928471837963280e-01 -3.476409613205818e-17

-2.603547327498588e-17  9.055046625647204e-20  1.005188313307583e+00
 9.055046625647204e-20 -2.011114379893677e-17  4.241246682502214e-01
 1.005188313307583e+00  4.241246682502214e-01 -3.452485375638057e-17

-2.643080417580101e-17  1.014800512486689e-19  1.029973299453659e+00
 1.014800512486689e-19 -1.892286193695901e-17  4.243496093493332e-01
 1.029973299453659e+00  4.243496093493332e-01 -3.544813270902717e-17

-2.624418740350659e-17  9.599287545738543e-20  1.021063052756706e+00
 9.599287545738543e-20 -1.677878131214400e-17  4.227539184496257e-01
 1.021063052756706e+00  4.227539184496257e-01 -3.511008085437020e-17

-2.593996155390592e-17  8.385591591466287e-20  1.007556367504881e+00
 8.385591591466287e-20 -1.566925810983038e-17  4.210895667683459e-01
 1.007556367504881e+00  4.210895667683459e-01 -3.458604550533562e-17

-2.586272798256980e-17  6.418861793935795e-20  1.004914551234884e+00
 6.418861793935795e-20 -1.791262847110782e-17  4.258296803128253e-01
 1.004914551234884e+00  4.258296803128253e-01 -3.446959854679872e-17

-2.582364157636606e-17  4.561240995188318e-20  1.007612879826396e+00
 4.561240995188318e-20 -1.863585126943488e-17  4.263023589323265e-01
 1.007612879826396e+00  4.263023589323265e-01 -3.453836808722928e-17

-2.591393595041254e-17  3.434587404179002e-20  1.013707781938376e+00
 3.434587404179002e-20 -1.792831271817230e-17  4.266205790891716e-01
 1.013707781938376e+00  4.266205790891716e-01 -3.474984709860692e-17

-2.600647058303726e-17  3.065177181953658e-20  1.019457670720466e+00
 3.065177181953658e-20 -1.720279724044960e-17  4.278935971489697e-01
 1.019457670720466e+00  4.278935971489697e-01 -3.495910068021793e-17

-2.596418795826714e-17  2.774169297494916e-20  1.020026908816726e+00
 2.774169297494916e-20 -1.941571655464448e-17  4.293531469178085e-01
 1.020026908816726e+00  4.293531469178085e-01 -3.496610867737904e-17

-2.588512745235367e-17  2.004621659790696e-20  1.018140069851918e+00
 2.004621659790696e-20 -1.491638105889858e-17  4.277360569244911e-01
 1.018140069851918e+00  4.277360569244911e-01 -3.488781863875157e-17

-2.585416318392271e-17  2.977279423749682e-21  1.016871930227725e+00
 2.977279423749682e-21 -1.478257292183195e-17  4.308851698193580e-01
 1.016871930227725e+00  4.308851698193580e-01 -3.482683049578926e-17

-2.588387479188718e-17 -2.279226861440281e-20  1.019757911425083e+00
-2.279226861440281e-20 -1.473566388961668e-17  4.311009502061111e-01
 1.019757911425083e+00  4.311009502061111e-01 -3.490422902979051e-17

-2.596091937565550e-17 -4.205614329644477e-20  1.026453613716174e+00
-4.205614329644477e-20 -2.130147776963515e-17  4.353640231631718e-01
 1.026453613716174e+00  4.353640231631718e-01 -3.511494306172171e-17

-2.605969403625959e-17 -6.823013631498907e-20  1.033122959138507e+00
-6.823013631498907e-20 -1.519276369419068e-17  4.405413386253437e-01
 1.033122959138507e+00  4.405413386253437e-01 -3.534525079188762e-17

-2.584063613387499e-17 -9.399420642916812e-20  1.011356636782492e+00
-9.399420642916812e-20 -1.480031278579922e-17  4.669596371073279e-01
 1.011356636782492e+00  4.669596371073279e-01 -3.455934180864507e-17

-2.610661458729142e-17 -7.733515988004527e-20  1.042942555416263e+00
-7.733515988004527e-20 -1.450788824013193e-17  4.197321147113628e-01
 1.042942555416263e+00  4.197321147113628e-01 -3.560463990441827e-17

-2.594429414181624e-17 -7.158615679755346e-20  1.027636196177401e+00
-7.158615679755346e-20 -1.568150772969781e-17  4.320646536762155e-01
 1.027636196177401e+00  4.320646536762155e-01 -3.505654573392115e-17

-2.621496378131174e-17 -5.325620307971704e-20  1.037681450701573e+00
-5.325620307971704e-20 -1.235554814461334e-17  4.510743293462701e-01
 1.037681450701573e+00  4.510743293462701e-01 -3.547780304602982e-17

-2.646606344469955e-17 -1.894901657605715e-21  1.053131771328923e+00
-1.894901657605715e-21 -1.584530303688627e-17  4.426757043097891e-01
 1.053131771328923e+00  4.426757043097891e-01 -3.609001241676402e-17

-2.642883314361141e-17  6.436123156028845e-20  1.049480882323564e+00
 6.436123156028845e-20 -1.609189988942553e-17  4.438255817366006e-01
 1.049480882323564e+00  4.438255817366006e-01 -3.602649914514303e-17

-2.622552023988322e-17  1.005399168235962e-19  1.042312841165012e+00
 1.005399168235962e-19 -1.398097665252591e-17  4.254988757087790e-01
 1.042312841165012e+00  4.254988757087790e-01 -3.577191116734474e-17

-2.626631951404057e-17  1.156734398518205e-19  1.043087604099336e+00
 1.156734398518205e-19 -1.142562067998893e-17  4.351594424406381e-01
 1.043087604099336e+00  4.351594424406381e-01 -3.583619664977558e-17

-2.628847176889913e-17  1.278733171944704e-19  1.041677686423573e+00
 1.278733171944704e-19 -1.465643730009508e-17  4.507735851220622e-01
 1.041677686423573e+00  4.507735851220622e-01 -3.581907128699795e-17

-2.627443480349001e-17  1.233623818743206e-19  1.045822897749834e+00
 1.233623818743206e-19 -1.530271358327389e-17  4.388437680327357e-01
 1.045822897749834e+00  4.388437680327357e-01 -3.596944662857260e-17

-2.617446574825792e-17  1.137304579717679e-19  1.040483213064927e+00
 1.137304579717679e-19 -1.442392718458934e-17  4.392589792416913e-01
 1.040483213064927e+00  4.392589792416913e-01 -3.576792329166125e-17

-2.614929904504481e-17  1.068340066152431e-19  1.040485962492843e+00
 1.068340066152431e-19 -1.269894120307676e-17  4.431681073997114e-01
 1.040485962492843e+00  4.431681073997114e-01 -3.576540283324641e-17

-2.606600924296759e-17  1.157799845969227e-19  1.031128562486363e+00
 1.157799845969227e-19 -1.566752453006044e-17  4.493441794010525e-01
 1.031128562486363e+00  4.493441794010525e-01 -3.543597999450048e-17

-2.632089550869451e-17  1.070132942771129e-19  1.055259150310678e+00
 1.070132942771129e-19 -2.075910252203913e-17  4.174153535908026e-01
 1.055259150310678e+00  4.174153535908026e-01 -3.629295422729908e-17

-2.640156802402744e-17  1.072723818044359e-19  1.061052530800236e+00
 1.072723818044359e-19 -1.762935828632525e-17  4.156599769747408e-01
 1.061052530800236e+00  4.156599769747408e-01 -3.652885047922394e-17

-2.681181001120178e-17  1.291582983967849e-19  1.080349504357378e+00
 1.291582983967849e-19 -1.375624650410271e-17  4.431894805564781e-01
 1.080349504357378e+00  4.431894805564781e-01 -3.731513185679678e-17

-2.667717708463159e-17  1.119470757108011e-19  1.072266875770980e+00
 1.119470757108011e-19 -8.868235867988410e-18  4.391648515586742e-01
 1.072266875770980e+00  4.391648515586742e-01 -3.703231245620956e-17

-2.672872722839645e-17  1.281510487303559e-19  1.090148408507824e+00
 1.281510487303559e-19 -1.765214515715604e-17  3.928650668288085e-01
 1.090148408507824e+00  3.928650668288085e-01 -3.757391735053193e-17

-2.627944910284353e-17  9.379685667446901e-20  1.054327605739787e+00
 9.379685667446901e-20 -1.623883603136071e-17  4.327860457702335e-01
 1.054327605739787e+00  4.327860457702335e-01 -3.631818844886352e-17

-2.637949521758212e-17  3.715599890860124e-20  1.065211426294261e+00
 3.715599890860124e-20 -2.227513186570841e-17  4.399685994807965e-01
 1.065211426294261e+00  4.399685994807965e-01 -3.667781496207454e-17

-2.598159089164166e-17 -3.038679270487438e-20  1.040176814631416e+00
-3.038679270487438e-20 -1.499646686449388e-17  4.553222330572506e-01
 1.040176814631416e+00  4.553222330572506e-01 -3.571021212083420e-17

-2.603604943135966e-17 -2.185769875608528e-20  1.058457756144332e+00
-2.185769875608528e-20 -1.356106832991044e-17  4.054450678885509e-01
 1.058457756144332e+00  4.054450678885509e-01 -3.620764616039369e-17

-2.593615269645021e-17 -5.924638489885535e-20  1.042204722268326e+00
-5.924638489885535e-20 -1.537708352440075e-17  4.523901043962832e-01
 1.042204722268326e+00  4.523901043962832e-01 -3.569093387419272e-17

-2.641017136351834e-17 -5.595214800710566e-20  1.086478061159692e+00
-5.595214800710566e-20 -1.805333907712291e-17  4.009163001081439e-01
 1.086478061159692e+00  4.009163001081439e-01 -3.722303110897482e-17

-2.630612028009867e-17 -2.372329051216357e-20  1.074291481122122e+00
-2.372329051216357e-20 -1.413070123503098e-17  4.227491254951322e-01
 1.074291481122122e+00  4.227491254951322e-01 -3.683028433943044e-17

-2.578940854724214e-17 -1.203735825365600e-20  1.034937066170577e+00
-1.203735825365600e-20 -1.241816225258443e-17  4.504281293943316e-01
 1.034937066170577e+00  4.504281293943316e-01 -3.543974495668247e-17

-2.551908201692333e-17  2.655851513412725e-20  1.028148567589378e+00
 2.655851513412725e-20 -1.280236213683722e-17  4.171767323687787e-01
 1.028148567589378e+00  4.171767323687787e-01 -3.511943558683293e-17

-2.580671326980165e-17  1.404981984925671e-20  1.042007599353810e+00
 1.404981984925671e-20 -1.274083170169757e-17  4.470432121368408e-01
 1.042007599353810e+00  4.470432121368408e-01 -3.569807167176110e-17

-2.562346464375262e-17 -2.444334615273564e-21  1.036024196334966e+00
-2.444334615273564e-21 -1.529270609406395e-17  4.292204661127500e-01
 1.036024196334966e+00  4.292204661127500e-01 -3.543413788249494e-17

-2.552319310453522e-17 -1.949612047721040e-20  1.031349577372217e+00
-1.949612047721040e-20 -1.302117280147180e-17  4.374918557699486e-01
 1.031349577372217e+00  4.374918557699486e-01 -3.525549100341386e-17

-2.514020394209343e-17 -3.145192948429797e-20  1.013146029809541e+00
-3.145192948429797e-20 -1.539975403731708e-17  4.312179702624147e-01
 1.013146029809541e+00  4.312179702624147e-01 -3.453416170408284e-17

-2.511119894570607e-17 -4.857271068102041e-20  1.014681546949647e+00
-4.857271068102041e-20 -1.343323920815689e-17  4.338376203673011e-01
 1.014681546949647e+00  4.338376203673011e-01 -3.456828938024542e-17

-2.521008318525896e-17 -7.540651861739918e-20  1.021493966580326e+00
-7.540651861739918e-20 -1.226876409154317e-17  4.393124551797177e-01
 1.021493966580326e+00  4.393124551797177e-01 -3.480743755342366e-17

-2.505525610781244e-17 -8.866301842321470e-20  1.014031688248219e+00
-8.866301842321470e-20 -1.233083887937698e-17  4.383688762237394e-01
 1.014031688248219e+00  4.383688762237394e-01 -3.449273923083271e-17

-2.494073582183652e-17 -9.319183219623080e-20  1.007955535757409e+00
-9.319183219623080e-20 -1.376488238646945e-17  4.390729605995506e-01
 1.007955535757409e+00  4.390729605995506e-01 -3.424331852538252e-17

-2.480245259924429e-17 -8.198140610650910e-20  1.001951841440725e+00
-8.198140610650910e-20 -1.314910271306092e-17  4.317417155000825e-01
 1.001951841440725e+00  4.317417155000825e-01 -3.399967408629477e-17

-2.493736848993521e-17 -7.661076684540324e-20  1.008317994925934e+00
-7.661076684540324e-20 -1.321007506283386e-17  4.384128631666738e-01
 1.008317994925934e+00  4.384128631666738e-01 -3.425181209307376e-17

-2.511763916857130e-17 -6.698143194784102e-20  1.019370233681320e+00
-6.698143194784102e-20 -1.343761703154138e-17  4.365490995203274e-01
 1.019370233681320e+00  4.365490995203274e-01 -3.466324838884684e-17

-2.508162513980546e-17 -8.323143815538074e-20  1.011180525995364e+00
-8.323143815538074e-20 -1.302847410411360e-17  4.664856927435264e-01
 1.011180525995364e+00  4.664856927435264e-01 -3.444048249916970e-17

-2.437254262636842e-17 -3.301556568199557e-20  9.768683614346099e-01
-3.301556568199557e-20 -1.306982551460433e-17  4.366025897619265e-01
 9.768683614346099e-01  4.366025897619265e-01 -3.301683209451088e-17

-2.391868190122730e-17 -9.440992269458850e-20  9.406017000143224e-01
-9.440992269458850e-20 -1.239558402464651e-17  4.327061398390176e-01
 9.406017000143224e-01  4.327061398390176e-01 -3.179460858096950e-17

-2.711867138914346e-17  6.096840794422480e-20  1.133534440450700e+00
 6.096840794422480e-20 -1.692441347750927e-17  4.258637062555947e-01
 1.133534440450700e+00  4.258637062555947e-01 -3.893759917123085e-17

-2.715601392516744e-17 -1.098328216492612e-19  1.126695898768948e+00
-1.098328216492612e-19 -1.521379946803236e-17  4.422557035692682e-01
 1.126695898768948e+00  4.422557035692682e-01 -3.904777816783827e-17

-2.516700802073891e-17  3.167499863190795e-19  1.058967223962922e+00
 3.167499863190795e-19 -1.807628524593939e-17  2.998530109000534e-01
 1.058967223962922e+00  2.998530109000534e-01 -3.540204632603072e-17

-2.408386276264346e-17  6.011625933241549e-20  9.548686428216367e-01
 6.011625933241549e-20 -1.375686065011666e-17  4.252332460356434e-01
 9.548686428216367e-01  4.252332460356434e-01 -3.226484778755134e-17

-2.497204573219099e-17  4.626354739669454e-20  1.006090634121221e+00
 4.626354739669454e-20 -1.225444219853132e-17  4.526076462311582e-01
 1.006090634121221e+00  4.526076462311582e-01 -3.425446607639228e-17

-2.496376482584076e-17  4.305681683586509e-20  9.931730775039150e-01
 4.305681683586509e-20 -1.306088843435037e-17  4.889248381195125e-01
 9.931730775039150e-01  4.889248381195125e-01 -3.389887606821306e-17

-2.499350632497034e-17  5.564303421567054e-20  1.001395356480659e+00
 5.564303421567054e-20 -1.389053259785282e-17  4.585700435190465e-01
 1.001395356480659e+00  4.585700435190465e-01 -3.416077215658646e-17

-2.520408126290371e-17  8.315501991146625e-20  1.030809353297966e+00
 8.315501991146625e-20 -1.467421637292258e-17  4.017013402370243e-01
 1.030809353297966e+00  4.017013402370243e-01 -3.512095122357988e-17

-2.526862250253407e-17  7.857157134358675e-20  1.028312286508207e+00
 7.857157134358675e-20 -1.455505530765679e-17  4.289787935288760e-01
 1.028312286508207e+00  4.289787935288760e-01 -3.510285509986086e-17

-2.516901309471549e-17  8.440041126506228e-20  1.019732342689959e+00
 8.440041126506228e-20 -1.242391406370404e-17  4.305658071083253e-01
 1.019732342689959e+00  4.305658071083253e-01 -3.480753397306929e-17

-2.507041096211604e-17  8.529006326604142e-20  1.010042818272456e+00
 8.529006326604142e-20 -1.401863239496973e-17  4.404658418079246e-01
 1.010042818272456e+00  4.404658418079246e-01 -3.446257009675882e-17

-2.527965400709076e-17  9.355947658334171e-20  1.030206498828337e+00
 9.355947658334171e-20 -1.395007371039299e-17  4.234074183805308e-01
 1.030206498828337e+00  4.234074183805308e-01 -3.518167254753861e-17

-2.508331235620617e-17  1.003635585461770e-19  1.017109133075331e+00
 1.003635585461770e-19 -1.527340288588250e-17  4.263400338484197e-01
 1.017109133075331e+00  4.263400338484197e-01 -3.471605819869176e-17

-2.504387122983055e-17  1.124460822542255e-19  1.013912290617521e+00
 1.124460822542255e-19 -1.316447663772959e-17  4.334383509536400e-01
 1.013912290617521e+00  4.334383509536400e-01 -3.460999116333710e-17

-2.491283474608472e-17  1.180128078255800e-19  1.004061036285269e+00
 1.180128078255800e-19 -1.425326550175966e-17  4.471268563134945e-01
 1.004061036285269e+00  4.471268563134945e-01 -3.427932282850901e-17

-2.470194226587810e-17  1.209795234775224e-19  1.000118036028324e+00
 1.209795234775224e-19 -1.197562055750287e-17  4.130015934081419e-01
 1.000118036028324e+00  4.130015934081419e-01 -3.407265138215109e-17

-2.463663600528696e-17  1.268295651762981e-19  9.947113862916096e-01
 1.268295651762981e-19 -1.143489789948750e-17  4.178090947318615e-01
 9.947113862916096e-01  4.178090947318615e-01 -3.390536052639707e-17

-2.494472350836970e-17  1.444056246382174e-19  1.011147638970316e+00
 1.444056246382174e-19 -1.499675940879392e-17  4.297137425266485e-01
 1.011147638970316e+00  4.297137425266485e-01 -3.453643119586545e-17

-2.511459008047066e-17  1.156335483607712e-19  1.022012551295441e+00
 1.156335483607712e-19 -1.261815782160593e-17  4.246339749536077e-01
 1.022012551295441e+00  4.246339749536077e-01 -3.493659036211278e-17

-2.500552913994115e-17  1.110973955620534e-19  1.015393468102744e+00
 1.110973955620534e-19 -1.257248538144444e-17  4.234364161740052e-01
 1.015393468102744e+00  4.234364161740052e-01 -3.467917785348580e-17

-2.492309123819189e-17  1.224781518024585e-19  1.010262370767291e+00
 1.224781518024585e-19 -1.245852103160508e-17  4.243370533619815e-01
 1.010262370767291e+00  4.243370533619815e-01 -3.449206692871850e-17

-2.484383153689325e-17  1.395168383037092e-19  1.004899598228807e+00
 1.395168383037092e-19 -1.813504715288084e-17  4.286618673217099e-01
 1.004899598228807e+00  4.286618673217099e-01 -3.429467041708029e-17

-2.493233761067937e-17  1.365411740842807e-19  1.009964279822422e+00
 1.365411740842807e-19 -1.417115416711851e-17  4.215403667292775e-01
 1.009964279822422e+00  4.215403667292775e-01 -3.447142852459962e-17

-2.484646882276505e-17  1.404186702696992e-19  1.006985948379318e+00
 1.404186702696992e-19 -1.487843603741545e-17  4.243730006261354e-01
 1.006985948379318e+00  4.243730006261354e-01 -3.436827934050590e-17

-2.483571117564051e-17  1.390817562527958e-19  1.004390496665950e+00
 1.390817562527958e-19 -1.526159530665663e-17  4.288940314186714e-01
 1.004390496665950e+00  4.288940314186714e-01 -3.427744838183528e-17

-2.482755179514284e-17  1.512215092845711e-19  1.005438825259508e+00
 1.512215092845711e-19 -1.511410650160807e-17  4.228394193782473e-01
 1.005438825259508e+00  4.228394193782473e-01 -3.432230320516230e-17

-2.488075541258873e-17  1.624438693746330e-19  1.008731759813247e+00
 1.624438693746330e-19 -1.598888021701080e-17  4.196452907825415e-01
 1.008731759813247e+00  4.196452907825415e-01 -3.445508078574759e-17

-2.505981014723814e-17  1.615488764222725e-19  1.017542720238179e+00
 1.615488764222725e-19 -1.326419981652028e-17  4.236012413339693e-01
 1.017542720238179e+00  4.236012413339693e-01 -3.478672709085539e-17

-2.485086902154380e-17  1.674280620385062e-19  9.996073216978854e-01
 1.674280620385062e-19 -1.118017703000733e-17  4.514802086772535e-01
 9.996073216978854e-01  4.514802086772535e-01 -3.417911805337826e-17

-2.455432909895090e-17  1.714181525032537e-19  9.866479858586557e-01
 1.714181525032537e-19 -1.335471372678243e-17  4.247960990001101e-01
 9.866479858586557e-01  4.247960990001101e-01 -3.366178140774813e-17


CELL_DATA 1365
SCALARS dislocation_index int
LOOKUP_TABLE default
0
1
2
3
4
5
6
7
8
9
10
11
12
13
14
15
16
17
18
19
20
21
22
23
24
25
26
27
28
29
30
31
32
33
34
35
36
37
38
39
40
41
42
43
44
45
46
47
48
49
50
51
52
53
54
55
56
57
58
59
60
61
62
63
64
65
66
67
68
69
70
71
72
73
74
75
76
77
78
79
80
81
82
83
84
85
86
87
88
89
90
91
92
93
94
95
96
97
98
99
100
101
102
103
104
105
106
107
108
109
110
111
112
113
114
115
116
117
118
119
120
121
122
123
124
125
126
127
128
129
130
131
132
133
134
135
136
137
138
139
140
141
142
143
144
145
146
147
148
149
150
151
152
153
154
155
156
157
158
159
160
161
162
163
164
165
166
167
168
169
170
171
172
173
174
175
176
177
178
179
180
181
182
183
184
185
186
187
188
189
190
191
192
193
194
195
196
197
198
199
200
201
202
203
204
205
206
207
208
209
210
211
212
213
214
215
216
217
218
219
220
221
222
223
224
225
226
227
228
229
230
231
232
233
234
235
236
237
238
239
240
241
242
243
244
245
246
247
248
249
250
251
252
253
254
255
256
257
258
259
260
261
262
263
264
265
266
267
268
269
270
271
272
273
274
275
276
277
278
279
280
281
282
283
284
285
286
287
288
289
290
291
292
293
294
295
296
297
298
299
300
301
302
303
304
305
306
307
308
309
310
311
312
313
314
315
316
317
318
319
320
321
322
323
324
325
326
327
328
329
330
331
332
333
334
335
336
337
338
339
340
341
342
343
344
345
346
347
348
349
350
351
352
353
354
355
356
357
358
359
360
361
362
363
364
365
366
367
368
369
370
371
372
373
374
375
376
377
378
379
380
381
382
383
384
385
386
387
388
389
390
391
392
393
394
395
396
397
398
399
400
401
402
403
404
405
406
407
408
409
410
411
412
413
414
415
416
417
418
419
420
421
422
423
424
425
426
427
428
429
430
431
432
433
434
435
436
437
438
439
440
441
442
443
444
445
446
447
448
449
450
451
452
453
454
455
456
457
458
459
460
461
462
463
464
465
466
467
468
469
470
471
472
473
474
475
476
477
478
479
480
481
482
483
484
485
486
487
488
489
490
491
492
493
494
495
496
497
498
499
500
501
502
503
504
505
506
507
508
509
510
511
512
513
514
515
516
517
518
519
520
521
522
523
524
525
526
527
528
529
530
531
532
533
534
535
536
537
538
539
540
541
542
543
544
545
546
547
548
549
550
551
552
553
554
555
556
557
558
559
560
561
562
563
564
565
566
567
568
569
570
571
572
573
574
575
576
577
578
579
580
581
582
583
584
585
586
587
588
589
590
591
592
593
594
595
596
597
598
599
600
601
602
603
604
605
606
607
608
609
610
611
612
613
614
615
616
617
618
619
620
621
622
623
624
625
626
627
628
629
630
631
632
633
634
635
636
637
638
639
640
641
642
643
644
645
646
647
648
649
650
651
652
653
654
655
656
657
658
659
660
661
662
663
664
665
666
667
668
669
670
671
672
673
674
675
676
677
678
679
680
681
682
683
684
685
686
687
688
689
690
691
692
693
694
695
696
697
698
699
700
701
702
703
704
705
706
707
708
709
710
711
712
713
714
715
716
717
718
719
720
721
722
723
724
725
726
727
728
729
730
731
732
733
734
735
736
737
738
739
740
741
742
743
744
745
746
747
748
749
750
751
752
753
754
755
756
757
758
759
760
761
762
763
764
765
766
767
768
769
770
771
772
773
774
775
776
777
778
779
780
781
782
783
784
785
786
787
788
789
790
791
792
793
794
795
796
797
798
799
800
801
802
803
804
805
806
807
808
809
810
811
812
813
814
815
816
817
818
819
820
821
822
823
824
825
826
827
828
829
830
831
832
833
834
835
836
837
838
839
840
841
842
843
844
845
846
847
848
849
850
851
852
853
854
855
856
857
858
859
860
861
862
863
864
865
866
867
868
869
870
871
872
873
874
875
876
877
878
879
880
881
882
883
884
885
886
887
888
889
890
891
892
893
894
895
896
897
898
899
900
901
902
903
904
905
906
907
908
909
910
911
912
913
914
915
916
917
918
919
920
921
922
923
924
925
926
927
928
929
930
931
932
933
934
935
936
937
938
939
940
941
942
943
944
945
946
947
948
949
950
951
952
953
954
955
956
957
958
959
960
961
962
963
964
965
966
967
968
969
970
971
972
973
974
975
976
977
978
979
980
981
982
983
984
985
986
987
988
989
990
991
992
993
994
995
996
997
998
999
1000
1001
1002
1003
1004
1005
1006
1007
1008
1009
1010
1011
1012
1013
1014
1015
1016
1017
1018
1019
1020
1021
1022
1023
1024
1025
1026
1027
1028
1029
1030
1031
1032
1033
1034
1035
1036
1037
1038
1039
1040
1041
1042
1043
1044
1045
1046
1047
1048
1049
1050
1051
1052
1053
1054
1055
1056
1057
1058
1059
1060
1061
1062
1063
1064
1065
1066
1067
1068
1069
1070
1071
1072
1073
1074
1075
1076
1077
1078
1079
1080
1081
1082
1083
1084
1085
1086
1087
1088
1089
1090
1091
1092
1093
1094
1095
1096
1097
1098
1099
1100
1101
1102
1103
1104
1105
1106
1107
1108
1109
1110
1111
1112
1113
1114
1115
1116
1117
1118
1119
1120
1121
1122
1123
1124
1125
1126
1127
1128
1129
1130
1131
1132
1133
1134
1135
1136
1137
1138
1139
1140
1141
1142
1143
1144
1145
1146
1147
1148
1149
1150
1151
1152
1153
1154
1155
1156
1157
1158
1159
1160
1161
1162
1163
1164
1165
1166
1167
1168
1169
1170
1171
1172
1173
1174
1175
1176
1177
1178
1179
1180
1181
1182
1183
1184
1185
1186
1187
1188
1189
1190
1191
1192
1193
1194
1195
1196
1197
1198
1199
1200
1201
1202
1203
1204
1205
1206
1207
1208
1209
1210
1211
1212
1213
1214
1215
1216
1217
1218
1219
1220
1221
1222
1223
1224
1225
1226
1227
1228
1229
1230
1231
1232
1233
1234
1235
1236
1237
1238
1239
1240
1241
1242
1243
1244
1245
1246
1247
1248
1249
1250
1251
1252
1253
1254
1255
1256
1257
1258
1259
1260
1261
1262
1263
1264
1265
1266
1267
1268
1269
1270
1271
1272
1273
1274
1275
1276
1277
1278
1279
1280
1281
1282
1283
1284
1285
1286
1287
1288
1289
1290
1291
1292
1293
1294
1295
1296
1297
1298
1299
1300
1301
1302
1303
1304
1305
1306
1307
1308
1309
1310
1311
1312
1313
1314
1315
1316
1317
1318
1319
1320
1321
1322
1323
1324
1325
1326
1327
1328
1329
1330
1331
1332
1333
1334
1335
1336
1337
1338
1339
1340
1341
1342
1343
1344
1345
1346
1347
1348
1349
1350
1351
1352
1353
1354
1355
1356
1357
1358
1359
1360
1361
1362
1363
1364

VECTORS burgers_vector_global double
-1.429999999999999e+00 -8.256108849411650e-01  3.393140768766017e-17
 1.429999999999999e+00  8.256108849411650e-01 -3.393140768766017e-17
-1.429999999999999e+00 -8.256108849411650e-01  3.393140768766017e-17
-1.429999999999999e+00 -8.256108849411650e-01  3.393140768766017e-17
-1.429999999999999e+00 -8.256108849411650e-01  3.393140768766017e-17
-1.429999999999999e+00 -8.256108849411650e-01  3.393140768766017e-17
-1.429999999999999e+00 -8.256108849411650e-01  3.393140768766017e-17
-1.429999999999999e+00 -8.256108849411650e-01  3.393140768766017e-17
-1.429999999999999e+00 -8.256108849411650e-01  3.393140768766017e-17
-1.429999999999999e+00 -8.256108849411650e-01  3.393140768766017e-17
-1.429999999999999e+00 -8.256108849411650e-01  3.393140768766017e-17
-1.429999999999999e+00 -8.256108849411650e-01  3.393140768766017e-17
-1.429999999999999e+00 -8.256108849411650e-01  3.393140768766017e-17
-1.429999999999999e+00 -8.256108849411650e-01  3.393140768766017e-17
-1.429999999999999e+00 -8.256108849411650e-01  3.393140768766017e-17
-1.429999999999999e+00 -8.256108849411650e-01  3.393140768766017e-17
-1.429999999999999e+00 -8.256108849411650e-01  3.393140768766017e-17
-1.429999999999999e+00 -8.256108849411650e-01  3.393140768766017e-17
-1.429999999999999e+00 -8.256108849411650e-01  3.393140768766017e-17
-1.429999999999999e+00 -8.256108849411650e-01  3.393140768766017e-17
-1.429999999999999e+00 -8.256108849411650e-01  3.393140768766017e-17
-1.429999999999999e+00 -8.256108849411650e-01  3.393140768766017e-17
-1.429999999999999e+00 -8.256108849411650e-01  3.393140768766017e-17
-1.429999999999999e+00 -8.256108849411650e-01  3.393140768766017e-17
-1.429999999999999e+00 -8.256108849411650e-01  3.393140768766017e-17
-1.429999999999999e+00 -8.256108849411650e-01  3.393140768766017e-17
-1.429999999999999e+00 -8.256108849411650e-01  3.393140768766017e-17
-1.429999999999999e+00 -8.256108849411650e-01  3.393140768766017e-17
-1.429999999999999e+00 -8.256108849411650e-01  3.393140768766017e-17
-1.429999999999999e+00 -8.256108849411650e-01  3.393140768766017e-17
-1.429999999999999e+00 -8.256108849411650e-01  3.393140768766017e-17
-1.429999999999999e+00 -8.256108849411650e-01  3.393140768766017e-17
-1.429999999999999e+00 -8.256108849411650e-01  3.393140768766017e-17
-1.429999999999999e+00 -8.256108849411650e-01  3.393140768766017e-17
-1.429999999999999e+00 -8.256108849411650e-01  3.393140768766017e-17
-1.429999999999999e+00 -8.256108849411650e-01  3.393140768766017e-17
-1.429999999999999e+00 -8.256108849411650e-01  3.393140768766017e-17
-1.429999999999999e+00 -8.256108849411650e-01  3.393140768766017e-17
-1.429999999999999e+00 -8.256108849411650e-01  3.393140768766017e-17
-1.429999999999999e+00 -8.256108849411650e-01  3.393140768766017e-17
-1.429999999999999e+00 -8.256108849411650e-01  3.393140768766017e-17
-1.429999999999999e+00 -8.256108849411650e-01  3.393140768766017e-17
-1.429999999999999e+00 -8.256108849411650e-01  3.393140768766017e-17
-1.429999999999999e+00 -8.256108849411650e-01  3.393140768766017e-17
-1.429999999999999e+00 -8.256108849411650e-01  3.393140768766017e-17
-1.429999999999999e+00 -8.256108849411650e-01  3.393140768766017e-17
-1.429999999999999e+00 -8.256108849411650e-01  3.393140768766017e-17
-1.429999999999999e+00 -8.256108849411650e-01  3.393140768766017e-17
-1.429999999999999e+00 -8.256108849411650e-01  3.393140768766017e-17
-1.429999999999999e+00 -8.256108849411650e-01  3.393140768766017e-17
-1.429999999999999e+00 -8.256108849411650e-01  3.393140768766017e-17
-1.429999999999999e+00 -8.256108849411650e-01  3.393140768766017e-17
-1.429999999999999e+00 -8.256108849411650e-01  3.393140768766017e-17
-1.429999999999999e+00 -8.256108849411650e-01  3.393140768766017e-17
-1.429999999999999e+00 -8.256108849411650e-01  3.393140768766017e-17
-1.429999999999999e+00 -8.256108849411650e-01  3.393140768766017e-17
-1.429999999999999e+00 -8.256108849411650e-01  3.393140768766017e-17
-1.429999999999999e+00 -8.256108849411650e-01  3.393140768766017e-17
-1.429999999999999e+00 -8.256108849411650e-01  3.393140768766017e-17
-1.429999999999999e+00 -8.256108849411650e-01  3.393140768766017e-17
-1.429999999999999e+00 -8.256108849411650e-01  3.393140768766017e-17
-1.429999999999999e+00 -8.256108849411650e-01  3.393140768766017e-17
-1.429999999999999e+00 -8.256108849411650e-01  3.393140768766017e-17
-1.429999999999999e+00 -8.256108849411650e-01  3.393140768766017e-17
-1.429999999999999e+00 -8.256108849411650e-01  3.393140768766017e-17
-1.429999999999999e+00 -8.256108849411650e-01  3.393140768766017e-17
-1.429999999999999e+00 -8.256108849411650e-01  3.393140768766017e-17
-1.429999999999999e+00 -8.256108849411650e-01  3.393140768766017e-17
-1.429999999999999e+00 -8.256108849411650e-01  3.393140768766017e-17
-1.429999999999999e+00 -8.256108849411650e-01  3.393140768766017e-17
-1.429999999999999e+00 -8.256108849411650e-01  3.393140768766017e-17
-1.429999999999999e+00 -8.256108849411650e-01  3.393140768766017e-17
-1.429999999999999e+00 -8.256108849411650e-01  3.393140768766017e-17
-1.429999999999999e+00 -8.256108849411650e-01  3.393140768766017e-17
-1.429999999999999e+00 -8.256108849411650e-01  3.393140768766017e-17
-1.429999999999999e+00 -8.256108849411650e-01  3.393140768766017e-17
-1.429999999999999e+00 -8.256108849411650e-01  3.393140768766017e-17
-1.429999999999999e+00 -8.256108849411650e-01  3.393140768766017e-17
-1.429999999999999e+00 -8.256108849411650e-01  3.393140768766017e-17
-1.429999999999999e+00 -8.256108849411650e-01  3.393140768766017e-17
-1.429999999999999e+00 -8.256108849411650e-01  3.393140768766017e-17
-1.429999999999999e+00 -8.256108849411650e-01  3.393140768766017e-17
-1.429999999999999e+00 -8.256108849411650e-01  3.393140768766017e-17
-1.429999999999999e+00 -8.256108849411650e-01  3.393140768766017e-17
-1.429999999999999e+00 -8.256108849411650e-01  3.393140768766017e-17
-1.429999999999999e+00 -8.256108849411650e-01  3.393140768766017e-17
-1.429999999999999e+00 -8.256108849411650e-01  3.393140768766017e-17
-1.429999999999999e+00 -8.256108849411650e-01  3.393140768766017e-17
-1.429999999999999e+00 -8.256108849411650e-01  3.393140768766017e-17
-1.429999999999999e+00 -8.256108849411650e-01  3.393140768766017e-17
-1.429999999999999e+00 -8.256108849411650e-01  3.393140768766017e-17
-1.429999999999999e+00 -8.256108849411650e-01  3.393140768766017e-17
-1.429999999999999e+00 -8.256108849411650e-01  3.393140768766017e-17
-1.429999999999999e+00 -8.256108849411650e-01  3.393140768766017e-17
-1.429999999999999e+00 -8.256108849411650e-01  3.393140768766017e-17
-1.429999999999999e+00 -8.256108849411650e-01  3.393140768766017e-17
-1.429999999999999e+00 -8.256108849411650e-01  3.393140768766017e-17
-1.429999999999999e+00 -8.256108849411650e-01  3.393140768766017e-17
-1.429999999999999e+00 -8.256108849411650e-01  3.393140768766017e-17
-1.429999999999999e+00 -8.256108849411650e-01  3.393140768766017e-17
-1.429999999999999e+00 -8.256108849411650e-01  3.393140768766017e-17
-1.429999999999999e+00 -8.256108849411650e-01  3.393140768766017e-17
-1.429999999999999e+00 -8.256108849411650e-01  3.393140768766017e-17
-1.429999999999999e+00 -8.256108849411650e-01  3.393140768766017e-17
-1.429999999999999e+00 -8.256108849411650e-01  3.393140768766017e-17
-1.429999999999999e+00 -8.256108849411650e-01  3.393140768766017e-17
-1.429999999999999e+00 -8.256108849411650e-01  3.393140768766017e-17
-1.429999999999999e+00 -8.256108849411650e-01  3.393140768766017e-17
-1.429999999999999e+00 -8.256108849411650e-01  3.393140768766017e-17
-1.429999999999999e+00 -8.256108849411650e-01  3.393140768766017e-17
-1.429999999999999e+00 -8.256108849411650e-01  3.393140768766017e-17
-1.429999999999999e+00 -8.256108849411650e-01  3.393140768766017e-17
-1.429999999999999e+00 -8.256108849411650e-01  3.393140768766017e-17
-1.429999999999999e+00 -8.256108849411650e-01  3.393140768766017e-17
-1.429999999999999e+00 -8.256108849411650e-01  3.393140768766017e-17
-1.429999999999999e+00 -8.256108849411650e-01  3.393140768766017e-17
-1.429999999999999e+00 -8.256108849411650e-01  3.393140768766017e-17
-1.429999999999999e+00 -8.256108849411650e-01  3.393140768766017e-17
-1.429999999999999e+00 -8.256108849411650e-01  3.393140768766017e-17
-1.429999999999999e+00 -8.256108849411650e-01  3.393140768766017e-17
-1.429999999999999e+00 -8.256108849411650e-01  3.393140768766017e-17
-1.429999999999999e+00 -8.256108849411650e-01  3.393140768766017e-17
-1.429999999999999e+00 -8.256108849411650e-01  3.393140768766017e-17
-1.429999999999999e+00 -8.256108849411650e-01  3.393140768766017e-17
-1.429999999999999e+00 -8.256108849411650e-01  3.393140768766017e-17
-1.429999999999999e+00 -8.256108849411650e-01  3.393140768766017e-17
-1.429999999999999e+00 -8.256108849411650e-01  3.393140768766017e-17
-1.429999999999999e+00 -8.256108849411650e-01  3.393140768766017e-17
-1.429999999999999e+00 -8.256108849411650e-01  3.393140768766017e-17
-1.429999999999999e+00 -8.256108849411650e-01  3.393140768766017e-17
-1.429999999999999e+00 -8.256108849411650e-01  3.393140768766017e-17
-1.429999999999999e+00 -8.256108849411650e-01  3.393140768766017e-17
-1.429999999999999e+00 -8.256108849411650e-01  3.393140768766017e-17
-1.429999999999999e+00 -8.256108849411650e-01  3.393140768766017e-17
-1.429999999999999e+00 -8.256108849411650e-01  3.393140768766017e-17
-1.429999999999999e+00 -8.256108849411650e-01  3.393140768766017e-17
-1.429999999999999e+00 -8.256108849411650e-01  3.393140768766017e-17
-1.429999999999999e+00 -8.256108849411650e-01  3.393140768766017e-17
-1.429999999999999e+00 -8.256108849411650e-01  3.393140768766017e-17
-1.429999999999999e+00 -8.256108849411650e-01  3.393140768766017e-17
-1.429999999999999e+00 -8.256108849411650e-01  3.393140768766017e-17
-1.429999999999999e+00 -8.256108849411650e-01  3.393140768766017e-17
-1.429999999999999e+00 -8.256108849411650e-01  3.393140768766017e-17
-1.429999999999999e+00 -8.256108849411650e-01  3.393140768766017e-17
-1.429999999999999e+00 -8.256108849411650e-01  3.393140768766017e-17
-1.429999999999999e+00 -8.256108849411650e-01  3.393140768766017e-17
-1.429999999999999e+00 -8.256108849411650e-01  3.393140768766017e-17
-1.429999999999999e+00 -8.256108849411650e-01  3.393140768766017e-17
-1.429999999999999e+00 -8.256108849411650e-01  3.393140768766017e-17
-1.429999999999999e+00 -8.256108849411650e-01  3.393140768766017e-17
-1.429999999999999e+00 -8.256108849411650e-01  3.393140768766017e-17
-1.429999999999999e+00 -8.256108849411650e-01  3.393140768766017e-17
-1.429999999999999e+00 -8.256108849411650e-01  3.393140768766017e-17
-1.429999999999999e+00 -8.256108849411650e-01  3.393140768766017e-17
-1.429999999999999e+00 -8.256108849411650e-01  3.393140768766017e-17
-1.429999999999999e+00 -8.256108849411650e-01  3.393140768766017e-17
-1.429999999999999e+00 -8.256108849411650e-01  3.393140768766017e-17
-1.429999999999999e+00 -8.256108849411650e-01  3.393140768766017e-17
-1.429999999999999e+00 -8.256108849411650e-01  3.393140768766017e-17
-1.429999999999999e+00 -8.256108849411650e-01  3.393140768766017e-17
-1.429999999999999e+00 -8.256108849411650e-01  3.393140768766017e-17
-1.429999999999999e+00 -8.256108849411650e-01  3.393140768766017e-17
-1.429999999999999e+00 -8.256108849411650e-01  3.393140768766017e-17
-1.429999999999999e+00 -8.256108849411650e-01  3.393140768766017e-17
-1.429999999999999e+00 -8.256108849411650e-01  3.393140768766017e-17
-1.429999999999999e+00 -8.256108849411650e-01  3.393140768766017e-17
-1.429999999999999e+00 -8.256108849411650e-01  3.393140768766017e-17
-1.429999999999999e+00 -8.256108849411650e-01  3.393140768766017e-17
-1.429999999999999e+00 -8.256108849411650e-01  3.393140768766017e-17
-1.429999999999999e+00 -8.256108849411650e-01  3.393140768766017e-17
-1.429999999999999e+00 -8.256108849411650e-01  3.393140768766017e-17
-1.429999999999999e+00 -8.256108849411650e-01  3.393140768766017e-17
-1.429999999999999e+00 -8.256108849411650e-01  3.393140768766017e-17
-1.429999999999999e+00 -8.256108849411650e-01  3.393140768766017e-17
-1.429999999999999e+00 -8.256108849411650e-01  3.393140768766017e-17
-1.429999999999999e+00 -8.256108849411650e-01  3.393140768766017e-17
-1.429999999999999e+00 -8.256108849411650e-01  3.393140768766017e-17
-1.429999999999999e+00 -8.256108849411650e-01  3.393140768766017e-17
-1.429999999999999e+00 -8.256108849411650e-01  3.393140768766017e-17
-1.429999999999999e+00 -8.256108849411650e-01  3.393140768766017e-17
-1.429999999999999e+00 -8.256108849411650e-01  3.393140768766017e-17
 1.429999999999999e+00  8.256108849411650e-01 -3.393140768766017e-17
-1.429999999999999e+00 -8.256108849411650e-01  3.393140768766017e-17
-1.429999999999999e+00 -8.256108849411650e-01  3.393140768766017e-17
-1.429999999999999e+00 -8.256108849411650e-01  3.393140768766017e-17
-1.429999999999999e+00 -8.256108849411650e-01  3.393140768766017e-17
-1.429999999999999e+00 -8.256108849411650e-01  3.393140768766017e-17
-1.429999999999999e+00 -8.256108849411650e-01  3.393140768766017e-17
-1.429999999999999e+00 -8.256108849411650e-01  3.393140768766017e-17
-1.429999999999999e+00 -8.256108849411650e-01  3.393140768766017e-17
-1.429999999999999e+00 -8.256108849411650e-01  3.393140768766017e-17
-1.429999999999999e+00 -8.256108849411650e-01  3.393140768766017e-17
-1.429999999999999e+00 -8.256108849411650e-01  3.393140768766017e-17
-1.429999999999999e+00 -8.256108849411650e-01  3.393140768766017e-17
-1.429999999999999e+00 -8.256108849411650e-01  3.393140768766017e-17
-1.429999999999999e+00 -8.256108849411650e-01  3.393140768766017e-17
-1.429999999999999e+00 -8.256108849411650e-01  3.393140768766017e-17
-1.429999999999999e+00 -8.256108849411650e-01  3.393140768766017e-17
-1.429999999999999e+00 -8.256108849411650e-01  3.393140768766017e-17
-1.429999999999999e+00 -8.256108849411650e-01  3.393140768766017e-17
-1.429999999999999e+00 -8.256108849411650e-01  3.393140768766017e-17
-1.429999999999999e+00 -8.256108849411650e-01  3.393140768766017e-17
-1.429999999999999e+00 -8.256108849411650e-01  3.393140768766017e-17
-1.429999999999999e+00 -8.256108849411650e-01  3.393140768766017e-17
-1.429999999999999e+00 -8.256108849411650e-01  3.393140768766017e-17
-1.429999999999999e+00 -8.256108849411650e-01  3.393140768766017e-17
-1.429999999999999e+00 -8.256108849411650e-01  3.393140768766017e-17
-1.429999999999999e+00 -8.256108849411650e-01  3.393140768766017e-17
-1.429999999999999e+00 -8.256108849411650e-01  3.393140768766017e-17
-1.429999999999999e+00 -8.256108849411650e-01  3.393140768766017e-17
-1.429999999999999e+00 -8.256108849411650e-01  3.393140768766017e-17
-1.429999999999999e+00 -8.256108849411650e-01  3.393140768766017e-17
-1.429999999999999e+00 -8.256108849411650e-01  3.393140768766017e-17
-1.429999999999999e+00 -8.256108849411650e-01  3.393140768766017e-17
-1.429999999999999e+00 -8.256108849411650e-01  3.393140768766017e-17
-1.429999999999999e+00 -8.256108849411650e-01  3.393140768766017e-17
-1.429999999999999e+00 -8.256108849411650e-01  3.393140768766017e-17
-1.429999999999999e+00 -8.256108849411650e-01  3.393140768766017e-17
-1.429999999999999e+00 -8.256108849411650e-01  3.393140768766017e-17
-1.429999999999999e+00 -8.256108849411650e-01  3.393140768766017e-17
-1.429999999999999e+00 -8.256108849411650e-01  3.393140768766017e-17
-1.429999999999999e+00 -8.256108849411650e-01  3.393140768766017e-17
-1.429999999999999e+00 -8.256108849411650e-01  3.393140768766017e-17
-1.429999999999999e+00 -8.256108849411650e-01  3.393140768766017e-17
-1.429999999999999e+00 -8.256108849411650e-01  3.393140768766017e-17
-1.429999999999999e+00 -8.256108849411650e-01  3.393140768766017e-17
-1.429999999999999e+00 -8.256108849411650e-01  3.393140768766017e-17
-1.429999999999999e+00 -8.256108849411650e-01  3.393140768766017e-17
-1.429999999999999e+00 -8.256108849411650e-01  3.393140768766017e-17
-1.429999999999999e+00 -8.256108849411650e-01  3.393140768766017e-17
-1.429999999999999e+00 -8.256108849411650e-01  3.393140768766017e-17
-1.429999999999999e+00 -8.256108849411650e-01  3.393140768766017e-17
-1.429999999999999e+00 -8.256108849411650e-01  3.393140768766017e-17
-1.429999999999999e+00 -8.256108849411650e-01  3.393140768766017e-17
-1.429999999999999e+00 -8.256108849411650e-01  3.393140768766017e-17
-1.429999999999999e+00 -8.256108849411650e-01  3.393140768766017e-17
-1.429999999999999e+00 -8.256108849411650e-01  3.393140768766017e-17
-1.429999999999999e+00 -8.256108849411650e-01  3.393140768766017e-17
-1.429999999999999e+00 -8.256108849411650e-01  3.393140768766017e-17
-1.429999999999999e+00 -8.256108849411650e-01  3.393140768766017e-17
-1.429999999999999e+00 -8.256108849411650e-01  3.393140768766017e-17
-1.429999999999999e+00 -8.256108849411650e-01  3.393140768766017e-17
-1.429999999999999e+00 -8.256108849411650e-01  3.393140768766017e-17
-1.429999999999999e+00 -8.256108849411650e-01  3.393140768766017e-17
-1.429999999999999e+00 -8.256108849411650e-01  3.393140768766017e-17
-1.429999999999999e+00 -8.256108849411650e-01  3.393140768766017e-17
-1.429999999999999e+00 -8.256108849411650e-01  3.393140768766017e-17
-1.429999999999999e+00 -8.256108849411650e-01  3.393140768766017e-17
-1.429999999999999e+00 -8.256108849411650e-01  3.393140768766017e-17
-1.429999999999999e+00 -8.256108849411650e-01  3.393140768766017e-17
-1.429999999999999e+00 -8.256108849411650e-01  3.393140768766017e-17
-1.429999999999999e+00 -8.256108849411650e-01  3.393140768766017e-17
-1.429999999999999e+00 -8.256108849411650e-01  3.393140768766017e-17
-1.429999999999999e+00 -8.256108849411650e-01  3.393140768766017e-17
-1.429999999999999e+00 -8.256108849411650e-01  3.393140768766017e-17
-1.429999999999999e+00 -8.256108849411650e-01  3.393140768766017e-17
-1.429999999999999e+00 -8.256108849411650e-01  3.393140768766017e-17
-1.429999999999999e+00 -8.256108849411650e-01  3.393140768766017e-17
-1.429999999999999e+00 -8.256108849411650e-01  3.393140768766017e-17
-1.429999999999999e+00 -8.256108849411650e-01  3.393140768766017e-17
-1.429999999999999e+00 -8.256108849411650e-01  3.393140768766017e-17
-1.429999999999999e+00 -8.256108849411650e-01  3.393140768766017e-17
-1.429999999999999e+00 -8.256108849411650e-01  3.393140768766017e-17
-1.429999999999999e+00 -8.256108849411650e-01  3.393140768766017e-17
-1.429999999999999e+00 -8.256108849411650e-01  3.393140768766017e-17
-1.429999999999999e+00 -8.256108849411650e-01  3.393140768766017e-17
-1.429999999999999e+00 -8.256108849411650e-01  3.393140768766017e-17
-1.429999999999999e+00 -8.256108849411650e-01  3.393140768766017e-17
-1.429999999999999e+00 -8.256108849411650e-01  3.393140768766017e-17
-1.429999999999999e+00 -8.256108849411650e-01  3.393140768766017e-17
-1.429999999999999e+00 -8.256108849411650e-01  3.393140768766017e-17
-1.429999999999999e+00 -8.256108849411650e-01  3.393140768766017e-17
-1.429999999999999e+00 -8.256108849411650e-01  3.393140768766017e-17
-1.429999999999999e+00 -8.256108849411650e-01  3.393140768766017e-17
-1.429999999999999e+00 -8.256108849411650e-01  3.393140768766017e-17
-1.429999999999999e+00 -8.256108849411650e-01  3.393140768766017e-17
-1.429999999999999e+00 -8.256108849411650e-01  3.393140768766017e-17
-1.429999999999999e+00 -8.256108849411650e-01  3.393140768766017e-17
-1.429999999999999e+00 -8.256108849411650e-01  3.393140768766017e-17
-1.429999999999999e+00 -8.256108849411650e-01  3.393140768766017e-17
-1.429999999999999e+00 -8.256108849411650e-01  3.393140768766017e-17
-1.429999999999999e+00 -8.256108849411650e-01  3.393140768766017e-17
-1.429999999999999e+00 -8.256108849411650e-01  3.393140768766017e-17
-1.429999999999999e+00 -8.256108849411650e-01  3.393140768766017e-17
-1.429999999999999e+00 -8.256108849411650e-01  3.393140768766017e-17
-1.429999999999999e+00 -8.256108849411650e-01  3.393140768766017e-17
-1.429999999999999e+00 -8.256108849411650e-01  3.393140768766017e-17
-1.429999999999999e+00 -8.256108849411650e-01  3.393140768766017e-17
-1.429999999999999e+00 -8.256108849411650e-01  3.393140768766017e-17
-1.429999999999999e+00 -8.256108849411650e-01  3.393140768766017e-17
-1.429999999999999e+00 -8.256108849411650e-01  3.393140768766017e-17
-1.429999999999999e+00 -8.256108849411650e-01  3.393140768766017e-17
-1.429999999999999e+00 -8.256108849411650e-01  3.393140768766017e-17
-1.429999999999999e+00 -8.256108849411650e-01  3.393140768766017e-17
-1.429999999999999e+00 -8.256108849411650e-01  3.393140768766017e-17
-1.429999999999999e+00 -8.256108849411650e-01  3.393140768766017e-17
-1.429999999999999e+00 -8.256108849411650e-01  3.393140768766017e-17
-1.429999999999999e+00 -8.256108849411650e-01  3.393140768766017e-17
-1.429999999999999e+00 -8.256108849411650e-01  3.393140768766017e-17
-1.429999999999999e+00 -8.256108849411650e-01  3.393140768766017e-17
-1.429999999999999e+00 -8.256108849411650e-01  3.393140768766017e-17
-1.429999999999999e+00 -8.256108849411650e-01  3.393140768766017e-17
-1.429999999999999e+00 -8.256108849411650e-01  3.393140768766017e-17
-1.429999999999999e+00 -8.256108849411650e-01  3.393140768766017e-17
-1.429999999999999e+00 -8.256108849411650e-01  3.393140768766017e-17
-1.429999999999999e+00 -8.256108849411650e-01  3.393140768766017e-17
-1.429999999999999e+00 -8.256108849411650e-01  3.393140768766017e-17
-1.429999999999999e+00 -8.256108849411650e-01  3.393140768766017e-17
-1.429999999999999e+00 -8.256108849411650e-01  3.393140768766017e-17
-1.429999999999999e+00 -8.256108849411650e-01  3.393140768766017e-17
-1.429999999999999e+00 -8.256108849411650e-01  3.393140768766017e-17
-1.429999999999999e+00 -8.256108849411650e-01  3.393140768766017e-17
-1.429999999999999e+00 -8.256108849411650e-01  3.393140768766017e-17
-1.429999999999999e+00 -8.256108849411650e-01  3.393140768766017e-17
-1.429999999999999e+00 -8.256108849411650e-01  3.393140768766017e-17
-1.429999999999999e+00 -8.256108849411650e-01  3.393140768766017e-17
-1.429999999999999e+00 -8.256108849411650e-01  3.393140768766017e-17
-1.429999999999999e+00 -8.256108849411650e-01  3.393140768766017e-17
-1.429999999999999e+00 -8.256108849411650e-01  3.393140768766017e-17
-1.429999999999999e+00 -8.256108849411650e-01  3.393140768766017e-17
-1.429999999999999e+00 -8.256108849411650e-01  3.393140768766017e-17
-1.429999999999999e+00 -8.256108849411650e-01  3.393140768766017e-17
-1.429999999999999e+00 -8.256108849411650e-01  3.393140768766017e-17
-1.429999999999999e+00 -8.256108849411650e-01  3.393140768766017e-17
-1.429999999999999e+00 -8.256108849411650e-01  3.393140768766017e-17
-1.429999999999999e+00 -8.256108849411650e-01  3.393140768766017e-17
-1.429999999999999e+00 -8.256108849411650e-01  3.393140768766017e-17
-1.429999999999999e+00 -8.256108849411650e-01  3.393140768766017e-17
-1.429999999999999e+00 -8.256108849411650e-01  3.393140768766017e-17
-1.429999999999999e+00 -8.256108849411650e-01  3.393140768766017e-17
-1.429999999999999e+00 -8.256108849411650e-01  3.393140768766017e-17
-1.429999999999999e+00 -8.256108849411650e-01  3.393140768766017e-17
-1.429999999999999e+00 -8.256108849411650e-01  3.393140768766017e-17
-1.429999999999999e+00 -8.256108849411650e-01  3.393140768766017e-17
-1.429999999999999e+00 -8.256108849411650e-01  3.393140768766017e-17
-1.429999999999999e+00 -8.256108849411650e-01  3.393140768766017e-17
-1.429999999999999e+00 -8.256108849411650e-01  3.393140768766017e-17
-1.429999999999999e+00 -8.256108849411650e-01  3.393140768766017e-17
-1.429999999999999e+00 -8.256108849411650e-01  3.393140768766017e-17
-1.429999999999999e+00 -8.256108849411650e-01  3.393140768766017e-17
-1.429999999999999e+00 -8.256108849411650e-01  3.393140768766017e-17
-1.429999999999999e+00 -8.256108849411650e-01  3.393140768766017e-17
-1.429999999999999e+00 -8.256108849411650e-01  3.393140768766017e-17
-1.429999999999999e+00 -8.256108849411650e-01  3.393140768766017e-17
-1.429999999999999e+00 -8.256108849411650e-01  3.393140768766017e-17
-1.429999999999999e+00 -8.256108849411650e-01  3.393140768766017e-17
-1.429999999999999e+00 -8.256108849411650e-01  3.393140768766017e-17
-1.429999999999999e+00 -8.256108849411650e-01  3.393140768766017e-17
-1.429999999999999e+00 -8.256108849411650e-01  3.393140768766017e-17
-1.429999999999999e+00 -8.256108849411650e-01  3.393140768766017e-17
-1.429999999999999e+00 -8.256108849411650e-01  3.393140768766017e-17
-1.429999999999999e+00 -8.256108849411650e-01  3.393140768766017e-17
-1.429999999999999e+00 -8.256108849411650e-01  3.393140768766017e-17
-1.429999999999999e+00 -8.256108849411650e-01  3.393140768766017e-17
-1.429999999999999e+00 -8.256108849411650e-01  3.393140768766017e-17
-1.429999999999999e+00 -8.256108849411650e-01  3.393140768766017e-17
-1.429999999999999e+00 -8.256108849411650e-01  3.393140768766017e-17
 1.429999999999999e+00  8.256108849411650e-01 -3.393140768766017e-17
-1.429999999999999e+00 -8.256108849411650e-01  3.393140768766017e-17
 1.429999999999999e+00  8.256108849411650e-01 -3.393140768766017e-17
 1.429999999999999e+00  8.256108849411650e-01 -3.393140768766017e-17
 1.429999999999999e+00  8.256108849411650e-01 -3.393140768766017e-17
 1.429999999999999e+00  8.256108849411650e-01 -3.393140768766017e-17
 1.429999999999999e+00  8.256108849411650e-01 -3.393140768766017e-17
 1.429999999999999e+00  8.256108849411650e-01 -3.393140768766017e-17
 1.429999999999999e+00  8.256108849411650e-01 -3.393140768766017e-17
 1.429999999999999e+00  8.256108849411650e-01 -3.393140768766017e-17
 1.429999999999999e+00  8.256108849411650e-01 -3.393140768766017e-17
 1.429999999999999e+00  8.256108849411650e-01 -3.393140768766017e-17
 1.429999999999999e+00  8.256108849411650e-01 -3.393140768766017e-17
 1.429999999999999e+00  8.256108849411650e-01 -3.393140768766017e-17
 1.429999999999999e+00  8.256108849411650e-01 -3.393140768766017e-17
 1.429999999999999e+00  8.256108849411650e-01 -3.393140768766017e-17
 1.429999999999999e+00  8.256108849411650e-01 -3.393140768766017e-17
 1.429999999999999e+00  8.256108849411650e-01 -3.393140768766017e-17
 1.429999999999999e+00  8.256108849411650e-01 -3.393140768766017e-17
 1.429999999999999e+00  8.256108849411650e-01 -3.393140768766017e-17
 1.429999999999999e+00  8.256108849411650e-01 -3.393140768766017e-17
 1.429999999999999e+00  8.256108849411650e-01 -3.393140768766017e-17
 1.429999999999999e+00  8.256108849411650e-01 -3.393140768766017e-17
 1.429999999999999e+00  8.256108849411650e-01 -3.393140768766017e-17
 1.429999999999999e+00  8.256108849411650e-01 -3.393140768766017e-17
 1.429999999999999e+00  8.256108849411650e-01 -3.393140768766017e-17
 1.429999999999999e+00  8.256108849411650e-01 -3.393140768766017e-17
 1.429999999999999e+00  8.256108849411650e-01 -3.393140768766017e-17
 1.429999999999999e+00  8.256108849411650e-01 -3.393140768766017e-17
 1.429999999999999e+00  8.256108849411650e-01 -3.393140768766017e-17
 1.429999999999999e+00  8.256108849411650e-01 -3.393140768766017e-17
 1.429999999999999e+00  8.256108849411650e-01 -3.393140768766017e-17
 1.429999999999999e+00  8.256108849411650e-01 -3.393140768766017e-17
 1.429999999999999e+00  8.256108849411650e-01 -3.393140768766017e-17
 1.429999999999999e+00  8.256108849411650e-01 -3.393140768766017e-17
 1.429999999999999e+00  8.256108849411650e-01 -3.393140768766017e-17
 1.429999999999999e+00  8.256108849411650e-01 -3.393140768766017e-17
 1.429999999999999e+00  8.256108849411650e-01 -3.393140768766017e-17
 1.429999999999999e+00  8.256108849411650e-01 -3.393140768766017e-17
 1.429999999999999e+00  8.256108849411650e-01 -3.393140768766017e-17
 1.429999999999999e+00  8.256108849411650e-01 -3.393140768766017e-17
 1.429999999999999e+00  8.256108849411650e-01 -3.393140768766017e-17
 1.429999999999999e+00  8.256108849411650e-01 -3.393140768766017e-17
 1.429999999999999e+00  8.256108849411650e-01 -3.393140768766017e-17
 1.429999999999999e+00  8.256108849411650e-01 -3.393140768766017e-17
 1.429999999999999e+00  8.256108849411650e-01 -3.393140768766017e-17
 1.429999999999999e+00  8.256108849411650e-01 -3.393140768766017e-17
 1.429999999999999e+00  8.256108849411650e-01 -3.393140768766017e-17
 1.429999999999999e+00  8.256108849411650e-01 -3.393140768766017e-17
 1.429999999999999e+00  8.256108849411650e-01 -3.393140768766017e-17
 1.429999999999999e+00  8.256108849411650e-01 -3.393140768766017e-17
 1.429999999999999e+00  8.256108849411650e-01 -3.393140768766017e-17
 1.429999999999999e+00  8.256108849411650e-01 -3.393140768766017e-17
 1.429999999999999e+00  8.256108849411650e-01 -3.393140768766017e-17
 1.429999999999999e+00  8.256108849411650e-01 -3.393140768766017e-17
 1.429999999999999e+00  8.256108849411650e-01 -3.393140768766017e-17
 1.429999999999999e+00  8.256108849411650e-01 -3.393140768766017e-17
 1.429999999999999e+00  8.256108849411650e-01 -3.393140768766017e-17
 1.429999999999999e+00  8.256108849411650e-01 -3.393140768766017e-17
 1.429999999999999e+00  8.256108849411650e-01 -3.393140768766017e-17
 1.429999999999999e+00  8.256108849411650e-01 -3.393140768766017e-17
 1.429999999999999e+00  8.256108849411650e-01 -3.393140768766017e-17
 1.429999999999999e+00  8.256108849411650e-01 -3.393140768766017e-17
 1.429999999999999e+00  8.256108849411650e-01 -3.393140768766017e-17
 1.429999999999999e+00  8.256108849411650e-01 -3.393140768766017e-17
 1.429999999999999e+00  8.256108849411650e-01 -3.393140768766017e-17
 1.429999999999999e+00  8.256108849411650e-01 -3.393140768766017e-17
 1.429999999999999e+00  8.256108849411650e-01 -3.393140768766017e-17
 1.429999999999999e+00  8.256108849411650e-01 -3.393140768766017e-17
 1.429999999999999e+00  8.256108849411650e-01 -3.393140768766017e-17
 1.429999999999999e+00  8.256108849411650e-01 -3.393140768766017e-17
 1.429999999999999e+00  8.256108849411650e-01 -3.393140768766017e-17
 1.429999999999999e+00  8.256108849411650e-01 -3.393140768766017e-17
 1.429999999999999e+00  8.256108849411650e-01 -3.393140768766017e-17
 1.429999999999999e+00  8.256108849411650e-01 -3.393140768766017e-17
 1.429999999999999e+00  8.256108849411650e-01 -3.393140768766017e-17
 1.429999999999999e+00  8.256108849411650e-01 -3.393140768766017e-17
 1.429999999999999e+00  8.256108849411650e-01 -3.393140768766017e-17
 1.429999999999999e+00  8.256108849411650e-01 -3.393140768766017e-17
 1.429999999999999e+00  8.256108849411650e-01 -3.393140768766017e-17
 1.429999999999999e+00  8.256108849411650e-01 -3.393140768766017e-17
 1.429999999999999e+00  8.256108849411650e-01 -3.393140768766017e-17
 1.429999999999999e+00  8.256108849411650e-01 -3.393140768766017e-17
 1.429999999999999e+00  8.256108849411650e-01 -3.393140768766017e-17
 1.429999999999999e+00  8.256108849411650e-01 -3.393140768766017e-17
 1.429999999999999e+00  8.256108849411650e-01 -3.393140768766017e-17
 1.429999999999999e+00  8.256108849411650e-01 -3.393140768766017e-17
 1.429999999999999e+00  8.256108849411650e-01 -3.393140768766017e-17
 1.429999999999999e+00  8.256108849411650e-01 -3.393140768766017e-17
 1.429999999999999e+00  8.256108849411650e-01 -3.393140768766017e-17
 1.429999999999999e+00  8.256108849411650e-01 -3.393140768766017e-17
 1.429999999999999e+00  8.256108849411650e-01 -3.393140768766017e-17
 1.429999999999999e+00  8.256108849411650e-01 -3.393140768766017e-17
 1.429999999999999e+00  8.256108849411650e-01 -3.393140768766017e-17
 1.429999999999999e+00  8.256108849411650e-01 -3.393140768766017e-17
 1.429999999999999e+00  8.256108849411650e-01 -3.393140768766017e-17
 1.429999999999999e+00  8.256108849411650e-01 -3.393140768766017e-17
 1.429999999999999e+00  8.256108849411650e-01 -3.393140768766017e-17
 1.429999999999999e+00  8.256108849411650e-01 -3.393140768766017e-17
 1.429999999999999e+00  8.256108849411650e-01 -3.393140768766017e-17
 1.429999999999999e+00  8.256108849411650e-01 -3.393140768766017e-17
 1.429999999999999e+00  8.256108849411650e-01 -3.393140768766017e-17
 1.429999999999999e+00  8.256108849411650e-01 -3.393140768766017e-17
 1.429999999999999e+00  8.256108849411650e-01 -3.393140768766017e-17
 1.429999999999999e+00  8.256108849411650e-01 -3.393140768766017e-17
 1.429999999999999e+00  8.256108849411650e-01 -3.393140768766017e-17
 1.429999999999999e+00  8.256108849411650e-01 -3.393140768766017e-17
 1.429999999999999e+00  8.256108849411650e-01 -3.393140768766017e-17
 1.429999999999999e+00  8.256108849411650e-01 -3.393140768766017e-17
 1.429999999999999e+00  8.256108849411650e-01 -3.393140768766017e-17
 1.429999999999999e+00  8.256108849411650e-01 -3.393140768766017e-17
 1.429999999999999e+00  8.256108849411650e-01 -3.393140768766017e-17
 1.429999999999999e+00  8.256108849411650e-01 -3.393140768766017e-17
 1.429999999999999e+00  8.256108849411650e-01 -3.393140768766017e-17
 1.429999999999999e+00  8.256108849411650e-01 -3.393140768766017e-17
 1.429999999999999e+00  8.256108849411650e-01 -3.393140768766017e-17
 1.429999999999999e+00  8.256108849411650e-01 -3.393140768766017e-17
 1.429999999999999e+00  8.256108849411650e-01 -3.393140768766017e-17
 1.429999999999999e+00  8.256108849411650e-01 -3.393140768766017e-17
 1.429999999999999e+00  8.256108849411650e-01 -3.393140768766017e-17
 1.429999999999999e+00  8.256108849411650e-01 -3.393140768766017e-17
 1.429999999999999e+00  8.256108849411650e-01 -3.393140768766017e-17
 1.429999999999999e+00  8.256108849411650e-01 -3.393140768766017e-17
 1.429999999999999e+00  8.256108849411650e-01 -3.393140768766017e-17
 1.429999999999999e+00  8.256108849411650e-01 -3.393140768766017e-17
 1.429999999999999e+00  8.256108849411650e-01 -3.393140768766017e-17
 1.429999999999999e+00  8.256108849411650e-01 -3.393140768766017e-17
 1.429999999999999e+00  8.256108849411650e-01 -3.393140768766017e-17
 1.429999999999999e+00  8.256108849411650e-01 -3.393140768766017e-17
 1.429999999999999e+00  8.256108849411650e-01 -3.393140768766017e-17
 1.429999999999999e+00  8.256108849411650e-01 -3.393140768766017e-17
 1.429999999999999e+00  8.256108849411650e-01 -3.393140768766017e-17
 1.429999999999999e+00  8.256108849411650e-01 -3.393140768766017e-17
 1.429999999999999e+00  8.256108849411650e-01 -3.393140768766017e-17
 1.429999999999999e+00  8.256108849411650e-01 -3.393140768766017e-17
 1.429999999999999e+00  8.256108849411650e-01 -3.393140768766017e-17
 1.429999999999999e+00  8.256108849411650e-01 -3.393140768766017e-17
 1.429999999999999e+00  8.256108849411650e-01 -3.393140768766017e-17
 1.429999999999999e+00  8.256108849411650e-01 -3.393140768766017e-17
 1.429999999999999e+00  8.256108849411650e-01 -3.393140768766017e-17
 1.429999999999999e+00  8.256108849411650e-01 -3.393140768766017e-17
 1.429999999999999e+00  8.256108849411650e-01 -3.393140768766017e-17
 1.429999999999999e+00  8.256108849411650e-01 -3.393140768766017e-17
 1.429999999999999e+00  8.256108849411650e-01 -3.393140768766017e-17
 1.429999999999999e+00  8.256108849411650e-01 -3.393140768766017e-17
 1.429999999999999e+00  8.256108849411650e-01 -3.393140768766017e-17
 1.429999999999999e+00  8.256108849411650e-01 -3.393140768766017e-17
 1.429999999999999e+00  8.256108849411650e-01 -3.393140768766017e-17
 1.429999999999999e+00  8.256108849411650e-01 -3.393140768766017e-17
 1.429999999999999e+00  8.256108849411650e-01 -3.393140768766017e-17
 1.429999999999999e+00  8.256108849411650e-01 -3.393140768766017e-17
 1.429999999999999e+00  8.256108849411650e-01 -3.393140768766017e-17
 1.429999999999999e+00  8.256108849411650e-01 -3.393140768766017e-17
 1.429999999999999e+00  8.256108849411650e-01 -3.393140768766017e-17
 1.429999999999999e+00  8.256108849411650e-01 -3.393140768766017e-17
 1.429999999999999e+00  8.256108849411650e-01 -3.393140768766017e-17
 1.429999999999999e+00  8.256108849411650e-01 -3.393140768766017e-17
 1.429999999999999e+00  8.256108849411650e-01 -3.393140768766017e-17
 1.429999999999999e+00  8.256108849411650e-01 -3.393140768766017e-17
 1.429999999999999e+00  8.256108849411650e-01 -3.393140768766017e-17
 1.429999999999999e+00  8.256108849411650e-01 -3.393140768766017e-17
 1.429999999999999e+00  8.256108849411650e-01 -3.393140768766017e-17
 1.429999999999999e+00  8.256108849411650e-01 -3.393140768766017e-17
 1.429999999999999e+00  8.256108849411650e-01 -3.393140768766017e-17
 1.429999999999999e+00  8.256108849411650e-01 -3.393140768766017e-17
 1.429999999999999e+00  8.256108849411650e-01 -3.393140768766017e-17
-1.429999999999999e+00 -8.256108849411650e-01  3.393140768766017e-17
 1.429999999999999e+00  8.256108849411650e-01 -3.393140768766017e-17
 1.429999999999999e+00  8.256108849411650e-01 -3.393140768766017e-17
 1.429999999999999e+00  8.256108849411650e-01 -3.393140768766017e-17
 1.429999999999999e+00  8.256108849411650e-01 -3.393140768766017e-17
 1.429999999999999e+00  8.256108849411650e-01 -3.393140768766017e-17
 1.429999999999999e+00  8.256108849411650e-01 -3.393140768766017e-17
 1.429999999999999e+00  8.256108849411650e-01 -3.393140768766017e-17
 1.429999999999999e+00  8.256108849411650e-01 -3.393140768766017e-17
 1.429999999999999e+00  8.256108849411650e-01 -3.393140768766017e-17
 1.429999999999999e+00  8.256108849411650e-01 -3.393140768766017e-17
 1.429999999999999e+00  8.256108849411650e-01 -3.393140768766017e-17
 1.429999999999999e+00  8.256108849411650e-01 -3.393140768766017e-17
 1.429999999999999e+00  8.256108849411650e-01 -3.393140768766017e-17
 1.429999999999999e+00  8.256108849411650e-01 -3.393140768766017e-17
 1.429999999999999e+00  8.256108849411650e-01 -3.393140768766017e-17
 1.429999999999999e+00  8.256108849411650e-01 -3.393140768766017e-17
 1.429999999999999e+00  8.256108849411650e-01 -3.393140768766017e-17
 1.429999999999999e+00  8.256108849411650e-01 -3.393140768766017e-17
 1.429999999999999e+00  8.256108849411650e-01 -3.393140768766017e-17
 1.429999999999999e+00  8.256108849411650e-01 -3.393140768766017e-17
 1.429999999999999e+00  8.256108849411650e-01 -3.393140768766017e-17
 1.429999999999999e+00  8.256108849411650e-01 -3.393140768766017e-17
 1.429999999999999e+00  8.256108849411650e-01 -3.393140768766017e-17
 1.429999999999999e+00  8.256108849411650e-01 -3.393140768766017e-17
 1.429999999999999e+00  8.256108849411650e-01 -3.393140768766017e-17
 1.429999999999999e+00  8.256108849411650e-01 -3.393140768766017e-17
 1.429999999999999e+00  8.256108849411650e-01 -3.393140768766017e-17
 1.429999999999999e+00  8.256108849411650e-01 -3.393140768766017e-17
 1.429999999999999e+00  8.256108849411650e-01 -3.393140768766017e-17
 1.429999999999999e+00  8.256108849411650e-01 -3.393140768766017e-17
 1.429999999999999e+00  8.256108849411650e-01 -3.393140768766017e-17
 1.429999999999999e+00  8.256108849411650e-01 -3.393140768766017e-17
 1.429999999999999e+00  8.256108849411650e-01 -3.393140768766017e-17
 1.429999999999999e+00  8.256108849411650e-01 -3.393140768766017e-17
 1.429999999999999e+00  8.256108849411650e-01 -3.393140768766017e-17
 1.429999999999999e+00  8.256108849411650e-01 -3.393140768766017e-17
 1.429999999999999e+00  8.256108849411650e-01 -3.393140768766017e-17
 1.429999999999999e+00  8.256108849411650e-01 -3.393140768766017e-17
 1.429999999999999e+00  8.256108849411650e-01 -3.393140768766017e-17
 1.429999999999999e+00  8.256108849411650e-01 -3.393140768766017e-17
 1.429999999999999e+00  8.256108849411650e-01 -3.393140768766017e-17
 1.429999999999999e+00  8.256108849411650e-01 -3.393140768766017e-17
 1.429999999999999e+00  8.256108849411650e-01 -3.393140768766017e-17
 1.429999999999999e+00  8.256108849411650e-01 -3.393140768766017e-17
 1.429999999999999e+00  8.256108849411650e-01 -3.393140768766017e-17
 1.429999999999999e+00  8.256108849411650e-01 -3.393140768766017e-17
 1.429999999999999e+00  8.256108849411650e-01 -3.393140768766017e-17
 1.429999999999999e+00  8.256108849411650e-01 -3.393140768766017e-17
 1.429999999999999e+00  8.256108849411650e-01 -3.393140768766017e-17
 1.429999999999999e+00  8.256108849411650e-01 -3.393140768766017e-17
 1.429999999999999e+00  8.256108849411650e-01 -3.393140768766017e-17
 1.429999999999999e+00  8.256108849411650e-01 -3.393140768766017e-17
 1.429999999999999e+00  8.256108849411650e-01 -3.393140768766017e-17
 1.429999999999999e+00  8.256108849411650e-01 -3.393140768766017e-17
 1.429999999999999e+00  8.256108849411650e-01 -3.393140768766017e-17
 1.429999999999999e+00  8.256108849411650e-01 -3.393140768766017e-17
 1.429999999999999e+00  8.256108849411650e-01 -3.393140768766017e-17
 1.429999999999999e+00  8.256108849411650e-01 -3.393140768766017e-17
 1.429999999999999e+00  8.256108849411650e-01 -3.393140768766017e-17
 1.429999999999999e+00  8.256108849411650e-01 -3.393140768766017e-17
 1.429999999999999e+00  8.256108849411650e-01 -3.393140768766017e-17
 1.429999999999999e+00  8.256108849411650e-01 -3.393140768766017e-17
 1.429999999999999e+00  8.256108849411650e-01 -3.393140768766017e-17
 1.429999999999999e+00  8.256108849411650e-01 -3.393140768766017e-17
 1.429999999999999e+00  8.256108849411650e-01 -3.393140768766017e-17
 1.429999999999999e+00  8.256108849411650e-01 -3.393140768766017e-17
 1.429999999999999e+00  8.256108849411650e-01 -3.393140768766017e-17
 1.429999999999999e+00  8.256108849411650e-01 -3.393140768766017e-17
 1.429999999999999e+00  8.256108849411650e-01 -3.393140768766017e-17
 1.429999999999999e+00  8.256108849411650e-01 -3.393140768766017e-17
 1.429999999999999e+00  8.256108849411650e-01 -3.393140768766017e-17
 1.429999999999999e+00  8.256108849411650e-01 -3.393140768766017e-17
 1.429999999999999e+00  8.256108849411650e-01 -3.393140768766017e-17
 1.429999999999999e+00  8.256108849411650e-01 -3.393140768766017e-17
 1.429999999999999e+00  8.256108849411650e-01 -3.393140768766017e-17
 1.429999999999999e+00  8.256108849411650e-01 -3.393140768766017e-17
 1.429999999999999e+00  8.256108849411650e-01 -3.393140768766017e-17
 1.429999999999999e+00  8.256108849411650e-01 -3.393140768766017e-17
 1.429999999999999e+00  8.256108849411650e-01 -3.393140768766017e-17
 1.429999999999999e+00  8.256108849411650e-01 -3.393140768766017e-17
 1.429999999999999e+00  8.256108849411650e-01 -3.393140768766017e-17
 1.429999999999999e+00  8.256108849411650e-01 -3.393140768766017e-17
 1.429999999999999e+00  8.256108849411650e-01 -3.393140768766017e-17
 1.429999999999999e+00  8.256108849411650e-01 -3.393140768766017e-17
 1.429999999999999e+00  8.256108849411650e-01 -3.393140768766017e-17
 1.429999999999999e+00  8.256108849411650e-01 -3.393140768766017e-17
 1.429999999999999e+00  8.256108849411650e-01 -3.393140768766017e-17
 1.429999999999999e+00  8.256108849411650e-01 -3.393140768766017e-17
 1.429999999999999e+00  8.256108849411650e-01 -3.393140768766017e-17
 1.429999999999999e+00  8.256108849411650e-01 -3.393140768766017e-17
 1.429999999999999e+00  8.256108849411650e-01 -3.393140768766017e-17
 1.429999999999999e+00  8.256108849411650e-01 -3.393140768766017e-17
 1.429999999999999e+00  8.256108849411650e-01 -3.393140768766017e-17
 1.429999999999999e+00  8.256108849411650e-01 -3.393140768766017e-17
 1.429999999999999e+00  8.256108849411650e-01 -3.393140768766017e-17
 1.429999999999999e+00  8.256108849411650e-01 -3.393140768766017e-17
 1.429999999999999e+00  8.256108849411650e-01 -3.393140768766017e-17
 1.429999999999999e+00  8.256108849411650e-01 -3.393140768766017e-17
 1.429999999999999e+00  8.256108849411650e-01 -3.393140768766017e-17
 1.429999999999999e+00  8.256108849411650e-01 -3.393140768766017e-17
 1.429999999999999e+00  8.256108849411650e-01 -3.393140768766017e-17
 1.429999999999999e+00  8.256108849411650e-01 -3.393140768766017e-17
 1.429999999999999e+00  8.256108849411650e-01 -3.393140768766017e-17
 1.429999999999999e+00  8.256108849411650e-01 -3.393140768766017e-17
 1.429999999999999e+00  8.256108849411650e-01 -3.393140768766017e-17
 1.429999999999999e+00  8.256108849411650e-01 -3.393140768766017e-17
 1.429999999999999e+00  8.256108849411650e-01 -3.393140768766017e-17
 1.429999999999999e+00  8.256108849411650e-01 -3.393140768766017e-17
 1.429999999999999e+00  8.256108849411650e-01 -3.393140768766017e-17
 1.429999999999999e+00  8.256108849411650e-01 -3.393140768766017e-17
 1.429999999999999e+00  8.256108849411650e-01 -3.393140768766017e-17
 1.429999999999999e+00  8.256108849411650e-01 -3.393140768766017e-17
 1.429999999999999e+00  8.256108849411650e-01 -3.393140768766017e-17
 1.429999999999999e+00  8.256108849411650e-01 -3.393140768766017e-17
 1.429999999999999e+00  8.256108849411650e-01 -3.393140768766017e-17
 1.429999999999999e+00  8.256108849411650e-01 -3.393140768766017e-17
 1.429999999999999e+00  8.256108849411650e-01 -3.393140768766017e-17
 1.429999999999999e+00  8.256108849411650e-01 -3.393140768766017e-17
 1.429999999999999e+00  8.256108849411650e-01 -3.393140768766017e-17
 1.429999999999999e+00  8.256108849411650e-01 -3.393140768766017e-17
 1.429999999999999e+00  8.256108849411650e-01 -3.393140768766017e-17
 1.429999999999999e+00  8.256108849411650e-01 -3.393140768766017e-17
 1.429999999999999e+00  8.256108849411650e-01 -3.393140768766017e-17
 1.429999999999999e+00  8.256108849411650e-01 -3.393140768766017e-17
 1.429999999999999e+00  8.256108849411650e-01 -3.393140768766017e-17
 1.429999999999999e+00  8.256108849411650e-01 -3.393140768766017e-17
 1.429999999999999e+00  8.256108849411650e-01 -3.393140768766017e-17
 1.429999999999999e+00  8.256108849411650e-01 -3.393140768766017e-17
 1.429999999999999e+00  8.256108849411650e-01 -3.393140768766017e-17
 1.429999999999999e+00  8.256108849411650e-01 -3.393140768766017e-17
 1.429999999999999e+00  8.256108849411650e-01 -3.393140768766017e-17
 1.429999999999999e+00  8.256108849411650e-01 -3.393140768766017e-17
 1.429999999999999e+00  8.256108849411650e-01 -3.393140768766017e-17
 1.429999999999999e+00  8.256108849411650e-01 -3.393140768766017e-17
 1.429999999999999e+00  8.256108849411650e-01 -3.393140768766017e-17
 1.429999999999999e+00  8.256108849411650e-01 -3.393140768766017e-17
 1.429999999999999e+00  8.256108849411650e-01 -3.393140768766017e-17
 1.429999999999999e+00  8.256108849411650e-01 -3.393140768766017e-17
 1.429999999999999e+00  8.256108849411650e-01 -3.393140768766017e-17
 1.429999999999999e+00  8.256108849411650e-01 -3.393140768766017e-17
 1.429999999999999e+00  8.256108849411650e-01 -3.393140768766017e-17
 1.429999999999999e+00  8.256108849411650e-01 -3.393140768766017e-17
 1.429999999999999e+00  8.256108849411650e-01 -3.393140768766017e-17
 1.429999999999999e+00  8.256108849411650e-01 -3.393140768766017e-17
 1.429999999999999e+00  8.256108849411650e-01 -3.393140768766017e-17
 1.429999999999999e+00  8.256108849411650e-01 -3.393140768766017e-17
 1.429999999999999e+00  8.256108849411650e-01 -3.393140768766017e-17
 1.429999999999999e+00  8.256108849411650e-01 -3.393140768766017e-17
 1.429999999999999e+00  8.256108849411650e-01 -3.393140768766017e-17
 1.429999999999999e+00  8.256108849411650e-01 -3.393140768766017e-17
 1.429999999999999e+00  8.256108849411650e-01 -3.393140768766017e-17
 1.429999999999999e+00  8.256108849411650e-01 -3.393140768766017e-17
 1.429999999999999e+00  8.256108849411650e-01 -3.393140768766017e-17
 1.429999999999999e+00  8.256108849411650e-01 -3.393140768766017e-17
 1.429999999999999e+00  8.256108849411650e-01 -3.393140768766017e-17
 1.429999999999999e+00  8.256108849411650e-01 -3.393140768766017e-17
 1.429999999999999e+00  8.256108849411650e-01 -3.393140768766017e-17
 1.429999999999999e+00  8.256108849411650e-01 -3.393140768766017e-17
 1.429999999999999e+00  8.256108849411650e-01 -3.393140768766017e-17
 1.429999999999999e+00  8.256108849411650e-01 -3.393140768766017e-17
 1.429999999999999e+00  8.256108849411650e-01 -3.393140768766017e-17
 1.429999999999999e+00  8.256108849411650e-01 -3.393140768766017e-17
 1.429999999999999e+00  8.256108849411650e-01 -3.393140768766017e-17
 1.429999999999999e+00  8.256108849411650e-01 -3.393140768766017e-17
-1.429999999999999e+00  8.256108849411650e-01  1.696570384383008e-17
 1.429999999999999e+00 -8.256108849411650e-01 -1.696570384383008e-17
-1.429999999999999e+00  8.256108849411650e-01  1.696570384383008e-17
-1.429999999999999e+00  8.256108849411650e-01  1.696570384383008e-17
-1.429999999999999e+00  8.256108849411650e-01  1.696570384383008e-17
-1.429999999999999e+00  8.256108849411650e-01  1.696570384383008e-17
-1.429999999999999e+00  8.256108849411650e-01  1.696570384383008e-17
-1.429999999999999e+00  8.256108849411650e-01  1.696570384383008e-17
-1.429999999999999e+00  8.256108849411650e-01  1.696570384383008e-17
-1.429999999999999e+00  8.256108849411650e-01  1.696570384383008e-17
-1.429999999999999e+00  8.256108849411650e-01  1.696570384383008e-17
-1.429999999999999e+00  8.256108849411650e-01  1.696570384383008e-17
-1.429999999999999e+00  8.256108849411650e-01  1.696570384383008e-17
-1.429999999999999e+00  8.256108849411650e-01  1.696570384383008e-17
-1.429999999999999e+00  8.256108849411650e-01  1.696570384383008e-17
-1.429999999999999e+00  8.256108849411650e-01  1.696570384383008e-17
-1.429999999999999e+00  8.256108849411650e-01  1.696570384383008e-17
-1.429999999999999e+00  8.256108849411650e-01  1.696570384383008e-17
-1.429999999999999e+00  8.256108849411650e-01  1.696570384383008e-17
-1.429999999999999e+00  8.256108849411650e-01  1.696570384383008e-17
-1.429999999999999e+00  8.256108849411650e-01  1.696570384383008e-17
-1.429999999999999e+00  8.256108849411650e-01  1.696570384383008e-17
-1.429999999999999e+00  8.256108849411650e-01  1.696570384383008e-17
-1.429999999999999e+00  8.256108849411650e-01  1.696570384383008e-17
-1.429999999999999e+00  8.256108849411650e-01  1.696570384383008e-17
-1.429999999999999e+00  8.256108849411650e-01  1.696570384383008e-17
-1.429999999999999e+00  8.256108849411650e-01  1.696570384383008e-17
-1.429999999999999e+00  8.256108849411650e-01  1.696570384383008e-17
-1.429999999999999e+00  8.256108849411650e-01  1.696570384383008e-17
-1.429999999999999e+00  8.256108849411650e-01  1.696570384383008e-17
-1.429999999999999e+00  8.256108849411650e-01  1.696570384383008e-17
-1.429999999999999e+00  8.256108849411650e-01  1.696570384383008e-17
-1.429999999999999e+00  8.256108849411650e-01  1.696570384383008e-17
-1.429999999999999e+00  8.256108849411650e-01  1.696570384383008e-17
-1.429999999999999e+00  8.256108849411650e-01  1.696570384383008e-17
-1.429999999999999e+00  8.256108849411650e-01  1.696570384383008e-17
-1.429999999999999e+00  8.256108849411650e-01  1.696570384383008e-17
-1.429999999999999e+00  8.256108849411650e-01  1.696570384383008e-17
-1.429999999999999e+00  8.256108849411650e-01  1.696570384383008e-17
-1.429999999999999e+00  8.256108849411650e-01  1.696570384383008e-17
-1.429999999999999e+00  8.256108849411650e-01  1.696570384383008e-17
-1.429999999999999e+00  8.256108849411650e-01  1.696570384383008e-17
-1.429999999999999e+00  8.256108849411650e-01  1.696570384383008e-17
-1.429999999999999e+00  8.256108849411650e-01  1.696570384383008e-17
-1.429999999999999e+00  8.256108849411650e-01  1.696570384383008e-17
-1.429999999999999e+00  8.256108849411650e-01  1.696570384383008e-17
-1.429999999999999e+00  8.256108849411650e-01  1.696570384383008e-17
-1.429999999999999e+00  8.256108849411650e-01  1.696570384383008e-17
-1.429999999999999e+00  8.256108849411650e-01  1.696570384383008e-17
-1.429999999999999e+00  8.256108849411650e-01  1.696570384383008e-17
-1.429999999999999e+00  8.256108849411650e-01  1.696570384383008e-17
-1.429999999999999e+00  8.256108849411650e-01  1.696570384383008e-17
-1.429999999999999e+00  8.256108849411650e-01  1.696570384383008e-17
-1.429999999999999e+00  8.256108849411650e-01  1.696570384383008e-17
-1.429999999999999e+00  8.256108849411650e-01  1.696570384383008e-17
-1.429999999999999e+00  8.256108849411650e-01  1.696570384383008e-17
-1.429999999999999e+00  8.256108849411650e-01  1.696570384383008e-17
-1.429999999999999e+00  8.256108849411650e-01  1.696570384383008e-17
-1.429999999999999e+00  8.256108849411650e-01  1.696570384383008e-17
-1.429999999999999e+00  8.256108849411650e-01  1.696570384383008e-17
-1.429999999999999e+00  8.256108849411650e-01  1.696570384383008e-17
-1.429999999999999e+00  8.256108849411650e-01  1.696570384383008e-17
-1.429999999999999e+00  8.256108849411650e-01  1.696570384383008e-17
-1.429999999999999e+00  8.256108849411650e-01  1.696570384383008e-17
-1.429999999999999e+00  8.256108849411650e-01  1.696570384383008e-17
-1.429999999999999e+00  8.256108849411650e-01  1.696570384383008e-17
-1.429999999999999e+00  8.256108849411650e-01  1.696570384383008e-17
-1.429999999999999e+00  8.256108849411650e-01  1.696570384383008e-17
-1.429999999999999e+00  8.256108849411650e-01  1.696570384383008e-17
-1.429999999999999e+00  8.256108849411650e-01  1.696570384383008e-17
-1.429999999999999e+00  8.256108849411650e-01  1.696570384383008e-17
-1.429999999999999e+00  8.256108849411650e-01  1.696570384383008e-17
-1.429999999999999e+00  8.256108849411650e-01  1.696570384383008e-17
-1.429999999999999e+00  8.256108849411650e-01  1.696570384383008e-17
-1.429999999999999e+00  8.256108849411650e-01  1.696570384383008e-17
-1.429999999999999e+00  8.256108849411650e-01  1.696570384383008e-17
-1.429999999999999e+00  8.256108849411650e-01  1.696570384383008e-17
-1.429999999999999e+00  8.256108849411650e-01  1.696570384383008e-17
-1.429999999999999e+00  8.256108849411650e-01  1.696570384383008e-17
-1.429999999999999e+00  8.256108849411650e-01  1.696570384383008e-17
-1.429999999999999e+00  8.256108849411650e-01  1.696570384383008e-17
-1.429999999999999e+00  8.256108849411650e-01  1.696570384383008e-17
-1.429999999999999e+00  8.256108849411650e-01  1.696570384383008e-17
-1.429999999999999e+00  8.256108849411650e-01  1.696570384383008e-17
-1.429999999999999e+00  8.256108849411650e-01  1.696570384383008e-17
-1.429999999999999e+00  8.256108849411650e-01  1.696570384383008e-17
-1.429999999999999e+00  8.256108849411650e-01  1.696570384383008e-17
-1.429999999999999e+00  8.256108849411650e-01  1.696570384383008e-17
-1.429999999999999e+00  8.256108849411650e-01  1.696570384383008e-17
-1.429999999999999e+00  8.256108849411650e-01  1.696570384383008e-17
-1.429999999999999e+00  8.256108849411650e-01  1.696570384383008e-17
-1.429999999999999e+00  8.256108849411650e-01  1.696570384383008e-17
-1.429999999999999e+00  8.256108849411650e-01  1.696570384383008e-17
-1.429999999999999e+00  8.256108849411650e-01  1.696570384383008e-17
-1.429999999999999e+00  8.256108849411650e-01  1.696570384383008e-17
-1.429999999999999e+00  8.256108849411650e-01  1.696570384383008e-17
-1.429999999999999e+00  8.256108849411650e-01  1.696570384383008e-17
-1.429999999999999e+00  8.256108849411650e-01  1.696570384383008e-17
-1.429999999999999e+00  8.256108849411650e-01  1.696570384383008e-17
-1.429999999999999e+00  8.256108849411650e-01  1.696570384383008e-17
-1.429999999999999e+00  8.256108849411650e-01  1.696570384383008e-17
-1.429999999999999e+00  8.256108849411650e-01  1.696570384383008e-17
-1.429999999999999e+00  8.256108849411650e-01  1.696570384383008e-17
-1.429999999999999e+00  8.256108849411650e-01  1.696570384383008e-17
-1.429999999999999e+00  8.256108849411650e-01  1.696570384383008e-17
-1.429999999999999e+00  8.256108849411650e-01  1.696570384383008e-17
-1.429999999999999e+00  8.256108849411650e-01  1.696570384383008e-17
-1.429999999999999e+00  8.256108849411650e-01  1.696570384383008e-17
-1.429999999999999e+00  8.256108849411650e-01  1.696570384383008e-17
-1.429999999999999e+00  8.256108849411650e-01  1.696570384383008e-17
-1.429999999999999e+00  8.256108849411650e-01  1.696570384383008e-17
-1.429999999999999e+00  8.256108849411650e-01  1.696570384383008e-17
-1.429999999999999e+00  8.256108849411650e-01  1.696570384383008e-17
-1.429999999999999e+00  8.256108849411650e-01  1.696570384383008e-17
-1.429999999999999e+00  8.256108849411650e-01  1.696570384383008e-17
-1.429999999999999e+00  8.256108849411650e-01  1.696570384383008e-17
-1.429999999999999e+00  8.256108849411650e-01  1.696570384383008e-17
-1.429999999999999e+00  8.256108849411650e-01  1.696570384383008e-17
-1.429999999999999e+00  8.256108849411650e-01  1.696570384383008e-17
-1.429999999999999e+00  8.256108849411650e-01  1.696570384383008e-17
-1.429999999999999e+00  8.256108849411650e-01  1.696570384383008e-17
-1.429999999999999e+00  8.256108849411650e-01  1.696570384383008e-17
-1.429999999999999e+00  8.256108849411650e-01  1.696570384383008e-17
-1.429999999999999e+00  8.256108849411650e-01  1.696570384383008e-17
-1.429999999999999e+00  8.256108849411650e-01  1.696570384383008e-17
-1.429999999999999e+00  8.256108849411650e-01  1.696570384383008e-17
-1.429999999999999e+00  8.256108849411650e-01  1.696570384383008e-17
-1.429999999999999e+00  8.256108849411650e-01  1.696570384383008e-17
-1.429999999999999e+00  8.256108849411650e-01  1.696570384383008e-17
-1.429999999999999e+00  8.256108849411650e-01  1.696570384383008e-17
-1.429999999999999e+00  8.256108849411650e-01  1.696570384383008e-17
-1.429999999999999e+00  8.256108849411650e-01  1.696570384383008e-17
-1.429999999999999e+00  8.256108849411650e-01  1.696570384383008e-17
-1.429999999999999e+00  8.256108849411650e-01  1.696570384383008e-17
-1.429999999999999e+00  8.256108849411650e-01  1.696570384383008e-17
-1.429999999999999e+00  8.256108849411650e-01  1.696570384383008e-17
-1.429999999999999e+00  8.256108849411650e-01  1.696570384383008e-17
-1.429999999999999e+00  8.256108849411650e-01  1.696570384383008e-17
-1.429999999999999e+00  8.256108849411650e-01  1.696570384383008e-17
-1.429999999999999e+00  8.256108849411650e-01  1.696570384383008e-17
-1.429999999999999e+00  8.256108849411650e-01  1.696570384383008e-17
-1.429999999999999e+00  8.256108849411650e-01  1.696570384383008e-17
-1.429999999999999e+00  8.256108849411650e-01  1.696570384383008e-17
-1.429999999999999e+00  8.256108849411650e-01  1.696570384383008e-17
-1.429999999999999e+00  8.256108849411650e-01  1.696570384383008e-17
-1.429999999999999e+00  8.256108849411650e-01  1.696570384383008e-17
-1.429999999999999e+00  8.256108849411650e-01  1.696570384383008e-17
-1.429999999999999e+00  8.256108849411650e-01  1.696570384383008e-17
-1.429999999999999e+00  8.256108849411650e-01  1.696570384383008e-17
-1.429999999999999e+00  8.256108849411650e-01  1.696570384383008e-17
-1.429999999999999e+00  8.256108849411650e-01  1.696570384383008e-17
-1.429999999999999e+00  8.256108849411650e-01  1.696570384383008e-17
-1.429999999999999e+00  8.256108849411650e-01  1.696570384383008e-17
-1.429999999999999e+00  8.256108849411650e-01  1.696570384383008e-17
-1.429999999999999e+00  8.256108849411650e-01  1.696570384383008e-17
-1.429999999999999e+00  8.256108849411650e-01  1.696570384383008e-17
-1.429999999999999e+00  8.256108849411650e-01  1.696570384383008e-17
-1.429999999999999e+00  8.256108849411650e-01  1.696570384383008e-17
-1.429999999999999e+00  8.256108849411650e-01  1.696570384383008e-17
-1.429999999999999e+00  8.256108849411650e-01  1.696570384383008e-17
-1.429999999999999e+00  8.256108849411650e-01  1.696570384383008e-17
-1.429999999999999e+00  8.256108849411650e-01  1.696570384383008e-17
-1.429999999999999e+00  8.256108849411650e-01  1.696570384383008e-17
-1.429999999999999e+00  8.256108849411650e-01  1.696570384383008e-17
-1.429999999999999e+00  8.256108849411650e-01  1.696570384383008e-17
-1.429999999999999e+00  8.256108849411650e-01  1.696570384383008e-17
-1.429999999999999e+00  8.256108849411650e-01  1.696570384383008e-17
-1.429999999999999e+00  8.256108849411650e-01  1.696570384383008e-17
-1.429999999999999e+00  8.256108849411650e-01  1.696570384383008e-17
-1.429999999999999e+00  8.256108849411650e-01  1.696570384383008e-17
-1.429999999999999e+00  8.256108849411650e-01  1.696570384383008e-17
-1.429999999999999e+00  8.256108849411650e-01  1.696570384383008e-17
-1.429999999999999e+00  8.256108849411650e-01  1.696570384383008e-17
-1.429999999999999e+00  8.256108849411650e-01  1.696570384383008e-17
-1.429999999999999e+00  8.256108849411650e-01  1.696570384383008e-17
-1.429999999999999e+00  8.256108849411650e-01  1.696570384383008e-17
-1.429999999999999e+00  8.256108849411650e-01  1.696570384383008e-17
-1.429999999999999e+00  8.256108849411650e-01  1.696570384383008e-17
-1.429999999999999e+00  8.256108849411650e-01  1.696570384383008e-17
-1.429999999999999e+00  8.256108849411650e-01  1.696570384383008e-17
-1.429999999999999e+00  8.256108849411650e-01  1.696570384383008e-17
-1.429999999999999e+00  8.256108849411650e-01  1.696570384383008e-17
-1.429999999999999e+00  8.256108849411650e-01  1.696570384383008e-17
-1.429999999999999e+00  8.256108849411650e-01  1.696570384383008e-17
-1.429999999999999e+00  8.256108849411650e-01  1.696570384383008e-17
-1.429999999999999e+00  8.256108849411650e-01  1.696570384383008e-17
-1.429999999999999e+00  8.256108849411650e-01  1.696570384383008e-17
-1.429999999999999e+00  8.256108849411650e-01  1.696570384383008e-17
-1.429999999999999e+00  8.256108849411650e-01  1.696570384383008e-17
-1.429999999999999e+00  8.256108849411650e-01  1.696570384383008e-17
-1.429999999999999e+00  8.256108849411650e-01  1.696570384383008e-17
-1.429999999999999e+00  8.256108849411650e-01  1.696570384383008e-17
-1.429999999999999e+00  8.256108849411650e-01  1.696570384383008e-17
-1.429999999999999e+00  8.256108849411650e-01  1.696570384383008e-17
 1.429999999999999e+00 -8.256108849411650e-01 -1.696570384383008e-17
-1.429999999999999e+00  8.256108849411650e-01  1.696570384383008e-17
-1.429999999999999e+00  8.256108849411650e-01  1.696570384383008e-17
-1.429999999999999e+00  8.256108849411650e-01  1.696570384383008e-17
-1.429999999999999e+00  8.256108849411650e-01  1.696570384383008e-17
-1.429999999999999e+00  8.256108849411650e-01  1.696570384383008e-17
-1.429999999999999e+00  8.256108849411650e-01  1.696570384383008e-17
-1.429999999999999e+00  8.256108849411650e-01  1.696570384383008e-17
-1.429999999999999e+00  8.256108849411650e-01  1.696570384383008e-17
-1.429999999999999e+00  8.256108849411650e-01  1.696570384383008e-17
-1.429999999999999e+00  8.256108849411650e-01  1.696570384383008e-17
-1.429999999999999e+00  8.256108849411650e-01  1.696570384383008e-17
-1.429999999999999e+00  8.256108849411650e-01  1.696570384383008e-17
-1.429999999999999e+00  8.256108849411650e-01  1.696570384383008e-17
-1.429999999999999e+00  8.256108849411650e-01  1.696570384383008e-17
-1.429999999999999e+00  8.256108849411650e-01  1.696570384383008e-17
-1.429999999999999e+00  8.256108849411650e-01  1.696570384383008e-17
-1.429999999999999e+00  8.256108849411650e-01  1.696570384383008e-17
-1.429999999999999e+00  8.256108849411650e-01  1.696570384383008e-17
-1.429999999999999e+00  8.256108849411650e-01  1.696570384383008e-17
-1.429999999999999e+00  8.256108849411650e-01  1.696570384383008e-17
-1.429999999999999e+00  8.256108849411650e-01  1.696570384383008e-17
-1.429999999999999e+00  8.256108849411650e-01  1.696570384383008e-17
-1.429999999999999e+00  8.256108849411650e-01  1.696570384383008e-17
-1.429999999999999e+00  8.256108849411650e-01  1.696570384383008e-17
-1.429999999999999e+00  8.256108849411650e-01  1.696570384383008e-17
-1.429999999999999e+00  8.256108849411650e-01  1.696570384383008e-17
-1.429999999999999e+00  8.256108849411650e-01  1.696570384383008e-17
-1.429999999999999e+00  8.256108849411650e-01  1.696570384383008e-17
-1.429999999999999e+00  8.256108849411650e-01  1.696570384383008e-17
-1.429999999999999e+00  8.256108849411650e-01  1.696570384383008e-17
-1.429999999999999e+00  8.256108849411650e-01  1.696570384383008e-17
-1.429999999999999e+00  8.256108849411650e-01  1.696570384383008e-17
-1.429999999999999e+00  8.256108849411650e-01  1.696570384383008e-17
-1.429999999999999e+00  8.256108849411650e-01  1.696570384383008e-17
-1.429999999999999e+00  8.256108849411650e-01  1.696570384383008e-17
-1.429999999999999e+00  8.256108849411650e-01  1.696570384383008e-17
-1.429999999999999e+00  8.256108849411650e-01  1.696570384383008e-17
-1.429999999999999e+00  8.256108849411650e-01  1.696570384383008e-17
-1.429999999999999e+00  8.256108849411650e-01  1.696570384383008e-17
-1.429999999999999e+00  8.256108849411650e-01  1.696570384383008e-17
-1.429999999999999e+00  8.256108849411650e-01  1.696570384383008e-17
-1.429999999999999e+00  8.256108849411650e-01  1.696570384383008e-17
-1.429999999999999e+00  8.256108849411650e-01  1.696570384383008e-17
-1.429999999999999e+00  8.256108849411650e-01  1.696570384383008e-17
-1.429999999999999e+00  8.256108849411650e-01  1.696570384383008e-17
-1.429999999999999e+00  8.256108849411650e-01  1.696570384383008e-17
-1.429999999999999e+00  8.256108849411650e-01  1.696570384383008e-17
-1.429999999999999e+00  8.256108849411650e-01  1.696570384383008e-17
-1.429999999999999e+00  8.256108849411650e-01  1.696570384383008e-17
-1.429999999999999e+00  8.256108849411650e-01  1.696570384383008e-17
-1.429999999999999e+00  8.256108849411650e-01  1.696570384383008e-17
-1.429999999999999e+00  8.256108849411650e-01  1.696570384383008e-17
-1.429999999999999e+00  8.256108849411650e-01  1.696570384383008e-17
-1.429999999999999e+00  8.256108849411650e-01  1.696570384383008e-17
-1.429999999999999e+00  8.256108849411650e-01  1.696570384383008e-17
-1.429999999999999e+00  8.256108849411650e-01  1.696570384383008e-17
-1.429999999999999e+00  8.256108849411650e-01  1.696570384383008e-17
-1.429999999999999e+00  8.256108849411650e-01  1.696570384383008e-17
-1.429999999999999e+00  8.256108849411650e-01  1.696570384383008e-17
-1.429999999999999e+00  8.256108849411650e-01  1.696570384383008e-17
-1.429999999999999e+00  8.256108849411650e-01  1.696570384383008e-17
-1.429999999999999e+00  8.256108849411650e-01  1.696570384383008e-17
-1.429999999999999e+00  8.256108849411650e-01  1.696570384383008e-17
-1.429999999999999e+00  8.256108849411650e-01  1.696570384383008e-17
-1.429999999999999e+00  8.256108849411650e-01  1.696570384383008e-17
-1.429999999999999e+00  8.256108849411650e-01  1.696570384383008e-17
-1.429999999999999e+00  8.256108849411650e-01  1.696570384383008e-17
-1.429999999999999e+00  8.256108849411650e-01  1.696570384383008e-17
-1.429999999999999e+00  8.256108849411650e-01  1.696570384383008e-17
-1.429999999999999e+00  8.256108849411650e-01  1.696570384383008e-17
-1.429999999999999e+00  8.256108849411650e-01  1.696570384383008e-17
-1.429999999999999e+00  8.256108849411650e-01  1.696570384383008e-17
-1.429999999999999e+00  8.256108849411650e-01  1.696570384383008e-17
-1.429999999999999e+00  8.256108849411650e-01  1.696570384383008e-17
-1.429999999999999e+00  8.256108849411650e-01  1.696570384383008e-17
-1.429999999999999e+00  8.256108849411650e-01  1.696570384383008e-17
-1.429999999999999e+00  8.256108849411650e-01  1.696570384383008e-17
-1.429999999999999e+00  8.256108849411650e-01  1.696570384383008e-17
-1.429999999999999e+00  8.256108849411650e-01  1.696570384383008e-17
-1.429999999999999e+00  8.256108849411650e-01  1.696570384383008e-17
-1.429999999999999e+00  8.256108849411650e-01  1.696570384383008e-17
-1.429999999999999e+00  8.256108849411650e-01  1.696570384383008e-17
-1.429999999999999e+00  8.256108849411650e-01  1.696570384383008e-17
-1.429999999999999e+00  8.256108849411650e-01  1.696570384383008e-17
-1.429999999999999e+00  8.256108849411650e-01  1.696570384383008e-17
-1.429999999999999e+00  8.256108849411650e-01  1.696570384383008e-17
-1.429999999999999e+00  8.256108849411650e-01  1.696570384383008e-17
-1.429999999999999e+00  8.256108849411650e-01  1.696570384383008e-17
-1.429999999999999e+00  8.256108849411650e-01  1.696570384383008e-17
-1.429999999999999e+00  8.256108849411650e-01  1.696570384383008e-17
-1.429999999999999e+00  8.256108849411650e-01  1.696570384383008e-17
-1.429999999999999e+00  8.256108849411650e-01  1.696570384383008e-17
-1.429999999999999e+00  8.256108849411650e-01  1.696570384383008e-17
-1.429999999999999e+00  8.256108849411650e-01  1.696570384383008e-17
-1.429999999999999e+00  8.256108849411650e-01  1.696570384383008e-17
-1.429999999999999e+00  8.256108849411650e-01  1.696570384383008e-17
-1.429999999999999e+00  8.256108849411650e-01  1.696570384383008e-17
-1.429999999999999e+00  8.256108849411650e-01  1.696570384383008e-17
-1.429999999999999e+00  8.256108849411650e-01  1.696570384383008e-17
-1.429999999999999e+00  8.256108849411650e-01  1.696570384383008e-17
-1.429999999999999e+00  8.256108849411650e-01  1.696570384383008e-17
-1.429999999999999e+00  8.256108849411650e-01  1.696570384383008e-17
-1.429999999999999e+00  8.256108849411650e-01  1.696570384383008e-17
-1.429999999999999e+00  8.256108849411650e-01  1.696570384383008e-17
-1.429999999999999e+00  8.256108849411650e-01  1.696570384383008e-17
-1.429999999999999e+00  8.256108849411650e-01  1.696570384383008e-17
-1.429999999999999e+00  8.256108849411650e-01  1.696570384383008e-17
-1.429999999999999e+00  8.256108849411650e-01  1.696570384383008e-17
-1.429999999999999e+00  8.256108849411650e-01  1.696570384383008e-17
-1.429999999999999e+00  8.256108849411650e-01  1.696570384383008e-17
-1.429999999999999e+00  8.256108849411650e-01  1.696570384383008e-17
-1.429999999999999e+00  8.256108849411650e-01  1.696570384383008e-17
-1.429999999999999e+00  8.256108849411650e-01  1.696570384383008e-17
-1.429999999999999e+00  8.256108849411650e-01  1.696570384383008e-17
-1.429999999999999e+00  8.256108849411650e-01  1.696570384383008e-17
-1.429999999999999e+00  8.256108849411650e-01  1.696570384383008e-17
-1.429999999999999e+00  8.256108849411650e-01  1.696570384383008e-17
-1.429999999999999e+00  8.256108849411650e-01  1.696570384383008e-17
-1.429999999999999e+00  8.256108849411650e-01  1.696570384383008e-17
-1.429999999999999e+00  8.256108849411650e-01  1.696570384383008e-17
-1.429999999999999e+00  8.256108849411650e-01  1.696570384383008e-17
-1.429999999999999e+00  8.256108849411650e-01  1.696570384383008e-17
-1.429999999999999e+00  8.256108849411650e-01  1.696570384383008e-17
-1.429999999999999e+00  8.256108849411650e-01  1.696570384383008e-17
-1.429999999999999e+00  8.256108849411650e-01  1.696570384383008e-17
-1.429999999999999e+00  8.256108849411650e-01  1.696570384383008e-17
-1.429999999999999e+00  8.256108849411650e-01  1.696570384383008e-17
-1.429999999999999e+00  8.256108849411650e-01  1.696570384383008e-17
-1.429999999999999e+00  8.256108849411650e-01  1.696570384383008e-17
-1.429999999999999e+00  8.256108849411650e-01  1.696570384383008e-17
-1.429999999999999e+00  8.256108849411650e-01  1.696570384383008e-17
-1.429999999999999e+00  8.256108849411650e-01  1.696570384383008e-17
-1.429999999999999e+00  8.256108849411650e-01  1.696570384383008e-17
-1.429999999999999e+00  8.256108849411650e-01  1.696570384383008e-17
-1.429999999999999e+00  8.256108849411650e-01  1.696570384383008e-17
-1.429999999999999e+00  8.256108849411650e-01  1.696570384383008e-17
-1.429999999999999e+00  8.256108849411650e-01  1.696570384383008e-17
-1.429999999999999e+00  8.256108849411650e-01  1.696570384383008e-17
-1.429999999999999e+00  8.256108849411650e-01  1.696570384383008e-17
-1.429999999999999e+00  8.256108849411650e-01  1.696570384383008e-17
-1.429999999999999e+00  8.256108849411650e-01  1.696570384383008e-17
-1.429999999999999e+00  8.256108849411650e-01  1.696570384383008e-17
-1.429999999999999e+00  8.256108849411650e-01  1.696570384383008e-17
-1.429999999999999e+00  8.256108849411650e-01  1.696570384383008e-17
-1.429999999999999e+00  8.256108849411650e-01  1.696570384383008e-17
-1.429999999999999e+00  8.256108849411650e-01  1.696570384383008e-17
-1.429999999999999e+00  8.256108849411650e-01  1.696570384383008e-17
-1.429999999999999e+00  8.256108849411650e-01  1.696570384383008e-17
-1.429999999999999e+00  8.256108849411650e-01  1.696570384383008e-17
-1.429999999999999e+00  8.256108849411650e-01  1.696570384383008e-17
-1.429999999999999e+00  8.256108849411650e-01  1.696570384383008e-17
-1.429999999999999e+00  8.256108849411650e-01  1.696570384383008e-17
-1.429999999999999e+00  8.256108849411650e-01  1.696570384383008e-17
-1.429999999999999e+00  8.256108849411650e-01  1.696570384383008e-17
-1.429999999999999e+00  8.256108849411650e-01  1.696570384383008e-17
-1.429999999999999e+00  8.256108849411650e-01  1.696570384383008e-17
-1.429999999999999e+00  8.256108849411650e-01  1.696570384383008e-17
-1.429999999999999e+00  8.256108849411650e-01  1.696570384383008e-17
-1.429999999999999e+00  8.256108849411650e-01  1.696570384383008e-17
-1.429999999999999e+00  8.256108849411650e-01  1.696570384383008e-17
-1.429999999999999e+00  8.256108849411650e-01  1.696570384383008e-17
-1.429999999999999e+00  8.256108849411650e-01  1.696570384383008e-17
-1.429999999999999e+00  8.256108849411650e-01  1.696570384383008e-17
-1.429999999999999e+00  8.256108849411650e-01  1.696570384383008e-17
-1.429999999999999e+00  8.256108849411650e-01  1.696570384383008e-17
-1.429999999999999e+00  8.256108849411650e-01  1.696570384383008e-17
-1.429999999999999e+00  8.256108849411650e-01  1.696570384383008e-17
-1.429999999999999e+00  8.256108849411650e-01  1.696570384383008e-17
-1.429999999999999e+00  8.256108849411650e-01  1.696570384383008e-17
-1.429999999999999e+00  8.256108849411650e-01  1.696570384383008e-17
-1.429999999999999e+00  8.256108849411650e-01  1.696570384383008e-17
-1.429999999999999e+00  8.256108849411650e-01  1.696570384383008e-17
-1.429999999999999e+00  8.256108849411650e-01  1.696570384383008e-17
-1.429999999999999e+00  8.256108849411650e-01  1.696570384383008e-17
-1.429999999999999e+00  8.256108849411650e-01  1.696570384383008e-17
-1.429999999999999e+00  8.256108849411650e-01  1.696570384383008e-17
-1.429999999999999e+00  8.256108849411650e-01  1.696570384383008e-17
-1.429999999999999e+00  8.256108849411650e-01  1.696570384383008e-17
-1.429999999999999e+00  8.256108849411650e-01  1.696570384383008e-17
-1.429999999999999e+00  8.256108849411650e-01  1.696570384383008e-17
 1.429999999999999e+00 -8.256108849411650e-01 -1.696570384383008e-17
-1.429999999999999e+00  8.256108849411650e-01  1.696570384383008e-17
 1.429999999999999e+00 -8.256108849411650e-01 -1.696570384383008e-17
 1.429999999999999e+00 -8.256108849411650e-01 -1.696570384383008e-17
 1.429999999999999e+00 -8.256108849411650e-01 -1.696570384383008e-17
 1.429999999999999e+00 -8.256108849411650e-01 -1.696570384383008e-17
 1.429999999999999e+00 -8.256108849411650e-01 -1.696570384383008e-17
 1.429999999999999e+00 -8.256108849411650e-01 -1.696570384383008e-17
 1.429999999999999e+00 -8.256108849411650e-01 -1.696570384383008e-17
 1.429999999999999e+00 -8.256108849411650e-01 -1.696570384383008e-17
 1.429999999999999e+00 -8.256108849411650e-01 -1.696570384383008e-17
 1.429999999999999e+00 -8.256108849411650e-01 -1.696570384383008e-17
 1.429999999999999e+00 -8.256108849411650e-01 -1.696570384383008e-17
 1.429999999999999e+00 -8.256108849411650e-01 -1.696570384383008e-17
 1.429999999999999e+00 -8.256108849411650e-01 -1.696570384383008e-17
 1.429999999999999e+00 -8.256108849411650e-01 -1.696570384383008e-17
 1.429999999999999e+00 -8.256108849411650e-01 -1.696570384383008e-17
 1.429999999999999e+00 -8.256108849411650e-01 -1.696570384383008e-17
 1.429999999999999e+00 -8.256108849411650e-01 -1.696570384383008e-17
 1.429999999999999e+00 -8.256108849411650e-01 -1.696570384383008e-17
 1.429999999999999e+00 -8.256108849411650e-01 -1.696570384383008e-17
 1.429999999999999e+00 -8.256108849411650e-01 -1.696570384383008e-17
 1.429999999999999e+00 -8.256108849411650e-01 -1.696570384383008e-17
 1.429999999999999e+00 -8.256108849411650e-01 -1.696570384383008e-17
 1.429999999999999e+00 -8.256108849411650e-01 -1.696570384383008e-17
 1.429999999999999e+00 -8.256108849411650e-01 -1.696570384383008e-17
 1.429999999999999e+00 -8.256108849411650e-01 -1.696570384383008e-17
 1.429999999999999e+00 -8.256108849411650e-01 -1.696570384383008e-17
 1.429999999999999e+00 -8.256108849411650e-01 -1.696570384383008e-17
 1.429999999999999e+00 -8.256108849411650e-01 -1.696570384383008e-17
 1.429999999999999e+00 -8.256108849411650e-01 -1.696570384383008e-17
 1.429999999999999e+00 -8.256108849411650e-01 -1.696570384383008e-17
 1.429999999999999e+00 -8.256108849411650e-01 -1.696570384383008e-17
 1.429999999999999e+00 -8.256108849411650e-01 -1.696570384383008e-17
 1.429999999999999e+00 -8.256108849411650e-01 -1.696570384383008e-17
 1.429999999999999e+00 -8.256108849411650e-01 -1.696570384383008e-17
 1.429999999999999e+00 -8.256108849411650e-01 -1.696570384383008e-17
 1.429999999999999e+00 -8.256108849411650e-01 -1.696570384383008e-17
 1.429999999999999e+00 -8.256108849411650e-01 -1.696570384383008e-17
 1.429999999999999e+00 -8.256108849411650e-01 -1.696570384383008e-17
 1.429999999999999e+00 -8.256108849411650e-01 -1.696570384383008e-17
 1.429999999999999e+00 -8.256108849411650e-01 -1.696570384383008e-17
 1.429999999999999e+00 -8.256108849411650e-01 -1.696570384383008e-17
 1.429999999999999e+00 -8.256108849411650e-01 -1.696570384383008e-17
 1.429999999999999e+00 -8.256108849411650e-01 -1.696570384383008e-17
 1.429999999999999e+00 -8.256108849411650e-01 -1.696570384383008e-17
 1.429999999999999e+00 -8.256108849411650e-01 -1.696570384383008e-17
 1.429999999999999e+00 -8.256108849411650e-01 -1.696570384383008e-17
 1.429999999999999e+00 -8.256108849411650e-01 -1.696570384383008e-17
 1.429999999999999e+00 -8.256108849411650e-01 -1.696570384383008e-17
 1.429999999999999e+00 -8.256108849411650e-01 -1.696570384383008e-17
 1.429999999999999e+00 -8.256108849411650e-01 -1.696570384383008e-17
 1.429999999999999e+00 -8.256108849411650e-01 -1.696570384383008e-17
 1.429999999999999e+00 -8.256108849411650e-01 -1.696570384383008e-17
 1.429999999999999e+00 -8.256108849411650e-01 -1.696570384383008e-17
 1.429999999999999e+00 -8.256108849411650e-01 -1.696570384383008e-17
 1.429999999999999e+00 -8.256108849411650e-01 -1.696570384383008e-17
 1.429999999999999e+00 -8.256108849411650e-01 -1.696570384383008e-17
 1.429999999999999e+00 -8.256108849411650e-01 -1.696570384383008e-17
 1.429999999999999e+00 -8.256108849411650e-01 -1.696570384383008e-17
 1.429999999999999e+00 -8.256108849411650e-01 -1.696570384383008e-17
 1.429999999999999e+00 -8.256108849411650e-01 -1.696570384383008e-17
 1.429999999999999e+00 -8.256108849411650e-01 -1.696570384383008e-17
 1.429999999999999e+00 -8.256108849411650e-01 -1.696570384383008e-17
 1.429999999999999e+00 -8.256108849411650e-01 -1.696570384383008e-17
 1.429999999999999e+00 -8.256108849411650e-01 -1.696570384383008e-17
 1.429999999999999e+00 -8.256108849411650e-01 -1.696570384383008e-17
 1.429999999999999e+00 -8.256108849411650e-01 -1.696570384383008e-17
 1.429999999999999e+00 -8.256108849411650e-01 -1.696570384383008e-17
 1.429999999999999e+00 -8.256108849411650e-01 -1.696570384383008e-17
 1.429999999999999e+00 -8.256108849411650e-01 -1.696570384383008e-17
 1.429999999999999e+00 -8.256108849411650e-01 -1.696570384383008e-17
 1.429999999999999e+00 -8.256108849411650e-01 -1.696570384383008e-17
 1.429999999999999e+00 -8.256108849411650e-01 -1.696570384383008e-17
 1.429999999999999e+00 -8.256108849411650e-01 -1.696570384383008e-17
 1.429999999999999e+00 -8.256108849411650e-01 -1.696570384383008e-17
 1.429999999999999e+00 -8.256108849411650e-01 -1.696570384383008e-17
 1.429999999999999e+00 -8.256108849411650e-01 -1.696570384383008e-17
 1.429999999999999e+00 -8.256108849411650e-01 -1.696570384383008e-17
 1.429999999999999e+00 -8.256108849411650e-01 -1.696570384383008e-17
 1.429999999999999e+00 -8.256108849411650e-01 -1.696570384383008e-17
 1.429999999999999e+00 -8.256108849411650e-01 -1.696570384383008e-17
 1.429999999999999e+00 -8.256108849411650e-01 -1.696570384383008e-17
 1.429999999999999e+00 -8.256108849411650e-01 -1.696570384383008e-17
 1.429999999999999e+00 -8.256108849411650e-01 -1.696570384383008e-17
 1.429999999999999e+00 -8.256108849411650e-01 -1.696570384383008e-17
 1.429999999999999e+00 -8.256108849411650e-01 -1.696570384383008e-17
 1.429999999999999e+00 -8.256108849411650e-01 -1.696570384383008e-17
 1.429999999999999e+00 -8.256108849411650e-01 -1.696570384383008e-17
 1.429999999999999e+00 -8.256108849411650e-01 -1.696570384383008e-17
 1.429999999999999e+00 -8.256108849411650e-01 -1.696570384383008e-17
 1.429999999999999e+00 -8.256108849411650e-01 -1.696570384383008e-17
 1.429999999999999e+00 -8.256108849411650e-01 -1.696570384383008e-17
 1.429999999999999e+00 -8.256108849411650e-01 -1.696570384383008e-17
 1.429999999999999e+00 -8.256108849411650e-01 -1.696570384383008e-17
 1.429999999999999e+00 -8.256108849411650e-01 -1.696570384383008e-17
 1.429999999999999e+00 -8.256108849411650e-01 -1.696570384383008e-17
 1.429999999999999e+00 -8.256108849411650e-01 -1.696570384383008e-17
 1.429999999999999e+00 -8.256108849411650e-01 -1.696570384383008e-17
 1.429999999999999e+00 -8.256108849411650e-01 -1.696570384383008e-17
 1.429999999999999e+00 -8.256108849411650e-01 -1.696570384383008e-17
 1.429999999999999e+00 -8.256108849411650e-01 -1.696570384383008e-17
 1.429999999999999e+00 -8.256108849411650e-01 -1.696570384383008e-17
 1.429999999999999e+00 -8.256108849411650e-01 -1.696570384383008e-17
 1.429999999999999e+00 -8.256108849411650e-01 -1.696570384383008e-17
 1.429999999999999e+00 -8.256108849411650e-01 -1.696570384383008e-17
 1.429999999999999e+00 -8.256108849411650e-01 -1.696570384383008e-17
 1.429999999999999e+00 -8.256108849411650e-01 -1.696570384383008e-17
 1.429999999999999e+00 -8.256108849411650e-01 -1.696570384383008e-17
 1.429999999999999e+00 -8.256108849411650e-01 -1.696570384383008e-17
 1.429999999999999e+00 -8.256108849411650e-01 -1.696570384383008e-17
 1.429999999999999e+00 -8.256108849411650e-01 -1.696570384383008e-17
 1.429999999999999e+00 -8.256108849411650e-01 -1.696570384383008e-17
 1.429999999999999e+00 -8.256108849411650e-01 -1.696570384383008e-17
 1.429999999999999e+00 -8.256108849411650e-01 -1.696570384383008e-17
 1.429999999999999e+00 -8.256108849411650e-01 -1.696570384383008e-17
 1.429999999999999e+00 -8.256108849411650e-01 -1.696570384383008e-17
 1.429999999999999e+00 -8.256108849411650e-01 -1.696570384383008e-17
 1.429999999999999e+00 -8.256108849411650e-01 -1.696570384383008e-17
 1.429999999999999e+00 -8.256108849411650e-01 -1.696570384383008e-17
 1.429999999999999e+00 -8.256108849411650e-01 -1.696570384383008e-17
 1.429999999999999e+00 -8.256108849411650e-01 -1.696570384383008e-17
 1.429999999999999e+00 -8.256108849411650e-01 -1.696570384383008e-17
 1.429999999999999e+00 -8.256108849411650e-01 -1.696570384383008e-17
 1.429999999999999e+00 -8.256108849411650e-01 -1.696570384383008e-17
 1.429999999999999e+00 -8.256108849411650e-01 -1.696570384383008e-17
 1.429999999999999e+00 -8.256108849411650e-01 -1.696570384383008e-17
 1.429999999999999e+00 -8.256108849411650e-01 -1.696570384383008e-17
 1.429999999999999e+00 -8.256108849411650e-01 -1.696570384383008e-17
 1.429999999999999e+00 -8.256108849411650e-01 -1.696570384383008e-17
 1.429999999999999e+00 -8.256108849411650e-01 -1.696570384383008e-17
 1.429999999999999e+00 -8.256108849411650e-01 -1.696570384383008e-17
 1.429999999999999e+00 -8.256108849411650e-01 -1.696570384383008e-17
 1.429999999999999e+00 -8.256108849411650e-01 -1.696570384383008e-17
 1.429999999999999e+00 -8.256108849411650e-01 -1.696570384383008e-17
 1.429999999999999e+00 -8.256108849411650e-01 -1.696570384383008e-17
 1.429999999999999e+00 -8.256108849411650e-01 -1.696570384383008e-17
 1.429999999999999e+00 -8.256108849411650e-01 -1.696570384383008e-17
 1.429999999999999e+00 -8.256108849411650e-01 -1.696570384383008e-17
 1.429999999999999e+00 -8.256108849411650e-01 -1.696570384383008e-17
 1.429999999999999e+00 -8.256108849411650e-01 -1.696570384383008e-17
 1.429999999999999e+00 -8.256108849411650e-01 -1.696570384383008e-17
 1.429999999999999e+00 -8.256108849411650e-01 -1.696570384383008e-17
 1.429999999999999e+00 -8.256108849411650e-01 -1.696570384383008e-17
 1.429999999999999e+00 -8.256108849411650e-01 -1.696570384383008e-17
 1.429999999999999e+00 -8.256108849411650e-01 -1.696570384383008e-17
 1.429999999999999e+00 -8.256108849411650e-01 -1.696570384383008e-17
 1.429999999999999e+00 -8.256108849411650e-01 -1.696570384383008e-17
 1.429999999999999e+00 -8.256108849411650e-01 -1.696570384383008e-17
 1.429999999999999e+00 -8.256108849411650e-01 -1.696570384383008e-17
 1.429999999999999e+00 -8.256108849411650e-01 -1.696570384383008e-17
 1.429999999999999e+00 -8.256108849411650e-01 -1.696570384383008e-17
 1.429999999999999e+00 -8.256108849411650e-01 -1.696570384383008e-17
-1.429999999999999e+00  8.256108849411650e-01  1.696570384383008e-17
 1.429999999999999e+00 -8.256108849411650e-01 -1.696570384383008e-17
 1.429999999999999e+00 -8.256108849411650e-01 -1.696570384383008e-17
 1.429999999999999e+00 -8.256108849411650e-01 -1.696570384383008e-17
 1.429999999999999e+00 -8.256108849411650e-01 -1.696570384383008e-17
 1.429999999999999e+00 -8.256108849411650e-01 -1.696570384383008e-17
 1.429999999999999e+00 -8.256108849411650e-01 -1.696570384383008e-17
 1.429999999999999e+00 -8.256108849411650e-01 -1.696570384383008e-17
 1.429999999999999e+00 -8.256108849411650e-01 -1.696570384383008e-17
 1.429999999999999e+00 -8.256108849411650e-01 -1.696570384383008e-17
 1.429999999999999e+00 -8.256108849411650e-01 -1.696570384383008e-17
 1.429999999999999e+00 -8.256108849411650e-01 -1.696570384383008e-17
 1.429999999999999e+00 -8.256108849411650e-01 -1.696570384383008e-17
 1.429999999999999e+00 -8.256108849411650e-01 -1.696570384383008e-17
 1.429999999999999e+00 -8.256108849411650e-01 -1.696570384383008e-17
 1.429999999999999e+00 -8.256108849411650e-01 -1.696570384383008e-17
 1.429999999999999e+00 -8.256108849411650e-01 -1.696570384383008e-17
 1.429999999999999e+00 -8.256108849411650e-01 -1.696570384383008e-17
 1.429999999999999e+00 -8.256108849411650e-01 -1.696570384383008e-17
 1.429999999999999e+00 -8.256108849411650e-01 -1.696570384383008e-17
 1.429999999999999e+00 -8.256108849411650e-01 -1.696570384383008e-17
 1.429999999999999e+00 -8.256108849411650e-01 -1.696570384383008e-17
 1.429999999999999e+00 -8.256108849411650e-01 -1.696570384383008e-17
 1.429999999999999e+00 -8.256108849411650e-01 -1.696570384383008e-17
 1.429999999999999e+00 -8.256108849411650e-01 -1.696570384383008e-17
 1.429999999999999e+00 -8.256108849411650e-01 -1.696570384383008e-17
 1.429999999999999e+00 -8.256108849411650e-01 -1.696570384383008e-17
 1.429999999999999e+00 -8.256108849411650e-01 -1.696570384383008e-17
 1.429999999999999e+00 -8.256108849411650e-01 -1.696570384383008e-17
 1.429999999999999e+00 -8.256108849411650e-01 -1.696570384383008e-17
 1.429999999999999e+00 -8.256108849411650e-01 -1.696570384383008e-17
 1.429999999999999e+00 -8.256108849411650e-01 -1.696570384383008e-17
 1.429999999999999e+00 -8.256108849411650e-01 -1.696570384383008e-17
 1.429999999999999e+00 -8.256108849411650e-01 -1.696570384383008e-17
 1.429999999999999e+00 -8.256108849411650e-01 -1.696570384383008e-17
 1.429999999999999e+00 -8.256108849411650e-01 -1.696570384383008e-17
 1.429999999999999e+00 -8.256108849411650e-01 -1.696570384383008e-17
 1.429999999999999e+00 -8.256108849411650e-01 -1.696570384383008e-17
 1.429999999999999e+00 -8.256108849411650e-01 -1.696570384383008e-17
 1.429999999999999e+00 -8.256108849411650e-01 -1.696570384383008e-17
 1.429999999999999e+00 -8.256108849411650e-01 -1.696570384383008e-17
 1.429999999999999e+00 -8.256108849411650e-01 -1.696570384383008e-17
 1.429999999999999e+00 -8.256108849411650e-01 -1.696570384383008e-17
 1.429999999999999e+00 -8.256108849411650e-01 -1.696570384383008e-17
 1.429999999999999e+00 -8.256108849411650e-01 -1.696570384383008e-17
 1.429999999999999e+00 -8.256108849411650e-01 -1.696570384383008e-17
 1.429999999999999e+00 -8.256108849411650e-01 -1.696570384383008e-17
 1.429999999999999e+00 -8.256108849411650e-01 -1.696570384383008e-17
 1.429999999999999e+00 -8.256108849411650e-01 -1.696570384383008e-17
 1.429999999999999e+00 -8.256108849411650e-01 -1.696570384383008e-17
 1.429999999999999e+00 -8.256108849411650e-01 -1.696570384383008e-17
 1.429999999999999e+00 -8.256108849411650e-01 -1.696570384383008e-17
 1.429999999999999e+00 -8.256108849411650e-01 -1.696570384383008e-17
 1.429999999999999e+00 -8.256108849411650e-01 -1.696570384383008e-17
 1.429999999999999e+00 -8.256108849411650e-01 -1.696570384383008e-17
 1.429999999999999e+00 -8.256108849411650e-01 -1.696570384383008e-17
 1.429999999999999e+00 -8.256108849411650e-01 -1.696570384383008e-17
 1.429999999999999e+00 -8.256108849411650e-01 -1.696570384383008e-17
 1.429999999999999e+00 -8.256108849411650e-01 -1.696570384383008e-17
 1.429999999999999e+00 -8.256108849411650e-01 -1.696570384383008e-17
 1.429999999999999e+00 -8.256108849411650e-01 -1.696570384383008e-17
 1.429999999999999e+00 -8.256108849411650e-01 -1.696570384383008e-17
 1.429999999999999e+00 -8.256108849411650e-01 -1.696570384383008e-17
 1.429999999999999e+00 -8.256108849411650e-01 -1.696570384383008e-17
 1.429999999999999e+00 -8.256108849411650e-01 -1.696570384383008e-17
 1.429999999999999e+00 -8.256108849411650e-01 -1.696570384383008e-17
 1.429999999999999e+00 -8.256108849411650e-01 -1.696570384383008e-17
 1.429999999999999e+00 -8.256108849411650e-01 -1.696570384383008e-17
 1.429999999999999e+00 -8.256108849411650e-01 -1.696570384383008e-17
 1.429999999999999e+00 -8.256108849411650e-01 -1.696570384383008e-17
 1.429999999999999e+00 -8.256108849411650e-01 -1.696570384383008e-17
 1.429999999999999e+00 -8.256108849411650e-01 -1.696570384383008e-17
 1.429999999999999e+00 -8.256108849411650e-01 -1.696570384383008e-17
 1.429999999999999e+00 -8.256108849411650e-01 -1.696570384383008e-17
 1.429999999999999e+00 -8.256108849411650e-01 -1.696570384383008e-17
 1.429999999999999e+00 -8.256108849411650e-01 -1.696570384383008e-17
 1.429999999999999e+00 -8.256108849411650e-01 -1.696570384383008e-17
 1.429999999999999e+00 -8.256108849411650e-01 -1.696570384383008e-17
 1.429999999999999e+00 -8.256108849411650e-01 -1.696570384383008e-17
 1.429999999999999e+00 -8.256108849411650e-01 -1.696570384383008e-17
 1.429999999999999e+00 -8.256108849411650e-01 -1.696570384383008e-17
 1.429999999999999e+00 -8.256108849411650e-01 -1.696570384383008e-17
 1.429999999999999e+00 -8.256108849411650e-01 -1.696570384383008e-17
 1.429999999999999e+00 -8.256108849411650e-01 -1.696570384383008e-17
 1.429999999999999e+00 -8.256108849411650e-01 -1.696570384383008e-17
 1.429999999999999e+00 -8.256108849411650e-01 -1.696570384383008e-17
 1.429999999999999e+00 -8.256108849411650e-01 -1.696570384383008e-17
 1.429999999999999e+00 -8.256108849411650e-01 -1.696570384383008e-17
 1.429999999999999e+00 -8.256108849411650e-01 -1.696570384383008e-17
 1.429999999999999e+00 -8.256108849411650e-01 -1.696570384383008e-17
 1.429999999999999e+00 -8.256108849411650e-01 -1.696570384383008e-17
 1.429999999999999e+00 -8.256108849411650e-01 -1.696570384383008e-17
 1.429999999999999e+00 -8.256108849411650e-01 -1.696570384383008e-17
 1.429999999999999e+00 -8.256108849411650e-01 -1.696570384383008e-17
 1.429999999999999e+00 -8.256108849411650e-01 -1.696570384383008e-17
 1.429999999999999e+00 -8.256108849411650e-01 -1.696570384383008e-17
 1.429999999999999e+00 -8.256108849411650e-01 -1.696570384383008e-17
 1.429999999999999e+00 -8.256108849411650e-01 -1.696570384383008e-17
 1.429999999999999e+00 -8.256108849411650e-01 -1.696570384383008e-17
 1.429999999999999e+00 -8.256108849411650e-01 -1.696570384383008e-17
 1.429999999999999e+00 -8.256108849411650e-01 -1.696570384383008e-17
 1.429999999999999e+00 -8.256108849411650e-01 -1.696570384383008e-17
 1.429999999999999e+00 -8.256108849411650e-01 -1.696570384383008e-17
 1.429999999999999e+00 -8.256108849411650e-01 -1.696570384383008e-17
 1.429999999999999e+00 -8.256108849411650e-01 -1.696570384383008e-17
 1.429999999999999e+00 -8.256108849411650e-01 -1.696570384383008e-17
 1.429999999999999e+00 -8.256108849411650e-01 -1.696570384383008e-17
 1.429999999999999e+00 -8.256108849411650e-01 -1.696570384383008e-17
 1.429999999999999e+00 -8.256108849411650e-01 -1.696570384383008e-17
 1.429999999999999e+00 -8.256108849411650e-01 -1.696570384383008e-17
 1.429999999999999e+00 -8.256108849411650e-01 -1.696570384383008e-17
 1.429999999999999e+00 -8.256108849411650e-01 -1.696570384383008e-17
 1.429999999999999e+00 -8.256108849411650e-01 -1.696570384383008e-17
 1.429999999999999e+00 -8.256108849411650e-01 -1.696570384383008e-17
 1.429999999999999e+00 -8.256108849411650e-01 -1.696570384383008e-17
 1.429999999999999e+00 -8.256108849411650e-01 -1.696570384383008e-17
 1.429999999999999e+00 -8.256108849411650e-01 -1.696570384383008e-17
 1.429999999999999e+00 -8.256108849411650e-01 -1.696570384383008e-17
 1.429999999999999e+00 -8.256108849411650e-01 -1.696570384383008e-17
 1.429999999999999e+00 -8.256108849411650e-01 -1.696570384383008e-17
 1.429999999999999e+00 -8.256108849411650e-01 -1.696570384383008e-17
 1.429999999999999e+00 -8.256108849411650e-01 -1.696570384383008e-17
 1.429999999999999e+00 -8.256108849411650e-01 -1.696570384383008e-17
 1.429999999999999e+00 -8.256108849411650e-01 -1.696570384383008e-17
 1.429999999999999e+00 -8.256108849411650e-01 -1.696570384383008e-17
 1.429999999999999e+00 -8.256108849411650e-01 -1.696570384383008e-17
 1.429999999999999e+00 -8.256108849411650e-01 -1.696570384383008e-17
 1.429999999999999e+00 -8.256108849411650e-01 -1.696570384383008e-17
 1.429999999999999e+00 -8.256108849411650e-01 -1.696570384383008e-17
 1.429999999999999e+00 -8.256108849411650e-01 -1.696570384383008e-17
 1.429999999999999e+00 -8.256108849411650e-01 -1.696570384383008e-17
 1.429999999999999e+00 -8.256108849411650e-01 -1.696570384383008e-17
 1.429999999999999e+00 -8.256108849411650e-01 -1.696570384383008e-17
 1.429999999999999e+00 -8.256108849411650e-01 -1.696570384383008e-17
 1.429999999999999e+00 -8.256108849411650e-01 -1.696570384383008e-17
 1.429999999999999e+00 -8.256108849411650e-01 -1.696570384383008e-17
 1.429999999999999e+00 -8.256108849411650e-01 -1.696570384383008e-17
 1.429999999999999e+00 -8.256108849411650e-01 -1.696570384383008e-17
 1.429999999999999e+00 -8.256108849411650e-01 -1.696570384383008e-17
 1.429999999999999e+00 -8.256108849411650e-01 -1.696570384383008e-17
 1.429999999999999e+00 -8.256108849411650e-01 -1.696570384383008e-17
 1.429999999999999e+00 -8.256108849411650e-01 -1.696570384383008e-17
 1.429999999999999e+00 -8.256108849411650e-01 -1.696570384383008e-17
 1.429999999999999e+00 -8.256108849411650e-01 -1.696570384383008e-17
 1.429999999999999e+00 -8.256108849411650e-01 -1.696570384383008e-17
 1.429999999999999e+00 -8.256108849411650e-01 -1.696570384383008e-17
 1.429999999999999e+00 -8.256108849411650e-01 -1.696570384383008e-17
 1.429999999999999e+00 -8.256108849411650e-01 -1.696570384383008e-17
 1.429999999999999e+00 -8.256108849411650e-01 -1.696570384383008e-17

VECTORS burgers_vector_local double
-1.666666666666667e-01 -3.333333333333333e-01 -1.666666666666665e-01
1.666666666666667e-01 3.333333333333333e-01 1.666666666666665e-01
-1.666666666666667e-01 -3.333333333333333e-01 -1.666666666666665e-01
-1.666666666666667e-01 -3.333333333333333e-01 -1.666666666666665e-01
-1.666666666666667e-01 -3.333333333333333e-01 -1.666666666666665e-01
-1.666666666666667e-01 -3.333333333333333e-01 -1.666666666666665e-01
-1.666666666666667e-01 -3.333333333333333e-01 -1.666666666666665e-01
-1.666666666666667e-01 -3.333333333333333e-01 -1.666666666666665e-01
-1.666666666666667e-01 -3.333333333333333e-01 -1.666666666666665e-01
-1.666666666666667e-01 -3.333333333333333e-01 -1.666666666666665e-01
-1.666666666666667e-01 -3.333333333333333e-01 -1.666666666666665e-01
-1.666666666666667e-01 -3.333333333333333e-01 -1.666666666666665e-01
-1.666666666666667e-01 -3.333333333333333e-01 -1.666666666666665e-01
-1.666666666666667e-01 -3.333333333333333e-01 -1.666666666666665e-01
-1.666666666666667e-01 -3.333333333333333e-01 -1.666666666666665e-01
-1.666666666666667e-01 -3.333333333333333e-01 -1.666666666666665e-01
-1.666666666666667e-01 -3.333333333333333e-01 -1.666666666666665e-01
-1.666666666666667e-01 -3.333333333333333e-01 -1.666666666666665e-01
-1.666666666666667e-01 -3.333333333333333e-01 -1.666666666666665e-01
-1.666666666666667e-01 -3.333333333333333e-01 -1.666666666666665e-01
-1.666666666666667e-01 -3.333333333333333e-01 -1.666666666666665e-01
-1.666666666666667e-01 -3.333333333333333e-01 -1.666666666666665e-01
-1.666666666666667e-01 -3.333333333333333e-01 -1.666666666666665e-01
-1.666666666666667e-01 -3.333333333333333e-01 -1.666666666666665e-01
-1.666666666666667e-01 -3.333333333333333e-01 -1.666666666666665e-01
-1.666666666666667e-01 -3.333333333333333e-01 -1.666666666666665e-01
-1.666666666666667e-01 -3.333333333333333e-01 -1.666666666666665e-01
-1.666666666666667e-01 -3.333333333333333e-01 -1.666666666666665e-01
-1.666666666666667e-01 -3.333333333333333e-01 -1.666666666666665e-01
-1.666666666666667e-01 -3.333333333333333e-01 -1.666666666666665e-01
-1.666666666666667e-01 -3.333333333333333e-01 -1.666666666666665e-01
-1.666666666666667e-01 -3.333333333333333e-01 -1.666666666666665e-01
-1.666666666666667e-01 -3.333333333333333e-01 -1.666666666666665e-01
-1.666666666666667e-01 -3.333333333333333e-01 -1.666666666666665e-01
-1.666666666666667e-01 -3.333333333333333e-01 -1.666666666666665e-01
-1.666666666666667e-01 -3.333333333333333e-01 -1.666666666666665e-01
-1.666666666666667e-01 -3.333333333333333e-01 -1.666666666666665e-01
-1.666666666666667e-01 -3.333333333333333e-01 -1.666666666666665e-01
-1.666666666666667e-01 -3.333333333333333e-01 -1.666666666666665e-01
-1.666666666666667e-01 -3.333333333333333e-01 -1.666666666666665e-01
-1.666666666666667e-01 -3.333333333333333e-01 -1.666666666666665e-01
-1.666666666666667e-01 -3.333333333333333e-01 -1.666666666666665e-01
-1.666666666666667e-01 -3.333333333333333e-01 -1.666666666666665e-01
-1.666666666666667e-01 -3.333333333333333e-01 -1.666666666666665e-01
-1.666666666666667e-01 -3.333333333333333e-01 -1.666666666666665e-01
-1.666666666666667e-01 -3.333333333333333e-01 -1.666666666666665e-01
-1.666666666666667e-01 -3.333333333333333e-01 -1.666666666666665e-01
-1.666666666666667e-01 -3.333333333333333e-01 -1.666666666666665e-01
-1.666666666666667e-01 -3.333333333333333e-01 -1.666666666666665e-01
-1.666666666666667e-01 -3.333333333333333e-01 -1.666666666666665e-01
-1.666666666666667e-01 -3.333333333333333e-01 -1.666666666666665e-01
-1.666666666666667e-01 -3.333333333333333e-01 -1.666666666666665e-01
-1.666666666666667e-01 -3.333333333333333e-01 -1.666666666666665e-01
-1.666666666666667e-01 -3.333333333333333e-01 -1.666666666666665e-01
-1.666666666666667e-01 -3.333333333333333e-01 -1.666666666666665e-01
-1.666666666666667e-01 -3.333333333333333e-01 -1.666666666666665e-01
-1.666666666666667e-01 -3.333333333333333e-01 -1.666666666666665e-01
-1.666666666666667e-01 -3.333333333333333e-01 -1.666666666666665e-01
-1.666666666666667e-01 -3.333333333333333e-01 -1.666666666666665e-01
-1.666666666666667e-01 -3.333333333333333e-01 -1.666666666666665e-01
-1.666666666666667e-01 -3.333333333333333e-01 -1.666666666666665e-01
-1.666666666666667e-01 -3.333333333333333e-01 -1.666666666666665e-01
-1.666666666666667e-01 -3.333333333333333e-01 -1.666666666666665e-01
-1.666666666666667e-01 -3.333333333333333e-01 -1.666666666666665e-01
-1.666666666666667e-01 -3.333333333333333e-01 -1.666666666666665e-01
-1.666666666666667e-01 -3.333333333333333e-01 -1.666666666666665e-01
-1.666666666666667e-01 -3.333333333333333e-01 -1.666666666666665e-01
-1.666666666666667e-01 -3.333333333333333e-01 -1.666666666666665e-01
-1.666666666666667e-01 -3.333333333333333e-01 -1.666666666666665e-01
-1.666666666666667e-01 -3.333333333333333e-01 -1.666666666666665e-01
-1.666666666666667e-01 -3.333333333333333e-01 -1.666666666666665e-01
-1.666666666666667e-01 -3.333333333333333e-01 -1.666666666666665e-01
-1.666666666666667e-01 -3.333333333333333e-01 -1.666666666666665e-01
-1.666666666666667e-01 -3.333333333333333e-01 -1.666666666666665e-01
-1.666666666666667e-01 -3.333333333333333e-01 -1.666666666666665e-01
-1.666666666666667e-01 -3.333333333333333e-01 -1.666666666666665e-01
-1.666666666666667e-01 -3.333333333333333e-01 -1.666666666666665e-01
-1.666666666666667e-01 -3.333333333333333e-01 -1.666666666666665e-01
-1.666666666666667e-01 -3.333333333333333e-01 -1.666666666666665e-01
-1.666666666666667e-01 -3.333333333333333e-01 -1.666666666666665e-01
-1.666666666666667e-01 -3.333333333333333e-01 -1.666666666666665e-01
-1.666666666666667e-01 -3.333333333333333e-01 -1.666666666666665e-01
-1.666666666666667e-01 -3.333333333333333e-01 -1.666666666666665e-01
-1.666666666666667e-01 -3.333333333333333e-01 -1.666666666666665e-01
-1.666666666666667e-01 -3.333333333333333e-01 -1.666666666666665e-01
-1.666666666666667e-01 -3.333333333333333e-01 -1.666666666666665e-01
-1.666666666666667e-01 -3.333333333333333e-01 -1.666666666666665e-01
-1.666666666666667e-01 -3.333333333333333e-01 -1.666666666666665e-01
-1.666666666666667e-01 -3.333333333333333e-01 -1.666666666666665e-01
-1.666666666666667e-01 -3.333333333333333e-01 -1.666666666666665e-01
-1.666666666666667e-01 -3.333333333333333e-01 -1.666666666666665e-01
-1.666666666666667e-01 -3.333333333333333e-01 -1.666666666666665e-01
-1.666666666666667e-01 -3.333333333333333e-01 -1.666666666666665e-01
-1.666666666666667e-01 -3.333333333333333e-01 -1.666666666666665e-01
-1.666666666666667e-01 -3.333333333333333e-01 -1.666666666666665e-01
-1.666666666666667e-01 -3.333333333333333e-01 -1.666666666666665e-01
-1.666666666666667e-01 -3.333333333333333e-01 -1.666666666666665e-01
-1.666666666666667e-01 -3.333333333333333e-01 -1.666666666666665e-01
-1.666666666666667e-01 -3.333333333333333e-01 -1.666666666666665e-01
-1.666666666666667e-01 -3.333333333333333e-01 -1.666666666666665e-01
-1.666666666666667e-01 -3.333333333333333e-01 -1.666666666666665e-01
-1.666666666666667e-01 -3.333333333333333e-01 -1.666666666666665e-01
-1.666666666666667e-01 -3.333333333333333e-01 -1.666666666666665e-01
-1.666666666666667e-01 -3.333333333333333e-01 -1.666666666666665e-01
-1.666666666666667e-01 -3.333333333333333e-01 -1.666666666666665e-01
-1.666666666666667e-01 -3.333333333333333e-01 -1.666666666666665e-01
-1.666666666666667e-01 -3.333333333333333e-01 -1.666666666666665e-01
-1.666666666666667e-01 -3.333333333333333e-01 -1.666666666666665e-01
-1.666666666666667e-01 -3.333333333333333e-01 -1.666666666666665e-01
-1.666666666666667e-01 -3.333333333333333e-01 -1.666666666666665e-01
-1.666666666666667e-01 -3.333333333333333e-01 -1.666666666666665e-01
-1.666666666666667e-01 -3.333333333333333e-01 -1.666666666666665e-01
-1.666666666666667e-01 -3.333333333333333e-01 -1.666666666666665e-01
-1.666666666666667e-01 -3.333333333333333e-01 -1.666666666666665e-01
-1.666666666666667e-01 -3.333333333333333e-01 -1.666666666666665e-01
-1.666666666666667e-01 -3.333333333333333e-01 -1.666666666666665e-01
-1.666666666666667e-01 -3.333333333333333e-01 -1.666666666666665e-01
-1.666666666666667e-01 -3.333333333333333e-01 -1.666666666666665e-01
-1.666666666666667e-01 -3.333333333333333e-01 -1.666666666666665e-01
-1.666666666666667e-01 -3.333333333333333e-01 -1.666666666666665e-01
-1.666666666666667e-01 -3.333333333333333e-01 -1.666666666666665e-01
-1.666666666666667e-01 -3.333333333333333e-01 -1.666666666666665e-01
-1.666666666666667e-01 -3.333333333333333e-01 -1.666666666666665e-01
-1.666666666666667e-01 -3.333333333333333e-01 -1.666666666666665e-01
-1.666666666666667e-01 -3.333333333333333e-01 -1.666666666666665e-01
-1.666666666666667e-01 -3.333333333333333e-01 -1.666666666666665e-01
-1.666666666666667e-01 -3.333333333333333e-01 -1.666666666666665e-01
-1.666666666666667e-01 -3.333333333333333e-01 -1.666666666666665e-01
-1.666666666666667e-01 -3.333333333333333e-01 -1.666666666666665e-01
-1.666666666666667e-01 -3.333333333333333e-01 -1.666666666666665e-01
-1.666666666666667e-01 -3.333333333333333e-01 -1.666666666666665e-01
-1.666666666666667e-01 -3.333333333333333e-01 -1.666666666666665e-01
-1.666666666666667e-01 -3.333333333333333e-01 -1.666666666666665e-01
-1.666666666666667e-01 -3.333333333333333e-01 -1.666666666666665e-01
-1.666666666666667e-01 -3.333333333333333e-01 -1.666666666666665e-01
-1.666666666666667e-01 -3.333333333333333e-01 -1.666666666666665e-01
-1.666666666666667e-01 -3.333333333333333e-01 -1.666666666666665e-01
-1.666666666666667e-01 -3.333333333333333e-01 -1.666666666666665e-01
-1.666666666666667e-01 -3.333333333333333e-01 -1.666666666666665e-01
-1.666666666666667e-01 -3.333333333333333e-01 -1.666666666666665e-01
-1.666666666666667e-01 -3.333333333333333e-01 -1.666666666666665e-01
-1.666666666666667e-01 -3.333333333333333e-01 -1.666666666666665e-01
-1.666666666666667e-01 -3.333333333333333e-01 -1.666666666666665e-01
-1.666666666666667e-01 -3.333333333333333e-01 -1.666666666666665e-01
-1.666666666666667e-01 -3.333333333333333e-01 -1.666666666666665e-01
-1.666666666666667e-01 -3.333333333333333e-01 -1.666666666666665e-01
-1.666666666666667e-01 -3.333333333333333e-01 -1.666666666666665e-01
-1.666666666666667e-01 -3.333333333333333e-01 -1.666666666666665e-01
-1.666666666666667e-01 -3.333333333333333e-01 -1.666666666666665e-01
-1.666666666666667e-01 -3.333333333333333e-01 -1.666666666666665e-01
-1.666666666666667e-01 -3.333333333333333e-01 -1.666666666666665e-01
-1.666666666666667e-01 -3.333333333333333e-01 -1.666666666666665e-01
-1.666666666666667e-01 -3.333333333333333e-01 -1.666666666666665e-01
-1.666666666666667e-01 -3.333333333333333e-01 -1.666666666666665e-01
-1.666666666666667e-01 -3.333333333333333e-01 -1.666666666666665e-01
-1.666666666666667e-01 -3.333333333333333e-01 -1.666666666666665e-01
-1.666666666666667e-01 -3.333333333333333e-01 -1.666666666666665e-01
-1.666666666666667e-01 -3.333333333333333e-01 -1.666666666666665e-01
-1.666666666666667e-01 -3.333333333333333e-01 -1.666666666666665e-01
-1.666666666666667e-01 -3.333333333333333e-01 -1.666666666666665e-01
-1.666666666666667e-01 -3.333333333333333e-01 -1.666666666666665e-01
-1.666666666666667e-01 -3.333333333333333e-01 -1.666666666666665e-01
-1.666666666666667e-01 -3.333333333333333e-01 -1.666666666666665e-01
-1.666666666666667e-01 -3.333333333333333e-01 -1.666666666666665e-01
-1.666666666666667e-01 -3.333333333333333e-01 -1.666666666666665e-01
-1.666666666666667e-01 -3.333333333333333e-01 -1.666666666666665e-01
-1.666666666666667e-01 -3.333333333333333e-01 -1.666666666666665e-01
-1.666666666666667e-01 -3.333333333333333e-01 -1.666666666666665e-01
-1.666666666666667e-01 -3.333333333333333e-01 -1.666666666666665e-01
-1.666666666666667e-01 -3.333333333333333e-01 -1.666666666666665e-01
-1.666666666666667e-01 -3.333333333333333e-01 -1.666666666666665e-01
-1.666666666666667e-01 -3.333333333333333e-01 -1.666666666666665e-01
-1.666666666666667e-01 -3.333333333333333e-01 -1.666666666666665e-01
-1.666666666666667e-01 -3.333333333333333e-01 -1.666666666666665e-01
-1.666666666666667e-01 -3.333333333333333e-01 -1.666666666666665e-01
-1.666666666666667e-01 -3.333333333333333e-01 -1.666666666666665e-01
-1.666666666666667e-01 -3.333333333333333e-01 -1.666666666666665e-01
-1.666666666666667e-01 -3.333333333333333e-01 -1.666666666666665e-01
-1.666666666666667e-01 -3.333333333333333e-01 -1.666666666666665e-01
-1.666666666666667e-01 -3.333333333333333e-01 -1.666666666666665e-01
-1.666666666666667e-01 -3.333333333333333e-01 -1.666666666666665e-01
1.666666666666667e-01 3.333333333333333e-01 1.666666666666665e-01
-1.666666666666667e-01 -3.333333333333333e-01 -1.666666666666665e-01
-1.666666666666667e-01 -3.333333333333333e-01 -1.666666666666665e-01
-1.666666666666667e-01 -3.333333333333333e-01 -1.666666666666665e-01
-1.666666666666667e-01 -3.333333333333333e-01 -1.666666666666665e-01
-1.666666666666667e-01 -3.333333333333333e-01 -1.666666666666665e-01
-1.666666666666667e-01 -3.333333333333333e-01 -1.666666666666665e-01
-1.666666666666667e-01 -3.333333333333333e-01 -1.666666666666665e-01
-1.666666666666667e-01 -3.333333333333333e-01 -1.666666666666665e-01
-1.666666666666667e-01 -3.333333333333333e-01 -1.666666666666665e-01
-1.666666666666667e-01 -3.333333333333333e-01 -1.666666666666665e-01
-1.666666666666667e-01 -3.333333333333333e-01 -1.666666666666665e-01
-1.666666666666667e-01 -3.333333333333333e-01 -1.666666666666665e-01
-1.666666666666667e-01 -3.333333333333333e-01 -1.666666666666665e-01
-1.666666666666667e-01 -3.333333333333333e-01 -1.666666666666665e-01
-1.666666666666667e-01 -3.333333333333333e-01 -1.666666666666665e-01
-1.666666666666667e-01 -3.333333333333333e-01 -1.666666666666665e-01
-1.666666666666667e-01 -3.333333333333333e-01 -1.666666666666665e-01
-1.666666666666667e-01 -3.333333333333333e-01 -1.666666666666665e-01
-1.666666666666667e-01 -3.333333333333333e-01 -1.666666666666665e-01
-1.666666666666667e-01 -3.333333333333333e-01 -1.666666666666665e-01
-1.666666666666667e-01 -3.333333333333333e-01 -1.666666666666665e-01
-1.666666666666667e-01 -3.333333333333333e-01 -1.666666666666665e-01
-1.666666666666667e-01 -3.333333333333333e-01 -1.666666666666665e-01
-1.666666666666667e-01 -3.333333333333333e-01 -1.666666666666665e-01
-1.666666666666667e-01 -3.333333333333333e-01 -1.666666666666665e-01
-1.666666666666667e-01 -3.333333333333333e-01 -1.666666666666665e-01
-1.666666666666667e-01 -3.333333333333333e-01 -1.666666666666665e-01
-1.666666666666667e-01 -3.333333333333333e-01 -1.666666666666665e-01
-1.666666666666667e-01 -3.333333333333333e-01 -1.666666666666665e-01
-1.666666666666667e-01 -3.333333333333333e-01 -1.666666666666665e-01
-1.666666666666667e-01 -3.333333333333333e-01 -1.666666666666665e-01
-1.666666666666667e-01 -3.333333333333333e-01 -1.666666666666665e-01
-1.666666666666667e-01 -3.333333333333333e-01 -1.666666666666665e-01
-1.666666666666667e-01 -3.333333333333333e-01 -1.666666666666665e-01
-1.666666666666667e-01 -3.333333333333333e-01 -1.666666666666665e-01
-1.666666666666667e-01 -3.333333333333333e-01 -1.666666666666665e-01
-1.666666666666667e-01 -3.333333333333333e-01 -1.666666666666665e-01
-1.666666666666667e-01 -3.333333333333333e-01 -1.666666666666665e-01
-1.666666666666667e-01 -3.333333333333333e-01 -1.666666666666665e-01
-1.666666666666667e-01 -3.333333333333333e-01 -1.666666666666665e-01
-1.666666666666667e-01 -3.333333333333333e-01 -1.666666666666665e-01
-1.666666666666667e-01 -3.333333333333333e-01 -1.666666666666665e-01
-1.666666666666667e-01 -3.333333333333333e-01 -1.666666666666665e-01
-1.666666666666667e-01 -3.333333333333333e-01 -1.666666666666665e-01
-1.666666666666667e-01 -3.333333333333333e-01 -1.666666666666665e-01
-1.666666666666667e-01 -3.333333333333333e-01 -1.666666666666665e-01
-1.666666666666667e-01 -3.333333333333333e-01 -1.666666666666665e-01
-1.666666666666667e-01 -3.333333333333333e-01 -1.666666666666665e-01
-1.666666666666667e-01 -3.333333333333333e-01 -1.666666666666665e-01
-1.666666666666667e-01 -3.333333333333333e-01 -1.666666666666665e-01
-1.666666666666667e-01 -3.333333333333333e-01 -1.666666666666665e-01
-1.666666666666667e-01 -3.333333333333333e-01 -1.666666666666665e-01
-1.666666666666667e-01 -3.333333333333333e-01 -1.666666666666665e-01
-1.666666666666667e-01 -3.333333333333333e-01 -1.666666666666665e-01
-1.666666666666667e-01 -3.333333333333333e-01 -1.666666666666665e-01
-1.666666666666667e-01 -3.333333333333333e-01 -1.666666666666665e-01
-1.666666666666667e-01 -3.333333333333333e-01 -1.666666666666665e-01
-1.666666666666667e-01 -3.333333333333333e-01 -1.666666666666665e-01
-1.666666666666667e-01 -3.333333333333333e-01 -1.666666666666665e-01
-1.666666666666667e-01 -3.333333333333333e-01 -1.666666666666665e-01
-1.666666666666667e-01 -3.333333333333333e-01 -1.666666666666665e-01
-1.666666666666667e-01 -3.333333333333333e-01 -1.666666666666665e-01
-1.666666666666667e-01 -3.333333333333333e-01 -1.666666666666665e-01
-1.666666666666667e-01 -3.333333333333333e-01 -1.666666666666665e-01
-1.666666666666667e-01 -3.333333333333333e-01 -1.666666666666665e-01
-1.666666666666667e-01 -3.333333333333333e-01 -1.666666666666665e-01
-1.666666666666667e-01 -3.333333333333333e-01 -1.666666666666665e-01
-1.666666666666667e-01 -3.333333333333333e-01 -1.666666666666665e-01
-1.666666666666667e-01 -3.333333333333333e-01 -1.666666666666665e-01
-1.666666666666667e-01 -3.333333333333333e-01 -1.666666666666665e-01
-1.666666666666667e-01 -3.333333333333333e-01 -1.666666666666665e-01
-1.666666666666667e-01 -3.333333333333333e-01 -1.666666666666665e-01
-1.666666666666667e-01 -3.333333333333333e-01 -1.666666666666665e-01
-1.666666666666667e-01 -3.333333333333333e-01 -1.666666666666665e-01
-1.666666666666667e-01 -3.333333333333333e-01 -1.666666666666665e-01
-1.666666666666667e-01 -3.333333333333333e-01 -1.666666666666665e-01
-1.666666666666667e-01 -3.333333333333333e-01 -1.666666666666665e-01
-1.666666666666667e-01 -3.333333333333333e-01 -1.666666666666665e-01
-1.666666666666667e-01 -3.333333333333333e-01 -1.666666666666665e-01
-1.666666666666667e-01 -3.333333333333333e-01 -1.666666666666665e-01
-1.666666666666667e-01 -3.333333333333333e-01 -1.666666666666665e-01
-1.666666666666667e-01 -3.333333333333333e-01 -1.666666666666665e-01
-1.666666666666667e-01 -3.333333333333333e-01 -1.666666666666665e-01
-1.666666666666667e-01 -3.333333333333333e-01 -1.666666666666665e-01
-1.666666666666667e-01 -3.333333333333333e-01 -1.666666666666665e-01
-1.666666666666667e-01 -3.333333333333333e-01 -1.666666666666665e-01
-1.666666666666667e-01 -3.333333333333333e-01 -1.666666666666665e-01
-1.666666666666667e-01 -3.333333333333333e-01 -1.666666666666665e-01
-1.666666666666667e-01 -3.333333333333333e-01 -1.666666666666665e-01
-1.666666666666667e-01 -3.333333333333333e-01 -1.666666666666665e-01
-1.666666666666667e-01 -3.333333333333333e-01 -1.666666666666665e-01
-1.666666666666667e-01 -3.333333333333333e-01 -1.666666666666665e-01
-1.666666666666667e-01 -3.333333333333333e-01 -1.666666666666665e-01
-1.666666666666667e-01 -3.333333333333333e-01 -1.666666666666665e-01
-1.666666666666667e-01 -3.333333333333333e-01 -1.666666666666665e-01
-1.666666666666667e-01 -3.333333333333333e-01 -1.666666666666665e-01
-1.666666666666667e-01 -3.333333333333333e-01 -1.666666666666665e-01
-1.666666666666667e-01 -3.333333333333333e-01 -1.666666666666665e-01
-1.666666666666667e-01 -3.333333333333333e-01 -1.666666666666665e-01
-1.666666666666667e-01 -3.333333333333333e-01 -1.666666666666665e-01
-1.666666666666667e-01 -3.333333333333333e-01 -1.666666666666665e-01
-1.666666666666667e-01 -3.333333333333333e-01 -1.666666666666665e-01
-1.666666666666667e-01 -3.333333333333333e-01 -1.666666666666665e-01
-1.666666666666667e-01 -3.333333333333333e-01 -1.666666666666665e-01
-1.666666666666667e-01 -3.333333333333333e-01 -1.666666666666665e-01
-1.666666666666667e-01 -3.333333333333333e-01 -1.666666666666665e-01
-1.666666666666667e-01 -3.333333333333333e-01 -1.666666666666665e-01
-1.666666666666667e-01 -3.333333333333333e-01 -1.666666666666665e-01
-1.666666666666667e-01 -3.333333333333333e-01 -1.666666666666665e-01
-1.666666666666667e-01 -3.333333333333333e-01 -1.666666666666665e-01
-1.666666666666667e-01 -3.333333333333333e-01 -1.666666666666665e-01
-1.666666666666667e-01 -3.333333333333333e-01 -1.666666666666665e-01
-1.666666666666667e-01 -3.333333333333333e-01 -1.666666666666665e-01
-1.666666666666667e-01 -3.333333333333333e-01 -1.666666666666665e-01
-1.666666666666667e-01 -3.333333333333333e-01 -1.666666666666665e-01
-1.666666666666667e-01 -3.333333333333333e-01 -1.666666666666665e-01
-1.666666666666667e-01 -3.333333333333333e-01 -1.666666666666665e-01
-1.666666666666667e-01 -3.333333333333333e-01 -1.666666666666665e-01
-1.666666666666667e-01 -3.333333333333333e-01 -1.666666666666665e-01
-1.666666666666667e-01 -3.333333333333333e-01 -1.666666666666665e-01
-1.666666666666667e-01 -3.333333333333333e-01 -1.666666666666665e-01
-1.666666666666667e-01 -3.333333333333333e-01 -1.666666666666665e-01
-1.666666666666667e-01 -3.333333333333333e-01 -1.666666666666665e-01
-1.666666666666667e-01 -3.333333333333333e-01 -1.666666666666665e-01
-1.666666666666667e-01 -3.333333333333333e-01 -1.666666666666665e-01
-1.666666666666667e-01 -3.333333333333333e-01 -1.666666666666665e-01
-1.666666666666667e-01 -3.333333333333333e-01 -1.666666666666665e-01
-1.666666666666667e-01 -3.333333333333333e-01 -1.666666666666665e-01
-1.666666666666667e-01 -3.333333333333333e-01 -1.666666666666665e-01
-1.666666666666667e-01 -3.333333333333333e-01 -1.666666666666665e-01
-1.666666666666667e-01 -3.333333333333333e-01 -1.666666666666665e-01
-1.666666666666667e-01 -3.333333333333333e-01 -1.666666666666665e-01
-1.666666666666667e-01 -3.333333333333333e-01 -1.666666666666665e-01
-1.666666666666667e-01 -3.333333333333333e-01 -1.666666666666665e-01
-1.666666666666667e-01 -3.333333333333333e-01 -1.666666666666665e-01
-1.666666666666667e-01 -3.333333333333333e-01 -1.666666666666665e-01
-1.666666666666667e-01 -3.333333333333333e-01 -1.666666666666665e-01
-1.666666666666667e-01 -3.333333333333333e-01 -1.666666666666665e-01
-1.666666666666667e-01 -3.333333333333333e-01 -1.666666666666665e-01
-1.666666666666667e-01 -3.333333333333333e-01 -1.666666666666665e-01
-1.666666666666667e-01 -3.333333333333333e-01 -1.666666666666665e-01
-1.666666666666667e-01 -3.333333333333333e-01 -1.666666666666665e-01
-1.666666666666667e-01 -3.333333333333333e-01 -1.666666666666665e-01
-1.666666666666667e-01 -3.333333333333333e-01 -1.666666666666665e-01
-1.666666666666667e-01 -3.333333333333333e-01 -1.666666666666665e-01
-1.666666666666667e-01 -3.333333333333333e-01 -1.666666666666665e-01
-1.666666666666667e-01 -3.333333333333333e-01 -1.666666666666665e-01
-1.666666666666667e-01 -3.333333333333333e-01 -1.666666666666665e-01
-1.666666666666667e-01 -3.333333333333333e-01 -1.666666666666665e-01
-1.666666666666667e-01 -3.333333333333333e-01 -1.666666666666665e-01
-1.666666666666667e-01 -3.333333333333333e-01 -1.666666666666665e-01
-1.666666666666667e-01 -3.333333333333333e-01 -1.666666666666665e-01
-1.666666666666667e-01 -3.333333333333333e-01 -1.666666666666665e-01
-1.666666666666667e-01 -3.333333333333333e-01 -1.666666666666665e-01
-1.666666666666667e-01 -3.333333333333333e-01 -1.666666666666665e-01
-1.666666666666667e-01 -3.333333333333333e-01 -1.666666666666665e-01
-1.666666666666667e-01 -3.333333333333333e-01 -1.666666666666665e-01
-1.666666666666667e-01 -3.333333333333333e-01 -1.666666666666665e-01
-1.666666666666667e-01 -3.333333333333333e-01 -1.666666666666665e-01
-1.666666666666667e-01 -3.333333333333333e-01 -1.666666666666665e-01
-1.666666666666667e-01 -3.333333333333333e-01 -1.666666666666665e-01
-1.666666666666667e-01 -3.333333333333333e-01 -1.666666666666665e-01
-1.666666666666667e-01 -3.333333333333333e-01 -1.666666666666665e-01
-1.666666666666667e-01 -3.333333333333333e-01 -1.666666666666665e-01
-1.666666666666667e-01 -3.333333333333333e-01 -1.666666666666665e-01
-1.666666666666667e-01 -3.333333333333333e-01 -1.666666666666665e-01
-1.666666666666667e-01 -3.333333333333333e-01 -1.666666666666665e-01
-1.666666666666667e-01 -3.333333333333333e-01 -1.666666666666665e-01
-1.666666666666667e-01 -3.333333333333333e-01 -1.666666666666665e-01
-1.666666666666667e-01 -3.333333333333333e-01 -1.666666666666665e-01
-1.666666666666667e-01 -3.333333333333333e-01 -1.666666666666665e-01
-1.666666666666667e-01 -3.333333333333333e-01 -1.666666666666665e-01
-1.666666666666667e-01 -3.333333333333333e-01 -1.666666666666665e-01
-1.666666666666667e-01 -3.333333333333333e-01 -1.666666666666665e-01
-1.666666666666667e-01 -3.333333333333333e-01 -1.666666666666665e-01
1.666666666666667e-01 3.333333333333333e-01 1.666666666666665e-01
-1.666666666666667e-01 -3.333333333333333e-01 -1.666666666666665e-01
1.666666666666667e-01 3.333333333333333e-01 1.666666666666665e-01
1.666666666666667e-01 3.333333333333333e-01 1.666666666666665e-01
1.666666666666667e-01 3.333333333333333e-01 1.666666666666665e-01
1.666666666666667e-01 3.333333333333333e-01 1.666666666666665e-01
1.666666666666667e-01 3.333333333333333e-01 1.666666666666665e-01
1.666666666666667e-01 3.333333333333333e-01 1.666666666666665e-01
1.666666666666667e-01 3.333333333333333e-01 1.666666666666665e-01
1.666666666666667e-01 3.333333333333333e-01 1.666666666666665e-01
1.666666666666667e-01 3.333333333333333e-01 1.666666666666665e-01
1.666666666666667e-01 3.333333333333333e-01 1.666666666666665e-01
1.666666666666667e-01 3.333333333333333e-01 1.666666666666665e-01
1.666666666666667e-01 3.333333333333333e-01 1.666666666666665e-01
1.666666666666667e-01 3.333333333333333e-01 1.666666666666665e-01
1.666666666666667e-01 3.333333333333333e-01 1.666666666666665e-01
1.666666666666667e-01 3.333333333333333e-01 1.666666666666665e-01
1.666666666666667e-01 3.333333333333333e-01 1.666666666666665e-01
1.666666666666667e-01 3.333333333333333e-01 1.666666666666665e-01
1.666666666666667e-01 3.333333333333333e-01 1.666666666666665e-01
1.666666666666667e-01 3.333333333333333e-01 1.666666666666665e-01
1.666666666666667e-01 3.333333333333333e-01 1.666666666666665e-01
1.666666666666667e-01 3.333333333333333e-01 1.666666666666665e-01
1.666666666666667e-01 3.333333333333333e-01 1.666666666666665e-01
1.666666666666667e-01 3.333333333333333e-01 1.666666666666665e-01
1.666666666666667e-01 3.333333333333333e-01 1.666666666666665e-01
1.666666666666667e-01 3.333333333333333e-01 1.666666666666665e-01
1.666666666666667e-01 3.333333333333333e-01 1.666666666666665e-01
1.666666666666667e-01 3.333333333333333e-01 1.666666666666665e-01
1.666666666666667e-01 3.333333333333333e-01 1.666666666666665e-01
1.666666666666667e-01 3.333333333333333e-01 1.666666666666665e-01
1.666666666666667e-01 3.333333333333333e-01 1.666666666666665e-01
1.666666666666667e-01 3.333333333333333e-01 1.666666666666665e-01
1.666666666666667e-01 3.333333333333333e-01 1.666666666666665e-01
1.666666666666667e-01 3.333333333333333e-01 1.666666666666665e-01
1.666666666666667e-01 3.333333333333333e-01 1.666666666666665e-01
1.666666666666667e-01 3.333333333333333e-01 1.666666666666665e-01
1.666666666666667e-01 3.333333333333333e-01 1.666666666666665e-01
1.666666666666667e-01 3.333333333333333e-01 1.666666666666665e-01
1.666666666666667e-01 3.333333333333333e-01 1.666666666666665e-01
1.666666666666667e-01 3.333333333333333e-01 1.666666666666665e-01
1.666666666666667e-01 3.333333333333333e-01 1.666666666666665e-01
1.666666666666667e-01 3.333333333333333e-01 1.666666666666665e-01
1.666666666666667e-01 3.333333333333333e-01 1.666666666666665e-01
1.666666666666667e-01 3.333333333333333e-01 1.666666666666665e-01
1.666666666666667e-01 3.333333333333333e-01 1.666666666666665e-01
1.666666666666667e-01 3.333333333333333e-01 1.666666666666665e-01
1.666666666666667e-01 3.333333333333333e-01 1.666666666666665e-01
1.666666666666667e-01 3.333333333333333e-01 1.666666666666665e-01
1.666666666666667e-01 3.333333333333333e-01 1.666666666666665e-01
1.666666666666667e-01 3.333333333333333e-01 1.666666666666665e-01
1.666666666666667e-01 3.333333333333333e-01 1.666666666666665e-01
1.666666666666667e-01 3.333333333333333e-01 1.666666666666665e-01
1.666666666666667e-01 3.333333333333333e-01 1.666666666666665e-01
1.666666666666667e-01 3.333333333333333e-01 1.666666666666665e-01
1.666666666666667e-01 3.333333333333333e-01 1.666666666666665e-01
1.666666666666667e-01 3.333333333333333e-01 1.666666666666665e-01
1.666666666666667e-01 3.333333333333333e-01 1.666666666666665e-01
1.666666666666667e-01 3.333333333333333e-01 1.666666666666665e-01
1.666666666666667e-01 3.333333333333333e-01 1.666666666666665e-01
1.666666666666667e-01 3.333333333333333e-01 1.666666666666665e-01
1.666666666666667e-01 3.333333333333333e-01 1.666666666666665e-01
1.666666666666667e-01 3.333333333333333e-01 1.666666666666665e-01
1.666666666666667e-01 3.333333333333333e-01 1.666666666666665e-01
1.666666666666667e-01 3.333333333333333e-01 1.666666666666665e-01
1.666666666666667e-01 3.333333333333333e-01 1.666666666666665e-01
1.666666666666667e-01 3.333333333333333e-01 1.666666666666665e-01
1.666666666666667e-01 3.333333333333333e-01 1.666666666666665e-01
1.666666666666667e-01 3.333333333333333e-01 1.666666666666665e-01
1.666666666666667e-01 3.333333333333333e-01 1.666666666666665e-01
1.666666666666667e-01 3.333333333333333e-01 1.666666666666665e-01
1.666666666666667e-01 3.333333333333333e-01 1.666666666666665e-01
1.666666666666667e-01 3.333333333333333e-01 1.666666666666665e-01
1.666666666666667e-01 3.333333333333333e-01 1.666666666666665e-01
1.666666666666667e-01 3.333333333333333e-01 1.666666666666665e-01
1.666666666666667e-01 3.333333333333333e-01 1.666666666666665e-01
1.666666666666667e-01 3.333333333333333e-01 1.666666666666665e-01
1.666666666666667e-01 3.333333333333333e-01 1.666666666666665e-01
1.666666666666667e-01 3.333333333333333e-01 1.666666666666665e-01
1.666666666666667e-01 3.333333333333333e-01 1.666666666666665e-01
1.666666666666667e-01 3.333333333333333e-01 1.666666666666665e-01
1.666666666666667e-01 3.333333333333333e-01 1.666666666666665e-01
1.666666666666667e-01 3.333333333333333e-01 1.666666666666665e-01
1.666666666666667e-01 3.333333333333333e-01 1.666666666666665e-01
1.666666666666667e-01 3.333333333333333e-01 1.666666666666665e-01
1.666666666666667e-01 3.333333333333333e-01 1.666666666666665e-01
1.666666666666667e-01 3.333333333333333e-01 1.666666666666665e-01
1.666666666666667e-01 3.333333333333333e-01 1.666666666666665e-01
1.666666666666667e-01 3.333333333333333e-01 1.666666666666665e-01
1.666666666666667e-01 3.333333333333333e-01 1.666666666666665e-01
1.666666666666667e-01 3.333333333333333e-01 1.666666666666665e-01
1.666666666666667e-01 3.333333333333333e-01 1.666666666666665e-01
1.666666666666667e-01 3.333333333333333e-01 1.666666666666665e-01
1.666666666666667e-01 3.333333333333333e-01 1.666666666666665e-01
1.666666666666667e-01 3.333333333333333e-01 1.666666666666665e-01
1.666666666666667e-01 3.333333333333333e-01 1.666666666666665e-01
1.666666666666667e-01 3.333333333333333e-01 1.666666666666665e-01
1.666666666666667e-01 3.333333333333333e-01 1.666666666666665e-01
1.666666666666667e-01 3.333333333333333e-01 1.666666666666665e-01
1.666666666666667e-01 3.333333333333333e-01 1.666666666666665e-01
1.666666666666667e-01 3.333333333333333e-01 1.666666666666665e-01
1.666666666666667e-01 3.333333333333333e-01 1.666666666666665e-01
1.666666666666667e-01 3.333333333333333e-01 1.666666666666665e-01
1.666666666666667e-01 3.333333333333333e-01 1.666666666666665e-01
1.666666666666667e-01 3.333333333333333e-01 1.666666666666665e-01
1.666666666666667e-01 3.333333333333333e-01 1.666666666666665e-01
1.666666666666667e-01 3.333333333333333e-01 1.666666666666665e-01
1.666666666666667e-01 3.333333333333333e-01 1.666666666666665e-01
1.666666666666667e-01 3.333333333333333e-01 1.666666666666665e-01
1.666666666666667e-01 3.333333333333333e-01 1.666666666666665e-01
1.666666666666667e-01 3.333333333333333e-01 1.666666666666665e-01
1.666666666666667e-01 3.333333333333333e-01 1.666666666666665e-01
1.666666666666667e-01 3.333333333333333e-01 1.666666666666665e-01
1.666666666666667e-01 3.333333333333333e-01 1.666666666666665e-01
1.666666666666667e-01 3.333333333333333e-01 1.666666666666665e-01
1.666666666666667e-01 3.333333333333333e-01 1.666666666666665e-01
1.666666666666667e-01 3.333333333333333e-01 1.666666666666665e-01
1.666666666666667e-01 3.333333333333333e-01 1.666666666666665e-01
1.666666666666667e-01 3.333333333333333e-01 1.666666666666665e-01
1.666666666666667e-01 3.333333333333333e-01 1.666666666666665e-01
1.666666666666667e-01 3.333333333333333e-01 1.666666666666665e-01
1.666666666666667e-01 3.333333333333333e-01 1.666666666666665e-01
1.666666666666667e-01 3.333333333333333e-01 1.666666666666665e-01
1.666666666666667e-01 3.333333333333333e-01 1.666666666666665e-01
1.666666666666667e-01 3.333333333333333e-01 1.666666666666665e-01
1.666666666666667e-01 3.333333333333333e-01 1.666666666666665e-01
1.666666666666667e-01 3.333333333333333e-01 1.666666666666665e-01
1.666666666666667e-01 3.333333333333333e-01 1.666666666666665e-01
1.666666666666667e-01 3.333333333333333e-01 1.666666666666665e-01
1.666666666666667e-01 3.333333333333333e-01 1.666666666666665e-01
1.666666666666667e-01 3.333333333333333e-01 1.666666666666665e-01
1.666666666666667e-01 3.333333333333333e-01 1.666666666666665e-01
1.666666666666667e-01 3.333333333333333e-01 1.666666666666665e-01
1.666666666666667e-01 3.333333333333333e-01 1.666666666666665e-01
1.666666666666667e-01 3.333333333333333e-01 1.666666666666665e-01
1.666666666666667e-01 3.333333333333333e-01 1.666666666666665e-01
1.666666666666667e-01 3.333333333333333e-01 1.666666666666665e-01
1.666666666666667e-01 3.333333333333333e-01 1.666666666666665e-01
1.666666666666667e-01 3.333333333333333e-01 1.666666666666665e-01
1.666666666666667e-01 3.333333333333333e-01 1.666666666666665e-01
1.666666666666667e-01 3.333333333333333e-01 1.666666666666665e-01
1.666666666666667e-01 3.333333333333333e-01 1.666666666666665e-01
1.666666666666667e-01 3.333333333333333e-01 1.666666666666665e-01
1.666666666666667e-01 3.333333333333333e-01 1.666666666666665e-01
1.666666666666667e-01 3.333333333333333e-01 1.666666666666665e-01
1.666666666666667e-01 3.333333333333333e-01 1.666666666666665e-01
1.666666666666667e-01 3.333333333333333e-01 1.666666666666665e-01
1.666666666666667e-01 3.333333333333333e-01 1.666666666666665e-01
1.666666666666667e-01 3.333333333333333e-01 1.666666666666665e-01
1.666666666666667e-01 3.333333333333333e-01 1.666666666666665e-01
1.666666666666667e-01 3.333333333333333e-01 1.666666666666665e-01
1.666666666666667e-01 3.333333333333333e-01 1.666666666666665e-01
1.666666666666667e-01 3.333333333333333e-01 1.666666666666665e-01
1.666666666666667e-01 3.333333333333333e-01 1.666666666666665e-01
1.666666666666667e-01 3.333333333333333e-01 1.666666666666665e-01
1.666666666666667e-01 3.333333333333333e-01 1.666666666666665e-01
1.666666666666667e-01 3.333333333333333e-01 1.666666666666665e-01
1.666666666666667e-01 3.333333333333333e-01 1.666666666666665e-01
1.666666666666667e-01 3.333333333333333e-01 1.666666666666665e-01
1.666666666666667e-01 3.333333333333333e-01 1.666666666666665e-01
1.666666666666667e-01 3.333333333333333e-01 1.666666666666665e-01
1.666666666666667e-01 3.333333333333333e-01 1.666666666666665e-01
1.666666666666667e-01 3.333333333333333e-01 1.666666666666665e-01
1.666666666666667e-01 3.333333333333333e-01 1.666666666666665e-01
1.666666666666667e-01 3.333333333333333e-01 1.666666666666665e-01
1.666666666666667e-01 3.333333333333333e-01 1.666666666666665e-01
-1.666666666666667e-01 -3.333333333333333e-01 -1.666666666666665e-01
1.666666666666667e-01 3.333333333333333e-01 1.666666666666665e-01
1.666666666666667e-01 3.333333333333333e-01 1.666666666666665e-01
1.666666666666667e-01 3.333333333333333e-01 1.666666666666665e-01
1.666666666666667e-01 3.333333333333333e-01 1.666666666666665e-01
1.666666666666667e-01 3.333333333333333e-01 1.666666666666665e-01
1.666666666666667e-01 3.333333333333333e-01 1.666666666666665e-01
1.666666666666667e-01 3.333333333333333e-01 1.666666666666665e-01
1.666666666666667e-01 3.333333333333333e-01 1.666666666666665e-01
1.666666666666667e-01 3.333333333333333e-01 1.666666666666665e-01
1.666666666666667e-01 3.333333333333333e-01 1.666666666666665e-01
1.666666666666667e-01 3.333333333333333e-01 1.666666666666665e-01
1.666666666666667e-01 3.333333333333333e-01 1.666666666666665e-01
1.666666666666667e-01 3.333333333333333e-01 1.666666666666665e-01
1.666666666666667e-01 3.333333333333333e-01 1.666666666666665e-01
1.666666666666667e-01 3.333333333333333e-01 1.666666666666665e-01
1.666666666666667e-01 3.333333333333333e-01 1.666666666666665e-01
1.666666666666667e-01 3.333333333333333e-01 1.666666666666665e-01
1.666666666666667e-01 3.333333333333333e-01 1.666666666666665e-01
1.666666666666667e-01 3.333333333333333e-01 1.666666666666665e-01
1.666666666666667e-01 3.333333333333333e-01 1.666666666666665e-01
1.666666666666667e-01 3.333333333333333e-01 1.666666666666665e-01
1.666666666666667e-01 3.333333333333333e-01 1.666666666666665e-01
1.666666666666667e-01 3.333333333333333e-01 1.666666666666665e-01
1.666666666666667e-01 3.333333333333333e-01 1.666666666666665e-01
1.666666666666667e-01 3.333333333333333e-01 1.666666666666665e-01
1.666666666666667e-01 3.333333333333333e-01 1.666666666666665e-01
1.666666666666667e-01 3.333333333333333e-01 1.666666666666665e-01
1.666666666666667e-01 3.333333333333333e-01 1.666666666666665e-01
1.666666666666667e-01 3.333333333333333e-01 1.666666666666665e-01
1.666666666666667e-01 3.333333333333333e-01 1.666666666666665e-01
1.666666666666667e-01 3.333333333333333e-01 1.666666666666665e-01
1.666666666666667e-01 3.333333333333333e-01 1.666666666666665e-01
1.666666666666667e-01 3.333333333333333e-01 1.666666666666665e-01
1.666666666666667e-01 3.333333333333333e-01 1.666666666666665e-01
1.666666666666667e-01 3.333333333333333e-01 1.666666666666665e-01
1.666666666666667e-01 3.333333333333333e-01 1.666666666666665e-01
1.666666666666667e-01 3.333333333333333e-01 1.666666666666665e-01
1.666666666666667e-01 3.333333333333333e-01 1.666666666666665e-01
1.666666666666667e-01 3.333333333333333e-01 1.666666666666665e-01
1.666666666666667e-01 3.333333333333333e-01 1.666666666666665e-01
1.666666666666667e-01 3.333333333333333e-01 1.666666666666665e-01
1.666666666666667e-01 3.333333333333333e-01 1.666666666666665e-01
1.666666666666667e-01 3.333333333333333e-01 1.666666666666665e-01
1.666666666666667e-01 3.333333333333333e-01 1.666666666666665e-01
1.666666666666667e-01 3.333333333333333e-01 1.666666666666665e-01
1.666666666666667e-01 3.333333333333333e-01 1.666666666666665e-01
1.666666666666667e-01 3.333333333333333e-01 1.666666666666665e-01
1.666666666666667e-01 3.333333333333333e-01 1.666666666666665e-01
1.666666666666667e-01 3.333333333333333e-01 1.666666666666665e-01
1.666666666666667e-01 3.333333333333333e-01 1.666666666666665e-01
1.666666666666667e-01 3.333333333333333e-01 1.666666666666665e-01
1.666666666666667e-01 3.333333333333333e-01 1.666666666666665e-01
1.666666666666667e-01 3.333333333333333e-01 1.666666666666665e-01
1.666666666666667e-01 3.333333333333333e-01 1.666666666666665e-01
1.666666666666667e-01 3.333333333333333e-01 1.666666666666665e-01
1.666666666666667e-01 3.333333333333333e-01 1.666666666666665e-01
1.666666666666667e-01 3.333333333333333e-01 1.666666666666665e-01
1.666666666666667e-01 3.333333333333333e-01 1.666666666666665e-01
1.666666666666667e-01 3.333333333333333e-01 1.666666666666665e-01
1.666666666666667e-01 3.333333333333333e-01 1.666666666666665e-01
1.666666666666667e-01 3.333333333333333e-01 1.666666666666665e-01
1.666666666666667e-01 3.333333333333333e-01 1.666666666666665e-01
1.666666666666667e-01 3.333333333333333e-01 1.666666666666665e-01
1.666666666666667e-01 3.333333333333333e-01 1.666666666666665e-01
1.666666666666667e-01 3.333333333333333e-01 1.666666666666665e-01
1.666666666666667e-01 3.333333333333333e-01 1.666666666666665e-01
1.666666666666667e-01 3.333333333333333e-01 1.666666666666665e-01
1.666666666666667e-01 3.333333333333333e-01 1.666666666666665e-01
1.666666666666667e-01 3.333333333333333e-01 1.666666666666665e-01
1.666666666666667e-01 3.333333333333333e-01 1.666666666666665e-01
1.666666666666667e-01 3.333333333333333e-01 1.666666666666665e-01
1.666666666666667e-01 3.333333333333333e-01 1.666666666666665e-01
1.666666666666667e-01 3.333333333333333e-01 1.666666666666665e-01
1.666666666666667e-01 3.333333333333333e-01 1.666666666666665e-01
1.666666666666667e-01 3.333333333333333e-01 1.666666666666665e-01
1.666666666666667e-01 3.333333333333333e-01 1.666666666666665e-01
1.666666666666667e-01 3.333333333333333e-01 1.666666666666665e-01
1.666666666666667e-01 3.333333333333333e-01 1.666666666666665e-01
1.666666666666667e-01 3.333333333333333e-01 1.666666666666665e-01
1.666666666666667e-01 3.333333333333333e-01 1.666666666666665e-01
1.666666666666667e-01 3.333333333333333e-01 1.666666666666665e-01
1.666666666666667e-01 3.333333333333333e-01 1.666666666666665e-01
1.666666666666667e-01 3.333333333333333e-01 1.666666666666665e-01
1.666666666666667e-01 3.333333333333333e-01 1.666666666666665e-01
1.666666666666667e-01 3.333333333333333e-01 1.666666666666665e-01
1.666666666666667e-01 3.333333333333333e-01 1.666666666666665e-01
1.666666666666667e-01 3.333333333333333e-01 1.666666666666665e-01
1.666666666666667e-01 3.333333333333333e-01 1.666666666666665e-01
1.666666666666667e-01 3.333333333333333e-01 1.666666666666665e-01
1.666666666666667e-01 3.333333333333333e-01 1.666666666666665e-01
1.666666666666667e-01 3.333333333333333e-01 1.666666666666665e-01
1.666666666666667e-01 3.333333333333333e-01 1.666666666666665e-01
1.666666666666667e-01 3.333333333333333e-01 1.666666666666665e-01
1.666666666666667e-01 3.333333333333333e-01 1.666666666666665e-01
1.666666666666667e-01 3.333333333333333e-01 1.666666666666665e-01
1.666666666666667e-01 3.333333333333333e-01 1.666666666666665e-01
1.666666666666667e-01 3.333333333333333e-01 1.666666666666665e-01
1.666666666666667e-01 3.333333333333333e-01 1.666666666666665e-01
1.666666666666667e-01 3.333333333333333e-01 1.666666666666665e-01
1.666666666666667e-01 3.333333333333333e-01 1.666666666666665e-01
1.666666666666667e-01 3.333333333333333e-01 1.666666666666665e-01
1.666666666666667e-01 3.333333333333333e-01 1.666666666666665e-01
1.666666666666667e-01 3.333333333333333e-01 1.666666666666665e-01
1.666666666666667e-01 3.333333333333333e-01 1.666666666666665e-01
1.666666666666667e-01 3.333333333333333e-01 1.666666666666665e-01
1.666666666666667e-01 3.333333333333333e-01 1.666666666666665e-01
1.666666666666667e-01 3.333333333333333e-01 1.666666666666665e-01
1.666666666666667e-01 3.333333333333333e-01 1.666666666666665e-01
1.666666666666667e-01 3.333333333333333e-01 1.666666666666665e-01
1.666666666666667e-01 3.333333333333333e-01 1.666666666666665e-01
1.666666666666667e-01 3.333333333333333e-01 1.666666666666665e-01
1.666666666666667e-01 3.333333333333333e-01 1.666666666666665e-01
1.666666666666667e-01 3.333333333333333e-01 1.666666666666665e-01
1.666666666666667e-01 3.333333333333333e-01 1.666666666666665e-01
1.666666666666667e-01 3.333333333333333e-01 1.666666666666665e-01
1.666666666666667e-01 3.333333333333333e-01 1.666666666666665e-01
1.666666666666667e-01 3.333333333333333e-01 1.666666666666665e-01
1.666666666666667e-01 3.333333333333333e-01 1.666666666666665e-01
1.666666666666667e-01 3.333333333333333e-01 1.666666666666665e-01
1.666666666666667e-01 3.333333333333333e-01 1.666666666666665e-01
1.666666666666667e-01 3.333333333333333e-01 1.666666666666665e-01
1.666666666666667e-01 3.333333333333333e-01 1.666666666666665e-01
1.666666666666667e-01 3.333333333333333e-01 1.666666666666665e-01
1.666666666666667e-01 3.333333333333333e-01 1.666666666666665e-01
1.666666666666667e-01 3.333333333333333e-01 1.666666666666665e-01
1.666666666666667e-01 3.333333333333333e-01 1.666666666666665e-01
1.666666666666667e-01 3.333333333333333e-01 1.666666666666665e-01
1.666666666666667e-01 3.333333333333333e-01 1.666666666666665e-01
1.666666666666667e-01 3.333333333333333e-01 1.666666666666665e-01
1.666666666666667e-01 3.333333333333333e-01 1.666666666666665e-01
1.666666666666667e-01 3.333333333333333e-01 1.666666666666665e-01
1.666666666666667e-01 3.333333333333333e-01 1.666666666666665e-01
1.666666666666667e-01 3.333333333333333e-01 1.666666666666665e-01
1.666666666666667e-01 3.333333333333333e-01 1.666666666666665e-01
1.666666666666667e-01 3.333333333333333e-01 1.666666666666665e-01
1.666666666666667e-01 3.333333333333333e-01 1.666666666666665e-01
1.666666666666667e-01 3.333333333333333e-01 1.666666666666665e-01
1.666666666666667e-01 3.333333333333333e-01 1.666666666666665e-01
1.666666666666667e-01 3.333333333333333e-01 1.666666666666665e-01
1.666666666666667e-01 3.333333333333333e-01 1.666666666666665e-01
1.666666666666667e-01 3.333333333333333e-01 1.666666666666665e-01
1.666666666666667e-01 3.333333333333333e-01 1.666666666666665e-01
1.666666666666667e-01 3.333333333333333e-01 1.666666666666665e-01
1.666666666666667e-01 3.333333333333333e-01 1.666666666666665e-01
1.666666666666667e-01 3.333333333333333e-01 1.666666666666665e-01
1.666666666666667e-01 3.333333333333333e-01 1.666666666666665e-01
1.666666666666667e-01 3.333333333333333e-01 1.666666666666665e-01
1.666666666666667e-01 3.333333333333333e-01 1.666666666666665e-01
1.666666666666667e-01 3.333333333333333e-01 1.666666666666665e-01
1.666666666666667e-01 3.333333333333333e-01 1.666666666666665e-01
1.666666666666667e-01 3.333333333333333e-01 1.666666666666665e-01
1.666666666666667e-01 3.333333333333333e-01 1.666666666666665e-01
1.666666666666667e-01 3.333333333333333e-01 1.666666666666665e-01
1.666666666666667e-01 3.333333333333333e-01 1.666666666666665e-01
1.666666666666667e-01 3.333333333333333e-01 1.666666666666665e-01
1.666666666666667e-01 3.333333333333333e-01 1.666666666666665e-01
1.666666666666667e-01 3.333333333333333e-01 1.666666666666665e-01
1.666666666666667e-01 3.333333333333333e-01 1.666666666666665e-01
1.666666666666667e-01 3.333333333333333e-01 1.666666666666665e-01
1.666666666666667e-01 3.333333333333333e-01 1.666666666666665e-01
1.666666666666667e-01 3.333333333333333e-01 1.666666666666665e-01
1.666666666666667e-01 3.333333333333333e-01 1.666666666666665e-01
1.666666666666667e-01 3.333333333333333e-01 1.666666666666665e-01
1.666666666666667e-01 3.333333333333333e-01 1.666666666666665e-01
 1.666666666666667e-01 -1.666666666666665e-01 -3.333333333333333e-01
-1.666666666666667e-01  1.666666666666665e-01  3.333333333333333e-01
 1.666666666666667e-01 -1.666666666666665e-01 -3.333333333333333e-01
 1.666666666666667e-01 -1.666666666666665e-01 -3.333333333333333e-01
 1.666666666666667e-01 -1.666666666666665e-01 -3.333333333333333e-01
 1.666666666666667e-01 -1.666666666666665e-01 -3.333333333333333e-01
 1.666666666666667e-01 -1.666666666666665e-01 -3.333333333333333e-01
 1.666666666666667e-01 -1.666666666666665e-01 -3.333333333333333e-01
 1.666666666666667e-01 -1.666666666666665e-01 -3.333333333333333e-01
 1.666666666666667e-01 -1.666666666666665e-01 -3.333333333333333e-01
 1.666666666666667e-01 -1.666666666666665e-01 -3.333333333333333e-01
 1.666666666666667e-01 -1.666666666666665e-01 -3.333333333333333e-01
 1.666666666666667e-01 -1.666666666666665e-01 -3.333333333333333e-01
 1.666666666666667e-01 -1.666666666666665e-01 -3.333333333333333e-01
 1.666666666666667e-01 -1.666666666666665e-01 -3.333333333333333e-01
 1.666666666666667e-01 -1.666666666666665e-01 -3.333333333333333e-01
 1.666666666666667e-01 -1.666666666666665e-01 -3.333333333333333e-01
 1.666666666666667e-01 -1.666666666666665e-01 -3.333333333333333e-01
 1.666666666666667e-01 -1.666666666666665e-01 -3.333333333333333e-01
 1.666666666666667e-01 -1.666666666666665e-01 -3.333333333333333e-01
 1.666666666666667e-01 -1.666666666666665e-01 -3.333333333333333e-01
 1.666666666666667e-01 -1.666666666666665e-01 -3.333333333333333e-01
 1.666666666666667e-01 -1.666666666666665e-01 -3.333333333333333e-01
 1.666666666666667e-01 -1.666666666666665e-01 -3.333333333333333e-01
 1.666666666666667e-01 -1.666666666666665e-01 -3.333333333333333e-01
 1.666666666666667e-01 -1.666666666666665e-01 -3.333333333333333e-01
 1.666666666666667e-01 -1.666666666666665e-01 -3.333333333333333e-01
 1.666666666666667e-01 -1.666666666666665e-01 -3.333333333333333e-01
 1.666666666666667e-01 -1.666666666666665e-01 -3.333333333333333e-01
 1.666666666666667e-01 -1.666666666666665e-01 -3.333333333333333e-01
 1.666666666666667e-01 -1.666666666666665e-01 -3.333333333333333e-01
 1.666666666666667e-01 -1.666666666666665e-01 -3.333333333333333e-01
 1.666666666666667e-01 -1.666666666666665e-01 -3.333333333333333e-01
 1.666666666666667e-01 -1.666666666666665e-01 -3.333333333333333e-01
 1.666666666666667e-01 -1.666666666666665e-01 -3.333333333333333e-01
 1.666666666666667e-01 -1.666666666666665e-01 -3.333333333333333e-01
 1.666666666666667e-01 -1.666666666666665e-01 -3.333333333333333e-01
 1.666666666666667e-01 -1.666666666666665e-01 -3.333333333333333e-01
 1.666666666666667e-01 -1.666666666666665e-01 -3.333333333333333e-01
 1.666666666666667e-01 -1.666666666666665e-01 -3.333333333333333e-01
 1.666666666666667e-01 -1.666666666666665e-01 -3.333333333333333e-01
 1.666666666666667e-01 -1.666666666666665e-01 -3.333333333333333e-01
 1.666666666666667e-01 -1.666666666666665e-01 -3.333333333333333e-01
 1.666666666666667e-01 -1.666666666666665e-01 -3.333333333333333e-01
 1.666666666666667e-01 -1.666666666666665e-01 -3.333333333333333e-01
 1.666666666666667e-01 -1.666666666666665e-01 -3.333333333333333e-01
 1.666666666666667e-01 -1.666666666666665e-01 -3.333333333333333e-01
 1.666666666666667e-01 -1.666666666666665e-01 -3.333333333333333e-01
 1.666666666666667e-01 -1.666666666666665e-01 -3.333333333333333e-01
 1.666666666666667e-01 -1.666666666666665e-01 -3.333333333333333e-01
 1.666666666666667e-01 -1.666666666666665e-01 -3.333333333333333e-01
 1.666666666666667e-01 -1.666666666666665e-01 -3.333333333333333e-01
 1.666666666666667e-01 -1.666666666666665e-01 -3.333333333333333e-01
 1.666666666666667e-01 -1.666666666666665e-01 -3.333333333333333e-01
 1.666666666666667e-01 -1.666666666666665e-01 -3.333333333333333e-01
 1.666666666666667e-01 -1.666666666666665e-01 -3.333333333333333e-01
 1.666666666666667e-01 -1.666666666666665e-01 -3.333333333333333e-01
 1.666666666666667e-01 -1.666666666666665e-01 -3.333333333333333e-01
 1.666666666666667e-01 -1.666666666666665e-01 -3.333333333333333e-01
 1.666666666666667e-01 -1.666666666666665e-01 -3.333333333333333e-01
 1.666666666666667e-01 -1.666666666666665e-01 -3.333333333333333e-01
 1.666666666666667e-01 -1.666666666666665e-01 -3.333333333333333e-01
 1.666666666666667e-01 -1.666666666666665e-01 -3.333333333333333e-01
 1.666666666666667e-01 -1.666666666666665e-01 -3.333333333333333e-01
 1.666666666666667e-01 -1.666666666666665e-01 -3.333333333333333e-01
 1.666666666666667e-01 -1.666666666666665e-01 -3.333333333333333e-01
 1.666666666666667e-01 -1.666666666666665e-01 -3.333333333333333e-01
 1.666666666666667e-01 -1.666666666666665e-01 -3.333333333333333e-01
 1.666666666666667e-01 -1.666666666666665e-01 -3.333333333333333e-01
 1.666666666666667e-01 -1.666666666666665e-01 -3.333333333333333e-01
 1.666666666666667e-01 -1.666666666666665e-01 -3.333333333333333e-01
 1.666666666666667e-01 -1.666666666666665e-01 -3.333333333333333e-01
 1.666666666666667e-01 -1.666666666666665e-01 -3.333333333333333e-01
 1.666666666666667e-01 -1.666666666666665e-01 -3.333333333333333e-01
 1.666666666666667e-01 -1.666666666666665e-01 -3.333333333333333e-01
 1.666666666666667e-01 -1.666666666666665e-01 -3.333333333333333e-01
 1.666666666666667e-01 -1.666666666666665e-01 -3.333333333333333e-01
 1.666666666666667e-01 -1.666666666666665e-01 -3.333333333333333e-01
 1.666666666666667e-01 -1.666666666666665e-01 -3.333333333333333e-01
 1.666666666666667e-01 -1.666666666666665e-01 -3.333333333333333e-01
 1.666666666666667e-01 -1.666666666666665e-01 -3.333333333333333e-01
 1.666666666666667e-01 -1.666666666666665e-01 -3.333333333333333e-01
 1.666666666666667e-01 -1.666666666666665e-01 -3.333333333333333e-01
 1.666666666666667e-01 -1.666666666666665e-01 -3.333333333333333e-01
 1.666666666666667e-01 -1.666666666666665e-01 -3.333333333333333e-01
 1.666666666666667e-01 -1.666666666666665e-01 -3.333333333333333e-01
 1.666666666666667e-01 -1.666666666666665e-01 -3.333333333333333e-01
 1.666666666666667e-01 -1.666666666666665e-01 -3.333333333333333e-01
 1.666666666666667e-01 -1.666666666666665e-01 -3.333333333333333e-01
 1.666666666666667e-01 -1.666666666666665e-01 -3.333333333333333e-01
 1.666666666666667e-01 -1.666666666666665e-01 -3.333333333333333e-01
 1.666666666666667e-01 -1.666666666666665e-01 -3.333333333333333e-01
 1.666666666666667e-01 -1.666666666666665e-01 -3.333333333333333e-01
 1.666666666666667e-01 -1.666666666666665e-01 -3.333333333333333e-01
 1.666666666666667e-01 -1.666666666666665e-01 -3.333333333333333e-01
 1.666666666666667e-01 -1.666666666666665e-01 -3.333333333333333e-01
 1.666666666666667e-01 -1.666666666666665e-01 -3.333333333333333e-01
 1.666666666666667e-01 -1.666666666666665e-01 -3.333333333333333e-01
 1.666666666666667e-01 -1.666666666666665e-01 -3.333333333333333e-01
 1.666666666666667e-01 -1.666666666666665e-01 -3.333333333333333e-01
 1.666666666666667e-01 -1.666666666666665e-01 -3.333333333333333e-01
 1.666666666666667e-01 -1.666666666666665e-01 -3.333333333333333e-01
 1.666666666666667e-01 -1.666666666666665e-01 -3.333333333333333e-01
 1.666666666666667e-01 -1.666666666666665e-01 -3.333333333333333e-01
 1.666666666666667e-01 -1.666666666666665e-01 -3.333333333333333e-01
 1.666666666666667e-01 -1.666666666666665e-01 -3.333333333333333e-01
 1.666666666666667e-01 -1.666666666666665e-01 -3.333333333333333e-01
 1.666666666666667e-01 -1.666666666666665e-01 -3.333333333333333e-01
 1.666666666666667e-01 -1.666666666666665e-01 -3.333333333333333e-01
 1.666666666666667e-01 -1.666666666666665e-01 -3.333333333333333e-01
 1.666666666666667e-01 -1.666666666666665e-01 -3.333333333333333e-01
 1.666666666666667e-01 -1.666666666666665e-01 -3.333333333333333e-01
 1.666666666666667e-01 -1.666666666666665e-01 -3.333333333333333e-01
 1.666666666666667e-01 -1.666666666666665e-01 -3.333333333333333e-01
 1.666666666666667e-01 -1.666666666666665e-01 -3.333333333333333e-01
 1.666666666666667e-01 -1.666666666666665e-01 -3.333333333333333e-01
 1.666666666666667e-01 -1.666666666666665e-01 -3.333333333333333e-01
 1.666666666666667e-01 -1.666666666666665e-01 -3.333333333333333e-01
 1.666666666666667e-01 -1.666666666666665e-01 -3.333333333333333e-01
 1.666666666666667e-01 -1.666666666666665e-01 -3.333333333333333e-01
 1.666666666666667e-01 -1.666666666666665e-01 -3.333333333333333e-01
 1.666666666666667e-01 -1.666666666666665e-01 -3.333333333333333e-01
 1.666666666666667e-01 -1.666666666666665e-01 -3.333333333333333e-01
 1.666666666666667e-01 -1.666666666666665e-01 -3.333333333333333e-01
 1.666666666666667e-01 -1.666666666666665e-01 -3.333333333333333e-01
 1.666666666666667e-01 -1.666666666666665e-01 -3.333333333333333e-01
 1.666666666666667e-01 -1.666666666666665e-01 -3.333333333333333e-01
 1.666666666666667e-01 -1.666666666666665e-01 -3.333333333333333e-01
 1.666666666666667e-01 -1.666666666666665e-01 -3.333333333333333e-01
 1.666666666666667e-01 -1.666666666666665e-01 -3.333333333333333e-01
 1.666666666666667e-01 -1.666666666666665e-01 -3.333333333333333e-01
 1.666666666666667e-01 -1.666666666666665e-01 -3.333333333333333e-01
 1.666666666666667e-01 -1.666666666666665e-01 -3.333333333333333e-01
 1.666666666666667e-01 -1.666666666666665e-01 -3.333333333333333e-01
 1.666666666666667e-01 -1.666666666666665e-01 -3.333333333333333e-01
 1.666666666666667e-01 -1.666666666666665e-01 -3.333333333333333e-01
 1.666666666666667e-01 -1.666666666666665e-01 -3.333333333333333e-01
 1.666666666666667e-01 -1.666666666666665e-01 -3.333333333333333e-01
 1.666666666666667e-01 -1.666666666666665e-01 -3.333333333333333e-01
 1.666666666666667e-01 -1.666666666666665e-01 -3.333333333333333e-01
 1.666666666666667e-01 -1.666666666666665e-01 -3.333333333333333e-01
 1.666666666666667e-01 -1.666666666666665e-01 -3.333333333333333e-01
 1.666666666666667e-01 -1.666666666666665e-01 -3.333333333333333e-01
 1.666666666666667e-01 -1.666666666666665e-01 -3.333333333333333e-01
 1.666666666666667e-01 -1.666666666666665e-01 -3.333333333333333e-01
 1.666666666666667e-01 -1.666666666666665e-01 -3.333333333333333e-01
 1.666666666666667e-01 -1.666666666666665e-01 -3.333333333333333e-01
 1.666666666666667e-01 -1.666666666666665e-01 -3.333333333333333e-01
 1.666666666666667e-01 -1.666666666666665e-01 -3.333333333333333e-01
 1.666666666666667e-01 -1.666666666666665e-01 -3.333333333333333e-01
 1.666666666666667e-01 -1.666666666666665e-01 -3.333333333333333e-01
 1.666666666666667e-01 -1.666666666666665e-01 -3.333333333333333e-01
 1.666666666666667e-01 -1.666666666666665e-01 -3.333333333333333e-01
 1.666666666666667e-01 -1.666666666666665e-01 -3.333333333333333e-01
 1.666666666666667e-01 -1.666666666666665e-01 -3.333333333333333e-01
 1.666666666666667e-01 -1.666666666666665e-01 -3.333333333333333e-01
 1.666666666666667e-01 -1.666666666666665e-01 -3.333333333333333e-01
 1.666666666666667e-01 -1.666666666666665e-01 -3.333333333333333e-01
 1.666666666666667e-01 -1.666666666666665e-01 -3.333333333333333e-01
 1.666666666666667e-01 -1.666666666666665e-01 -3.333333333333333e-01
 1.666666666666667e-01 -1.666666666666665e-01 -3.333333333333333e-01
 1.666666666666667e-01 -1.666666666666665e-01 -3.333333333333333e-01
 1.666666666666667e-01 -1.666666666666665e-01 -3.333333333333333e-01
 1.666666666666667e-01 -1.666666666666665e-01 -3.333333333333333e-01
 1.666666666666667e-01 -1.666666666666665e-01 -3.333333333333333e-01
 1.666666666666667e-01 -1.666666666666665e-01 -3.333333333333333e-01
 1.666666666666667e-01 -1.666666666666665e-01 -3.333333333333333e-01
 1.666666666666667e-01 -1.666666666666665e-01 -3.333333333333333e-01
 1.666666666666667e-01 -1.666666666666665e-01 -3.333333333333333e-01
 1.666666666666667e-01 -1.666666666666665e-01 -3.333333333333333e-01
 1.666666666666667e-01 -1.666666666666665e-01 -3.333333333333333e-01
 1.666666666666667e-01 -1.666666666666665e-01 -3.333333333333333e-01
 1.666666666666667e-01 -1.666666666666665e-01 -3.333333333333333e-01
 1.666666666666667e-01 -1.666666666666665e-01 -3.333333333333333e-01
 1.666666666666667e-01 -1.666666666666665e-01 -3.333333333333333e-01
 1.666666666666667e-01 -1.666666666666665e-01 -3.333333333333333e-01
 1.666666666666667e-01 -1.666666666666665e-01 -3.333333333333333e-01
 1.666666666666667e-01 -1.666666666666665e-01 -3.333333333333333e-01
 1.666666666666667e-01 -1.666666666666665e-01 -3.333333333333333e-01
 1.666666666666667e-01 -1.666666666666665e-01 -3.333333333333333e-01
 1.666666666666667e-01 -1.666666666666665e-01 -3.333333333333333e-01
 1.666666666666667e-01 -1.666666666666665e-01 -3.333333333333333e-01
 1.666666666666667e-01 -1.666666666666665e-01 -3.333333333333333e-01
 1.666666666666667e-01 -1.666666666666665e-01 -3.333333333333333e-01
 1.666666666666667e-01 -1.666666666666665e-01 -3.333333333333333e-01
 1.666666666666667e-01 -1.666666666666665e-01 -3.333333333333333e-01
 1.666666666666667e-01 -1.666666666666665e-01 -3.333333333333333e-01
 1.666666666666667e-01 -1.666666666666665e-01 -3.333333333333333e-01
 1.666666666666667e-01 -1.666666666666665e-01 -3.333333333333333e-01
 1.666666666666667e-01 -1.666666666666665e-01 -3.333333333333333e-01
 1.666666666666667e-01 -1.666666666666665e-01 -3.333333333333333e-01
 1.666666666666667e-01 -1.666666666666665e-01 -3.333333333333333e-01
 1.666666666666667e-01 -1.666666666666665e-01 -3.333333333333333e-01
 1.666666666666667e-01 -1.666666666666665e-01 -3.333333333333333e-01
-1.666666666666667e-01  1.666666666666665e-01  3.333333333333333e-01
 1.666666666666667e-01 -1.666666666666665e-01 -3.333333333333333e-01
 1.666666666666667e-01 -1.666666666666665e-01 -3.333333333333333e-01
 1.666666666666667e-01 -1.666666666666665e-01 -3.333333333333333e-01
 1.666666666666667e-01 -1.666666666666665e-01 -3.333333333333333e-01
 1.666666666666667e-01 -1.666666666666665e-01 -3.333333333333333e-01
 1.666666666666667e-01 -1.666666666666665e-01 -3.333333333333333e-01
 1.666666666666667e-01 -1.666666666666665e-01 -3.333333333333333e-01
 1.666666666666667e-01 -1.666666666666665e-01 -3.333333333333333e-01
 1.666666666666667e-01 -1.666666666666665e-01 -3.333333333333333e-01
 1.666666666666667e-01 -1.666666666666665e-01 -3.333333333333333e-01
 1.666666666666667e-01 -1.666666666666665e-01 -3.333333333333333e-01
 1.666666666666667e-01 -1.666666666666665e-01 -3.333333333333333e-01
 1.666666666666667e-01 -1.666666666666665e-01 -3.333333333333333e-01
 1.666666666666667e-01 -1.666666666666665e-01 -3.333333333333333e-01
 1.666666666666667e-01 -1.666666666666665e-01 -3.333333333333333e-01
 1.666666666666667e-01 -1.666666666666665e-01 -3.333333333333333e-01
 1.666666666666667e-01 -1.666666666666665e-01 -3.333333333333333e-01
 1.666666666666667e-01 -1.666666666666665e-01 -3.333333333333333e-01
 1.666666666666667e-01 -1.666666666666665e-01 -3.333333333333333e-01
 1.666666666666667e-01 -1.666666666666665e-01 -3.333333333333333e-01
 1.666666666666667e-01 -1.666666666666665e-01 -3.333333333333333e-01
 1.666666666666667e-01 -1.666666666666665e-01 -3.333333333333333e-01
 1.666666666666667e-01 -1.666666666666665e-01 -3.333333333333333e-01
 1.666666666666667e-01 -1.666666666666665e-01 -3.333333333333333e-01
 1.666666666666667e-01 -1.666666666666665e-01 -3.333333333333333e-01
 1.666666666666667e-01 -1.666666666666665e-01 -3.333333333333333e-01
 1.666666666666667e-01 -1.666666666666665e-01 -3.333333333333333e-01
 1.666666666666667e-01 -1.666666666666665e-01 -3.333333333333333e-01
 1.666666666666667e-01 -1.666666666666665e-01 -3.333333333333333e-01
 1.666666666666667e-01 -1.666666666666665e-01 -3.333333333333333e-01
 1.666666666666667e-01 -1.666666666666665e-01 -3.333333333333333e-01
 1.666666666666667e-01 -1.666666666666665e-01 -3.333333333333333e-01
 1.666666666666667e-01 -1.666666666666665e-01 -3.333333333333333e-01
 1.666666666666667e-01 -1.666666666666665e-01 -3.333333333333333e-01
 1.666666666666667e-01 -1.666666666666665e-01 -3.333333333333333e-01
 1.666666666666667e-01 -1.666666666666665e-01 -3.333333333333333e-01
 1.666666666666667e-01 -1.666666666666665e-01 -3.333333333333333e-01
 1.666666666666667e-01 -1.666666666666665e-01 -3.333333333333333e-01
 1.666666666666667e-01 -1.666666666666665e-01 -3.333333333333333e-01
 1.666666666666667e-01 -1.666666666666665e-01 -3.333333333333333e-01
 1.666666666666667e-01 -1.666666666666665e-01 -3.333333333333333e-01
 1.666666666666667e-01 -1.666666666666665e-01 -3.333333333333333e-01
 1.666666666666667e-01 -1.666666666666665e-01 -3.333333333333333e-01
 1.666666666666667e-01 -1.666666666666665e-01 -3.333333333333333e-01
 1.666666666666667e-01 -1.666666666666665e-01 -3.333333333333333e-01
 1.666666666666667e-01 -1.666666666666665e-01 -3.333333333333333e-01
 1.666666666666667e-01 -1.666666666666665e-01 -3.333333333333333e-01
 1.666666666666667e-01 -1.666666666666665e-01 -3.333333333333333e-01
 1.666666666666667e-01 -1.666666666666665e-01 -3.333333333333333e-01
 1.666666666666667e-01 -1.666666666666665e-01 -3.333333333333333e-01
 1.666666666666667e-01 -1.666666666666665e-01 -3.333333333333333e-01
 1.666666666666667e-01 -1.666666666666665e-01 -3.333333333333333e-01
 1.666666666666667e-01 -1.666666666666665e-01 -3.333333333333333e-01
 1.666666666666667e-01 -1.666666666666665e-01 -3.333333333333333e-01
 1.666666666666667e-01 -1.666666666666665e-01 -3.333333333333333e-01
 1.666666666666667e-01 -1.666666666666665e-01 -3.333333333333333e-01
 1.666666666666667e-01 -1.666666666666665e-01 -3.333333333333333e-01
 1.666666666666667e-01 -1.666666666666665e-01 -3.333333333333333e-01
 1.666666666666667e-01 -1.666666666666665e-01 -3.333333333333333e-01
 1.666666666666667e-01 -1.666666666666665e-01 -3.333333333333333e-01
 1.666666666666667e-01 -1.666666666666665e-01 -3.333333333333333e-01
 1.666666666666667e-01 -1.666666666666665e-01 -3.333333333333333e-01
 1.666666666666667e-01 -1.666666666666665e-01 -3.333333333333333e-01
 1.666666666666667e-01 -1.666666666666665e-01 -3.333333333333333e-01
 1.666666666666667e-01 -1.666666666666665e-01 -3.333333333333333e-01
 1.666666666666667e-01 -1.666666666666665e-01 -3.333333333333333e-01
 1.666666666666667e-01 -1.666666666666665e-01 -3.333333333333333e-01
 1.666666666666667e-01 -1.666666666666665e-01 -3.333333333333333e-01
 1.666666666666667e-01 -1.666666666666665e-01 -3.333333333333333e-01
 1.666666666666667e-01 -1.666666666666665e-01 -3.333333333333333e-01
 1.666666666666667e-01 -1.666666666666665e-01 -3.333333333333333e-01
 1.666666666666667e-01 -1.666666666666665e-01 -3.333333333333333e-01
 1.666666666666667e-01 -1.666666666666665e-01 -3.333333333333333e-01
 1.666666666666667e-01 -1.666666666666665e-01 -3.333333333333333e-01
 1.666666666666667e-01 -1.666666666666665e-01 -3.333333333333333e-01
 1.666666666666667e-01 -1.666666666666665e-01 -3.333333333333333e-01
 1.666666666666667e-01 -1.666666666666665e-01 -3.333333333333333e-01
 1.666666666666667e-01 -1.666666666666665e-01 -3.333333333333333e-01
 1.666666666666667e-01 -1.666666666666665e-01 -3.333333333333333e-01
 1.666666666666667e-01 -1.666666666666665e-01 -3.333333333333333e-01
 1.666666666666667e-01 -1.666666666666665e-01 -3.333333333333333e-01
 1.666666666666667e-01 -1.666666666666665e-01 -3.333333333333333e-01
 1.666666666666667e-01 -1.666666666666665e-01 -3.333333333333333e-01
 1.666666666666667e-01 -1.666666666666665e-01 -3.333333333333333e-01
 1.666666666666667e-01 -1.666666666666665e-01 -3.333333333333333e-01
 1.666666666666667e-01 -1.666666666666665e-01 -3.333333333333333e-01
 1.666666666666667e-01 -1.666666666666665e-01 -3.333333333333333e-01
 1.666666666666667e-01 -1.666666666666665e-01 -3.333333333333333e-01
 1.666666666666667e-01 -1.666666666666665e-01 -3.333333333333333e-01
 1.666666666666667e-01 -1.666666666666665e-01 -3.333333333333333e-01
 1.666666666666667e-01 -1.666666666666665e-01 -3.333333333333333e-01
 1.666666666666667e-01 -1.666666666666665e-01 -3.333333333333333e-01
 1.666666666666667e-01 -1.666666666666665e-01 -3.333333333333333e-01
 1.666666666666667e-01 -1.666666666666665e-01 -3.333333333333333e-01
 1.666666666666667e-01 -1.666666666666665e-01 -3.333333333333333e-01
 1.666666666666667e-01 -1.666666666666665e-01 -3.333333333333333e-01
 1.666666666666667e-01 -1.666666666666665e-01 -3.333333333333333e-01
 1.666666666666667e-01 -1.666666666666665e-01 -3.333333333333333e-01
 1.666666666666667e-01 -1.666666666666665e-01 -3.333333333333333e-01
 1.666666666666667e-01 -1.666666666666665e-01 -3.333333333333333e-01
 1.666666666666667e-01 -1.666666666666665e-01 -3.333333333333333e-01
 1.666666666666667e-01 -1.666666666666665e-01 -3.333333333333333e-01
 1.666666666666667e-01 -1.666666666666665e-01 -3.333333333333333e-01
 1.666666666666667e-01 -1.666666666666665e-01 -3.333333333333333e-01
 1.666666666666667e-01 -1.666666666666665e-01 -3.333333333333333e-01
 1.666666666666667e-01 -1.666666666666665e-01 -3.333333333333333e-01
 1.666666666666667e-01 -1.666666666666665e-01 -3.333333333333333e-01
 1.666666666666667e-01 -1.666666666666665e-01 -3.333333333333333e-01
 1.666666666666667e-01 -1.666666666666665e-01 -3.333333333333333e-01
 1.666666666666667e-01 -1.666666666666665e-01 -3.333333333333333e-01
 1.666666666666667e-01 -1.666666666666665e-01 -3.333333333333333e-01
 1.666666666666667e-01 -1.666666666666665e-01 -3.333333333333333e-01
 1.666666666666667e-01 -1.666666666666665e-01 -3.333333333333333e-01
 1.666666666666667e-01 -1.666666666666665e-01 -3.333333333333333e-01
 1.666666666666667e-01 -1.666666666666665e-01 -3.333333333333333e-01
 1.666666666666667e-01 -1.666666666666665e-01 -3.333333333333333e-01
 1.666666666666667e-01 -1.666666666666665e-01 -3.333333333333333e-01
 1.666666666666667e-01 -1.666666666666665e-01 -3.333333333333333e-01
 1.666666666666667e-01 -1.666666666666665e-01 -3.333333333333333e-01
 1.666666666666667e-01 -1.666666666666665e-01 -3.333333333333333e-01
 1.666666666666667e-01 -1.666666666666665e-01 -3.333333333333333e-01
 1.666666666666667e-01 -1.666666666666665e-01 -3.333333333333333e-01
 1.666666666666667e-01 -1.666666666666665e-01 -3.333333333333333e-01
 1.666666666666667e-01 -1.666666666666665e-01 -3.333333333333333e-01
 1.666666666666667e-01 -1.666666666666665e-01 -3.333333333333333e-01
 1.666666666666667e-01 -1.666666666666665e-01 -3.333333333333333e-01
 1.666666666666667e-01 -1.666666666666665e-01 -3.333333333333333e-01
 1.666666666666667e-01 -1.666666666666665e-01 -3.333333333333333e-01
 1.666666666666667e-01 -1.666666666666665e-01 -3.333333333333333e-01
 1.666666666666667e-01 -1.666666666666665e-01 -3.333333333333333e-01
 1.666666666666667e-01 -1.666666666666665e-01 -3.333333333333333e-01
 1.666666666666667e-01 -1.666666666666665e-01 -3.333333333333333e-01
 1.666666666666667e-01 -1.666666666666665e-01 -3.333333333333333e-01
 1.666666666666667e-01 -1.666666666666665e-01 -3.333333333333333e-01
 1.666666666666667e-01 -1.666666666666665e-01 -3.333333333333333e-01
 1.666666666666667e-01 -1.666666666666665e-01 -3.333333333333333e-01
 1.666666666666667e-01 -1.666666666666665e-01 -3.333333333333333e-01
 1.666666666666667e-01 -1.666666666666665e-01 -3.333333333333333e-01
 1.666666666666667e-01 -1.666666666666665e-01 -3.333333333333333e-01
 1.666666666666667e-01 -1.666666666666665e-01 -3.333333333333333e-01
 1.666666666666667e-01 -1.666666666666665e-01 -3.333333333333333e-01
 1.666666666666667e-01 -1.666666666666665e-01 -3.333333333333333e-01
 1.666666666666667e-01 -1.666666666666665e-01 -3.333333333333333e-01
 1.666666666666667e-01 -1.666666666666665e-01 -3.333333333333333e-01
 1.666666666666667e-01 -1.666666666666665e-01 -3.333333333333333e-01
 1.666666666666667e-01 -1.666666666666665e-01 -3.333333333333333e-01
 1.666666666666667e-01 -1.666666666666665e-01 -3.333333333333333e-01
 1.666666666666667e-01 -1.666666666666665e-01 -3.333333333333333e-01
 1.666666666666667e-01 -1.666666666666665e-01 -3.333333333333333e-01
 1.666666666666667e-01 -1.666666666666665e-01 -3.333333333333333e-01
 1.666666666666667e-01 -1.666666666666665e-01 -3.333333333333333e-01
 1.666666666666667e-01 -1.666666666666665e-01 -3.333333333333333e-01
 1.666666666666667e-01 -1.666666666666665e-01 -3.333333333333333e-01
 1.666666666666667e-01 -1.666666666666665e-01 -3.333333333333333e-01
 1.666666666666667e-01 -1.666666666666665e-01 -3.333333333333333e-01
 1.666666666666667e-01 -1.666666666666665e-01 -3.333333333333333e-01
 1.666666666666667e-01 -1.666666666666665e-01 -3.333333333333333e-01
 1.666666666666667e-01 -1.666666666666665e-01 -3.333333333333333e-01
 1.666666666666667e-01 -1.666666666666665e-01 -3.333333333333333e-01
 1.666666666666667e-01 -1.666666666666665e-01 -3.333333333333333e-01
 1.666666666666667e-01 -1.666666666666665e-01 -3.333333333333333e-01
 1.666666666666667e-01 -1.666666666666665e-01 -3.333333333333333e-01
 1.666666666666667e-01 -1.666666666666665e-01 -3.333333333333333e-01
 1.666666666666667e-01 -1.666666666666665e-01 -3.333333333333333e-01
 1.666666666666667e-01 -1.666666666666665e-01 -3.333333333333333e-01
 1.666666666666667e-01 -1.666666666666665e-01 -3.333333333333333e-01
 1.666666666666667e-01 -1.666666666666665e-01 -3.333333333333333e-01
 1.666666666666667e-01 -1.666666666666665e-01 -3.333333333333333e-01
 1.666666666666667e-01 -1.666666666666665e-01 -3.333333333333333e-01
 1.666666666666667e-01 -1.666666666666665e-01 -3.333333333333333e-01
 1.666666666666667e-01 -1.666666666666665e-01 -3.333333333333333e-01
 1.666666666666667e-01 -1.666666666666665e-01 -3.333333333333333e-01
 1.666666666666667e-01 -1.666666666666665e-01 -3.333333333333333e-01
 1.666666666666667e-01 -1.666666666666665e-01 -3.333333333333333e-01
 1.666666666666667e-01 -1.666666666666665e-01 -3.333333333333333e-01
 1.666666666666667e-01 -1.666666666666665e-01 -3.333333333333333e-01
 1.666666666666667e-01 -1.666666666666665e-01 -3.333333333333333e-01
 1.666666666666667e-01 -1.666666666666665e-01 -3.333333333333333e-01
 1.666666666666667e-01 -1.666666666666665e-01 -3.333333333333333e-01
 1.666666666666667e-01 -1.666666666666665e-01 -3.333333333333333e-01
-1.666666666666667e-01  1.666666666666665e-01  3.333333333333333e-01
 1.666666666666667e-01 -1.666666666666665e-01 -3.333333333333333e-01
-1.666666666666667e-01  1.666666666666665e-01  3.333333333333333e-01
-1.666666666666667e-01  1.666666666666665e-01  3.333333333333333e-01
-1.666666666666667e-01  1.666666666666665e-01  3.333333333333333e-01
-1.666666666666667e-01  1.666666666666665e-01  3.333333333333333e-01
-1.666666666666667e-01  1.666666666666665e-01  3.333333333333333e-01
-1.666666666666667e-01  1.666666666666665e-01  3.333333333333333e-01
-1.666666666666667e-01  1.666666666666665e-01  3.333333333333333e-01
-1.666666666666667e-01  1.666666666666665e-01  3.333333333333333e-01
-1.666666666666667e-01  1.666666666666665e-01  3.333333333333333e-01
-1.666666666666667e-01  1.666666666666665e-01  3.333333333333333e-01
-1.666666666666667e-01  1.666666666666665e-01  3.333333333333333e-01
-1.666666666666667e-01  1.666666666666665e-01  3.333333333333333e-01
-1.666666666666667e-01  1.666666666666665e-01  3.333333333333333e-01
-1.666666666666667e-01  1.666666666666665e-01  3.333333333333333e-01
-1.666666666666667e-01  1.666666666666665e-01  3.333333333333333e-01
-1.666666666666667e-01  1.666666666666665e-01  3.333333333333333e-01
-1.666666666666667e-01  1.666666666666665e-01  3.333333333333333e-01
-1.666666666666667e-01  1.666666666666665e-01  3.333333333333333e-01
-1.666666666666667e-01  1.666666666666665e-01  3.333333333333333e-01
-1.666666666666667e-01  1.666666666666665e-01  3.333333333333333e-01
-1.666666666666667e-01  1.666666666666665e-01  3.333333333333333e-01
-1.666666666666667e-01  1.666666666666665e-01  3.333333333333333e-01
-1.666666666666667e-01  1.666666666666665e-01  3.333333333333333e-01
-1.666666666666667e-01  1.666666666666665e-01  3.333333333333333e-01
-1.666666666666667e-01  1.666666666666665e-01  3.333333333333333e-01
-1.666666666666667e-01  1.666666666666665e-01  3.333333333333333e-01
-1.666666666666667e-01  1.666666666666665e-01  3.333333333333333e-01
-1.666666666666667e-01  1.666666666666665e-01  3.333333333333333e-01
-1.666666666666667e-01  1.666666666666665e-01  3.333333333333333e-01
-1.666666666666667e-01  1.666666666666665e-01  3.333333333333333e-01
-1.666666666666667e-01  1.666666666666665e-01  3.333333333333333e-01
-1.666666666666667e-01  1.666666666666665e-01  3.333333333333333e-01
-1.666666666666667e-01  1.666666666666665e-01  3.333333333333333e-01
-1.666666666666667e-01  1.666666666666665e-01  3.333333333333333e-01
-1.666666666666667e-01  1.666666666666665e-01  3.333333333333333e-01
-1.666666666666667e-01  1.666666666666665e-01  3.333333333333333e-01
-1.666666666666667e-01  1.666666666666665e-01  3.333333333333333e-01
-1.666666666666667e-01  1.666666666666665e-01  3.333333333333333e-01
-1.666666666666667e-01  1.666666666666665e-01  3.333333333333333e-01
-1.666666666666667e-01  1.666666666666665e-01  3.333333333333333e-01
-1.666666666666667e-01  1.666666666666665e-01  3.333333333333333e-01
-1.666666666666667e-01  1.666666666666665e-01  3.333333333333333e-01
-1.666666666666667e-01  1.666666666666665e-01  3.333333333333333e-01
-1.666666666666667e-01  1.666666666666665e-01  3.333333333333333e-01
-1.666666666666667e-01  1.666666666666665e-01  3.333333333333333e-01
-1.666666666666667e-01  1.666666666666665e-01  3.333333333333333e-01
-1.666666666666667e-01  1.666666666666665e-01  3.333333333333333e-01
-1.666666666666667e-01  1.666666666666665e-01  3.333333333333333e-01
-1.666666666666667e-01  1.666666666666665e-01  3.333333333333333e-01
-1.666666666666667e-01  1.666666666666665e-01  3.333333333333333e-01
-1.666666666666667e-01  1.666666666666665e-01  3.333333333333333e-01
-1.666666666666667e-01  1.666666666666665e-01  3.333333333333333e-01
-1.666666666666667e-01  1.666666666666665e-01  3.333333333333333e-01
-1.666666666666667e-01  1.666666666666665e-01  3.333333333333333e-01
-1.666666666666667e-01  1.666666666666665e-01  3.333333333333333e-01
-1.666666666666667e-01  1.666666666666665e-01  3.333333333333333e-01
-1.666666666666667e-01  1.666666666666665e-01  3.333333333333333e-01
-1.666666666666667e-01  1.666666666666665e-01  3.333333333333333e-01
-1.666666666666667e-01  1.666666666666665e-01  3.333333333333333e-01
-1.666666666666667e-01  1.666666666666665e-01  3.333333333333333e-01
-1.666666666666667e-01  1.666666666666665e-01  3.333333333333333e-01
-1.666666666666667e-01  1.666666666666665e-01  3.333333333333333e-01
-1.666666666666667e-01  1.666666666666665e-01  3.333333333333333e-01
-1.666666666666667e-01  1.666666666666665e-01  3.333333333333333e-01
-1.666666666666667e-01  1.666666666666665e-01  3.333333333333333e-01
-1.666666666666667e-01  1.666666666666665e-01  3.333333333333333e-01
-1.666666666666667e-01  1.666666666666665e-01  3.333333333333333e-01
-1.666666666666667e-01  1.666666666666665e-01  3.333333333333333e-01
-1.666666666666667e-01  1.666666666666665e-01  3.333333333333333e-01
-1.666666666666667e-01  1.666666666666665e-01  3.333333333333333e-01
-1.666666666666667e-01  1.666666666666665e-01  3.333333333333333e-01
-1.666666666666667e-01  1.666666666666665e-01  3.333333333333333e-01
-1.666666666666667e-01  1.666666666666665e-01  3.333333333333333e-01
-1.666666666666667e-01  1.666666666666665e-01  3.333333333333333e-01
-1.666666666666667e-01  1.666666666666665e-01  3.333333333333333e-01
-1.666666666666667e-01  1.666666666666665e-01  3.333333333333333e-01
-1.666666666666667e-01  1.666666666666665e-01  3.333333333333333e-01
-1.666666666666667e-01  1.666666666666665e-01  3.333333333333333e-01
-1.666666666666667e-01  1.666666666666665e-01  3.333333333333333e-01
-1.666666666666667e-01  1.666666666666665e-01  3.333333333333333e-01
-1.666666666666667e-01  1.666666666666665e-01  3.333333333333333e-01
-1.666666666666667e-01  1.666666666666665e-01  3.333333333333333e-01
-1.666666666666667e-01  1.666666666666665e-01  3.333333333333333e-01
-1.666666666666667e-01  1.666666666666665e-01  3.333333333333333e-01
-1.666666666666667e-01  1.666666666666665e-01  3.333333333333333e-01
-1.666666666666667e-01  1.666666666666665e-01  3.333333333333333e-01
-1.666666666666667e-01  1.666666666666665e-01  3.333333333333333e-01
-1.666666666666667e-01  1.666666666666665e-01  3.333333333333333e-01
-1.666666666666667e-01  1.666666666666665e-01  3.333333333333333e-01
-1.666666666666667e-01  1.666666666666665e-01  3.333333333333333e-01
-1.666666666666667e-01  1.666666666666665e-01  3.333333333333333e-01
-1.666666666666667e-01  1.666666666666665e-01  3.333333333333333e-01
-1.666666666666667e-01  1.666666666666665e-01  3.333333333333333e-01
-1.666666666666667e-01  1.666666666666665e-01  3.333333333333333e-01
-1.666666666666667e-01  1.666666666666665e-01  3.333333333333333e-01
-1.666666666666667e-01  1.666666666666665e-01  3.333333333333333e-01
-1.666666666666667e-01  1.666666666666665e-01  3.333333333333333e-01
-1.666666666666667e-01  1.666666666666665e-01  3.333333333333333e-01
-1.666666666666667e-01  1.666666666666665e-01  3.333333333333333e-01
-1.666666666666667e-01  1.666666666666665e-01  3.333333333333333e-01
-1.666666666666667e-01  1.666666666666665e-01  3.333333333333333e-01
-1.666666666666667e-01  1.666666666666665e-01  3.333333333333333e-01
-1.666666666666667e-01  1.666666666666665e-01  3.333333333333333e-01
-1.666666666666667e-01  1.666666666666665e-01  3.333333333333333e-01
-1.666666666666667e-01  1.666666666666665e-01  3.333333333333333e-01
-1.666666666666667e-01  1.666666666666665e-01  3.333333333333333e-01
-1.666666666666667e-01  1.666666666666665e-01  3.333333333333333e-01
-1.666666666666667e-01  1.666666666666665e-01  3.333333333333333e-01
-1.666666666666667e-01  1.666666666666665e-01  3.333333333333333e-01
-1.666666666666667e-01  1.666666666666665e-01  3.333333333333333e-01
-1.666666666666667e-01  1.666666666666665e-01  3.333333333333333e-01
-1.666666666666667e-01  1.666666666666665e-01  3.333333333333333e-01
-1.666666666666667e-01  1.666666666666665e-01  3.333333333333333e-01
-1.666666666666667e-01  1.666666666666665e-01  3.333333333333333e-01
-1.666666666666667e-01  1.666666666666665e-01  3.333333333333333e-01
-1.666666666666667e-01  1.666666666666665e-01  3.333333333333333e-01
-1.666666666666667e-01  1.666666666666665e-01  3.333333333333333e-01
-1.666666666666667e-01  1.666666666666665e-01  3.333333333333333e-01
-1.666666666666667e-01  1.666666666666665e-01  3.333333333333333e-01
-1.666666666666667e-01  1.666666666666665e-01  3.333333333333333e-01
-1.666666666666667e-01  1.666666666666665e-01  3.333333333333333e-01
-1.666666666666667e-01  1.666666666666665e-01  3.333333333333333e-01
-1.666666666666667e-01  1.666666666666665e-01  3.333333333333333e-01
-1.666666666666667e-01  1.666666666666665e-01  3.333333333333333e-01
-1.666666666666667e-01  1.666666666666665e-01  3.333333333333333e-01
-1.666666666666667e-01  1.666666666666665e-01  3.333333333333333e-01
-1.666666666666667e-01  1.666666666666665e-01  3.333333333333333e-01
-1.666666666666667e-01  1.666666666666665e-01  3.333333333333333e-01
-1.666666666666667e-01  1.666666666666665e-01  3.333333333333333e-01
-1.666666666666667e-01  1.666666666666665e-01  3.333333333333333e-01
-1.666666666666667e-01  1.666666666666665e-01  3.333333333333333e-01
-1.666666666666667e-01  1.666666666666665e-01  3.333333333333333e-01
-1.666666666666667e-01  1.666666666666665e-01  3.333333333333333e-01
-1.666666666666667e-01  1.666666666666665e-01  3.333333333333333e-01
-1.666666666666667e-01  1.666666666666665e-01  3.333333333333333e-01
-1.666666666666667e-01  1.666666666666665e-01  3.333333333333333e-01
-1.666666666666667e-01  1.666666666666665e-01  3.333333333333333e-01
-1.666666666666667e-01  1.666666666666665e-01  3.333333333333333e-01
-1.666666666666667e-01  1.666666666666665e-01  3.333333333333333e-01
-1.666666666666667e-01  1.666666666666665e-01  3.333333333333333e-01
-1.666666666666667e-01  1.666666666666665e-01  3.333333333333333e-01
-1.666666666666667e-01  1.666666666666665e-01  3.333333333333333e-01
-1.666666666666667e-01  1.666666666666665e-01  3.333333333333333e-01
-1.666666666666667e-01  1.666666666666665e-01  3.333333333333333e-01
-1.666666666666667e-01  1.666666666666665e-01  3.333333333333333e-01
-1.666666666666667e-01  1.666666666666665e-01  3.333333333333333e-01
-1.666666666666667e-01  1.666666666666665e-01  3.333333333333333e-01
-1.666666666666667e-01  1.666666666666665e-01  3.333333333333333e-01
-1.666666666666667e-01  1.666666666666665e-01  3.333333333333333e-01
-1.666666666666667e-01  1.666666666666665e-01  3.333333333333333e-01
-1.666666666666667e-01  1.666666666666665e-01  3.333333333333333e-01
 1.666666666666667e-01 -1.666666666666665e-01 -3.333333333333333e-01
-1.666666666666667e-01  1.666666666666665e-01  3.333333333333333e-01
-1.666666666666667e-01  1.666666666666665e-01  3.333333333333333e-01
-1.666666666666667e-01  1.666666666666665e-01  3.333333333333333e-01
-1.666666666666667e-01  1.666666666666665e-01  3.333333333333333e-01
-1.666666666666667e-01  1.666666666666665e-01  3.333333333333333e-01
-1.666666666666667e-01  1.666666666666665e-01  3.333333333333333e-01
-1.666666666666667e-01  1.666666666666665e-01  3.333333333333333e-01
-1.666666666666667e-01  1.666666666666665e-01  3.333333333333333e-01
-1.666666666666667e-01  1.666666666666665e-01  3.333333333333333e-01
-1.666666666666667e-01  1.666666666666665e-01  3.333333333333333e-01
-1.666666666666667e-01  1.666666666666665e-01  3.333333333333333e-01
-1.666666666666667e-01  1.666666666666665e-01  3.333333333333333e-01
-1.666666666666667e-01  1.666666666666665e-01  3.333333333333333e-01
-1.666666666666667e-01  1.666666666666665e-01  3.333333333333333e-01
-1.666666666666667e-01  1.666666666666665e-01  3.333333333333333e-01
-1.666666666666667e-01  1.666666666666665e-01  3.333333333333333e-01
-1.666666666666667e-01  1.666666666666665e-01  3.333333333333333e-01
-1.666666666666667e-01  1.666666666666665e-01  3.333333333333333e-01
-1.666666666666667e-01  1.666666666666665e-01  3.333333333333333e-01
-1.666666666666667e-01  1.666666666666665e-01  3.333333333333333e-01
-1.666666666666667e-01  1.666666666666665e-01  3.333333333333333e-01
-1.666666666666667e-01  1.666666666666665e-01  3.333333333333333e-01
-1.666666666666667e-01  1.666666666666665e-01  3.333333333333333e-01
-1.666666666666667e-01  1.666666666666665e-01  3.333333333333333e-01
-1.666666666666667e-01  1.666666666666665e-01  3.333333333333333e-01
-1.666666666666667e-01  1.666666666666665e-01  3.333333333333333e-01
-1.666666666666667e-01  1.666666666666665e-01  3.333333333333333e-01
-1.666666666666667e-01  1.666666666666665e-01  3.333333333333333e-01
-1.666666666666667e-01  1.666666666666665e-01  3.333333333333333e-01
-1.666666666666667e-01  1.666666666666665e-01  3.333333333333333e-01
-1.666666666666667e-01  1.666666666666665e-01  3.333333333333333e-01
-1.666666666666667e-01  1.666666666666665e-01  3.333333333333333e-01
-1.666666666666667e-01  1.666666666666665e-01  3.333333333333333e-01
-1.666666666666667e-01  1.666666666666665e-01  3.333333333333333e-01
-1.666666666666667e-01  1.666666666666665e-01  3.333333333333333e-01
-1.666666666666667e-01  1.666666666666665e-01  3.333333333333333e-01
-1.666666666666667e-01  1.666666666666665e-01  3.333333333333333e-01
-1.666666666666667e-01  1.666666666666665e-01  3.333333333333333e-01
-1.666666666666667e-01  1.666666666666665e-01  3.333333333333333e-01
-1.666666666666667e-01  1.666666666666665e-01  3.333333333333333e-01
-1.666666666666667e-01  1.666666666666665e-01  3.333333333333333e-01
-1.666666666666667e-01  1.666666666666665e-01  3.333333333333333e-01
-1.666666666666667e-01  1.666666666666665e-01  3.333333333333333e-01
-1.666666666666667e-01  1.666666666666665e-01  3.333333333333333e-01
-1.666666666666667e-01  1.666666666666665e-01  3.333333333333333e-01
-1.666666666666667e-01  1.666666666666665e-01  3.333333333333333e-01
-1.666666666666667e-01  1.666666666666665e-01  3.333333333333333e-01
-1.666666666666667e-01  1.666666666666665e-01  3.333333333333333e-01
-1.666666666666667e-01  1.666666666666665e-01  3.333333333333333e-01
-1.666666666666667e-01  1.666666666666665e-01  3.333333333333333e-01
-1.666666666666667e-01  1.666666666666665e-01  3.333333333333333e-01
-1.666666666666667e-01  1.666666666666665e-01  3.333333333333333e-01
-1.666666666666667e-01  1.666666666666665e-01  3.333333333333333e-01
-1.666666666666667e-01  1.666666666666665e-01  3.333333333333333e-01
-1.666666666666667e-01  1.666666666666665e-01  3.333333333333333e-01
-1.666666666666667e-01  1.666666666666665e-01  3.333333333333333e-01
-1.666666666666667e-01  1.666666666666665e-01  3.333333333333333e-01
-1.666666666666667e-01  1.666666666666665e-01  3.333333333333333e-01
-1.666666666666667e-01  1.666666666666665e-01  3.333333333333333e-01
-1.666666666666667e-01  1.666666666666665e-01  3.333333333333333e-01
-1.666666666666667e-01  1.666666666666665e-01  3.333333333333333e-01
-1.666666666666667e-01  1.666666666666665e-01  3.333333333333333e-01
-1.666666666666667e-01  1.666666666666665e-01  3.333333333333333e-01
-1.666666666666667e-01  1.666666666666665e-01  3.333333333333333e-01
-1.666666666666667e-01  1.666666666666665e-01  3.333333333333333e-01
-1.666666666666667e-01  1.666666666666665e-01  3.333333333333333e-01
-1.666666666666667e-01  1.666666666666665e-01  3.333333333333333e-01
-1.666666666666667e-01  1.666666666666665e-01  3.333333333333333e-01
-1.666666666666667e-01  1.666666666666665e-01  3.333333333333333e-01
-1.666666666666667e-01  1.666666666666665e-01  3.333333333333333e-01
-1.666666666666667e-01  1.666666666666665e-01  3.333333333333333e-01
-1.666666666666667e-01  1.666666666666665e-01  3.333333333333333e-01
-1.666666666666667e-01  1.666666666666665e-01  3.333333333333333e-01
-1.666666666666667e-01  1.666666666666665e-01  3.333333333333333e-01
-1.666666666666667e-01  1.666666666666665e-01  3.333333333333333e-01
-1.666666666666667e-01  1.666666666666665e-01  3.333333333333333e-01
-1.666666666666667e-01  1.666666666666665e-01  3.333333333333333e-01
-1.666666666666667e-01  1.666666666666665e-01  3.333333333333333e-01
-1.666666666666667e-01  1.666666666666665e-01  3.333333333333333e-01
-1.666666666666667e-01  1.666666666666665e-01  3.333333333333333e-01
-1.666666666666667e-01  1.666666666666665e-01  3.333333333333333e-01
-1.666666666666667e-01  1.666666666666665e-01  3.333333333333333e-01
-1.666666666666667e-01  1.666666666666665e-01  3.333333333333333e-01
-1.666666666666667e-01  1.666666666666665e-01  3.333333333333333e-01
-1.666666666666667e-01  1.666666666666665e-01  3.333333333333333e-01
-1.666666666666667e-01  1.666666666666665e-01  3.333333333333333e-01
-1.666666666666667e-01  1.666666666666665e-01  3.333333333333333e-01
-1.666666666666667e-01  1.666666666666665e-01  3.333333333333333e-01
-1.666666666666667e-01  1.666666666666665e-01  3.333333333333333e-01
-1.666666666666667e-01  1.666666666666665e-01  3.333333333333333e-01
-1.666666666666667e-01  1.666666666666665e-01  3.333333333333333e-01
-1.666666666666667e-01  1.666666666666665e-01  3.333333333333333e-01
-1.666666666666667e-01  1.666666666666665e-01  3.333333333333333e-01
-1.666666666666667e-01  1.666666666666665e-01  3.333333333333333e-01
-1.666666666666667e-01  1.666666666666665e-01  3.333333333333333e-01
-1.666666666666667e-01  1.666666666666665e-01  3.333333333333333e-01
-1.666666666666667e-01  1.666666666666665e-01  3.333333333333333e-01
-1.666666666666667e-01  1.666666666666665e-01  3.333333333333333e-01
-1.666666666666667e-01  1.666666666666665e-01  3.333333333333333e-01
-1.666666666666667e-01  1.666666666666665e-01  3.333333333333333e-01
-1.666666666666667e-01  1.666666666666665e-01  3.333333333333333e-01
-1.666666666666667e-01  1.666666666666665e-01  3.333333333333333e-01
-1.666666666666667e-01  1.666666666666665e-01  3.333333333333333e-01
-1.666666666666667e-01  1.666666666666665e-01  3.333333333333333e-01
-1.666666666666667e-01  1.666666666666665e-01  3.333333333333333e-01
-1.666666666666667e-01  1.666666666666665e-01  3.333333333333333e-01
-1.666666666666667e-01  1.666666666666665e-01  3.333333333333333e-01
-1.666666666666667e-01  1.666666666666665e-01  3.333333333333333e-01
-1.666666666666667e-01  1.666666666666665e-01  3.333333333333333e-01
-1.666666666666667e-01  1.666666666666665e-01  3.333333333333333e-01
-1.666666666666667e-01  1.666666666666665e-01  3.333333333333333e-01
-1.666666666666667e-01  1.666666666666665e-01  3.333333333333333e-01
-1.666666666666667e-01  1.666666666666665e-01  3.333333333333333e-01
-1.666666666666667e-01  1.666666666666665e-01  3.333333333333333e-01
-1.666666666666667e-01  1.666666666666665e-01  3.333333333333333e-01
-1.666666666666667e-01  1.666666666666665e-01  3.333333333333333e-01
-1.666666666666667e-01  1.666666666666665e-01  3.333333333333333e-01
-1.666666666666667e-01  1.666666666666665e-01  3.333333333333333e-01
-1.666666666666667e-01  1.666666666666665e-01  3.333333333333333e-01
-1.666666666666667e-01  1.666666666666665e-01  3.333333333333333e-01
-1.666666666666667e-01  1.666666666666665e-01  3.333333333333333e-01
-1.666666666666667e-01  1.666666666666665e-01  3.333333333333333e-01
-1.666666666666667e-01  1.666666666666665e-01  3.333333333333333e-01
-1.666666666666667e-01  1.666666666666665e-01  3.333333333333333e-01
-1.666666666666667e-01  1.666666666666665e-01  3.333333333333333e-01
-1.666666666666667e-01  1.666666666666665e-01  3.333333333333333e-01
-1.666666666666667e-01  1.666666666666665e-01  3.333333333333333e-01
-1.666666666666667e-01  1.666666666666665e-01  3.333333333333333e-01
-1.666666666666667e-01  1.666666666666665e-01  3.333333333333333e-01
-1.666666666666667e-01  1.666666666666665e-01  3.333333333333333e-01
-1.666666666666667e-01  1.666666666666665e-01  3.333333333333333e-01
-1.666666666666667e-01  1.666666666666665e-01  3.333333333333333e-01
-1.666666666666667e-01  1.666666666666665e-01  3.333333333333333e-01
-1.666666666666667e-01  1.666666666666665e-01  3.333333333333333e-01
-1.666666666666667e-01  1.666666666666665e-01  3.333333333333333e-01
-1.666666666666667e-01  1.666666666666665e-01  3.333333333333333e-01
-1.666666666666667e-01  1.666666666666665e-01  3.333333333333333e-01
-1.666666666666667e-01  1.666666666666665e-01  3.333333333333333e-01
-1.666666666666667e-01  1.666666666666665e-01  3.333333333333333e-01
-1.666666666666667e-01  1.666666666666665e-01  3.333333333333333e-01
-1.666666666666667e-01  1.666666666666665e-01  3.333333333333333e-01
-1.666666666666667e-01  1.666666666666665e-01  3.333333333333333e-01
-1.666666666666667e-01  1.666666666666665e-01  3.333333333333333e-01
-1.666666666666667e-01  1.666666666666665e-01  3.333333333333333e-01
-1.666666666666667e-01  1.666666666666665e-01  3.333333333333333e-01
-1.666666666666667e-01  1.666666666666665e-01  3.333333333333333e-01
-1.666666666666667e-01  1.666666666666665e-01  3.333333333333333e-01
-1.666666666666667e-01  1.666666666666665e-01  3.333333333333333e-01
